p cnf 6886 21718
-1 -2 -3 -12 -13 -22 0
-1 -2 -4 -12 -14 -23 0
-1 -2 -5 -12 -15 -24 0
-1 -2 -6 -12 -16 -25 0
-1 -2 -7 -12 -17 -26 0
-1 -2 -8 -12 -18 -27 0
-1 -2 -9 -12 -19 -28 0
-1 -2 -10 -12 -20 -29 0
-1 -2 -11 -12 -21 -30 0
-1 -3 -4 -13 -14 -31 0
-1 -3 -5 -13 -15 -32 0
-1 -3 -6 -13 -16 -33 0
-1 -3 -7 -13 -17 -34 0
-1 -3 -8 -13 -18 -35 0
-1 -3 -9 -13 -19 -36 0
-1 -3 -10 -13 -20 -37 0
-1 -3 -11 -13 -21 -38 0
-1 -4 -5 -14 -15 -39 0
-1 -4 -6 -14 -16 -40 0
-1 -4 -7 -14 -17 -41 0
-1 -4 -8 -14 -18 -42 0
-1 -4 -9 -14 -19 -43 0
-1 -4 -10 -14 -20 -44 0
-1 -4 -11 -14 -21 -45 0
-1 -5 -6 -15 -16 -46 0
-1 -5 -7 -15 -17 -47 0
-1 -5 -8 -15 -18 -48 0
-1 -5 -9 -15 -19 -49 0
-1 -5 -10 -15 -20 -50 0
-1 -5 -11 -15 -21 -51 0
-1 -6 -7 -16 -17 -52 0
-1 -6 -8 -16 -18 -53 0
-1 -6 -9 -16 -19 -54 0
-1 -6 -10 -16 -20 -55 0
-1 -6 -11 -16 -21 -56 0
-1 -7 -8 -17 -18 -57 0
-1 -7 -9 -17 -19 -58 0
-1 -7 -10 -17 -20 -59 0
-1 -7 -11 -17 -21 -60 0
-1 -8 -9 -18 -19 -61 0
-1 -8 -10 -18 -20 -62 0
-1 -8 -11 -18 -21 -63 0
-1 -9 -10 -19 -20 -64 0
-1 -9 -11 -19 -21 -65 0
-1 -10 -11 -20 -21 -66 0
-2 -3 -4 -22 -23 -31 0
-2 -3 -5 -22 -24 -32 0
-2 -3 -6 -22 -25 -33 0
-2 -3 -7 -22 -26 -34 0
-2 -3 -8 -22 -27 -35 0
-2 -3 -9 -22 -28 -36 0
-2 -3 -10 -22 -29 -37 0
-2 -3 -11 -22 -30 -38 0
-2 -4 -5 -23 -24 -39 0
-2 -4 -6 -23 -25 -40 0
-2 -4 -7 -23 -26 -41 0
-2 -4 -8 -23 -27 -42 0
-2 -4 -9 -23 -28 -43 0
-2 -4 -10 -23 -29 -44 0
-2 -4 -11 -23 -30 -45 0
-2 -5 -6 -24 -25 -46 0
-2 -5 -7 -24 -26 -47 0
-2 -5 -8 -24 -27 -48 0
-2 -5 -9 -24 -28 -49 0
-2 -5 -10 -24 -29 -50 0
-2 -5 -11 -24 -30 -51 0
-2 -6 -7 -25 -26 -52 0
-2 -6 -8 -25 -27 -53 0
-2 -6 -9 -25 -28 -54 0
-2 -6 -10 -25 -29 -55 0
-2 -6 -11 -25 -30 -56 0
-2 -7 -8 -26 -27 -57 0
-2 -7 -9 -26 -28 -58 0
-2 -7 -10 -26 -29 -59 0
-2 -7 -11 -26 -30 -60 0
-2 -8 -9 -27 -28 -61 0
-2 -8 -10 -27 -29 -62 0
-2 -8 -11 -27 -30 -63 0
-2 -9 -10 -28 -29 -64 0
-2 -9 -11 -28 -30 -65 0
-2 -10 -11 -29 -30 -66 0
-3 -4 -5 -31 -32 -39 0
-3 -4 -6 -31 -33 -40 0
-3 -4 -7 -31 -34 -41 0
-3 -4 -8 -31 -35 -42 0
-3 -4 -9 -31 -36 -43 0
-3 -4 -10 -31 -37 -44 0
-3 -4 -11 -31 -38 -45 0
-3 -5 -6 -32 -33 -46 0
-3 -5 -7 -32 -34 -47 0
-3 -5 -8 -32 -35 -48 0
-3 -5 -9 -32 -36 -49 0
-3 -5 -10 -32 -37 -50 0
-3 -5 -11 -32 -38 -51 0
-3 -6 -7 -33 -34 -52 0
-3 -6 -8 -33 -35 -53 0
-3 -6 -9 -33 -36 -54 0
-3 -6 -10 -33 -37 -55 0
-3 -6 -11 -33 -38 -56 0
-3 -7 -8 -34 -35 -57 0
-3 -7 -9 -34 -36 -58 0
-3 -7 -10 -34 -37 -59 0
-3 -7 -11 -34 -38 -60 0
-3 -8 -9 -35 -36 -61 0
-3 -8 -10 -35 -37 -62 0
-3 -8 -11 -35 -38 -63 0
-3 -9 -10 -36 -37 -64 0
-3 -9 -11 -36 -38 -65 0
-3 -10 -11 -37 -38 -66 0
-4 -5 -6 -39 -40 -46 0
-4 -5 -7 -39 -41 -47 0
-4 -5 -8 -39 -42 -48 0
-4 -5 -9 -39 -43 -49 0
-4 -5 -10 -39 -44 -50 0
-4 -5 -11 -39 -45 -51 0
-4 -6 -7 -40 -41 -52 0
-4 -6 -8 -40 -42 -53 0
-4 -6 -9 -40 -43 -54 0
-4 -6 -10 -40 -44 -55 0
-4 -6 -11 -40 -45 -56 0
-4 -7 -8 -41 -42 -57 0
-4 -7 -9 -41 -43 -58 0
-4 -7 -10 -41 -44 -59 0
-4 -7 -11 -41 -45 -60 0
-4 -8 -9 -42 -43 -61 0
-4 -8 -10 -42 -44 -62 0
-4 -8 -11 -42 -45 -63 0
-4 -9 -10 -43 -44 -64 0
-4 -9 -11 -43 -45 -65 0
-4 -10 -11 -44 -45 -66 0
-5 -6 -7 -46 -47 -52 0
-5 -6 -8 -46 -48 -53 0
-5 -6 -9 -46 -49 -54 0
-5 -6 -10 -46 -50 -55 0
-5 -6 -11 -46 -51 -56 0
-5 -7 -8 -47 -48 -57 0
-5 -7 -9 -47 -49 -58 0
-5 -7 -10 -47 -50 -59 0
-5 -7 -11 -47 -51 -60 0
-5 -8 -9 -48 -49 -61 0
-5 -8 -10 -48 -50 -62 0
-5 -8 -11 -48 -51 -63 0
-5 -9 -10 -49 -50 -64 0
-5 -9 -11 -49 -51 -65 0
-5 -10 -11 -50 -51 -66 0
-6 -7 -8 -52 -53 -57 0
-6 -7 -9 -52 -54 -58 0
-6 -7 -10 -52 -55 -59 0
-6 -7 -11 -52 -56 -60 0
-6 -8 -9 -53 -54 -61 0
-6 -8 -10 -53 -55 -62 0
-6 -8 -11 -53 -56 -63 0
-6 -9 -10 -54 -55 -64 0
-6 -9 -11 -54 -56 -65 0
-6 -10 -11 -55 -56 -66 0
-7 -8 -9 -57 -58 -61 0
-7 -8 -10 -57 -59 -62 0
-7 -8 -11 -57 -60 -63 0
-7 -9 -10 -58 -59 -64 0
-7 -9 -11 -58 -60 -65 0
-7 -10 -11 -59 -60 -66 0
-8 -9 -10 -61 -62 -64 0
-8 -9 -11 -61 -63 -65 0
-8 -10 -11 -62 -63 -66 0
-9 -10 -11 -64 -65 -66 0
-12 -13 -14 -22 -23 -31 0
-12 -13 -15 -22 -24 -32 0
-12 -13 -16 -22 -25 -33 0
-12 -13 -17 -22 -26 -34 0
-12 -13 -18 -22 -27 -35 0
-12 -13 -19 -22 -28 -36 0
-12 -13 -20 -22 -29 -37 0
-12 -13 -21 -22 -30 -38 0
-12 -14 -15 -23 -24 -39 0
-12 -14 -16 -23 -25 -40 0
-12 -14 -17 -23 -26 -41 0
-12 -14 -18 -23 -27 -42 0
-12 -14 -19 -23 -28 -43 0
-12 -14 -20 -23 -29 -44 0
-12 -14 -21 -23 -30 -45 0
-12 -15 -16 -24 -25 -46 0
-12 -15 -17 -24 -26 -47 0
-12 -15 -18 -24 -27 -48 0
-12 -15 -19 -24 -28 -49 0
-12 -15 -20 -24 -29 -50 0
-12 -15 -21 -24 -30 -51 0
-12 -16 -17 -25 -26 -52 0
-12 -16 -18 -25 -27 -53 0
-12 -16 -19 -25 -28 -54 0
-12 -16 -20 -25 -29 -55 0
-12 -16 -21 -25 -30 -56 0
-12 -17 -18 -26 -27 -57 0
-12 -17 -19 -26 -28 -58 0
-12 -17 -20 -26 -29 -59 0
-12 -17 -21 -26 -30 -60 0
-12 -18 -19 -27 -28 -61 0
-12 -18 -20 -27 -29 -62 0
-12 -18 -21 -27 -30 -63 0
-12 -19 -20 -28 -29 -64 0
-12 -19 -21 -28 -30 -65 0
-12 -20 -21 -29 -30 -66 0
-13 -14 -15 -31 -32 -39 0
-13 -14 -16 -31 -33 -40 0
-13 -14 -17 -31 -34 -41 0
-13 -14 -18 -31 -35 -42 0
-13 -14 -19 -31 -36 -43 0
-13 -14 -20 -31 -37 -44 0
-13 -14 -21 -31 -38 -45 0
-13 -15 -16 -32 -33 -46 0
-13 -15 -17 -32 -34 -47 0
-13 -15 -18 -32 -35 -48 0
-13 -15 -19 -32 -36 -49 0
-13 -15 -20 -32 -37 -50 0
-13 -15 -21 -32 -38 -51 0
-13 -16 -17 -33 -34 -52 0
-13 -16 -18 -33 -35 -53 0
-13 -16 -19 -33 -36 -54 0
-13 -16 -20 -33 -37 -55 0
-13 -16 -21 -33 -38 -56 0
-13 -17 -18 -34 -35 -57 0
-13 -17 -19 -34 -36 -58 0
-13 -17 -20 -34 -37 -59 0
-13 -17 -21 -34 -38 -60 0
-13 -18 -19 -35 -36 -61 0
-13 -18 -20 -35 -37 -62 0
-13 -18 -21 -35 -38 -63 0
-13 -19 -20 -36 -37 -64 0
-13 -19 -21 -36 -38 -65 0
-13 -20 -21 -37 -38 -66 0
-14 -15 -16 -39 -40 -46 0
-14 -15 -17 -39 -41 -47 0
-14 -15 -18 -39 -42 -48 0
-14 -15 -19 -39 -43 -49 0
-14 -15 -20 -39 -44 -50 0
-14 -15 -21 -39 -45 -51 0
-14 -16 -17 -40 -41 -52 0
-14 -16 -18 -40 -42 -53 0
-14 -16 -19 -40 -43 -54 0
-14 -16 -20 -40 -44 -55 0
-14 -16 -21 -40 -45 -56 0
-14 -17 -18 -41 -42 -57 0
-14 -17 -19 -41 -43 -58 0
-14 -17 -20 -41 -44 -59 0
-14 -17 -21 -41 -45 -60 0
-14 -18 -19 -42 -43 -61 0
-14 -18 -20 -42 -44 -62 0
-14 -18 -21 -42 -45 -63 0
-14 -19 -20 -43 -44 -64 0
-14 -19 -21 -43 -45 -65 0
-14 -20 -21 -44 -45 -66 0
-15 -16 -17 -46 -47 -52 0
-15 -16 -18 -46 -48 -53 0
-15 -16 -19 -46 -49 -54 0
-15 -16 -20 -46 -50 -55 0
-15 -16 -21 -46 -51 -56 0
-15 -17 -18 -47 -48 -57 0
-15 -17 -19 -47 -49 -58 0
-15 -17 -20 -47 -50 -59 0
-15 -17 -21 -47 -51 -60 0
-15 -18 -19 -48 -49 -61 0
-15 -18 -20 -48 -50 -62 0
-15 -18 -21 -48 -51 -63 0
-15 -19 -20 -49 -50 -64 0
-15 -19 -21 -49 -51 -65 0
-15 -20 -21 -50 -51 -66 0
-16 -17 -18 -52 -53 -57 0
-16 -17 -19 -52 -54 -58 0
-16 -17 -20 -52 -55 -59 0
-16 -17 -21 -52 -56 -60 0
-16 -18 -19 -53 -54 -61 0
-16 -18 -20 -53 -55 -62 0
-16 -18 -21 -53 -56 -63 0
-16 -19 -20 -54 -55 -64 0
-16 -19 -21 -54 -56 -65 0
-16 -20 -21 -55 -56 -66 0
-17 -18 -19 -57 -58 -61 0
-17 -18 -20 -57 -59 -62 0
-17 -18 -21 -57 -60 -63 0
-17 -19 -20 -58 -59 -64 0
-17 -19 -21 -58 -60 -65 0
-17 -20 -21 -59 -60 -66 0
-18 -19 -20 -61 -62 -64 0
-18 -19 -21 -61 -63 -65 0
-18 -20 -21 -62 -63 -66 0
-19 -20 -21 -64 -65 -66 0
-22 -23 -24 -31 -32 -39 0
-22 -23 -25 -31 -33 -40 0
-22 -23 -26 -31 -34 -41 0
-22 -23 -27 -31 -35 -42 0
-22 -23 -28 -31 -36 -43 0
-22 -23 -29 -31 -37 -44 0
-22 -23 -30 -31 -38 -45 0
-22 -24 -25 -32 -33 -46 0
-22 -24 -26 -32 -34 -47 0
-22 -24 -27 -32 -35 -48 0
-22 -24 -28 -32 -36 -49 0
-22 -24 -29 -32 -37 -50 0
-22 -24 -30 -32 -38 -51 0
-22 -25 -26 -33 -34 -52 0
-22 -25 -27 -33 -35 -53 0
-22 -25 -28 -33 -36 -54 0
-22 -25 -29 -33 -37 -55 0
-22 -25 -30 -33 -38 -56 0
-22 -26 -27 -34 -35 -57 0
-22 -26 -28 -34 -36 -58 0
-22 -26 -29 -34 -37 -59 0
-22 -26 -30 -34 -38 -60 0
-22 -27 -28 -35 -36 -61 0
-22 -27 -29 -35 -37 -62 0
-22 -27 -30 -35 -38 -63 0
-22 -28 -29 -36 -37 -64 0
-22 -28 -30 -36 -38 -65 0
-22 -29 -30 -37 -38 -66 0
-23 -24 -25 -39 -40 -46 0
-23 -24 -26 -39 -41 -47 0
-23 -24 -27 -39 -42 -48 0
-23 -24 -28 -39 -43 -49 0
-23 -24 -29 -39 -44 -50 0
-23 -24 -30 -39 -45 -51 0
-23 -25 -26 -40 -41 -52 0
-23 -25 -27 -40 -42 -53 0
-23 -25 -28 -40 -43 -54 0
-23 -25 -29 -40 -44 -55 0
-23 -25 -30 -40 -45 -56 0
-23 -26 -27 -41 -42 -57 0
-23 -26 -28 -41 -43 -58 0
-23 -26 -29 -41 -44 -59 0
-23 -26 -30 -41 -45 -60 0
-23 -27 -28 -42 -43 -61 0
-23 -27 -29 -42 -44 -62 0
-23 -27 -30 -42 -45 -63 0
-23 -28 -29 -43 -44 -64 0
-23 -28 -30 -43 -45 -65 0
-23 -29 -30 -44 -45 -66 0
-24 -25 -26 -46 -47 -52 0
-24 -25 -27 -46 -48 -53 0
-24 -25 -28 -46 -49 -54 0
-24 -25 -29 -46 -50 -55 0
-24 -25 -30 -46 -51 -56 0
-24 -26 -27 -47 -48 -57 0
-24 -26 -28 -47 -49 -58 0
-24 -26 -29 -47 -50 -59 0
-24 -26 -30 -47 -51 -60 0
-24 -27 -28 -48 -49 -61 0
-24 -27 -29 -48 -50 -62 0
-24 -27 -30 -48 -51 -63 0
-24 -28 -29 -49 -50 -64 0
-24 -28 -30 -49 -51 -65 0
-24 -29 -30 -50 -51 -66 0
-25 -26 -27 -52 -53 -57 0
-25 -26 -28 -52 -54 -58 0
-25 -26 -29 -52 -55 -59 0
-25 -26 -30 -52 -56 -60 0
-25 -27 -28 -53 -54 -61 0
-25 -27 -29 -53 -55 -62 0
-25 -27 -30 -53 -56 -63 0
-25 -28 -29 -54 -55 -64 0
-25 -28 -30 -54 -56 -65 0
-25 -29 -30 -55 -56 -66 0
-26 -27 -28 -57 -58 -61 0
-26 -27 -29 -57 -59 -62 0
-26 -27 -30 -57 -60 -63 0
-26 -28 -29 -58 -59 -64 0
-26 -28 -30 -58 -60 -65 0
-26 -29 -30 -59 -60 -66 0
-27 -28 -29 -61 -62 -64 0
-27 -28 -30 -61 -63 -65 0
-27 -29 -30 -62 -63 -66 0
-28 -29 -30 -64 -65 -66 0
-31 -32 -33 -39 -40 -46 0
-31 -32 -34 -39 -41 -47 0
-31 -32 -35 -39 -42 -48 0
-31 -32 -36 -39 -43 -49 0
-31 -32 -37 -39 -44 -50 0
-31 -32 -38 -39 -45 -51 0
-31 -33 -34 -40 -41 -52 0
-31 -33 -35 -40 -42 -53 0
-31 -33 -36 -40 -43 -54 0
-31 -33 -37 -40 -44 -55 0
-31 -33 -38 -40 -45 -56 0
-31 -34 -35 -41 -42 -57 0
-31 -34 -36 -41 -43 -58 0
-31 -34 -37 -41 -44 -59 0
-31 -34 -38 -41 -45 -60 0
-31 -35 -36 -42 -43 -61 0
-31 -35 -37 -42 -44 -62 0
-31 -35 -38 -42 -45 -63 0
-31 -36 -37 -43 -44 -64 0
-31 -36 -38 -43 -45 -65 0
-31 -37 -38 -44 -45 -66 0
-32 -33 -34 -46 -47 -52 0
-32 -33 -35 -46 -48 -53 0
-32 -33 -36 -46 -49 -54 0
-32 -33 -37 -46 -50 -55 0
-32 -33 -38 -46 -51 -56 0
-32 -34 -35 -47 -48 -57 0
-32 -34 -36 -47 -49 -58 0
-32 -34 -37 -47 -50 -59 0
-32 -34 -38 -47 -51 -60 0
-32 -35 -36 -48 -49 -61 0
-32 -35 -37 -48 -50 -62 0
-32 -35 -38 -48 -51 -63 0
-32 -36 -37 -49 -50 -64 0
-32 -36 -38 -49 -51 -65 0
-32 -37 -38 -50 -51 -66 0
-33 -34 -35 -52 -53 -57 0
-33 -34 -36 -52 -54 -58 0
-33 -34 -37 -52 -55 -59 0
-33 -34 -38 -52 -56 -60 0
-33 -35 -36 -53 -54 -61 0
-33 -35 -37 -53 -55 -62 0
-33 -35 -38 -53 -56 -63 0
-33 -36 -37 -54 -55 -64 0
-33 -36 -38 -54 -56 -65 0
-33 -37 -38 -55 -56 -66 0
-34 -35 -36 -57 -58 -61 0
-34 -35 -37 -57 -59 -62 0
-34 -35 -38 -57 -60 -63 0
-34 -36 -37 -58 -59 -64 0
-34 -36 -38 -58 -60 -65 0
-34 -37 -38 -59 -60 -66 0
-35 -36 -37 -61 -62 -64 0
-35 -36 -38 -61 -63 -65 0
-35 -37 -38 -62 -63 -66 0
-36 -37 -38 -64 -65 -66 0
-39 -40 -41 -46 -47 -52 0
-39 -40 -42 -46 -48 -53 0
-39 -40 -43 -46 -49 -54 0
-39 -40 -44 -46 -50 -55 0
-39 -40 -45 -46 -51 -56 0
-39 -41 -42 -47 -48 -57 0
-39 -41 -43 -47 -49 -58 0
-39 -41 -44 -47 -50 -59 0
-39 -41 -45 -47 -51 -60 0
-39 -42 -43 -48 -49 -61 0
-39 -42 -44 -48 -50 -62 0
-39 -42 -45 -48 -51 -63 0
-39 -43 -44 -49 -50 -64 0
-39 -43 -45 -49 -51 -65 0
-39 -44 -45 -50 -51 -66 0
-40 -41 -42 -52 -53 -57 0
-40 -41 -43 -52 -54 -58 0
-40 -41 -44 -52 -55 -59 0
-40 -41 -45 -52 -56 -60 0
-40 -42 -43 -53 -54 -61 0
-40 -42 -44 -53 -55 -62 0
-40 -42 -45 -53 -56 -63 0
-40 -43 -44 -54 -55 -64 0
-40 -43 -45 -54 -56 -65 0
-40 -44 -45 -55 -56 -66 0
-41 -42 -43 -57 -58 -61 0
-41 -42 -44 -57 -59 -62 0
-41 -42 -45 -57 -60 -63 0
-41 -43 -44 -58 -59 -64 0
-41 -43 -45 -58 -60 -65 0
-41 -44 -45 -59 -60 -66 0
-42 -43 -44 -61 -62 -64 0
-42 -43 -45 -61 -63 -65 0
-42 -44 -45 -62 -63 -66 0
-43 -44 -45 -64 -65 -66 0
-46 -47 -48 -52 -53 -57 0
-46 -47 -49 -52 -54 -58 0
-46 -47 -50 -52 -55 -59 0
-46 -47 -51 -52 -56 -60 0
-46 -48 -49 -53 -54 -61 0
-46 -48 -50 -53 -55 -62 0
-46 -48 -51 -53 -56 -63 0
-46 -49 -50 -54 -55 -64 0
-46 -49 -51 -54 -56 -65 0
-46 -50 -51 -55 -56 -66 0
-47 -48 -49 -57 -58 -61 0
-47 -48 -50 -57 -59 -62 0
-47 -48 -51 -57 -60 -63 0
-47 -49 -50 -58 -59 -64 0
-47 -49 -51 -58 -60 -65 0
-47 -50 -51 -59 -60 -66 0
-48 -49 -50 -61 -62 -64 0
-48 -49 -51 -61 -63 -65 0
-48 -50 -51 -62 -63 -66 0
-49 -50 -51 -64 -65 -66 0
-52 -53 -54 -57 -58 -61 0
-52 -53 -55 -57 -59 -62 0
-52 -53 -56 -57 -60 -63 0
-52 -54 -55 -58 -59 -64 0
-52 -54 -56 -58 -60 -65 0
-52 -55 -56 -59 -60 -66 0
-53 -54 -55 -61 -62 -64 0
-53 -54 -56 -61 -63 -65 0
-53 -55 -56 -62 -63 -66 0
-54 -55 -56 -64 -65 -66 0
-57 -58 -59 -61 -62 -64 0
-57 -58 -60 -61 -63 -65 0
-57 -59 -60 -62 -63 -66 0
-58 -59 -60 -64 -65 -66 0
-61 -62 -63 -64 -65 -66 0
67 68 69 70 71 72 73 74 75 76 0
-67 2 0
-67 12 0
-68 3 0
-68 13 0
-69 4 0
-69 14 0
-70 5 0
-70 15 0
-71 6 0
-71 16 0
-72 7 0
-72 17 0
-73 8 0
-73 18 0
-74 9 0
-74 19 0
-75 10 0
-75 20 0
-76 11 0
-76 21 0
77 78 79 80 81 82 83 84 85 86 0
-77 1 0
-77 12 0
-78 3 0
-78 22 0
-79 4 0
-79 23 0
-80 5 0
-80 24 0
-81 6 0
-81 25 0
-82 7 0
-82 26 0
-83 8 0
-83 27 0
-84 9 0
-84 28 0
-85 10 0
-85 29 0
-86 11 0
-86 30 0
87 88 89 90 91 92 93 94 95 96 0
-87 1 0
-87 13 0
-88 2 0
-88 22 0
-89 4 0
-89 31 0
-90 5 0
-90 32 0
-91 6 0
-91 33 0
-92 7 0
-92 34 0
-93 8 0
-93 35 0
-94 9 0
-94 36 0
-95 10 0
-95 37 0
-96 11 0
-96 38 0
97 98 99 100 101 102 103 104 105 106 0
-97 1 0
-97 14 0
-98 2 0
-98 23 0
-99 3 0
-99 31 0
-100 5 0
-100 39 0
-101 6 0
-101 40 0
-102 7 0
-102 41 0
-103 8 0
-103 42 0
-104 9 0
-104 43 0
-105 10 0
-105 44 0
-106 11 0
-106 45 0
107 108 109 110 111 112 113 114 115 116 0
-107 1 0
-107 15 0
-108 2 0
-108 24 0
-109 3 0
-109 32 0
-110 4 0
-110 39 0
-111 6 0
-111 46 0
-112 7 0
-112 47 0
-113 8 0
-113 48 0
-114 9 0
-114 49 0
-115 10 0
-115 50 0
-116 11 0
-116 51 0
117 118 119 120 121 122 123 124 125 126 0
-117 1 0
-117 16 0
-118 2 0
-118 25 0
-119 3 0
-119 33 0
-120 4 0
-120 40 0
-121 5 0
-121 46 0
-122 7 0
-122 52 0
-123 8 0
-123 53 0
-124 9 0
-124 54 0
-125 10 0
-125 55 0
-126 11 0
-126 56 0
127 128 129 130 131 132 133 134 135 136 0
-127 1 0
-127 17 0
-128 2 0
-128 26 0
-129 3 0
-129 34 0
-130 4 0
-130 41 0
-131 5 0
-131 47 0
-132 6 0
-132 52 0
-133 8 0
-133 57 0
-134 9 0
-134 58 0
-135 10 0
-135 59 0
-136 11 0
-136 60 0
137 138 139 140 141 142 143 144 145 146 0
-137 1 0
-137 18 0
-138 2 0
-138 27 0
-139 3 0
-139 35 0
-140 4 0
-140 42 0
-141 5 0
-141 48 0
-142 6 0
-142 53 0
-143 7 0
-143 57 0
-144 9 0
-144 61 0
-145 10 0
-145 62 0
-146 11 0
-146 63 0
147 148 149 150 151 152 153 154 155 156 0
-147 1 0
-147 19 0
-148 2 0
-148 28 0
-149 3 0
-149 36 0
-150 4 0
-150 43 0
-151 5 0
-151 49 0
-152 6 0
-152 54 0
-153 7 0
-153 58 0
-154 8 0
-154 61 0
-155 10 0
-155 64 0
-156 11 0
-156 65 0
157 158 159 160 161 162 163 164 165 166 0
-157 1 0
-157 20 0
-158 2 0
-158 29 0
-159 3 0
-159 37 0
-160 4 0
-160 44 0
-161 5 0
-161 50 0
-162 6 0
-162 55 0
-163 7 0
-163 59 0
-164 8 0
-164 62 0
-165 9 0
-165 64 0
-166 11 0
-166 66 0
167 168 169 170 171 172 173 174 175 176 0
-167 1 0
-167 21 0
-168 2 0
-168 30 0
-169 3 0
-169 38 0
-170 4 0
-170 45 0
-171 5 0
-171 51 0
-172 6 0
-172 56 0
-173 7 0
-173 60 0
-174 8 0
-174 63 0
-175 9 0
-175 65 0
-176 10 0
-176 66 0
177 178 179 180 181 182 183 184 185 186 0
-177 1 0
-177 2 0
-178 13 0
-178 22 0
-179 14 0
-179 23 0
-180 15 0
-180 24 0
-181 16 0
-181 25 0
-182 17 0
-182 26 0
-183 18 0
-183 27 0
-184 19 0
-184 28 0
-185 20 0
-185 29 0
-186 21 0
-186 30 0
187 188 189 190 191 192 193 194 195 196 0
-187 1 0
-187 3 0
-188 12 0
-188 22 0
-189 14 0
-189 31 0
-190 15 0
-190 32 0
-191 16 0
-191 33 0
-192 17 0
-192 34 0
-193 18 0
-193 35 0
-194 19 0
-194 36 0
-195 20 0
-195 37 0
-196 21 0
-196 38 0
197 198 199 200 201 202 203 204 205 206 0
-197 1 0
-197 4 0
-198 12 0
-198 23 0
-199 13 0
-199 31 0
-200 15 0
-200 39 0
-201 16 0
-201 40 0
-202 17 0
-202 41 0
-203 18 0
-203 42 0
-204 19 0
-204 43 0
-205 20 0
-205 44 0
-206 21 0
-206 45 0
207 208 209 210 211 212 213 214 215 216 0
-207 1 0
-207 5 0
-208 12 0
-208 24 0
-209 13 0
-209 32 0
-210 14 0
-210 39 0
-211 16 0
-211 46 0
-212 17 0
-212 47 0
-213 18 0
-213 48 0
-214 19 0
-214 49 0
-215 20 0
-215 50 0
-216 21 0
-216 51 0
217 218 219 220 221 222 223 224 225 226 0
-217 1 0
-217 6 0
-218 12 0
-218 25 0
-219 13 0
-219 33 0
-220 14 0
-220 40 0
-221 15 0
-221 46 0
-222 17 0
-222 52 0
-223 18 0
-223 53 0
-224 19 0
-224 54 0
-225 20 0
-225 55 0
-226 21 0
-226 56 0
227 228 229 230 231 232 233 234 235 236 0
-227 1 0
-227 7 0
-228 12 0
-228 26 0
-229 13 0
-229 34 0
-230 14 0
-230 41 0
-231 15 0
-231 47 0
-232 16 0
-232 52 0
-233 18 0
-233 57 0
-234 19 0
-234 58 0
-235 20 0
-235 59 0
-236 21 0
-236 60 0
237 238 239 240 241 242 243 244 245 246 0
-237 1 0
-237 8 0
-238 12 0
-238 27 0
-239 13 0
-239 35 0
-240 14 0
-240 42 0
-241 15 0
-241 48 0
-242 16 0
-242 53 0
-243 17 0
-243 57 0
-244 19 0
-244 61 0
-245 20 0
-245 62 0
-246 21 0
-246 63 0
247 248 249 250 251 252 253 254 255 256 0
-247 1 0
-247 9 0
-248 12 0
-248 28 0
-249 13 0
-249 36 0
-250 14 0
-250 43 0
-251 15 0
-251 49 0
-252 16 0
-252 54 0
-253 17 0
-253 58 0
-254 18 0
-254 61 0
-255 20 0
-255 64 0
-256 21 0
-256 65 0
257 258 259 260 261 262 263 264 265 266 0
-257 1 0
-257 10 0
-258 12 0
-258 29 0
-259 13 0
-259 37 0
-260 14 0
-260 44 0
-261 15 0
-261 50 0
-262 16 0
-262 55 0
-263 17 0
-263 59 0
-264 18 0
-264 62 0
-265 19 0
-265 64 0
-266 21 0
-266 66 0
267 268 269 270 271 272 273 274 275 276 0
-267 1 0
-267 11 0
-268 12 0
-268 30 0
-269 13 0
-269 38 0
-270 14 0
-270 45 0
-271 15 0
-271 51 0
-272 16 0
-272 56 0
-273 17 0
-273 60 0
-274 18 0
-274 63 0
-275 19 0
-275 65 0
-276 20 0
-276 66 0
277 278 279 280 281 282 283 284 285 286 0
-277 2 0
-277 3 0
-278 12 0
-278 13 0
-279 23 0
-279 31 0
-280 24 0
-280 32 0
-281 25 0
-281 33 0
-282 26 0
-282 34 0
-283 27 0
-283 35 0
-284 28 0
-284 36 0
-285 29 0
-285 37 0
-286 30 0
-286 38 0
287 288 289 290 291 292 293 294 295 296 0
-287 2 0
-287 4 0
-288 12 0
-288 14 0
-289 22 0
-289 31 0
-290 24 0
-290 39 0
-291 25 0
-291 40 0
-292 26 0
-292 41 0
-293 27 0
-293 42 0
-294 28 0
-294 43 0
-295 29 0
-295 44 0
-296 30 0
-296 45 0
297 298 299 300 301 302 303 304 305 306 0
-297 2 0
-297 5 0
-298 12 0
-298 15 0
-299 22 0
-299 32 0
-300 23 0
-300 39 0
-301 25 0
-301 46 0
-302 26 0
-302 47 0
-303 27 0
-303 48 0
-304 28 0
-304 49 0
-305 29 0
-305 50 0
-306 30 0
-306 51 0
307 308 309 310 311 312 313 314 315 316 0
-307 2 0
-307 6 0
-308 12 0
-308 16 0
-309 22 0
-309 33 0
-310 23 0
-310 40 0
-311 24 0
-311 46 0
-312 26 0
-312 52 0
-313 27 0
-313 53 0
-314 28 0
-314 54 0
-315 29 0
-315 55 0
-316 30 0
-316 56 0
317 318 319 320 321 322 323 324 325 326 0
-317 2 0
-317 7 0
-318 12 0
-318 17 0
-319 22 0
-319 34 0
-320 23 0
-320 41 0
-321 24 0
-321 47 0
-322 25 0
-322 52 0
-323 27 0
-323 57 0
-324 28 0
-324 58 0
-325 29 0
-325 59 0
-326 30 0
-326 60 0
327 328 329 330 331 332 333 334 335 336 0
-327 2 0
-327 8 0
-328 12 0
-328 18 0
-329 22 0
-329 35 0
-330 23 0
-330 42 0
-331 24 0
-331 48 0
-332 25 0
-332 53 0
-333 26 0
-333 57 0
-334 28 0
-334 61 0
-335 29 0
-335 62 0
-336 30 0
-336 63 0
337 338 339 340 341 342 343 344 345 346 0
-337 2 0
-337 9 0
-338 12 0
-338 19 0
-339 22 0
-339 36 0
-340 23 0
-340 43 0
-341 24 0
-341 49 0
-342 25 0
-342 54 0
-343 26 0
-343 58 0
-344 27 0
-344 61 0
-345 29 0
-345 64 0
-346 30 0
-346 65 0
347 348 349 350 351 352 353 354 355 356 0
-347 2 0
-347 10 0
-348 12 0
-348 20 0
-349 22 0
-349 37 0
-350 23 0
-350 44 0
-351 24 0
-351 50 0
-352 25 0
-352 55 0
-353 26 0
-353 59 0
-354 27 0
-354 62 0
-355 28 0
-355 64 0
-356 30 0
-356 66 0
357 358 359 360 361 362 363 364 365 366 0
-357 2 0
-357 11 0
-358 12 0
-358 21 0
-359 22 0
-359 38 0
-360 23 0
-360 45 0
-361 24 0
-361 51 0
-362 25 0
-362 56 0
-363 26 0
-363 60 0
-364 27 0
-364 63 0
-365 28 0
-365 65 0
-366 29 0
-366 66 0
367 368 369 370 371 372 373 374 375 376 0
-367 3 0
-367 4 0
-368 13 0
-368 14 0
-369 22 0
-369 23 0
-370 32 0
-370 39 0
-371 33 0
-371 40 0
-372 34 0
-372 41 0
-373 35 0
-373 42 0
-374 36 0
-374 43 0
-375 37 0
-375 44 0
-376 38 0
-376 45 0
377 378 379 380 381 382 383 384 385 386 0
-377 3 0
-377 5 0
-378 13 0
-378 15 0
-379 22 0
-379 24 0
-380 31 0
-380 39 0
-381 33 0
-381 46 0
-382 34 0
-382 47 0
-383 35 0
-383 48 0
-384 36 0
-384 49 0
-385 37 0
-385 50 0
-386 38 0
-386 51 0
387 388 389 390 391 392 393 394 395 396 0
-387 3 0
-387 6 0
-388 13 0
-388 16 0
-389 22 0
-389 25 0
-390 31 0
-390 40 0
-391 32 0
-391 46 0
-392 34 0
-392 52 0
-393 35 0
-393 53 0
-394 36 0
-394 54 0
-395 37 0
-395 55 0
-396 38 0
-396 56 0
397 398 399 400 401 402 403 404 405 406 0
-397 3 0
-397 7 0
-398 13 0
-398 17 0
-399 22 0
-399 26 0
-400 31 0
-400 41 0
-401 32 0
-401 47 0
-402 33 0
-402 52 0
-403 35 0
-403 57 0
-404 36 0
-404 58 0
-405 37 0
-405 59 0
-406 38 0
-406 60 0
407 408 409 410 411 412 413 414 415 416 0
-407 3 0
-407 8 0
-408 13 0
-408 18 0
-409 22 0
-409 27 0
-410 31 0
-410 42 0
-411 32 0
-411 48 0
-412 33 0
-412 53 0
-413 34 0
-413 57 0
-414 36 0
-414 61 0
-415 37 0
-415 62 0
-416 38 0
-416 63 0
417 418 419 420 421 422 423 424 425 426 0
-417 3 0
-417 9 0
-418 13 0
-418 19 0
-419 22 0
-419 28 0
-420 31 0
-420 43 0
-421 32 0
-421 49 0
-422 33 0
-422 54 0
-423 34 0
-423 58 0
-424 35 0
-424 61 0
-425 37 0
-425 64 0
-426 38 0
-426 65 0
427 428 429 430 431 432 433 434 435 436 0
-427 3 0
-427 10 0
-428 13 0
-428 20 0
-429 22 0
-429 29 0
-430 31 0
-430 44 0
-431 32 0
-431 50 0
-432 33 0
-432 55 0
-433 34 0
-433 59 0
-434 35 0
-434 62 0
-435 36 0
-435 64 0
-436 38 0
-436 66 0
437 438 439 440 441 442 443 444 445 446 0
-437 3 0
-437 11 0
-438 13 0
-438 21 0
-439 22 0
-439 30 0
-440 31 0
-440 45 0
-441 32 0
-441 51 0
-442 33 0
-442 56 0
-443 34 0
-443 60 0
-444 35 0
-444 63 0
-445 36 0
-445 65 0
-446 37 0
-446 66 0
447 448 449 450 451 452 453 454 455 456 0
-447 4 0
-447 5 0
-448 14 0
-448 15 0
-449 23 0
-449 24 0
-450 31 0
-450 32 0
-451 40 0
-451 46 0
-452 41 0
-452 47 0
-453 42 0
-453 48 0
-454 43 0
-454 49 0
-455 44 0
-455 50 0
-456 45 0
-456 51 0
457 458 459 460 461 462 463 464 465 466 0
-457 4 0
-457 6 0
-458 14 0
-458 16 0
-459 23 0
-459 25 0
-460 31 0
-460 33 0
-461 39 0
-461 46 0
-462 41 0
-462 52 0
-463 42 0
-463 53 0
-464 43 0
-464 54 0
-465 44 0
-465 55 0
-466 45 0
-466 56 0
467 468 469 470 471 472 473 474 475 476 0
-467 4 0
-467 7 0
-468 14 0
-468 17 0
-469 23 0
-469 26 0
-470 31 0
-470 34 0
-471 39 0
-471 47 0
-472 40 0
-472 52 0
-473 42 0
-473 57 0
-474 43 0
-474 58 0
-475 44 0
-475 59 0
-476 45 0
-476 60 0
477 478 479 480 481 482 483 484 485 486 0
-477 4 0
-477 8 0
-478 14 0
-478 18 0
-479 23 0
-479 27 0
-480 31 0
-480 35 0
-481 39 0
-481 48 0
-482 40 0
-482 53 0
-483 41 0
-483 57 0
-484 43 0
-484 61 0
-485 44 0
-485 62 0
-486 45 0
-486 63 0
487 488 489 490 491 492 493 494 495 496 0
-487 4 0
-487 9 0
-488 14 0
-488 19 0
-489 23 0
-489 28 0
-490 31 0
-490 36 0
-491 39 0
-491 49 0
-492 40 0
-492 54 0
-493 41 0
-493 58 0
-494 42 0
-494 61 0
-495 44 0
-495 64 0
-496 45 0
-496 65 0
497 498 499 500 501 502 503 504 505 506 0
-497 4 0
-497 10 0
-498 14 0
-498 20 0
-499 23 0
-499 29 0
-500 31 0
-500 37 0
-501 39 0
-501 50 0
-502 40 0
-502 55 0
-503 41 0
-503 59 0
-504 42 0
-504 62 0
-505 43 0
-505 64 0
-506 45 0
-506 66 0
507 508 509 510 511 512 513 514 515 516 0
-507 4 0
-507 11 0
-508 14 0
-508 21 0
-509 23 0
-509 30 0
-510 31 0
-510 38 0
-511 39 0
-511 51 0
-512 40 0
-512 56 0
-513 41 0
-513 60 0
-514 42 0
-514 63 0
-515 43 0
-515 65 0
-516 44 0
-516 66 0
517 518 519 520 521 522 523 524 525 526 0
-517 5 0
-517 6 0
-518 15 0
-518 16 0
-519 24 0
-519 25 0
-520 32 0
-520 33 0
-521 39 0
-521 40 0
-522 47 0
-522 52 0
-523 48 0
-523 53 0
-524 49 0
-524 54 0
-525 50 0
-525 55 0
-526 51 0
-526 56 0
527 528 529 530 531 532 533 534 535 536 0
-527 5 0
-527 7 0
-528 15 0
-528 17 0
-529 24 0
-529 26 0
-530 32 0
-530 34 0
-531 39 0
-531 41 0
-532 46 0
-532 52 0
-533 48 0
-533 57 0
-534 49 0
-534 58 0
-535 50 0
-535 59 0
-536 51 0
-536 60 0
537 538 539 540 541 542 543 544 545 546 0
-537 5 0
-537 8 0
-538 15 0
-538 18 0
-539 24 0
-539 27 0
-540 32 0
-540 35 0
-541 39 0
-541 42 0
-542 46 0
-542 53 0
-543 47 0
-543 57 0
-544 49 0
-544 61 0
-545 50 0
-545 62 0
-546 51 0
-546 63 0
547 548 549 550 551 552 553 554 555 556 0
-547 5 0
-547 9 0
-548 15 0
-548 19 0
-549 24 0
-549 28 0
-550 32 0
-550 36 0
-551 39 0
-551 43 0
-552 46 0
-552 54 0
-553 47 0
-553 58 0
-554 48 0
-554 61 0
-555 50 0
-555 64 0
-556 51 0
-556 65 0
557 558 559 560 561 562 563 564 565 566 0
-557 5 0
-557 10 0
-558 15 0
-558 20 0
-559 24 0
-559 29 0
-560 32 0
-560 37 0
-561 39 0
-561 44 0
-562 46 0
-562 55 0
-563 47 0
-563 59 0
-564 48 0
-564 62 0
-565 49 0
-565 64 0
-566 51 0
-566 66 0
567 568 569 570 571 572 573 574 575 576 0
-567 5 0
-567 11 0
-568 15 0
-568 21 0
-569 24 0
-569 30 0
-570 32 0
-570 38 0
-571 39 0
-571 45 0
-572 46 0
-572 56 0
-573 47 0
-573 60 0
-574 48 0
-574 63 0
-575 49 0
-575 65 0
-576 50 0
-576 66 0
577 578 579 580 581 582 583 584 585 586 0
-577 6 0
-577 7 0
-578 16 0
-578 17 0
-579 25 0
-579 26 0
-580 33 0
-580 34 0
-581 40 0
-581 41 0
-582 46 0
-582 47 0
-583 53 0
-583 57 0
-584 54 0
-584 58 0
-585 55 0
-585 59 0
-586 56 0
-586 60 0
587 588 589 590 591 592 593 594 595 596 0
-587 6 0
-587 8 0
-588 16 0
-588 18 0
-589 25 0
-589 27 0
-590 33 0
-590 35 0
-591 40 0
-591 42 0
-592 46 0
-592 48 0
-593 52 0
-593 57 0
-594 54 0
-594 61 0
-595 55 0
-595 62 0
-596 56 0
-596 63 0
597 598 599 600 601 602 603 604 605 606 0
-597 6 0
-597 9 0
-598 16 0
-598 19 0
-599 25 0
-599 28 0
-600 33 0
-600 36 0
-601 40 0
-601 43 0
-602 46 0
-602 49 0
-603 52 0
-603 58 0
-604 53 0
-604 61 0
-605 55 0
-605 64 0
-606 56 0
-606 65 0
607 608 609 610 611 612 613 614 615 616 0
-607 6 0
-607 10 0
-608 16 0
-608 20 0
-609 25 0
-609 29 0
-610 33 0
-610 37 0
-611 40 0
-611 44 0
-612 46 0
-612 50 0
-613 52 0
-613 59 0
-614 53 0
-614 62 0
-615 54 0
-615 64 0
-616 56 0
-616 66 0
617 618 619 620 621 622 623 624 625 626 0
-617 6 0
-617 11 0
-618 16 0
-618 21 0
-619 25 0
-619 30 0
-620 33 0
-620 38 0
-621 40 0
-621 45 0
-622 46 0
-622 51 0
-623 52 0
-623 60 0
-624 53 0
-624 63 0
-625 54 0
-625 65 0
-626 55 0
-626 66 0
627 628 629 630 631 632 633 634 635 636 0
-627 7 0
-627 8 0
-628 17 0
-628 18 0
-629 26 0
-629 27 0
-630 34 0
-630 35 0
-631 41 0
-631 42 0
-632 47 0
-632 48 0
-633 52 0
-633 53 0
-634 58 0
-634 61 0
-635 59 0
-635 62 0
-636 60 0
-636 63 0
637 638 639 640 641 642 643 644 645 646 0
-637 7 0
-637 9 0
-638 17 0
-638 19 0
-639 26 0
-639 28 0
-640 34 0
-640 36 0
-641 41 0
-641 43 0
-642 47 0
-642 49 0
-643 52 0
-643 54 0
-644 57 0
-644 61 0
-645 59 0
-645 64 0
-646 60 0
-646 65 0
647 648 649 650 651 652 653 654 655 656 0
-647 7 0
-647 10 0
-648 17 0
-648 20 0
-649 26 0
-649 29 0
-650 34 0
-650 37 0
-651 41 0
-651 44 0
-652 47 0
-652 50 0
-653 52 0
-653 55 0
-654 57 0
-654 62 0
-655 58 0
-655 64 0
-656 60 0
-656 66 0
657 658 659 660 661 662 663 664 665 666 0
-657 7 0
-657 11 0
-658 17 0
-658 21 0
-659 26 0
-659 30 0
-660 34 0
-660 38 0
-661 41 0
-661 45 0
-662 47 0
-662 51 0
-663 52 0
-663 56 0
-664 57 0
-664 63 0
-665 58 0
-665 65 0
-666 59 0
-666 66 0
667 668 669 670 671 672 673 674 675 676 0
-667 8 0
-667 9 0
-668 18 0
-668 19 0
-669 27 0
-669 28 0
-670 35 0
-670 36 0
-671 42 0
-671 43 0
-672 48 0
-672 49 0
-673 53 0
-673 54 0
-674 57 0
-674 58 0
-675 62 0
-675 64 0
-676 63 0
-676 65 0
677 678 679 680 681 682 683 684 685 686 0
-677 8 0
-677 10 0
-678 18 0
-678 20 0
-679 27 0
-679 29 0
-680 35 0
-680 37 0
-681 42 0
-681 44 0
-682 48 0
-682 50 0
-683 53 0
-683 55 0
-684 57 0
-684 59 0
-685 61 0
-685 64 0
-686 63 0
-686 66 0
687 688 689 690 691 692 693 694 695 696 0
-687 8 0
-687 11 0
-688 18 0
-688 21 0
-689 27 0
-689 30 0
-690 35 0
-690 38 0
-691 42 0
-691 45 0
-692 48 0
-692 51 0
-693 53 0
-693 56 0
-694 57 0
-694 60 0
-695 61 0
-695 65 0
-696 62 0
-696 66 0
697 698 699 700 701 702 703 704 705 706 0
-697 9 0
-697 10 0
-698 19 0
-698 20 0
-699 28 0
-699 29 0
-700 36 0
-700 37 0
-701 43 0
-701 44 0
-702 49 0
-702 50 0
-703 54 0
-703 55 0
-704 58 0
-704 59 0
-705 61 0
-705 62 0
-706 65 0
-706 66 0
707 708 709 710 711 712 713 714 715 716 0
-707 9 0
-707 11 0
-708 19 0
-708 21 0
-709 28 0
-709 30 0
-710 36 0
-710 38 0
-711 43 0
-711 45 0
-712 49 0
-712 51 0
-713 54 0
-713 56 0
-714 58 0
-714 60 0
-715 61 0
-715 63 0
-716 64 0
-716 66 0
717 718 719 720 721 722 723 724 725 726 0
-717 10 0
-717 11 0
-718 20 0
-718 21 0
-719 29 0
-719 30 0
-720 37 0
-720 38 0
-721 44 0
-721 45 0
-722 50 0
-722 51 0
-723 55 0
-723 56 0
-724 59 0
-724 60 0
-725 62 0
-725 63 0
-726 64 0
-726 65 0
1 0
-2 0
-3 0
-4 0
-5 0
6 0
12 0
-13 0
-14 0
-15 0
-16 0
22 0
-23 0
-24 0
-25 0
31 0
-32 0
-33 0
39 0
-40 0
46 0
-7 -17 -26 -34 -41 -47 -52 0
-8 -18 -27 -35 -42 -48 -53 0
-9 -19 -28 -36 -43 -49 -54 0
-10 -20 -29 -37 -44 -50 -55 0
-11 -21 -30 -38 -45 -51 -56 0
7 0
17 0
-1 -2 -3 -4 -5 -6 -7 -8 -9 -10 -11 0
-2 -3 -4 -5 -6 -7 -8 -9 -10 -11 -12 -13 -14 -15 -16 -17 -18 -19 -20 -21 0
-1 -3 -4 -5 -6 -7 -8 -9 -10 -11 -12 -22 -23 -24 -25 -26 -27 -28 -29 -30 0
-3 -4 -5 -6 -7 -8 -9 -10 -11 -13 -14 -15 -16 -17 -18 -19 -20 -21 -22 -23 -24 -25 -26 -27 -28 -29 -30 0
-1 -2 -4 -5 -6 -7 -8 -9 -10 -11 -13 -22 -31 -32 -33 -34 -35 -36 -37 -38 0
-2 -4 -5 -6 -7 -8 -9 -10 -11 -12 -14 -15 -16 -17 -18 -19 -20 -21 -22 -31 -32 -33 -34 -35 -36 -37 -38 0
-1 -4 -5 -6 -7 -8 -9 -10 -11 -12 -23 -24 -25 -26 -27 -28 -29 -30 -13 -31 -32 -33 -34 -35 -36 -37 -38 0
-4 -5 -6 -7 -8 -9 -10 -11 -14 -15 -16 -17 -18 -19 -20 -21 -23 -24 -25 -26 -27 -28 -29 -30 -31 -32 -33 -34 -35 -36 -37 -38 0
-1 -2 -3 -5 -6 -7 -8 -9 -10 -11 -14 -23 -31 -39 -40 -41 -42 -43 -44 -45 0
-2 -3 -5 -6 -7 -8 -9 -10 -11 -12 -13 -15 -16 -17 -18 -19 -20 -21 -23 -31 -39 -40 -41 -42 -43 -44 -45 0
-1 -3 -5 -6 -7 -8 -9 -10 -11 -12 -22 -24 -25 -26 -27 -28 -29 -30 -14 -31 -39 -40 -41 -42 -43 -44 -45 0
-3 -5 -6 -7 -8 -9 -10 -11 -13 -15 -16 -17 -18 -19 -20 -21 -22 -24 -25 -26 -27 -28 -29 -30 -31 -39 -40 -41 -42 -43 -44 -45 0
-1 -2 -5 -6 -7 -8 -9 -10 -11 -13 -22 -32 -33 -34 -35 -36 -37 -38 -14 -23 -39 -40 -41 -42 -43 -44 -45 0
-2 -5 -6 -7 -8 -9 -10 -11 -12 -15 -16 -17 -18 -19 -20 -21 -22 -32 -33 -34 -35 -36 -37 -38 -23 -39 -40 -41 -42 -43 -44 -45 0
-1 -5 -6 -7 -8 -9 -10 -11 -12 -24 -25 -26 -27 -28 -29 -30 -13 -32 -33 -34 -35 -36 -37 -38 -14 -39 -40 -41 -42 -43 -44 -45 0
-5 -6 -7 -8 -9 -10 -11 -15 -16 -17 -18 -19 -20 -21 -24 -25 -26 -27 -28 -29 -30 -32 -33 -34 -35 -36 -37 -38 -39 -40 -41 -42 -43 -44 -45 0
-1 -2 -3 -4 -6 -7 -8 -9 -10 -11 -15 -24 -32 -39 -46 -47 -48 -49 -50 -51 0
-2 -3 -4 -6 -7 -8 -9 -10 -11 -12 -13 -14 -16 -17 -18 -19 -20 -21 -24 -32 -39 -46 -47 -48 -49 -50 -51 0
-1 -3 -4 -6 -7 -8 -9 -10 -11 -12 -22 -23 -25 -26 -27 -28 -29 -30 -15 -32 -39 -46 -47 -48 -49 -50 -51 0
-3 -4 -6 -7 -8 -9 -10 -11 -13 -14 -16 -17 -18 -19 -20 -21 -22 -23 -25 -26 -27 -28 -29 -30 -32 -39 -46 -47 -48 -49 -50 -51 0
-1 -2 -4 -6 -7 -8 -9 -10 -11 -13 -22 -31 -33 -34 -35 -36 -37 -38 -15 -24 -39 -46 -47 -48 -49 -50 -51 0
-2 -4 -6 -7 -8 -9 -10 -11 -12 -14 -16 -17 -18 -19 -20 -21 -22 -31 -33 -34 -35 -36 -37 -38 -24 -39 -46 -47 -48 -49 -50 -51 0
-1 -4 -6 -7 -8 -9 -10 -11 -12 -23 -25 -26 -27 -28 -29 -30 -13 -31 -33 -34 -35 -36 -37 -38 -15 -39 -46 -47 -48 -49 -50 -51 0
-4 -6 -7 -8 -9 -10 -11 -14 -16 -17 -18 -19 -20 -21 -23 -25 -26 -27 -28 -29 -30 -31 -33 -34 -35 -36 -37 -38 -39 -46 -47 -48 -49 -50 -51 0
-1 -2 -3 -6 -7 -8 -9 -10 -11 -14 -23 -31 -40 -41 -42 -43 -44 -45 -15 -24 -32 -46 -47 -48 -49 -50 -51 0
-2 -3 -6 -7 -8 -9 -10 -11 -12 -13 -16 -17 -18 -19 -20 -21 -23 -31 -40 -41 -42 -43 -44 -45 -24 -32 -46 -47 -48 -49 -50 -51 0
-1 -3 -6 -7 -8 -9 -10 -11 -12 -22 -25 -26 -27 -28 -29 -30 -14 -31 -40 -41 -42 -43 -44 -45 -15 -32 -46 -47 -48 -49 -50 -51 0
-3 -6 -7 -8 -9 -10 -11 -13 -16 -17 -18 -19 -20 -21 -22 -25 -26 -27 -28 -29 -30 -31 -40 -41 -42 -43 -44 -45 -32 -46 -47 -48 -49 -50 -51 0
-1 -2 -6 -7 -8 -9 -10 -11 -13 -22 -33 -34 -35 -36 -37 -38 -14 -23 -40 -41 -42 -43 -44 -45 -15 -24 -46 -47 -48 -49 -50 -51 0
-2 -6 -7 -8 -9 -10 -11 -12 -16 -17 -18 -19 -20 -21 -22 -33 -34 -35 -36 -37 -38 -23 -40 -41 -42 -43 -44 -45 -24 -46 -47 -48 -49 -50 -51 0
-1 -6 -7 -8 -9 -10 -11 -12 -25 -26 -27 -28 -29 -30 -13 -33 -34 -35 -36 -37 -38 -14 -40 -41 -42 -43 -44 -45 -15 -46 -47 -48 -49 -50 -51 0
-6 -7 -8 -9 -10 -11 -16 -17 -18 -19 -20 -21 -25 -26 -27 -28 -29 -30 -33 -34 -35 -36 -37 -38 -40 -41 -42 -43 -44 -45 -46 -47 -48 -49 -50 -51 0
-1 -2 -3 -4 -5 -7 -8 -9 -10 -11 -16 -25 -33 -40 -46 -52 -53 -54 -55 -56 0
-2 -3 -4 -5 -7 -8 -9 -10 -11 -12 -13 -14 -15 -17 -18 -19 -20 -21 -25 -33 -40 -46 -52 -53 -54 -55 -56 0
-1 -3 -4 -5 -7 -8 -9 -10 -11 -12 -22 -23 -24 -26 -27 -28 -29 -30 -16 -33 -40 -46 -52 -53 -54 -55 -56 0
-3 -4 -5 -7 -8 -9 -10 -11 -13 -14 -15 -17 -18 -19 -20 -21 -22 -23 -24 -26 -27 -28 -29 -30 -33 -40 -46 -52 -53 -54 -55 -56 0
-1 -2 -4 -5 -7 -8 -9 -10 -11 -13 -22 -31 -32 -34 -35 -36 -37 -38 -16 -25 -40 -46 -52 -53 -54 -55 -56 0
-2 -4 -5 -7 -8 -9 -10 -11 -12 -14 -15 -17 -18 -19 -20 -21 -22 -31 -32 -34 -35 -36 -37 -38 -25 -40 -46 -52 -53 -54 -55 -56 0
-1 -4 -5 -7 -8 -9 -10 -11 -12 -23 -24 -26 -27 -28 -29 -30 -13 -31 -32 -34 -35 -36 -37 -38 -16 -40 -46 -52 -53 -54 -55 -56 0
-4 -5 -7 -8 -9 -10 -11 -14 -15 -17 -18 -19 -20 -21 -23 -24 -26 -27 -28 -29 -30 -31 -32 -34 -35 -36 -37 -38 -40 -46 -52 -53 -54 -55 -56 0
-1 -2 -3 -5 -7 -8 -9 -10 -11 -14 -23 -31 -39 -41 -42 -43 -44 -45 -16 -25 -33 -46 -52 -53 -54 -55 -56 0
-2 -3 -5 -7 -8 -9 -10 -11 -12 -13 -15 -17 -18 -19 -20 -21 -23 -31 -39 -41 -42 -43 -44 -45 -25 -33 -46 -52 -53 -54 -55 -56 0
-1 -3 -5 -7 -8 -9 -10 -11 -12 -22 -24 -26 -27 -28 -29 -30 -14 -31 -39 -41 -42 -43 -44 -45 -16 -33 -46 -52 -53 -54 -55 -56 0
-3 -5 -7 -8 -9 -10 -11 -13 -15 -17 -18 -19 -20 -21 -22 -24 -26 -27 -28 -29 -30 -31 -39 -41 -42 -43 -44 -45 -33 -46 -52 -53 -54 -55 -56 0
-1 -2 -5 -7 -8 -9 -10 -11 -13 -22 -32 -34 -35 -36 -37 -38 -14 -23 -39 -41 -42 -43 -44 -45 -16 -25 -46 -52 -53 -54 -55 -56 0
-2 -5 -7 -8 -9 -10 -11 -12 -15 -17 -18 -19 -20 -21 -22 -32 -34 -35 -36 -37 -38 -23 -39 -41 -42 -43 -44 -45 -25 -46 -52 -53 -54 -55 -56 0
-1 -5 -7 -8 -9 -10 -11 -12 -24 -26 -27 -28 -29 -30 -13 -32 -34 -35 -36 -37 -38 -14 -39 -41 -42 -43 -44 -45 -16 -46 -52 -53 -54 -55 -56 0
-5 -7 -8 -9 -10 -11 -15 -17 -18 -19 -20 -21 -24 -26 -27 -28 -29 -30 -32 -34 -35 -36 -37 -38 -39 -41 -42 -43 -44 -45 -46 -52 -53 -54 -55 -56 0
-1 -2 -3 -4 -7 -8 -9 -10 -11 -15 -24 -32 -39 -47 -48 -49 -50 -51 -16 -25 -33 -40 -52 -53 -54 -55 -56 0
-2 -3 -4 -7 -8 -9 -10 -11 -12 -13 -14 -17 -18 -19 -20 -21 -24 -32 -39 -47 -48 -49 -50 -51 -25 -33 -40 -52 -53 -54 -55 -56 0
-1 -3 -4 -7 -8 -9 -10 -11 -12 -22 -23 -26 -27 -28 -29 -30 -15 -32 -39 -47 -48 -49 -50 -51 -16 -33 -40 -52 -53 -54 -55 -56 0
-3 -4 -7 -8 -9 -10 -11 -13 -14 -17 -18 -19 -20 -21 -22 -23 -26 -27 -28 -29 -30 -32 -39 -47 -48 -49 -50 -51 -33 -40 -52 -53 -54 -55 -56 0
-1 -2 -4 -7 -8 -9 -10 -11 -13 -22 -31 -34 -35 -36 -37 -38 -15 -24 -39 -47 -48 -49 -50 -51 -16 -25 -40 -52 -53 -54 -55 -56 0
-2 -4 -7 -8 -9 -10 -11 -12 -14 -17 -18 -19 -20 -21 -22 -31 -34 -35 -36 -37 -38 -24 -39 -47 -48 -49 -50 -51 -25 -40 -52 -53 -54 -55 -56 0
-1 -4 -7 -8 -9 -10 -11 -12 -23 -26 -27 -28 -29 -30 -13 -31 -34 -35 -36 -37 -38 -15 -39 -47 -48 -49 -50 -51 -16 -40 -52 -53 -54 -55 -56 0
-4 -7 -8 -9 -10 -11 -14 -17 -18 -19 -20 -21 -23 -26 -27 -28 -29 -30 -31 -34 -35 -36 -37 -38 -39 -47 -48 -49 -50 -51 -40 -52 -53 -54 -55 -56 0
-1 -2 -3 -7 -8 -9 -10 -11 -14 -23 -31 -41 -42 -43 -44 -45 -15 -24 -32 -47 -48 -49 -50 -51 -16 -25 -33 -52 -53 -54 -55 -56 0
-2 -3 -7 -8 -9 -10 -11 -12 -13 -17 -18 -19 -20 -21 -23 -31 -41 -42 -43 -44 -45 -24 -32 -47 -48 -49 -50 -51 -25 -33 -52 -53 -54 -55 -56 0
-1 -3 -7 -8 -9 -10 -11 -12 -22 -26 -27 -28 -29 -30 -14 -31 -41 -42 -43 -44 -45 -15 -32 -47 -48 -49 -50 -51 -16 -33 -52 -53 -54 -55 -56 0
-3 -7 -8 -9 -10 -11 -13 -17 -18 -19 -20 -21 -22 -26 -27 -28 -29 -30 -31 -41 -42 -43 -44 -45 -32 -47 -48 -49 -50 -51 -33 -52 -53 -54 -55 -56 0
-1 -2 -7 -8 -9 -10 -11 -13 -22 -34 -35 -36 -37 -38 -14 -23 -41 -42 -43 -44 -45 -15 -24 -47 -48 -49 -50 -51 -16 -25 -52 -53 -54 -55 -56 0
-2 -7 -8 -9 -10 -11 -12 -17 -18 -19 -20 -21 -22 -34 -35 -36 -37 -38 -23 -41 -42 -43 -44 -45 -24 -47 -48 -49 -50 -51 -25 -52 -53 -54 -55 -56 0
-1 -7 -8 -9 -10 -11 -12 -26 -27 -28 -29 -30 -13 -34 -35 -36 -37 -38 -14 -41 -42 -43 -44 -45 -15 -47 -48 -49 -50 -51 -16 -52 -53 -54 -55 -56 0
-7 -8 -9 -10 -11 -17 -18 -19 -20 -21 -26 -27 -28 -29 -30 -34 -35 -36 -37 -38 -41 -42 -43 -44 -45 -47 -48 -49 -50 -51 -52 -53 -54 -55 -56 0
-1 -2 -3 -4 -5 -6 -8 -9 -10 -11 -17 -26 -34 -41 -47 -52 -57 -58 -59 -60 0
-2 -3 -4 -5 -6 -8 -9 -10 -11 -12 -13 -14 -15 -16 -18 -19 -20 -21 -26 -34 -41 -47 -52 -57 -58 -59 -60 0
-1 -3 -4 -5 -6 -8 -9 -10 -11 -12 -22 -23 -24 -25 -27 -28 -29 -30 -17 -34 -41 -47 -52 -57 -58 -59 -60 0
-3 -4 -5 -6 -8 -9 -10 -11 -13 -14 -15 -16 -18 -19 -20 -21 -22 -23 -24 -25 -27 -28 -29 -30 -34 -41 -47 -52 -57 -58 -59 -60 0
-1 -2 -4 -5 -6 -8 -9 -10 -11 -13 -22 -31 -32 -33 -35 -36 -37 -38 -17 -26 -41 -47 -52 -57 -58 -59 -60 0
-2 -4 -5 -6 -8 -9 -10 -11 -12 -14 -15 -16 -18 -19 -20 -21 -22 -31 -32 -33 -35 -36 -37 -38 -26 -41 -47 -52 -57 -58 -59 -60 0
-1 -4 -5 -6 -8 -9 -10 -11 -12 -23 -24 -25 -27 -28 -29 -30 -13 -31 -32 -33 -35 -36 -37 -38 -17 -41 -47 -52 -57 -58 -59 -60 0
-4 -5 -6 -8 -9 -10 -11 -14 -15 -16 -18 -19 -20 -21 -23 -24 -25 -27 -28 -29 -30 -31 -32 -33 -35 -36 -37 -38 -41 -47 -52 -57 -58 -59 -60 0
-1 -2 -3 -5 -6 -8 -9 -10 -11 -14 -23 -31 -39 -40 -42 -43 -44 -45 -17 -26 -34 -47 -52 -57 -58 -59 -60 0
-2 -3 -5 -6 -8 -9 -10 -11 -12 -13 -15 -16 -18 -19 -20 -21 -23 -31 -39 -40 -42 -43 -44 -45 -26 -34 -47 -52 -57 -58 -59 -60 0
-1 -3 -5 -6 -8 -9 -10 -11 -12 -22 -24 -25 -27 -28 -29 -30 -14 -31 -39 -40 -42 -43 -44 -45 -17 -34 -47 -52 -57 -58 -59 -60 0
-3 -5 -6 -8 -9 -10 -11 -13 -15 -16 -18 -19 -20 -21 -22 -24 -25 -27 -28 -29 -30 -31 -39 -40 -42 -43 -44 -45 -34 -47 -52 -57 -58 -59 -60 0
-1 -2 -5 -6 -8 -9 -10 -11 -13 -22 -32 -33 -35 -36 -37 -38 -14 -23 -39 -40 -42 -43 -44 -45 -17 -26 -47 -52 -57 -58 -59 -60 0
-2 -5 -6 -8 -9 -10 -11 -12 -15 -16 -18 -19 -20 -21 -22 -32 -33 -35 -36 -37 -38 -23 -39 -40 -42 -43 -44 -45 -26 -47 -52 -57 -58 -59 -60 0
-1 -5 -6 -8 -9 -10 -11 -12 -24 -25 -27 -28 -29 -30 -13 -32 -33 -35 -36 -37 -38 -14 -39 -40 -42 -43 -44 -45 -17 -47 -52 -57 -58 -59 -60 0
-5 -6 -8 -9 -10 -11 -15 -16 -18 -19 -20 -21 -24 -25 -27 -28 -29 -30 -32 -33 -35 -36 -37 -38 -39 -40 -42 -43 -44 -45 -47 -52 -57 -58 -59 -60 0
-1 -2 -3 -4 -6 -8 -9 -10 -11 -15 -24 -32 -39 -46 -48 -49 -50 -51 -17 -26 -34 -41 -52 -57 -58 -59 -60 0
-2 -3 -4 -6 -8 -9 -10 -11 -12 -13 -14 -16 -18 -19 -20 -21 -24 -32 -39 -46 -48 -49 -50 -51 -26 -34 -41 -52 -57 -58 -59 -60 0
-1 -3 -4 -6 -8 -9 -10 -11 -12 -22 -23 -25 -27 -28 -29 -30 -15 -32 -39 -46 -48 -49 -50 -51 -17 -34 -41 -52 -57 -58 -59 -60 0
-3 -4 -6 -8 -9 -10 -11 -13 -14 -16 -18 -19 -20 -21 -22 -23 -25 -27 -28 -29 -30 -32 -39 -46 -48 -49 -50 -51 -34 -41 -52 -57 -58 -59 -60 0
-1 -2 -4 -6 -8 -9 -10 -11 -13 -22 -31 -33 -35 -36 -37 -38 -15 -24 -39 -46 -48 -49 -50 -51 -17 -26 -41 -52 -57 -58 -59 -60 0
-2 -4 -6 -8 -9 -10 -11 -12 -14 -16 -18 -19 -20 -21 -22 -31 -33 -35 -36 -37 -38 -24 -39 -46 -48 -49 -50 -51 -26 -41 -52 -57 -58 -59 -60 0
-1 -4 -6 -8 -9 -10 -11 -12 -23 -25 -27 -28 -29 -30 -13 -31 -33 -35 -36 -37 -38 -15 -39 -46 -48 -49 -50 -51 -17 -41 -52 -57 -58 -59 -60 0
-4 -6 -8 -9 -10 -11 -14 -16 -18 -19 -20 -21 -23 -25 -27 -28 -29 -30 -31 -33 -35 -36 -37 -38 -39 -46 -48 -49 -50 -51 -41 -52 -57 -58 -59 -60 0
-1 -2 -3 -6 -8 -9 -10 -11 -14 -23 -31 -40 -42 -43 -44 -45 -15 -24 -32 -46 -48 -49 -50 -51 -17 -26 -34 -52 -57 -58 -59 -60 0
-2 -3 -6 -8 -9 -10 -11 -12 -13 -16 -18 -19 -20 -21 -23 -31 -40 -42 -43 -44 -45 -24 -32 -46 -48 -49 -50 -51 -26 -34 -52 -57 -58 -59 -60 0
-1 -3 -6 -8 -9 -10 -11 -12 -22 -25 -27 -28 -29 -30 -14 -31 -40 -42 -43 -44 -45 -15 -32 -46 -48 -49 -50 -51 -17 -34 -52 -57 -58 -59 -60 0
-3 -6 -8 -9 -10 -11 -13 -16 -18 -19 -20 -21 -22 -25 -27 -28 -29 -30 -31 -40 -42 -43 -44 -45 -32 -46 -48 -49 -50 -51 -34 -52 -57 -58 -59 -60 0
-1 -2 -6 -8 -9 -10 -11 -13 -22 -33 -35 -36 -37 -38 -14 -23 -40 -42 -43 -44 -45 -15 -24 -46 -48 -49 -50 -51 -17 -26 -52 -57 -58 -59 -60 0
-2 -6 -8 -9 -10 -11 -12 -16 -18 -19 -20 -21 -22 -33 -35 -36 -37 -38 -23 -40 -42 -43 -44 -45 -24 -46 -48 -49 -50 -51 -26 -52 -57 -58 -59 -60 0
-1 -6 -8 -9 -10 -11 -12 -25 -27 -28 -29 -30 -13 -33 -35 -36 -37 -38 -14 -40 -42 -43 -44 -45 -15 -46 -48 -49 -50 -51 -17 -52 -57 -58 -59 -60 0
-6 -8 -9 -10 -11 -16 -18 -19 -20 -21 -25 -27 -28 -29 -30 -33 -35 -36 -37 -38 -40 -42 -43 -44 -45 -46 -48 -49 -50 -51 -52 -57 -58 -59 -60 0
-1 -2 -3 -4 -5 -8 -9 -10 -11 -16 -25 -33 -40 -46 -53 -54 -55 -56 -17 -26 -34 -41 -47 -57 -58 -59 -60 0
-2 -3 -4 -5 -8 -9 -10 -11 -12 -13 -14 -15 -18 -19 -20 -21 -25 -33 -40 -46 -53 -54 -55 -56 -26 -34 -41 -47 -57 -58 -59 -60 0
-1 -3 -4 -5 -8 -9 -10 -11 -12 -22 -23 -24 -27 -28 -29 -30 -16 -33 -40 -46 -53 -54 -55 -56 -17 -34 -41 -47 -57 -58 -59 -60 0
-3 -4 -5 -8 -9 -10 -11 -13 -14 -15 -18 -19 -20 -21 -22 -23 -24 -27 -28 -29 -30 -33 -40 -46 -53 -54 -55 -56 -34 -41 -47 -57 -58 -59 -60 0
-1 -2 -4 -5 -8 -9 -10 -11 -13 -22 -31 -32 -35 -36 -37 -38 -16 -25 -40 -46 -53 -54 -55 -56 -17 -26 -41 -47 -57 -58 -59 -60 0
-2 -4 -5 -8 -9 -10 -11 -12 -14 -15 -18 -19 -20 -21 -22 -31 -32 -35 -36 -37 -38 -25 -40 -46 -53 -54 -55 -56 -26 -41 -47 -57 -58 -59 -60 0
-1 -4 -5 -8 -9 -10 -11 -12 -23 -24 -27 -28 -29 -30 -13 -31 -32 -35 -36 -37 -38 -16 -40 -46 -53 -54 -55 -56 -17 -41 -47 -57 -58 -59 -60 0
-4 -5 -8 -9 -10 -11 -14 -15 -18 -19 -20 -21 -23 -24 -27 -28 -29 -30 -31 -32 -35 -36 -37 -38 -40 -46 -53 -54 -55 -56 -41 -47 -57 -58 -59 -60 0
-1 -2 -3 -5 -8 -9 -10 -11 -14 -23 -31 -39 -42 -43 -44 -45 -16 -25 -33 -46 -53 -54 -55 -56 -17 -26 -34 -47 -57 -58 -59 -60 0
-2 -3 -5 -8 -9 -10 -11 -12 -13 -15 -18 -19 -20 -21 -23 -31 -39 -42 -43 -44 -45 -25 -33 -46 -53 -54 -55 -56 -26 -34 -47 -57 -58 -59 -60 0
-1 -3 -5 -8 -9 -10 -11 -12 -22 -24 -27 -28 -29 -30 -14 -31 -39 -42 -43 -44 -45 -16 -33 -46 -53 -54 -55 -56 -17 -34 -47 -57 -58 -59 -60 0
-3 -5 -8 -9 -10 -11 -13 -15 -18 -19 -20 -21 -22 -24 -27 -28 -29 -30 -31 -39 -42 -43 -44 -45 -33 -46 -53 -54 -55 -56 -34 -47 -57 -58 -59 -60 0
-1 -2 -5 -8 -9 -10 -11 -13 -22 -32 -35 -36 -37 -38 -14 -23 -39 -42 -43 -44 -45 -16 -25 -46 -53 -54 -55 -56 -17 -26 -47 -57 -58 -59 -60 0
-2 -5 -8 -9 -10 -11 -12 -15 -18 -19 -20 -21 -22 -32 -35 -36 -37 -38 -23 -39 -42 -43 -44 -45 -25 -46 -53 -54 -55 -56 -26 -47 -57 -58 -59 -60 0
-1 -5 -8 -9 -10 -11 -12 -24 -27 -28 -29 -30 -13 -32 -35 -36 -37 -38 -14 -39 -42 -43 -44 -45 -16 -46 -53 -54 -55 -56 -17 -47 -57 -58 -59 -60 0
-5 -8 -9 -10 -11 -15 -18 -19 -20 -21 -24 -27 -28 -29 -30 -32 -35 -36 -37 -38 -39 -42 -43 -44 -45 -46 -53 -54 -55 -56 -47 -57 -58 -59 -60 0
-1 -2 -3 -4 -8 -9 -10 -11 -15 -24 -32 -39 -48 -49 -50 -51 -16 -25 -33 -40 -53 -54 -55 -56 -17 -26 -34 -41 -57 -58 -59 -60 0
-2 -3 -4 -8 -9 -10 -11 -12 -13 -14 -18 -19 -20 -21 -24 -32 -39 -48 -49 -50 -51 -25 -33 -40 -53 -54 -55 -56 -26 -34 -41 -57 -58 -59 -60 0
-1 -3 -4 -8 -9 -10 -11 -12 -22 -23 -27 -28 -29 -30 -15 -32 -39 -48 -49 -50 -51 -16 -33 -40 -53 -54 -55 -56 -17 -34 -41 -57 -58 -59 -60 0
-3 -4 -8 -9 -10 -11 -13 -14 -18 -19 -20 -21 -22 -23 -27 -28 -29 -30 -32 -39 -48 -49 -50 -51 -33 -40 -53 -54 -55 -56 -34 -41 -57 -58 -59 -60 0
-1 -2 -4 -8 -9 -10 -11 -13 -22 -31 -35 -36 -37 -38 -15 -24 -39 -48 -49 -50 -51 -16 -25 -40 -53 -54 -55 -56 -17 -26 -41 -57 -58 -59 -60 0
-2 -4 -8 -9 -10 -11 -12 -14 -18 -19 -20 -21 -22 -31 -35 -36 -37 -38 -24 -39 -48 -49 -50 -51 -25 -40 -53 -54 -55 -56 -26 -41 -57 -58 -59 -60 0
-1 -4 -8 -9 -10 -11 -12 -23 -27 -28 -29 -30 -13 -31 -35 -36 -37 -38 -15 -39 -48 -49 -50 -51 -16 -40 -53 -54 -55 -56 -17 -41 -57 -58 -59 -60 0
-4 -8 -9 -10 -11 -14 -18 -19 -20 -21 -23 -27 -28 -29 -30 -31 -35 -36 -37 -38 -39 -48 -49 -50 -51 -40 -53 -54 -55 -56 -41 -57 -58 -59 -60 0
-1 -2 -3 -8 -9 -10 -11 -14 -23 -31 -42 -43 -44 -45 -15 -24 -32 -48 -49 -50 -51 -16 -25 -33 -53 -54 -55 -56 -17 -26 -34 -57 -58 -59 -60 0
-2 -3 -8 -9 -10 -11 -12 -13 -18 -19 -20 -21 -23 -31 -42 -43 -44 -45 -24 -32 -48 -49 -50 -51 -25 -33 -53 -54 -55 -56 -26 -34 -57 -58 -59 -60 0
-1 -3 -8 -9 -10 -11 -12 -22 -27 -28 -29 -30 -14 -31 -42 -43 -44 -45 -15 -32 -48 -49 -50 -51 -16 -33 -53 -54 -55 -56 -17 -34 -57 -58 -59 -60 0
-3 -8 -9 -10 -11 -13 -18 -19 -20 -21 -22 -27 -28 -29 -30 -31 -42 -43 -44 -45 -32 -48 -49 -50 -51 -33 -53 -54 -55 -56 -34 -57 -58 -59 -60 0
-1 -2 -8 -9 -10 -11 -13 -22 -35 -36 -37 -38 -14 -23 -42 -43 -44 -45 -15 -24 -48 -49 -50 -51 -16 -25 -53 -54 -55 -56 -17 -26 -57 -58 -59 -60 0
-2 -8 -9 -10 -11 -12 -18 -19 -20 -21 -22 -35 -36 -37 -38 -23 -42 -43 -44 -45 -24 -48 -49 -50 -51 -25 -53 -54 -55 -56 -26 -57 -58 -59 -60 0
-1 -8 -9 -10 -11 -12 -27 -28 -29 -30 -13 -35 -36 -37 -38 -14 -42 -43 -44 -45 -15 -48 -49 -50 -51 -16 -53 -54 -55 -56 -17 -57 -58 -59 -60 0
-8 -9 -10 -11 -18 -19 -20 -21 -27 -28 -29 -30 -35 -36 -37 -38 -42 -43 -44 -45 -48 -49 -50 -51 -53 -54 -55 -56 -57 -58 -59 -60 0
-1 -2 -3 -4 -5 -6 -7 -9 -10 -11 -18 -27 -35 -42 -48 -53 -57 -61 -62 -63 0
-2 -3 -4 -5 -6 -7 -9 -10 -11 -12 -13 -14 -15 -16 -17 -19 -20 -21 -27 -35 -42 -48 -53 -57 -61 -62 -63 0
-1 -3 -4 -5 -6 -7 -9 -10 -11 -12 -22 -23 -24 -25 -26 -28 -29 -30 -18 -35 -42 -48 -53 -57 -61 -62 -63 0
-3 -4 -5 -6 -7 -9 -10 -11 -13 -14 -15 -16 -17 -19 -20 -21 -22 -23 -24 -25 -26 -28 -29 -30 -35 -42 -48 -53 -57 -61 -62 -63 0
-1 -2 -4 -5 -6 -7 -9 -10 -11 -13 -22 -31 -32 -33 -34 -36 -37 -38 -18 -27 -42 -48 -53 -57 -61 -62 -63 0
-2 -4 -5 -6 -7 -9 -10 -11 -12 -14 -15 -16 -17 -19 -20 -21 -22 -31 -32 -33 -34 -36 -37 -38 -27 -42 -48 -53 -57 -61 -62 -63 0
-1 -4 -5 -6 -7 -9 -10 -11 -12 -23 -24 -25 -26 -28 -29 -30 -13 -31 -32 -33 -34 -36 -37 -38 -18 -42 -48 -53 -57 -61 -62 -63 0
-4 -5 -6 -7 -9 -10 -11 -14 -15 -16 -17 -19 -20 -21 -23 -24 -25 -26 -28 -29 -30 -31 -32 -33 -34 -36 -37 -38 -42 -48 -53 -57 -61 -62 -63 0
-1 -2 -3 -5 -6 -7 -9 -10 -11 -14 -23 -31 -39 -40 -41 -43 -44 -45 -18 -27 -35 -48 -53 -57 -61 -62 -63 0
-2 -3 -5 -6 -7 -9 -10 -11 -12 -13 -15 -16 -17 -19 -20 -21 -23 -31 -39 -40 -41 -43 -44 -45 -27 -35 -48 -53 -57 -61 -62 -63 0
-1 -3 -5 -6 -7 -9 -10 -11 -12 -22 -24 -25 -26 -28 -29 -30 -14 -31 -39 -40 -41 -43 -44 -45 -18 -35 -48 -53 -57 -61 -62 -63 0
-3 -5 -6 -7 -9 -10 -11 -13 -15 -16 -17 -19 -20 -21 -22 -24 -25 -26 -28 -29 -30 -31 -39 -40 -41 -43 -44 -45 -35 -48 -53 -57 -61 -62 -63 0
-1 -2 -5 -6 -7 -9 -10 -11 -13 -22 -32 -33 -34 -36 -37 -38 -14 -23 -39 -40 -41 -43 -44 -45 -18 -27 -48 -53 -57 -61 -62 -63 0
-2 -5 -6 -7 -9 -10 -11 -12 -15 -16 -17 -19 -20 -21 -22 -32 -33 -34 -36 -37 -38 -23 -39 -40 -41 -43 -44 -45 -27 -48 -53 -57 -61 -62 -63 0
-1 -5 -6 -7 -9 -10 -11 -12 -24 -25 -26 -28 -29 -30 -13 -32 -33 -34 -36 -37 -38 -14 -39 -40 -41 -43 -44 -45 -18 -48 -53 -57 -61 -62 -63 0
-5 -6 -7 -9 -10 -11 -15 -16 -17 -19 -20 -21 -24 -25 -26 -28 -29 -30 -32 -33 -34 -36 -37 -38 -39 -40 -41 -43 -44 -45 -48 -53 -57 -61 -62 -63 0
-1 -2 -3 -4 -6 -7 -9 -10 -11 -15 -24 -32 -39 -46 -47 -49 -50 -51 -18 -27 -35 -42 -53 -57 -61 -62 -63 0
-2 -3 -4 -6 -7 -9 -10 -11 -12 -13 -14 -16 -17 -19 -20 -21 -24 -32 -39 -46 -47 -49 -50 -51 -27 -35 -42 -53 -57 -61 -62 -63 0
-1 -3 -4 -6 -7 -9 -10 -11 -12 -22 -23 -25 -26 -28 -29 -30 -15 -32 -39 -46 -47 -49 -50 -51 -18 -35 -42 -53 -57 -61 -62 -63 0
-3 -4 -6 -7 -9 -10 -11 -13 -14 -16 -17 -19 -20 -21 -22 -23 -25 -26 -28 -29 -30 -32 -39 -46 -47 -49 -50 -51 -35 -42 -53 -57 -61 -62 -63 0
-1 -2 -4 -6 -7 -9 -10 -11 -13 -22 -31 -33 -34 -36 -37 -38 -15 -24 -39 -46 -47 -49 -50 -51 -18 -27 -42 -53 -57 -61 -62 -63 0
-2 -4 -6 -7 -9 -10 -11 -12 -14 -16 -17 -19 -20 -21 -22 -31 -33 -34 -36 -37 -38 -24 -39 -46 -47 -49 -50 -51 -27 -42 -53 -57 -61 -62 -63 0
-1 -4 -6 -7 -9 -10 -11 -12 -23 -25 -26 -28 -29 -30 -13 -31 -33 -34 -36 -37 -38 -15 -39 -46 -47 -49 -50 -51 -18 -42 -53 -57 -61 -62 -63 0
-4 -6 -7 -9 -10 -11 -14 -16 -17 -19 -20 -21 -23 -25 -26 -28 -29 -30 -31 -33 -34 -36 -37 -38 -39 -46 -47 -49 -50 -51 -42 -53 -57 -61 -62 -63 0
-1 -2 -3 -6 -7 -9 -10 -11 -14 -23 -31 -40 -41 -43 -44 -45 -15 -24 -32 -46 -47 -49 -50 -51 -18 -27 -35 -53 -57 -61 -62 -63 0
-2 -3 -6 -7 -9 -10 -11 -12 -13 -16 -17 -19 -20 -21 -23 -31 -40 -41 -43 -44 -45 -24 -32 -46 -47 -49 -50 -51 -27 -35 -53 -57 -61 -62 -63 0
-1 -3 -6 -7 -9 -10 -11 -12 -22 -25 -26 -28 -29 -30 -14 -31 -40 -41 -43 -44 -45 -15 -32 -46 -47 -49 -50 -51 -18 -35 -53 -57 -61 -62 -63 0
-3 -6 -7 -9 -10 -11 -13 -16 -17 -19 -20 -21 -22 -25 -26 -28 -29 -30 -31 -40 -41 -43 -44 -45 -32 -46 -47 -49 -50 -51 -35 -53 -57 -61 -62 -63 0
-1 -2 -6 -7 -9 -10 -11 -13 -22 -33 -34 -36 -37 -38 -14 -23 -40 -41 -43 -44 -45 -15 -24 -46 -47 -49 -50 -51 -18 -27 -53 -57 -61 -62 -63 0
-2 -6 -7 -9 -10 -11 -12 -16 -17 -19 -20 -21 -22 -33 -34 -36 -37 -38 -23 -40 -41 -43 -44 -45 -24 -46 -47 -49 -50 -51 -27 -53 -57 -61 -62 -63 0
-1 -6 -7 -9 -10 -11 -12 -25 -26 -28 -29 -30 -13 -33 -34 -36 -37 -38 -14 -40 -41 -43 -44 -45 -15 -46 -47 -49 -50 -51 -18 -53 -57 -61 -62 -63 0
-6 -7 -9 -10 -11 -16 -17 -19 -20 -21 -25 -26 -28 -29 -30 -33 -34 -36 -37 -38 -40 -41 -43 -44 -45 -46 -47 -49 -50 -51 -53 -57 -61 -62 -63 0
-1 -2 -3 -4 -5 -7 -9 -10 -11 -16 -25 -33 -40 -46 -52 -54 -55 -56 -18 -27 -35 -42 -48 -57 -61 -62 -63 0
-2 -3 -4 -5 -7 -9 -10 -11 -12 -13 -14 -15 -17 -19 -20 -21 -25 -33 -40 -46 -52 -54 -55 -56 -27 -35 -42 -48 -57 -61 -62 -63 0
-1 -3 -4 -5 -7 -9 -10 -11 -12 -22 -23 -24 -26 -28 -29 -30 -16 -33 -40 -46 -52 -54 -55 -56 -18 -35 -42 -48 -57 -61 -62 -63 0
-3 -4 -5 -7 -9 -10 -11 -13 -14 -15 -17 -19 -20 -21 -22 -23 -24 -26 -28 -29 -30 -33 -40 -46 -52 -54 -55 -56 -35 -42 -48 -57 -61 -62 -63 0
-1 -2 -4 -5 -7 -9 -10 -11 -13 -22 -31 -32 -34 -36 -37 -38 -16 -25 -40 -46 -52 -54 -55 -56 -18 -27 -42 -48 -57 -61 -62 -63 0
-2 -4 -5 -7 -9 -10 -11 -12 -14 -15 -17 -19 -20 -21 -22 -31 -32 -34 -36 -37 -38 -25 -40 -46 -52 -54 -55 -56 -27 -42 -48 -57 -61 -62 -63 0
-1 -4 -5 -7 -9 -10 -11 -12 -23 -24 -26 -28 -29 -30 -13 -31 -32 -34 -36 -37 -38 -16 -40 -46 -52 -54 -55 -56 -18 -42 -48 -57 -61 -62 -63 0
-4 -5 -7 -9 -10 -11 -14 -15 -17 -19 -20 -21 -23 -24 -26 -28 -29 -30 -31 -32 -34 -36 -37 -38 -40 -46 -52 -54 -55 -56 -42 -48 -57 -61 -62 -63 0
-1 -2 -3 -5 -7 -9 -10 -11 -14 -23 -31 -39 -41 -43 -44 -45 -16 -25 -33 -46 -52 -54 -55 -56 -18 -27 -35 -48 -57 -61 -62 -63 0
-2 -3 -5 -7 -9 -10 -11 -12 -13 -15 -17 -19 -20 -21 -23 -31 -39 -41 -43 -44 -45 -25 -33 -46 -52 -54 -55 -56 -27 -35 -48 -57 -61 -62 -63 0
-1 -3 -5 -7 -9 -10 -11 -12 -22 -24 -26 -28 -29 -30 -14 -31 -39 -41 -43 -44 -45 -16 -33 -46 -52 -54 -55 -56 -18 -35 -48 -57 -61 -62 -63 0
-3 -5 -7 -9 -10 -11 -13 -15 -17 -19 -20 -21 -22 -24 -26 -28 -29 -30 -31 -39 -41 -43 -44 -45 -33 -46 -52 -54 -55 -56 -35 -48 -57 -61 -62 -63 0
-1 -2 -5 -7 -9 -10 -11 -13 -22 -32 -34 -36 -37 -38 -14 -23 -39 -41 -43 -44 -45 -16 -25 -46 -52 -54 -55 -56 -18 -27 -48 -57 -61 -62 -63 0
-2 -5 -7 -9 -10 -11 -12 -15 -17 -19 -20 -21 -22 -32 -34 -36 -37 -38 -23 -39 -41 -43 -44 -45 -25 -46 -52 -54 -55 -56 -27 -48 -57 -61 -62 -63 0
-1 -5 -7 -9 -10 -11 -12 -24 -26 -28 -29 -30 -13 -32 -34 -36 -37 -38 -14 -39 -41 -43 -44 -45 -16 -46 -52 -54 -55 -56 -18 -48 -57 -61 -62 -63 0
-5 -7 -9 -10 -11 -15 -17 -19 -20 -21 -24 -26 -28 -29 -30 -32 -34 -36 -37 -38 -39 -41 -43 -44 -45 -46 -52 -54 -55 -56 -48 -57 -61 -62 -63 0
-1 -2 -3 -4 -7 -9 -10 -11 -15 -24 -32 -39 -47 -49 -50 -51 -16 -25 -33 -40 -52 -54 -55 -56 -18 -27 -35 -42 -57 -61 -62 -63 0
-2 -3 -4 -7 -9 -10 -11 -12 -13 -14 -17 -19 -20 -21 -24 -32 -39 -47 -49 -50 -51 -25 -33 -40 -52 -54 -55 -56 -27 -35 -42 -57 -61 -62 -63 0
-1 -3 -4 -7 -9 -10 -11 -12 -22 -23 -26 -28 -29 -30 -15 -32 -39 -47 -49 -50 -51 -16 -33 -40 -52 -54 -55 -56 -18 -35 -42 -57 -61 -62 -63 0
-3 -4 -7 -9 -10 -11 -13 -14 -17 -19 -20 -21 -22 -23 -26 -28 -29 -30 -32 -39 -47 -49 -50 -51 -33 -40 -52 -54 -55 -56 -35 -42 -57 -61 -62 -63 0
-1 -2 -4 -7 -9 -10 -11 -13 -22 -31 -34 -36 -37 -38 -15 -24 -39 -47 -49 -50 -51 -16 -25 -40 -52 -54 -55 -56 -18 -27 -42 -57 -61 -62 -63 0
-2 -4 -7 -9 -10 -11 -12 -14 -17 -19 -20 -21 -22 -31 -34 -36 -37 -38 -24 -39 -47 -49 -50 -51 -25 -40 -52 -54 -55 -56 -27 -42 -57 -61 -62 -63 0
-1 -4 -7 -9 -10 -11 -12 -23 -26 -28 -29 -30 -13 -31 -34 -36 -37 -38 -15 -39 -47 -49 -50 -51 -16 -40 -52 -54 -55 -56 -18 -42 -57 -61 -62 -63 0
-4 -7 -9 -10 -11 -14 -17 -19 -20 -21 -23 -26 -28 -29 -30 -31 -34 -36 -37 -38 -39 -47 -49 -50 -51 -40 -52 -54 -55 -56 -42 -57 -61 -62 -63 0
-1 -2 -3 -7 -9 -10 -11 -14 -23 -31 -41 -43 -44 -45 -15 -24 -32 -47 -49 -50 -51 -16 -25 -33 -52 -54 -55 -56 -18 -27 -35 -57 -61 -62 -63 0
-2 -3 -7 -9 -10 -11 -12 -13 -17 -19 -20 -21 -23 -31 -41 -43 -44 -45 -24 -32 -47 -49 -50 -51 -25 -33 -52 -54 -55 -56 -27 -35 -57 -61 -62 -63 0
-1 -3 -7 -9 -10 -11 -12 -22 -26 -28 -29 -30 -14 -31 -41 -43 -44 -45 -15 -32 -47 -49 -50 -51 -16 -33 -52 -54 -55 -56 -18 -35 -57 -61 -62 -63 0
-3 -7 -9 -10 -11 -13 -17 -19 -20 -21 -22 -26 -28 -29 -30 -31 -41 -43 -44 -45 -32 -47 -49 -50 -51 -33 -52 -54 -55 -56 -35 -57 -61 -62 -63 0
-1 -2 -7 -9 -10 -11 -13 -22 -34 -36 -37 -38 -14 -23 -41 -43 -44 -45 -15 -24 -47 -49 -50 -51 -16 -25 -52 -54 -55 -56 -18 -27 -57 -61 -62 -63 0
-2 -7 -9 -10 -11 -12 -17 -19 -20 -21 -22 -34 -36 -37 -38 -23 -41 -43 -44 -45 -24 -47 -49 -50 -51 -25 -52 -54 -55 -56 -27 -57 -61 -62 -63 0
-1 -7 -9 -10 -11 -12 -26 -28 -29 -30 -13 -34 -36 -37 -38 -14 -41 -43 -44 -45 -15 -47 -49 -50 -51 -16 -52 -54 -55 -56 -18 -57 -61 -62 -63 0
-7 -9 -10 -11 -17 -19 -20 -21 -26 -28 -29 -30 -34 -36 -37 -38 -41 -43 -44 -45 -47 -49 -50 -51 -52 -54 -55 -56 -57 -61 -62 -63 0
-1 -2 -3 -4 -5 -6 -9 -10 -11 -17 -26 -34 -41 -47 -52 -58 -59 -60 -18 -27 -35 -42 -48 -53 -61 -62 -63 0
-2 -3 -4 -5 -6 -9 -10 -11 -12 -13 -14 -15 -16 -19 -20 -21 -26 -34 -41 -47 -52 -58 -59 -60 -27 -35 -42 -48 -53 -61 -62 -63 0
-1 -3 -4 -5 -6 -9 -10 -11 -12 -22 -23 -24 -25 -28 -29 -30 -17 -34 -41 -47 -52 -58 -59 -60 -18 -35 -42 -48 -53 -61 -62 -63 0
-3 -4 -5 -6 -9 -10 -11 -13 -14 -15 -16 -19 -20 -21 -22 -23 -24 -25 -28 -29 -30 -34 -41 -47 -52 -58 -59 -60 -35 -42 -48 -53 -61 -62 -63 0
-1 -2 -4 -5 -6 -9 -10 -11 -13 -22 -31 -32 -33 -36 -37 -38 -17 -26 -41 -47 -52 -58 -59 -60 -18 -27 -42 -48 -53 -61 -62 -63 0
-2 -4 -5 -6 -9 -10 -11 -12 -14 -15 -16 -19 -20 -21 -22 -31 -32 -33 -36 -37 -38 -26 -41 -47 -52 -58 -59 -60 -27 -42 -48 -53 -61 -62 -63 0
-1 -4 -5 -6 -9 -10 -11 -12 -23 -24 -25 -28 -29 -30 -13 -31 -32 -33 -36 -37 -38 -17 -41 -47 -52 -58 -59 -60 -18 -42 -48 -53 -61 -62 -63 0
-4 -5 -6 -9 -10 -11 -14 -15 -16 -19 -20 -21 -23 -24 -25 -28 -29 -30 -31 -32 -33 -36 -37 -38 -41 -47 -52 -58 -59 -60 -42 -48 -53 -61 -62 -63 0
-1 -2 -3 -5 -6 -9 -10 -11 -14 -23 -31 -39 -40 -43 -44 -45 -17 -26 -34 -47 -52 -58 -59 -60 -18 -27 -35 -48 -53 -61 -62 -63 0
-2 -3 -5 -6 -9 -10 -11 -12 -13 -15 -16 -19 -20 -21 -23 -31 -39 -40 -43 -44 -45 -26 -34 -47 -52 -58 -59 -60 -27 -35 -48 -53 -61 -62 -63 0
-1 -3 -5 -6 -9 -10 -11 -12 -22 -24 -25 -28 -29 -30 -14 -31 -39 -40 -43 -44 -45 -17 -34 -47 -52 -58 -59 -60 -18 -35 -48 -53 -61 -62 -63 0
-3 -5 -6 -9 -10 -11 -13 -15 -16 -19 -20 -21 -22 -24 -25 -28 -29 -30 -31 -39 -40 -43 -44 -45 -34 -47 -52 -58 -59 -60 -35 -48 -53 -61 -62 -63 0
-1 -2 -5 -6 -9 -10 -11 -13 -22 -32 -33 -36 -37 -38 -14 -23 -39 -40 -43 -44 -45 -17 -26 -47 -52 -58 -59 -60 -18 -27 -48 -53 -61 -62 -63 0
-2 -5 -6 -9 -10 -11 -12 -15 -16 -19 -20 -21 -22 -32 -33 -36 -37 -38 -23 -39 -40 -43 -44 -45 -26 -47 -52 -58 -59 -60 -27 -48 -53 -61 -62 -63 0
-1 -5 -6 -9 -10 -11 -12 -24 -25 -28 -29 -30 -13 -32 -33 -36 -37 -38 -14 -39 -40 -43 -44 -45 -17 -47 -52 -58 -59 -60 -18 -48 -53 -61 -62 -63 0
-5 -6 -9 -10 -11 -15 -16 -19 -20 -21 -24 -25 -28 -29 -30 -32 -33 -36 -37 -38 -39 -40 -43 -44 -45 -47 -52 -58 -59 -60 -48 -53 -61 -62 -63 0
-1 -2 -3 -4 -6 -9 -10 -11 -15 -24 -32 -39 -46 -49 -50 -51 -17 -26 -34 -41 -52 -58 -59 -60 -18 -27 -35 -42 -53 -61 -62 -63 0
-2 -3 -4 -6 -9 -10 -11 -12 -13 -14 -16 -19 -20 -21 -24 -32 -39 -46 -49 -50 -51 -26 -34 -41 -52 -58 -59 -60 -27 -35 -42 -53 -61 -62 -63 0
-1 -3 -4 -6 -9 -10 -11 -12 -22 -23 -25 -28 -29 -30 -15 -32 -39 -46 -49 -50 -51 -17 -34 -41 -52 -58 -59 -60 -18 -35 -42 -53 -61 -62 -63 0
-3 -4 -6 -9 -10 -11 -13 -14 -16 -19 -20 -21 -22 -23 -25 -28 -29 -30 -32 -39 -46 -49 -50 -51 -34 -41 -52 -58 -59 -60 -35 -42 -53 -61 -62 -63 0
-1 -2 -4 -6 -9 -10 -11 -13 -22 -31 -33 -36 -37 -38 -15 -24 -39 -46 -49 -50 -51 -17 -26 -41 -52 -58 -59 -60 -18 -27 -42 -53 -61 -62 -63 0
-2 -4 -6 -9 -10 -11 -12 -14 -16 -19 -20 -21 -22 -31 -33 -36 -37 -38 -24 -39 -46 -49 -50 -51 -26 -41 -52 -58 -59 -60 -27 -42 -53 -61 -62 -63 0
-1 -4 -6 -9 -10 -11 -12 -23 -25 -28 -29 -30 -13 -31 -33 -36 -37 -38 -15 -39 -46 -49 -50 -51 -17 -41 -52 -58 -59 -60 -18 -42 -53 -61 -62 -63 0
-4 -6 -9 -10 -11 -14 -16 -19 -20 -21 -23 -25 -28 -29 -30 -31 -33 -36 -37 -38 -39 -46 -49 -50 -51 -41 -52 -58 -59 -60 -42 -53 -61 -62 -63 0
-1 -2 -3 -6 -9 -10 -11 -14 -23 -31 -40 -43 -44 -45 -15 -24 -32 -46 -49 -50 -51 -17 -26 -34 -52 -58 -59 -60 -18 -27 -35 -53 -61 -62 -63 0
-2 -3 -6 -9 -10 -11 -12 -13 -16 -19 -20 -21 -23 -31 -40 -43 -44 -45 -24 -32 -46 -49 -50 -51 -26 -34 -52 -58 -59 -60 -27 -35 -53 -61 -62 -63 0
-1 -3 -6 -9 -10 -11 -12 -22 -25 -28 -29 -30 -14 -31 -40 -43 -44 -45 -15 -32 -46 -49 -50 -51 -17 -34 -52 -58 -59 -60 -18 -35 -53 -61 -62 -63 0
-3 -6 -9 -10 -11 -13 -16 -19 -20 -21 -22 -25 -28 -29 -30 -31 -40 -43 -44 -45 -32 -46 -49 -50 -51 -34 -52 -58 -59 -60 -35 -53 -61 -62 -63 0
-1 -2 -6 -9 -10 -11 -13 -22 -33 -36 -37 -38 -14 -23 -40 -43 -44 -45 -15 -24 -46 -49 -50 -51 -17 -26 -52 -58 -59 -60 -18 -27 -53 -61 -62 -63 0
-2 -6 -9 -10 -11 -12 -16 -19 -20 -21 -22 -33 -36 -37 -38 -23 -40 -43 -44 -45 -24 -46 -49 -50 -51 -26 -52 -58 -59 -60 -27 -53 -61 -62 -63 0
-1 -6 -9 -10 -11 -12 -25 -28 -29 -30 -13 -33 -36 -37 -38 -14 -40 -43 -44 -45 -15 -46 -49 -50 -51 -17 -52 -58 -59 -60 -18 -53 -61 -62 -63 0
-6 -9 -10 -11 -16 -19 -20 -21 -25 -28 -29 -30 -33 -36 -37 -38 -40 -43 -44 -45 -46 -49 -50 -51 -52 -58 -59 -60 -53 -61 -62 -63 0
-1 -2 -3 -4 -5 -9 -10 -11 -16 -25 -33 -40 -46 -54 -55 -56 -17 -26 -34 -41 -47 -58 -59 -60 -18 -27 -35 -42 -48 -61 -62 -63 0
-2 -3 -4 -5 -9 -10 -11 -12 -13 -14 -15 -19 -20 -21 -25 -33 -40 -46 -54 -55 -56 -26 -34 -41 -47 -58 -59 -60 -27 -35 -42 -48 -61 -62 -63 0
-1 -3 -4 -5 -9 -10 -11 -12 -22 -23 -24 -28 -29 -30 -16 -33 -40 -46 -54 -55 -56 -17 -34 -41 -47 -58 -59 -60 -18 -35 -42 -48 -61 -62 -63 0
-3 -4 -5 -9 -10 -11 -13 -14 -15 -19 -20 -21 -22 -23 -24 -28 -29 -30 -33 -40 -46 -54 -55 -56 -34 -41 -47 -58 -59 -60 -35 -42 -48 -61 -62 -63 0
-1 -2 -4 -5 -9 -10 -11 -13 -22 -31 -32 -36 -37 -38 -16 -25 -40 -46 -54 -55 -56 -17 -26 -41 -47 -58 -59 -60 -18 -27 -42 -48 -61 -62 -63 0
-2 -4 -5 -9 -10 -11 -12 -14 -15 -19 -20 -21 -22 -31 -32 -36 -37 -38 -25 -40 -46 -54 -55 -56 -26 -41 -47 -58 -59 -60 -27 -42 -48 -61 -62 -63 0
-1 -4 -5 -9 -10 -11 -12 -23 -24 -28 -29 -30 -13 -31 -32 -36 -37 -38 -16 -40 -46 -54 -55 -56 -17 -41 -47 -58 -59 -60 -18 -42 -48 -61 -62 -63 0
-4 -5 -9 -10 -11 -14 -15 -19 -20 -21 -23 -24 -28 -29 -30 -31 -32 -36 -37 -38 -40 -46 -54 -55 -56 -41 -47 -58 -59 -60 -42 -48 -61 -62 -63 0
-1 -2 -3 -5 -9 -10 -11 -14 -23 -31 -39 -43 -44 -45 -16 -25 -33 -46 -54 -55 -56 -17 -26 -34 -47 -58 -59 -60 -18 -27 -35 -48 -61 -62 -63 0
-2 -3 -5 -9 -10 -11 -12 -13 -15 -19 -20 -21 -23 -31 -39 -43 -44 -45 -25 -33 -46 -54 -55 -56 -26 -34 -47 -58 -59 -60 -27 -35 -48 -61 -62 -63 0
-1 -3 -5 -9 -10 -11 -12 -22 -24 -28 -29 -30 -14 -31 -39 -43 -44 -45 -16 -33 -46 -54 -55 -56 -17 -34 -47 -58 -59 -60 -18 -35 -48 -61 -62 -63 0
-3 -5 -9 -10 -11 -13 -15 -19 -20 -21 -22 -24 -28 -29 -30 -31 -39 -43 -44 -45 -33 -46 -54 -55 -56 -34 -47 -58 -59 -60 -35 -48 -61 -62 -63 0
-1 -2 -5 -9 -10 -11 -13 -22 -32 -36 -37 -38 -14 -23 -39 -43 -44 -45 -16 -25 -46 -54 -55 -56 -17 -26 -47 -58 -59 -60 -18 -27 -48 -61 -62 -63 0
-2 -5 -9 -10 -11 -12 -15 -19 -20 -21 -22 -32 -36 -37 -38 -23 -39 -43 -44 -45 -25 -46 -54 -55 -56 -26 -47 -58 -59 -60 -27 -48 -61 -62 -63 0
-1 -5 -9 -10 -11 -12 -24 -28 -29 -30 -13 -32 -36 -37 -38 -14 -39 -43 -44 -45 -16 -46 -54 -55 -56 -17 -47 -58 -59 -60 -18 -48 -61 -62 -63 0
-5 -9 -10 -11 -15 -19 -20 -21 -24 -28 -29 -30 -32 -36 -37 -38 -39 -43 -44 -45 -46 -54 -55 -56 -47 -58 -59 -60 -48 -61 -62 -63 0
-1 -2 -3 -4 -9 -10 -11 -15 -24 -32 -39 -49 -50 -51 -16 -25 -33 -40 -54 -55 -56 -17 -26 -34 -41 -58 -59 -60 -18 -27 -35 -42 -61 -62 -63 0
-2 -3 -4 -9 -10 -11 -12 -13 -14 -19 -20 -21 -24 -32 -39 -49 -50 -51 -25 -33 -40 -54 -55 -56 -26 -34 -41 -58 -59 -60 -27 -35 -42 -61 -62 -63 0
-1 -3 -4 -9 -10 -11 -12 -22 -23 -28 -29 -30 -15 -32 -39 -49 -50 -51 -16 -33 -40 -54 -55 -56 -17 -34 -41 -58 -59 -60 -18 -35 -42 -61 -62 -63 0
-3 -4 -9 -10 -11 -13 -14 -19 -20 -21 -22 -23 -28 -29 -30 -32 -39 -49 -50 -51 -33 -40 -54 -55 -56 -34 -41 -58 -59 -60 -35 -42 -61 -62 -63 0
-1 -2 -4 -9 -10 -11 -13 -22 -31 -36 -37 -38 -15 -24 -39 -49 -50 -51 -16 -25 -40 -54 -55 -56 -17 -26 -41 -58 -59 -60 -18 -27 -42 -61 -62 -63 0
-2 -4 -9 -10 -11 -12 -14 -19 -20 -21 -22 -31 -36 -37 -38 -24 -39 -49 -50 -51 -25 -40 -54 -55 -56 -26 -41 -58 -59 -60 -27 -42 -61 -62 -63 0
-1 -4 -9 -10 -11 -12 -23 -28 -29 -30 -13 -31 -36 -37 -38 -15 -39 -49 -50 -51 -16 -40 -54 -55 -56 -17 -41 -58 -59 -60 -18 -42 -61 -62 -63 0
-4 -9 -10 -11 -14 -19 -20 -21 -23 -28 -29 -30 -31 -36 -37 -38 -39 -49 -50 -51 -40 -54 -55 -56 -41 -58 -59 -60 -42 -61 -62 -63 0
-1 -2 -3 -9 -10 -11 -14 -23 -31 -43 -44 -45 -15 -24 -32 -49 -50 -51 -16 -25 -33 -54 -55 -56 -17 -26 -34 -58 -59 -60 -18 -27 -35 -61 -62 -63 0
-2 -3 -9 -10 -11 -12 -13 -19 -20 -21 -23 -31 -43 -44 -45 -24 -32 -49 -50 -51 -25 -33 -54 -55 -56 -26 -34 -58 -59 -60 -27 -35 -61 -62 -63 0
-1 -3 -9 -10 -11 -12 -22 -28 -29 -30 -14 -31 -43 -44 -45 -15 -32 -49 -50 -51 -16 -33 -54 -55 -56 -17 -34 -58 -59 -60 -18 -35 -61 -62 -63 0
-3 -9 -10 -11 -13 -19 -20 -21 -22 -28 -29 -30 -31 -43 -44 -45 -32 -49 -50 -51 -33 -54 -55 -56 -34 -58 -59 -60 -35 -61 -62 -63 0
-1 -2 -9 -10 -11 -13 -22 -36 -37 -38 -14 -23 -43 -44 -45 -15 -24 -49 -50 -51 -16 -25 -54 -55 -56 -17 -26 -58 -59 -60 -18 -27 -61 -62 -63 0
-2 -9 -10 -11 -12 -19 -20 -21 -22 -36 -37 -38 -23 -43 -44 -45 -24 -49 -50 -51 -25 -54 -55 -56 -26 -58 -59 -60 -27 -61 -62 -63 0
-1 -9 -10 -11 -12 -28 -29 -30 -13 -36 -37 -38 -14 -43 -44 -45 -15 -49 -50 -51 -16 -54 -55 -56 -17 -58 -59 -60 -18 -61 -62 -63 0
-9 -10 -11 -19 -20 -21 -28 -29 -30 -36 -37 -38 -43 -44 -45 -49 -50 -51 -54 -55 -56 -58 -59 -60 -61 -62 -63 0
-1 -2 -3 -4 -5 -6 -7 -8 -10 -11 -19 -28 -36 -43 -49 -54 -58 -61 -64 -65 0
-2 -3 -4 -5 -6 -7 -8 -10 -11 -12 -13 -14 -15 -16 -17 -18 -20 -21 -28 -36 -43 -49 -54 -58 -61 -64 -65 0
-1 -3 -4 -5 -6 -7 -8 -10 -11 -12 -22 -23 -24 -25 -26 -27 -29 -30 -19 -36 -43 -49 -54 -58 -61 -64 -65 0
-3 -4 -5 -6 -7 -8 -10 -11 -13 -14 -15 -16 -17 -18 -20 -21 -22 -23 -24 -25 -26 -27 -29 -30 -36 -43 -49 -54 -58 -61 -64 -65 0
-1 -2 -4 -5 -6 -7 -8 -10 -11 -13 -22 -31 -32 -33 -34 -35 -37 -38 -19 -28 -43 -49 -54 -58 -61 -64 -65 0
-2 -4 -5 -6 -7 -8 -10 -11 -12 -14 -15 -16 -17 -18 -20 -21 -22 -31 -32 -33 -34 -35 -37 -38 -28 -43 -49 -54 -58 -61 -64 -65 0
-1 -4 -5 -6 -7 -8 -10 -11 -12 -23 -24 -25 -26 -27 -29 -30 -13 -31 -32 -33 -34 -35 -37 -38 -19 -43 -49 -54 -58 -61 -64 -65 0
-4 -5 -6 -7 -8 -10 -11 -14 -15 -16 -17 -18 -20 -21 -23 -24 -25 -26 -27 -29 -30 -31 -32 -33 -34 -35 -37 -38 -43 -49 -54 -58 -61 -64 -65 0
-1 -2 -3 -5 -6 -7 -8 -10 -11 -14 -23 -31 -39 -40 -41 -42 -44 -45 -19 -28 -36 -49 -54 -58 -61 -64 -65 0
-2 -3 -5 -6 -7 -8 -10 -11 -12 -13 -15 -16 -17 -18 -20 -21 -23 -31 -39 -40 -41 -42 -44 -45 -28 -36 -49 -54 -58 -61 -64 -65 0
-1 -3 -5 -6 -7 -8 -10 -11 -12 -22 -24 -25 -26 -27 -29 -30 -14 -31 -39 -40 -41 -42 -44 -45 -19 -36 -49 -54 -58 -61 -64 -65 0
-3 -5 -6 -7 -8 -10 -11 -13 -15 -16 -17 -18 -20 -21 -22 -24 -25 -26 -27 -29 -30 -31 -39 -40 -41 -42 -44 -45 -36 -49 -54 -58 -61 -64 -65 0
-1 -2 -5 -6 -7 -8 -10 -11 -13 -22 -32 -33 -34 -35 -37 -38 -14 -23 -39 -40 -41 -42 -44 -45 -19 -28 -49 -54 -58 -61 -64 -65 0
-2 -5 -6 -7 -8 -10 -11 -12 -15 -16 -17 -18 -20 -21 -22 -32 -33 -34 -35 -37 -38 -23 -39 -40 -41 -42 -44 -45 -28 -49 -54 -58 -61 -64 -65 0
-1 -5 -6 -7 -8 -10 -11 -12 -24 -25 -26 -27 -29 -30 -13 -32 -33 -34 -35 -37 -38 -14 -39 -40 -41 -42 -44 -45 -19 -49 -54 -58 -61 -64 -65 0
-5 -6 -7 -8 -10 -11 -15 -16 -17 -18 -20 -21 -24 -25 -26 -27 -29 -30 -32 -33 -34 -35 -37 -38 -39 -40 -41 -42 -44 -45 -49 -54 -58 -61 -64 -65 0
-1 -2 -3 -4 -6 -7 -8 -10 -11 -15 -24 -32 -39 -46 -47 -48 -50 -51 -19 -28 -36 -43 -54 -58 -61 -64 -65 0
-2 -3 -4 -6 -7 -8 -10 -11 -12 -13 -14 -16 -17 -18 -20 -21 -24 -32 -39 -46 -47 -48 -50 -51 -28 -36 -43 -54 -58 -61 -64 -65 0
-1 -3 -4 -6 -7 -8 -10 -11 -12 -22 -23 -25 -26 -27 -29 -30 -15 -32 -39 -46 -47 -48 -50 -51 -19 -36 -43 -54 -58 -61 -64 -65 0
-3 -4 -6 -7 -8 -10 -11 -13 -14 -16 -17 -18 -20 -21 -22 -23 -25 -26 -27 -29 -30 -32 -39 -46 -47 -48 -50 -51 -36 -43 -54 -58 -61 -64 -65 0
-1 -2 -4 -6 -7 -8 -10 -11 -13 -22 -31 -33 -34 -35 -37 -38 -15 -24 -39 -46 -47 -48 -50 -51 -19 -28 -43 -54 -58 -61 -64 -65 0
-2 -4 -6 -7 -8 -10 -11 -12 -14 -16 -17 -18 -20 -21 -22 -31 -33 -34 -35 -37 -38 -24 -39 -46 -47 -48 -50 -51 -28 -43 -54 -58 -61 -64 -65 0
-1 -4 -6 -7 -8 -10 -11 -12 -23 -25 -26 -27 -29 -30 -13 -31 -33 -34 -35 -37 -38 -15 -39 -46 -47 -48 -50 -51 -19 -43 -54 -58 -61 -64 -65 0
-4 -6 -7 -8 -10 -11 -14 -16 -17 -18 -20 -21 -23 -25 -26 -27 -29 -30 -31 -33 -34 -35 -37 -38 -39 -46 -47 -48 -50 -51 -43 -54 -58 -61 -64 -65 0
-1 -2 -3 -6 -7 -8 -10 -11 -14 -23 -31 -40 -41 -42 -44 -45 -15 -24 -32 -46 -47 -48 -50 -51 -19 -28 -36 -54 -58 -61 -64 -65 0
-2 -3 -6 -7 -8 -10 -11 -12 -13 -16 -17 -18 -20 -21 -23 -31 -40 -41 -42 -44 -45 -24 -32 -46 -47 -48 -50 -51 -28 -36 -54 -58 -61 -64 -65 0
-1 -3 -6 -7 -8 -10 -11 -12 -22 -25 -26 -27 -29 -30 -14 -31 -40 -41 -42 -44 -45 -15 -32 -46 -47 -48 -50 -51 -19 -36 -54 -58 -61 -64 -65 0
-3 -6 -7 -8 -10 -11 -13 -16 -17 -18 -20 -21 -22 -25 -26 -27 -29 -30 -31 -40 -41 -42 -44 -45 -32 -46 -47 -48 -50 -51 -36 -54 -58 -61 -64 -65 0
-1 -2 -6 -7 -8 -10 -11 -13 -22 -33 -34 -35 -37 -38 -14 -23 -40 -41 -42 -44 -45 -15 -24 -46 -47 -48 -50 -51 -19 -28 -54 -58 -61 -64 -65 0
-2 -6 -7 -8 -10 -11 -12 -16 -17 -18 -20 -21 -22 -33 -34 -35 -37 -38 -23 -40 -41 -42 -44 -45 -24 -46 -47 -48 -50 -51 -28 -54 -58 -61 -64 -65 0
-1 -6 -7 -8 -10 -11 -12 -25 -26 -27 -29 -30 -13 -33 -34 -35 -37 -38 -14 -40 -41 -42 -44 -45 -15 -46 -47 -48 -50 -51 -19 -54 -58 -61 -64 -65 0
-6 -7 -8 -10 -11 -16 -17 -18 -20 -21 -25 -26 -27 -29 -30 -33 -34 -35 -37 -38 -40 -41 -42 -44 -45 -46 -47 -48 -50 -51 -54 -58 -61 -64 -65 0
-1 -2 -3 -4 -5 -7 -8 -10 -11 -16 -25 -33 -40 -46 -52 -53 -55 -56 -19 -28 -36 -43 -49 -58 -61 -64 -65 0
-2 -3 -4 -5 -7 -8 -10 -11 -12 -13 -14 -15 -17 -18 -20 -21 -25 -33 -40 -46 -52 -53 -55 -56 -28 -36 -43 -49 -58 -61 -64 -65 0
-1 -3 -4 -5 -7 -8 -10 -11 -12 -22 -23 -24 -26 -27 -29 -30 -16 -33 -40 -46 -52 -53 -55 -56 -19 -36 -43 -49 -58 -61 -64 -65 0
-3 -4 -5 -7 -8 -10 -11 -13 -14 -15 -17 -18 -20 -21 -22 -23 -24 -26 -27 -29 -30 -33 -40 -46 -52 -53 -55 -56 -36 -43 -49 -58 -61 -64 -65 0
-1 -2 -4 -5 -7 -8 -10 -11 -13 -22 -31 -32 -34 -35 -37 -38 -16 -25 -40 -46 -52 -53 -55 -56 -19 -28 -43 -49 -58 -61 -64 -65 0
-2 -4 -5 -7 -8 -10 -11 -12 -14 -15 -17 -18 -20 -21 -22 -31 -32 -34 -35 -37 -38 -25 -40 -46 -52 -53 -55 -56 -28 -43 -49 -58 -61 -64 -65 0
-1 -4 -5 -7 -8 -10 -11 -12 -23 -24 -26 -27 -29 -30 -13 -31 -32 -34 -35 -37 -38 -16 -40 -46 -52 -53 -55 -56 -19 -43 -49 -58 -61 -64 -65 0
-4 -5 -7 -8 -10 -11 -14 -15 -17 -18 -20 -21 -23 -24 -26 -27 -29 -30 -31 -32 -34 -35 -37 -38 -40 -46 -52 -53 -55 -56 -43 -49 -58 -61 -64 -65 0
-1 -2 -3 -5 -7 -8 -10 -11 -14 -23 -31 -39 -41 -42 -44 -45 -16 -25 -33 -46 -52 -53 -55 -56 -19 -28 -36 -49 -58 -61 -64 -65 0
-2 -3 -5 -7 -8 -10 -11 -12 -13 -15 -17 -18 -20 -21 -23 -31 -39 -41 -42 -44 -45 -25 -33 -46 -52 -53 -55 -56 -28 -36 -49 -58 -61 -64 -65 0
-1 -3 -5 -7 -8 -10 -11 -12 -22 -24 -26 -27 -29 -30 -14 -31 -39 -41 -42 -44 -45 -16 -33 -46 -52 -53 -55 -56 -19 -36 -49 -58 -61 -64 -65 0
-3 -5 -7 -8 -10 -11 -13 -15 -17 -18 -20 -21 -22 -24 -26 -27 -29 -30 -31 -39 -41 -42 -44 -45 -33 -46 -52 -53 -55 -56 -36 -49 -58 -61 -64 -65 0
-1 -2 -5 -7 -8 -10 -11 -13 -22 -32 -34 -35 -37 -38 -14 -23 -39 -41 -42 -44 -45 -16 -25 -46 -52 -53 -55 -56 -19 -28 -49 -58 -61 -64 -65 0
-2 -5 -7 -8 -10 -11 -12 -15 -17 -18 -20 -21 -22 -32 -34 -35 -37 -38 -23 -39 -41 -42 -44 -45 -25 -46 -52 -53 -55 -56 -28 -49 -58 -61 -64 -65 0
-1 -5 -7 -8 -10 -11 -12 -24 -26 -27 -29 -30 -13 -32 -34 -35 -37 -38 -14 -39 -41 -42 -44 -45 -16 -46 -52 -53 -55 -56 -19 -49 -58 -61 -64 -65 0
-5 -7 -8 -10 -11 -15 -17 -18 -20 -21 -24 -26 -27 -29 -30 -32 -34 -35 -37 -38 -39 -41 -42 -44 -45 -46 -52 -53 -55 -56 -49 -58 -61 -64 -65 0
-1 -2 -3 -4 -7 -8 -10 -11 -15 -24 -32 -39 -47 -48 -50 -51 -16 -25 -33 -40 -52 -53 -55 -56 -19 -28 -36 -43 -58 -61 -64 -65 0
-2 -3 -4 -7 -8 -10 -11 -12 -13 -14 -17 -18 -20 -21 -24 -32 -39 -47 -48 -50 -51 -25 -33 -40 -52 -53 -55 -56 -28 -36 -43 -58 -61 -64 -65 0
-1 -3 -4 -7 -8 -10 -11 -12 -22 -23 -26 -27 -29 -30 -15 -32 -39 -47 -48 -50 -51 -16 -33 -40 -52 -53 -55 -56 -19 -36 -43 -58 -61 -64 -65 0
-3 -4 -7 -8 -10 -11 -13 -14 -17 -18 -20 -21 -22 -23 -26 -27 -29 -30 -32 -39 -47 -48 -50 -51 -33 -40 -52 -53 -55 -56 -36 -43 -58 -61 -64 -65 0
-1 -2 -4 -7 -8 -10 -11 -13 -22 -31 -34 -35 -37 -38 -15 -24 -39 -47 -48 -50 -51 -16 -25 -40 -52 -53 -55 -56 -19 -28 -43 -58 -61 -64 -65 0
-2 -4 -7 -8 -10 -11 -12 -14 -17 -18 -20 -21 -22 -31 -34 -35 -37 -38 -24 -39 -47 -48 -50 -51 -25 -40 -52 -53 -55 -56 -28 -43 -58 -61 -64 -65 0
-1 -4 -7 -8 -10 -11 -12 -23 -26 -27 -29 -30 -13 -31 -34 -35 -37 -38 -15 -39 -47 -48 -50 -51 -16 -40 -52 -53 -55 -56 -19 -43 -58 -61 -64 -65 0
-4 -7 -8 -10 -11 -14 -17 -18 -20 -21 -23 -26 -27 -29 -30 -31 -34 -35 -37 -38 -39 -47 -48 -50 -51 -40 -52 -53 -55 -56 -43 -58 -61 -64 -65 0
-1 -2 -3 -7 -8 -10 -11 -14 -23 -31 -41 -42 -44 -45 -15 -24 -32 -47 -48 -50 -51 -16 -25 -33 -52 -53 -55 -56 -19 -28 -36 -58 -61 -64 -65 0
-2 -3 -7 -8 -10 -11 -12 -13 -17 -18 -20 -21 -23 -31 -41 -42 -44 -45 -24 -32 -47 -48 -50 -51 -25 -33 -52 -53 -55 -56 -28 -36 -58 -61 -64 -65 0
-1 -3 -7 -8 -10 -11 -12 -22 -26 -27 -29 -30 -14 -31 -41 -42 -44 -45 -15 -32 -47 -48 -50 -51 -16 -33 -52 -53 -55 -56 -19 -36 -58 -61 -64 -65 0
-3 -7 -8 -10 -11 -13 -17 -18 -20 -21 -22 -26 -27 -29 -30 -31 -41 -42 -44 -45 -32 -47 -48 -50 -51 -33 -52 -53 -55 -56 -36 -58 -61 -64 -65 0
-1 -2 -7 -8 -10 -11 -13 -22 -34 -35 -37 -38 -14 -23 -41 -42 -44 -45 -15 -24 -47 -48 -50 -51 -16 -25 -52 -53 -55 -56 -19 -28 -58 -61 -64 -65 0
-2 -7 -8 -10 -11 -12 -17 -18 -20 -21 -22 -34 -35 -37 -38 -23 -41 -42 -44 -45 -24 -47 -48 -50 -51 -25 -52 -53 -55 -56 -28 -58 -61 -64 -65 0
-1 -7 -8 -10 -11 -12 -26 -27 -29 -30 -13 -34 -35 -37 -38 -14 -41 -42 -44 -45 -15 -47 -48 -50 -51 -16 -52 -53 -55 -56 -19 -58 -61 -64 -65 0
-7 -8 -10 -11 -17 -18 -20 -21 -26 -27 -29 -30 -34 -35 -37 -38 -41 -42 -44 -45 -47 -48 -50 -51 -52 -53 -55 -56 -58 -61 -64 -65 0
-1 -2 -3 -4 -5 -6 -8 -10 -11 -17 -26 -34 -41 -47 -52 -57 -59 -60 -19 -28 -36 -43 -49 -54 -61 -64 -65 0
-2 -3 -4 -5 -6 -8 -10 -11 -12 -13 -14 -15 -16 -18 -20 -21 -26 -34 -41 -47 -52 -57 -59 -60 -28 -36 -43 -49 -54 -61 -64 -65 0
-1 -3 -4 -5 -6 -8 -10 -11 -12 -22 -23 -24 -25 -27 -29 -30 -17 -34 -41 -47 -52 -57 -59 -60 -19 -36 -43 -49 -54 -61 -64 -65 0
-3 -4 -5 -6 -8 -10 -11 -13 -14 -15 -16 -18 -20 -21 -22 -23 -24 -25 -27 -29 -30 -34 -41 -47 -52 -57 -59 -60 -36 -43 -49 -54 -61 -64 -65 0
-1 -2 -4 -5 -6 -8 -10 -11 -13 -22 -31 -32 -33 -35 -37 -38 -17 -26 -41 -47 -52 -57 -59 -60 -19 -28 -43 -49 -54 -61 -64 -65 0
-2 -4 -5 -6 -8 -10 -11 -12 -14 -15 -16 -18 -20 -21 -22 -31 -32 -33 -35 -37 -38 -26 -41 -47 -52 -57 -59 -60 -28 -43 -49 -54 -61 -64 -65 0
-1 -4 -5 -6 -8 -10 -11 -12 -23 -24 -25 -27 -29 -30 -13 -31 -32 -33 -35 -37 -38 -17 -41 -47 -52 -57 -59 -60 -19 -43 -49 -54 -61 -64 -65 0
-4 -5 -6 -8 -10 -11 -14 -15 -16 -18 -20 -21 -23 -24 -25 -27 -29 -30 -31 -32 -33 -35 -37 -38 -41 -47 -52 -57 -59 -60 -43 -49 -54 -61 -64 -65 0
-1 -2 -3 -5 -6 -8 -10 -11 -14 -23 -31 -39 -40 -42 -44 -45 -17 -26 -34 -47 -52 -57 -59 -60 -19 -28 -36 -49 -54 -61 -64 -65 0
-2 -3 -5 -6 -8 -10 -11 -12 -13 -15 -16 -18 -20 -21 -23 -31 -39 -40 -42 -44 -45 -26 -34 -47 -52 -57 -59 -60 -28 -36 -49 -54 -61 -64 -65 0
-1 -3 -5 -6 -8 -10 -11 -12 -22 -24 -25 -27 -29 -30 -14 -31 -39 -40 -42 -44 -45 -17 -34 -47 -52 -57 -59 -60 -19 -36 -49 -54 -61 -64 -65 0
-3 -5 -6 -8 -10 -11 -13 -15 -16 -18 -20 -21 -22 -24 -25 -27 -29 -30 -31 -39 -40 -42 -44 -45 -34 -47 -52 -57 -59 -60 -36 -49 -54 -61 -64 -65 0
-1 -2 -5 -6 -8 -10 -11 -13 -22 -32 -33 -35 -37 -38 -14 -23 -39 -40 -42 -44 -45 -17 -26 -47 -52 -57 -59 -60 -19 -28 -49 -54 -61 -64 -65 0
-2 -5 -6 -8 -10 -11 -12 -15 -16 -18 -20 -21 -22 -32 -33 -35 -37 -38 -23 -39 -40 -42 -44 -45 -26 -47 -52 -57 -59 -60 -28 -49 -54 -61 -64 -65 0
-1 -5 -6 -8 -10 -11 -12 -24 -25 -27 -29 -30 -13 -32 -33 -35 -37 -38 -14 -39 -40 -42 -44 -45 -17 -47 -52 -57 -59 -60 -19 -49 -54 -61 -64 -65 0
-5 -6 -8 -10 -11 -15 -16 -18 -20 -21 -24 -25 -27 -29 -30 -32 -33 -35 -37 -38 -39 -40 -42 -44 -45 -47 -52 -57 -59 -60 -49 -54 -61 -64 -65 0
-1 -2 -3 -4 -6 -8 -10 -11 -15 -24 -32 -39 -46 -48 -50 -51 -17 -26 -34 -41 -52 -57 -59 -60 -19 -28 -36 -43 -54 -61 -64 -65 0
-2 -3 -4 -6 -8 -10 -11 -12 -13 -14 -16 -18 -20 -21 -24 -32 -39 -46 -48 -50 -51 -26 -34 -41 -52 -57 -59 -60 -28 -36 -43 -54 -61 -64 -65 0
-1 -3 -4 -6 -8 -10 -11 -12 -22 -23 -25 -27 -29 -30 -15 -32 -39 -46 -48 -50 -51 -17 -34 -41 -52 -57 -59 -60 -19 -36 -43 -54 -61 -64 -65 0
-3 -4 -6 -8 -10 -11 -13 -14 -16 -18 -20 -21 -22 -23 -25 -27 -29 -30 -32 -39 -46 -48 -50 -51 -34 -41 -52 -57 -59 -60 -36 -43 -54 -61 -64 -65 0
-1 -2 -4 -6 -8 -10 -11 -13 -22 -31 -33 -35 -37 -38 -15 -24 -39 -46 -48 -50 -51 -17 -26 -41 -52 -57 -59 -60 -19 -28 -43 -54 -61 -64 -65 0
-2 -4 -6 -8 -10 -11 -12 -14 -16 -18 -20 -21 -22 -31 -33 -35 -37 -38 -24 -39 -46 -48 -50 -51 -26 -41 -52 -57 -59 -60 -28 -43 -54 -61 -64 -65 0
-1 -4 -6 -8 -10 -11 -12 -23 -25 -27 -29 -30 -13 -31 -33 -35 -37 -38 -15 -39 -46 -48 -50 -51 -17 -41 -52 -57 -59 -60 -19 -43 -54 -61 -64 -65 0
-4 -6 -8 -10 -11 -14 -16 -18 -20 -21 -23 -25 -27 -29 -30 -31 -33 -35 -37 -38 -39 -46 -48 -50 -51 -41 -52 -57 -59 -60 -43 -54 -61 -64 -65 0
-1 -2 -3 -6 -8 -10 -11 -14 -23 -31 -40 -42 -44 -45 -15 -24 -32 -46 -48 -50 -51 -17 -26 -34 -52 -57 -59 -60 -19 -28 -36 -54 -61 -64 -65 0
-2 -3 -6 -8 -10 -11 -12 -13 -16 -18 -20 -21 -23 -31 -40 -42 -44 -45 -24 -32 -46 -48 -50 -51 -26 -34 -52 -57 -59 -60 -28 -36 -54 -61 -64 -65 0
-1 -3 -6 -8 -10 -11 -12 -22 -25 -27 -29 -30 -14 -31 -40 -42 -44 -45 -15 -32 -46 -48 -50 -51 -17 -34 -52 -57 -59 -60 -19 -36 -54 -61 -64 -65 0
-3 -6 -8 -10 -11 -13 -16 -18 -20 -21 -22 -25 -27 -29 -30 -31 -40 -42 -44 -45 -32 -46 -48 -50 -51 -34 -52 -57 -59 -60 -36 -54 -61 -64 -65 0
-1 -2 -6 -8 -10 -11 -13 -22 -33 -35 -37 -38 -14 -23 -40 -42 -44 -45 -15 -24 -46 -48 -50 -51 -17 -26 -52 -57 -59 -60 -19 -28 -54 -61 -64 -65 0
-2 -6 -8 -10 -11 -12 -16 -18 -20 -21 -22 -33 -35 -37 -38 -23 -40 -42 -44 -45 -24 -46 -48 -50 -51 -26 -52 -57 -59 -60 -28 -54 -61 -64 -65 0
-1 -6 -8 -10 -11 -12 -25 -27 -29 -30 -13 -33 -35 -37 -38 -14 -40 -42 -44 -45 -15 -46 -48 -50 -51 -17 -52 -57 -59 -60 -19 -54 -61 -64 -65 0
-6 -8 -10 -11 -16 -18 -20 -21 -25 -27 -29 -30 -33 -35 -37 -38 -40 -42 -44 -45 -46 -48 -50 -51 -52 -57 -59 -60 -54 -61 -64 -65 0
-1 -2 -3 -4 -5 -8 -10 -11 -16 -25 -33 -40 -46 -53 -55 -56 -17 -26 -34 -41 -47 -57 -59 -60 -19 -28 -36 -43 -49 -61 -64 -65 0
-2 -3 -4 -5 -8 -10 -11 -12 -13 -14 -15 -18 -20 -21 -25 -33 -40 -46 -53 -55 -56 -26 -34 -41 -47 -57 -59 -60 -28 -36 -43 -49 -61 -64 -65 0
-1 -3 -4 -5 -8 -10 -11 -12 -22 -23 -24 -27 -29 -30 -16 -33 -40 -46 -53 -55 -56 -17 -34 -41 -47 -57 -59 -60 -19 -36 -43 -49 -61 -64 -65 0
-3 -4 -5 -8 -10 -11 -13 -14 -15 -18 -20 -21 -22 -23 -24 -27 -29 -30 -33 -40 -46 -53 -55 -56 -34 -41 -47 -57 -59 -60 -36 -43 -49 -61 -64 -65 0
-1 -2 -4 -5 -8 -10 -11 -13 -22 -31 -32 -35 -37 -38 -16 -25 -40 -46 -53 -55 -56 -17 -26 -41 -47 -57 -59 -60 -19 -28 -43 -49 -61 -64 -65 0
-2 -4 -5 -8 -10 -11 -12 -14 -15 -18 -20 -21 -22 -31 -32 -35 -37 -38 -25 -40 -46 -53 -55 -56 -26 -41 -47 -57 -59 -60 -28 -43 -49 -61 -64 -65 0
-1 -4 -5 -8 -10 -11 -12 -23 -24 -27 -29 -30 -13 -31 -32 -35 -37 -38 -16 -40 -46 -53 -55 -56 -17 -41 -47 -57 -59 -60 -19 -43 -49 -61 -64 -65 0
-4 -5 -8 -10 -11 -14 -15 -18 -20 -21 -23 -24 -27 -29 -30 -31 -32 -35 -37 -38 -40 -46 -53 -55 -56 -41 -47 -57 -59 -60 -43 -49 -61 -64 -65 0
-1 -2 -3 -5 -8 -10 -11 -14 -23 -31 -39 -42 -44 -45 -16 -25 -33 -46 -53 -55 -56 -17 -26 -34 -47 -57 -59 -60 -19 -28 -36 -49 -61 -64 -65 0
-2 -3 -5 -8 -10 -11 -12 -13 -15 -18 -20 -21 -23 -31 -39 -42 -44 -45 -25 -33 -46 -53 -55 -56 -26 -34 -47 -57 -59 -60 -28 -36 -49 -61 -64 -65 0
-1 -3 -5 -8 -10 -11 -12 -22 -24 -27 -29 -30 -14 -31 -39 -42 -44 -45 -16 -33 -46 -53 -55 -56 -17 -34 -47 -57 -59 -60 -19 -36 -49 -61 -64 -65 0
-3 -5 -8 -10 -11 -13 -15 -18 -20 -21 -22 -24 -27 -29 -30 -31 -39 -42 -44 -45 -33 -46 -53 -55 -56 -34 -47 -57 -59 -60 -36 -49 -61 -64 -65 0
-1 -2 -5 -8 -10 -11 -13 -22 -32 -35 -37 -38 -14 -23 -39 -42 -44 -45 -16 -25 -46 -53 -55 -56 -17 -26 -47 -57 -59 -60 -19 -28 -49 -61 -64 -65 0
-2 -5 -8 -10 -11 -12 -15 -18 -20 -21 -22 -32 -35 -37 -38 -23 -39 -42 -44 -45 -25 -46 -53 -55 -56 -26 -47 -57 -59 -60 -28 -49 -61 -64 -65 0
-1 -5 -8 -10 -11 -12 -24 -27 -29 -30 -13 -32 -35 -37 -38 -14 -39 -42 -44 -45 -16 -46 -53 -55 -56 -17 -47 -57 -59 -60 -19 -49 -61 -64 -65 0
-5 -8 -10 -11 -15 -18 -20 -21 -24 -27 -29 -30 -32 -35 -37 -38 -39 -42 -44 -45 -46 -53 -55 -56 -47 -57 -59 -60 -49 -61 -64 -65 0
-1 -2 -3 -4 -8 -10 -11 -15 -24 -32 -39 -48 -50 -51 -16 -25 -33 -40 -53 -55 -56 -17 -26 -34 -41 -57 -59 -60 -19 -28 -36 -43 -61 -64 -65 0
-2 -3 -4 -8 -10 -11 -12 -13 -14 -18 -20 -21 -24 -32 -39 -48 -50 -51 -25 -33 -40 -53 -55 -56 -26 -34 -41 -57 -59 -60 -28 -36 -43 -61 -64 -65 0
-1 -3 -4 -8 -10 -11 -12 -22 -23 -27 -29 -30 -15 -32 -39 -48 -50 -51 -16 -33 -40 -53 -55 -56 -17 -34 -41 -57 -59 -60 -19 -36 -43 -61 -64 -65 0
-3 -4 -8 -10 -11 -13 -14 -18 -20 -21 -22 -23 -27 -29 -30 -32 -39 -48 -50 -51 -33 -40 -53 -55 -56 -34 -41 -57 -59 -60 -36 -43 -61 -64 -65 0
-1 -2 -4 -8 -10 -11 -13 -22 -31 -35 -37 -38 -15 -24 -39 -48 -50 -51 -16 -25 -40 -53 -55 -56 -17 -26 -41 -57 -59 -60 -19 -28 -43 -61 -64 -65 0
-2 -4 -8 -10 -11 -12 -14 -18 -20 -21 -22 -31 -35 -37 -38 -24 -39 -48 -50 -51 -25 -40 -53 -55 -56 -26 -41 -57 -59 -60 -28 -43 -61 -64 -65 0
-1 -4 -8 -10 -11 -12 -23 -27 -29 -30 -13 -31 -35 -37 -38 -15 -39 -48 -50 -51 -16 -40 -53 -55 -56 -17 -41 -57 -59 -60 -19 -43 -61 -64 -65 0
-4 -8 -10 -11 -14 -18 -20 -21 -23 -27 -29 -30 -31 -35 -37 -38 -39 -48 -50 -51 -40 -53 -55 -56 -41 -57 -59 -60 -43 -61 -64 -65 0
-1 -2 -3 -8 -10 -11 -14 -23 -31 -42 -44 -45 -15 -24 -32 -48 -50 -51 -16 -25 -33 -53 -55 -56 -17 -26 -34 -57 -59 -60 -19 -28 -36 -61 -64 -65 0
-2 -3 -8 -10 -11 -12 -13 -18 -20 -21 -23 -31 -42 -44 -45 -24 -32 -48 -50 -51 -25 -33 -53 -55 -56 -26 -34 -57 -59 -60 -28 -36 -61 -64 -65 0
-1 -3 -8 -10 -11 -12 -22 -27 -29 -30 -14 -31 -42 -44 -45 -15 -32 -48 -50 -51 -16 -33 -53 -55 -56 -17 -34 -57 -59 -60 -19 -36 -61 -64 -65 0
-3 -8 -10 -11 -13 -18 -20 -21 -22 -27 -29 -30 -31 -42 -44 -45 -32 -48 -50 -51 -33 -53 -55 -56 -34 -57 -59 -60 -36 -61 -64 -65 0
-1 -2 -8 -10 -11 -13 -22 -35 -37 -38 -14 -23 -42 -44 -45 -15 -24 -48 -50 -51 -16 -25 -53 -55 -56 -17 -26 -57 -59 -60 -19 -28 -61 -64 -65 0
-2 -8 -10 -11 -12 -18 -20 -21 -22 -35 -37 -38 -23 -42 -44 -45 -24 -48 -50 -51 -25 -53 -55 -56 -26 -57 -59 -60 -28 -61 -64 -65 0
-1 -8 -10 -11 -12 -27 -29 -30 -13 -35 -37 -38 -14 -42 -44 -45 -15 -48 -50 -51 -16 -53 -55 -56 -17 -57 -59 -60 -19 -61 -64 -65 0
-8 -10 -11 -18 -20 -21 -27 -29 -30 -35 -37 -38 -42 -44 -45 -48 -50 -51 -53 -55 -56 -57 -59 -60 -61 -64 -65 0
-1 -2 -3 -4 -5 -6 -7 -10 -11 -18 -27 -35 -42 -48 -53 -57 -62 -63 -19 -28 -36 -43 -49 -54 -58 -64 -65 0
-2 -3 -4 -5 -6 -7 -10 -11 -12 -13 -14 -15 -16 -17 -20 -21 -27 -35 -42 -48 -53 -57 -62 -63 -28 -36 -43 -49 -54 -58 -64 -65 0
-1 -3 -4 -5 -6 -7 -10 -11 -12 -22 -23 -24 -25 -26 -29 -30 -18 -35 -42 -48 -53 -57 -62 -63 -19 -36 -43 -49 -54 -58 -64 -65 0
-3 -4 -5 -6 -7 -10 -11 -13 -14 -15 -16 -17 -20 -21 -22 -23 -24 -25 -26 -29 -30 -35 -42 -48 -53 -57 -62 -63 -36 -43 -49 -54 -58 -64 -65 0
-1 -2 -4 -5 -6 -7 -10 -11 -13 -22 -31 -32 -33 -34 -37 -38 -18 -27 -42 -48 -53 -57 -62 -63 -19 -28 -43 -49 -54 -58 -64 -65 0
-2 -4 -5 -6 -7 -10 -11 -12 -14 -15 -16 -17 -20 -21 -22 -31 -32 -33 -34 -37 -38 -27 -42 -48 -53 -57 -62 -63 -28 -43 -49 -54 -58 -64 -65 0
-1 -4 -5 -6 -7 -10 -11 -12 -23 -24 -25 -26 -29 -30 -13 -31 -32 -33 -34 -37 -38 -18 -42 -48 -53 -57 -62 -63 -19 -43 -49 -54 -58 -64 -65 0
-4 -5 -6 -7 -10 -11 -14 -15 -16 -17 -20 -21 -23 -24 -25 -26 -29 -30 -31 -32 -33 -34 -37 -38 -42 -48 -53 -57 -62 -63 -43 -49 -54 -58 -64 -65 0
-1 -2 -3 -5 -6 -7 -10 -11 -14 -23 -31 -39 -40 -41 -44 -45 -18 -27 -35 -48 -53 -57 -62 -63 -19 -28 -36 -49 -54 -58 -64 -65 0
-2 -3 -5 -6 -7 -10 -11 -12 -13 -15 -16 -17 -20 -21 -23 -31 -39 -40 -41 -44 -45 -27 -35 -48 -53 -57 -62 -63 -28 -36 -49 -54 -58 -64 -65 0
-1 -3 -5 -6 -7 -10 -11 -12 -22 -24 -25 -26 -29 -30 -14 -31 -39 -40 -41 -44 -45 -18 -35 -48 -53 -57 -62 -63 -19 -36 -49 -54 -58 -64 -65 0
-3 -5 -6 -7 -10 -11 -13 -15 -16 -17 -20 -21 -22 -24 -25 -26 -29 -30 -31 -39 -40 -41 -44 -45 -35 -48 -53 -57 -62 -63 -36 -49 -54 -58 -64 -65 0
-1 -2 -5 -6 -7 -10 -11 -13 -22 -32 -33 -34 -37 -38 -14 -23 -39 -40 -41 -44 -45 -18 -27 -48 -53 -57 -62 -63 -19 -28 -49 -54 -58 -64 -65 0
-2 -5 -6 -7 -10 -11 -12 -15 -16 -17 -20 -21 -22 -32 -33 -34 -37 -38 -23 -39 -40 -41 -44 -45 -27 -48 -53 -57 -62 -63 -28 -49 -54 -58 -64 -65 0
-1 -5 -6 -7 -10 -11 -12 -24 -25 -26 -29 -30 -13 -32 -33 -34 -37 -38 -14 -39 -40 -41 -44 -45 -18 -48 -53 -57 -62 -63 -19 -49 -54 -58 -64 -65 0
-5 -6 -7 -10 -11 -15 -16 -17 -20 -21 -24 -25 -26 -29 -30 -32 -33 -34 -37 -38 -39 -40 -41 -44 -45 -48 -53 -57 -62 -63 -49 -54 -58 -64 -65 0
-1 -2 -3 -4 -6 -7 -10 -11 -15 -24 -32 -39 -46 -47 -50 -51 -18 -27 -35 -42 -53 -57 -62 -63 -19 -28 -36 -43 -54 -58 -64 -65 0
-2 -3 -4 -6 -7 -10 -11 -12 -13 -14 -16 -17 -20 -21 -24 -32 -39 -46 -47 -50 -51 -27 -35 -42 -53 -57 -62 -63 -28 -36 -43 -54 -58 -64 -65 0
-1 -3 -4 -6 -7 -10 -11 -12 -22 -23 -25 -26 -29 -30 -15 -32 -39 -46 -47 -50 -51 -18 -35 -42 -53 -57 -62 -63 -19 -36 -43 -54 -58 -64 -65 0
-3 -4 -6 -7 -10 -11 -13 -14 -16 -17 -20 -21 -22 -23 -25 -26 -29 -30 -32 -39 -46 -47 -50 -51 -35 -42 -53 -57 -62 -63 -36 -43 -54 -58 -64 -65 0
-1 -2 -4 -6 -7 -10 -11 -13 -22 -31 -33 -34 -37 -38 -15 -24 -39 -46 -47 -50 -51 -18 -27 -42 -53 -57 -62 -63 -19 -28 -43 -54 -58 -64 -65 0
-2 -4 -6 -7 -10 -11 -12 -14 -16 -17 -20 -21 -22 -31 -33 -34 -37 -38 -24 -39 -46 -47 -50 -51 -27 -42 -53 -57 -62 -63 -28 -43 -54 -58 -64 -65 0
-1 -4 -6 -7 -10 -11 -12 -23 -25 -26 -29 -30 -13 -31 -33 -34 -37 -38 -15 -39 -46 -47 -50 -51 -18 -42 -53 -57 -62 -63 -19 -43 -54 -58 -64 -65 0
-4 -6 -7 -10 -11 -14 -16 -17 -20 -21 -23 -25 -26 -29 -30 -31 -33 -34 -37 -38 -39 -46 -47 -50 -51 -42 -53 -57 -62 -63 -43 -54 -58 -64 -65 0
-1 -2 -3 -6 -7 -10 -11 -14 -23 -31 -40 -41 -44 -45 -15 -24 -32 -46 -47 -50 -51 -18 -27 -35 -53 -57 -62 -63 -19 -28 -36 -54 -58 -64 -65 0
-2 -3 -6 -7 -10 -11 -12 -13 -16 -17 -20 -21 -23 -31 -40 -41 -44 -45 -24 -32 -46 -47 -50 -51 -27 -35 -53 -57 -62 -63 -28 -36 -54 -58 -64 -65 0
-1 -3 -6 -7 -10 -11 -12 -22 -25 -26 -29 -30 -14 -31 -40 -41 -44 -45 -15 -32 -46 -47 -50 -51 -18 -35 -53 -57 -62 -63 -19 -36 -54 -58 -64 -65 0
-3 -6 -7 -10 -11 -13 -16 -17 -20 -21 -22 -25 -26 -29 -30 -31 -40 -41 -44 -45 -32 -46 -47 -50 -51 -35 -53 -57 -62 -63 -36 -54 -58 -64 -65 0
-1 -2 -6 -7 -10 -11 -13 -22 -33 -34 -37 -38 -14 -23 -40 -41 -44 -45 -15 -24 -46 -47 -50 -51 -18 -27 -53 -57 -62 -63 -19 -28 -54 -58 -64 -65 0
-2 -6 -7 -10 -11 -12 -16 -17 -20 -21 -22 -33 -34 -37 -38 -23 -40 -41 -44 -45 -24 -46 -47 -50 -51 -27 -53 -57 -62 -63 -28 -54 -58 -64 -65 0
-1 -6 -7 -10 -11 -12 -25 -26 -29 -30 -13 -33 -34 -37 -38 -14 -40 -41 -44 -45 -15 -46 -47 -50 -51 -18 -53 -57 -62 -63 -19 -54 -58 -64 -65 0
-6 -7 -10 -11 -16 -17 -20 -21 -25 -26 -29 -30 -33 -34 -37 -38 -40 -41 -44 -45 -46 -47 -50 -51 -53 -57 -62 -63 -54 -58 -64 -65 0
-1 -2 -3 -4 -5 -7 -10 -11 -16 -25 -33 -40 -46 -52 -55 -56 -18 -27 -35 -42 -48 -57 -62 -63 -19 -28 -36 -43 -49 -58 -64 -65 0
-2 -3 -4 -5 -7 -10 -11 -12 -13 -14 -15 -17 -20 -21 -25 -33 -40 -46 -52 -55 -56 -27 -35 -42 -48 -57 -62 -63 -28 -36 -43 -49 -58 -64 -65 0
-1 -3 -4 -5 -7 -10 -11 -12 -22 -23 -24 -26 -29 -30 -16 -33 -40 -46 -52 -55 -56 -18 -35 -42 -48 -57 -62 -63 -19 -36 -43 -49 -58 -64 -65 0
-3 -4 -5 -7 -10 -11 -13 -14 -15 -17 -20 -21 -22 -23 -24 -26 -29 -30 -33 -40 -46 -52 -55 -56 -35 -42 -48 -57 -62 -63 -36 -43 -49 -58 -64 -65 0
-1 -2 -4 -5 -7 -10 -11 -13 -22 -31 -32 -34 -37 -38 -16 -25 -40 -46 -52 -55 -56 -18 -27 -42 -48 -57 -62 -63 -19 -28 -43 -49 -58 -64 -65 0
-2 -4 -5 -7 -10 -11 -12 -14 -15 -17 -20 -21 -22 -31 -32 -34 -37 -38 -25 -40 -46 -52 -55 -56 -27 -42 -48 -57 -62 -63 -28 -43 -49 -58 -64 -65 0
-1 -4 -5 -7 -10 -11 -12 -23 -24 -26 -29 -30 -13 -31 -32 -34 -37 -38 -16 -40 -46 -52 -55 -56 -18 -42 -48 -57 -62 -63 -19 -43 -49 -58 -64 -65 0
-4 -5 -7 -10 -11 -14 -15 -17 -20 -21 -23 -24 -26 -29 -30 -31 -32 -34 -37 -38 -40 -46 -52 -55 -56 -42 -48 -57 -62 -63 -43 -49 -58 -64 -65 0
-1 -2 -3 -5 -7 -10 -11 -14 -23 -31 -39 -41 -44 -45 -16 -25 -33 -46 -52 -55 -56 -18 -27 -35 -48 -57 -62 -63 -19 -28 -36 -49 -58 -64 -65 0
-2 -3 -5 -7 -10 -11 -12 -13 -15 -17 -20 -21 -23 -31 -39 -41 -44 -45 -25 -33 -46 -52 -55 -56 -27 -35 -48 -57 -62 -63 -28 -36 -49 -58 -64 -65 0
-1 -3 -5 -7 -10 -11 -12 -22 -24 -26 -29 -30 -14 -31 -39 -41 -44 -45 -16 -33 -46 -52 -55 -56 -18 -35 -48 -57 -62 -63 -19 -36 -49 -58 -64 -65 0
-3 -5 -7 -10 -11 -13 -15 -17 -20 -21 -22 -24 -26 -29 -30 -31 -39 -41 -44 -45 -33 -46 -52 -55 -56 -35 -48 -57 -62 -63 -36 -49 -58 -64 -65 0
-1 -2 -5 -7 -10 -11 -13 -22 -32 -34 -37 -38 -14 -23 -39 -41 -44 -45 -16 -25 -46 -52 -55 -56 -18 -27 -48 -57 -62 -63 -19 -28 -49 -58 -64 -65 0
-2 -5 -7 -10 -11 -12 -15 -17 -20 -21 -22 -32 -34 -37 -38 -23 -39 -41 -44 -45 -25 -46 -52 -55 -56 -27 -48 -57 -62 -63 -28 -49 -58 -64 -65 0
-1 -5 -7 -10 -11 -12 -24 -26 -29 -30 -13 -32 -34 -37 -38 -14 -39 -41 -44 -45 -16 -46 -52 -55 -56 -18 -48 -57 -62 -63 -19 -49 -58 -64 -65 0
-5 -7 -10 -11 -15 -17 -20 -21 -24 -26 -29 -30 -32 -34 -37 -38 -39 -41 -44 -45 -46 -52 -55 -56 -48 -57 -62 -63 -49 -58 -64 -65 0
-1 -2 -3 -4 -7 -10 -11 -15 -24 -32 -39 -47 -50 -51 -16 -25 -33 -40 -52 -55 -56 -18 -27 -35 -42 -57 -62 -63 -19 -28 -36 -43 -58 -64 -65 0
-2 -3 -4 -7 -10 -11 -12 -13 -14 -17 -20 -21 -24 -32 -39 -47 -50 -51 -25 -33 -40 -52 -55 -56 -27 -35 -42 -57 -62 -63 -28 -36 -43 -58 -64 -65 0
-1 -3 -4 -7 -10 -11 -12 -22 -23 -26 -29 -30 -15 -32 -39 -47 -50 -51 -16 -33 -40 -52 -55 -56 -18 -35 -42 -57 -62 -63 -19 -36 -43 -58 -64 -65 0
-3 -4 -7 -10 -11 -13 -14 -17 -20 -21 -22 -23 -26 -29 -30 -32 -39 -47 -50 -51 -33 -40 -52 -55 -56 -35 -42 -57 -62 -63 -36 -43 -58 -64 -65 0
-1 -2 -4 -7 -10 -11 -13 -22 -31 -34 -37 -38 -15 -24 -39 -47 -50 -51 -16 -25 -40 -52 -55 -56 -18 -27 -42 -57 -62 -63 -19 -28 -43 -58 -64 -65 0
-2 -4 -7 -10 -11 -12 -14 -17 -20 -21 -22 -31 -34 -37 -38 -24 -39 -47 -50 -51 -25 -40 -52 -55 -56 -27 -42 -57 -62 -63 -28 -43 -58 -64 -65 0
-1 -4 -7 -10 -11 -12 -23 -26 -29 -30 -13 -31 -34 -37 -38 -15 -39 -47 -50 -51 -16 -40 -52 -55 -56 -18 -42 -57 -62 -63 -19 -43 -58 -64 -65 0
-4 -7 -10 -11 -14 -17 -20 -21 -23 -26 -29 -30 -31 -34 -37 -38 -39 -47 -50 -51 -40 -52 -55 -56 -42 -57 -62 -63 -43 -58 -64 -65 0
-1 -2 -3 -7 -10 -11 -14 -23 -31 -41 -44 -45 -15 -24 -32 -47 -50 -51 -16 -25 -33 -52 -55 -56 -18 -27 -35 -57 -62 -63 -19 -28 -36 -58 -64 -65 0
-2 -3 -7 -10 -11 -12 -13 -17 -20 -21 -23 -31 -41 -44 -45 -24 -32 -47 -50 -51 -25 -33 -52 -55 -56 -27 -35 -57 -62 -63 -28 -36 -58 -64 -65 0
-1 -3 -7 -10 -11 -12 -22 -26 -29 -30 -14 -31 -41 -44 -45 -15 -32 -47 -50 -51 -16 -33 -52 -55 -56 -18 -35 -57 -62 -63 -19 -36 -58 -64 -65 0
-3 -7 -10 -11 -13 -17 -20 -21 -22 -26 -29 -30 -31 -41 -44 -45 -32 -47 -50 -51 -33 -52 -55 -56 -35 -57 -62 -63 -36 -58 -64 -65 0
-1 -2 -7 -10 -11 -13 -22 -34 -37 -38 -14 -23 -41 -44 -45 -15 -24 -47 -50 -51 -16 -25 -52 -55 -56 -18 -27 -57 -62 -63 -19 -28 -58 -64 -65 0
-2 -7 -10 -11 -12 -17 -20 -21 -22 -34 -37 -38 -23 -41 -44 -45 -24 -47 -50 -51 -25 -52 -55 -56 -27 -57 -62 -63 -28 -58 -64 -65 0
-1 -7 -10 -11 -12 -26 -29 -30 -13 -34 -37 -38 -14 -41 -44 -45 -15 -47 -50 -51 -16 -52 -55 -56 -18 -57 -62 -63 -19 -58 -64 -65 0
-7 -10 -11 -17 -20 -21 -26 -29 -30 -34 -37 -38 -41 -44 -45 -47 -50 -51 -52 -55 -56 -57 -62 -63 -58 -64 -65 0
-1 -2 -3 -4 -5 -6 -10 -11 -17 -26 -34 -41 -47 -52 -59 -60 -18 -27 -35 -42 -48 -53 -62 -63 -19 -28 -36 -43 -49 -54 -64 -65 0
-2 -3 -4 -5 -6 -10 -11 -12 -13 -14 -15 -16 -20 -21 -26 -34 -41 -47 -52 -59 -60 -27 -35 -42 -48 -53 -62 -63 -28 -36 -43 -49 -54 -64 -65 0
-1 -3 -4 -5 -6 -10 -11 -12 -22 -23 -24 -25 -29 -30 -17 -34 -41 -47 -52 -59 -60 -18 -35 -42 -48 -53 -62 -63 -19 -36 -43 -49 -54 -64 -65 0
-3 -4 -5 -6 -10 -11 -13 -14 -15 -16 -20 -21 -22 -23 -24 -25 -29 -30 -34 -41 -47 -52 -59 -60 -35 -42 -48 -53 -62 -63 -36 -43 -49 -54 -64 -65 0
-1 -2 -4 -5 -6 -10 -11 -13 -22 -31 -32 -33 -37 -38 -17 -26 -41 -47 -52 -59 -60 -18 -27 -42 -48 -53 -62 -63 -19 -28 -43 -49 -54 -64 -65 0
-2 -4 -5 -6 -10 -11 -12 -14 -15 -16 -20 -21 -22 -31 -32 -33 -37 -38 -26 -41 -47 -52 -59 -60 -27 -42 -48 -53 -62 -63 -28 -43 -49 -54 -64 -65 0
-1 -4 -5 -6 -10 -11 -12 -23 -24 -25 -29 -30 -13 -31 -32 -33 -37 -38 -17 -41 -47 -52 -59 -60 -18 -42 -48 -53 -62 -63 -19 -43 -49 -54 -64 -65 0
-4 -5 -6 -10 -11 -14 -15 -16 -20 -21 -23 -24 -25 -29 -30 -31 -32 -33 -37 -38 -41 -47 -52 -59 -60 -42 -48 -53 -62 -63 -43 -49 -54 -64 -65 0
-1 -2 -3 -5 -6 -10 -11 -14 -23 -31 -39 -40 -44 -45 -17 -26 -34 -47 -52 -59 -60 -18 -27 -35 -48 -53 -62 -63 -19 -28 -36 -49 -54 -64 -65 0
-2 -3 -5 -6 -10 -11 -12 -13 -15 -16 -20 -21 -23 -31 -39 -40 -44 -45 -26 -34 -47 -52 -59 -60 -27 -35 -48 -53 -62 -63 -28 -36 -49 -54 -64 -65 0
-1 -3 -5 -6 -10 -11 -12 -22 -24 -25 -29 -30 -14 -31 -39 -40 -44 -45 -17 -34 -47 -52 -59 -60 -18 -35 -48 -53 -62 -63 -19 -36 -49 -54 -64 -65 0
-3 -5 -6 -10 -11 -13 -15 -16 -20 -21 -22 -24 -25 -29 -30 -31 -39 -40 -44 -45 -34 -47 -52 -59 -60 -35 -48 -53 -62 -63 -36 -49 -54 -64 -65 0
-1 -2 -5 -6 -10 -11 -13 -22 -32 -33 -37 -38 -14 -23 -39 -40 -44 -45 -17 -26 -47 -52 -59 -60 -18 -27 -48 -53 -62 -63 -19 -28 -49 -54 -64 -65 0
-2 -5 -6 -10 -11 -12 -15 -16 -20 -21 -22 -32 -33 -37 -38 -23 -39 -40 -44 -45 -26 -47 -52 -59 -60 -27 -48 -53 -62 -63 -28 -49 -54 -64 -65 0
-1 -5 -6 -10 -11 -12 -24 -25 -29 -30 -13 -32 -33 -37 -38 -14 -39 -40 -44 -45 -17 -47 -52 -59 -60 -18 -48 -53 -62 -63 -19 -49 -54 -64 -65 0
-5 -6 -10 -11 -15 -16 -20 -21 -24 -25 -29 -30 -32 -33 -37 -38 -39 -40 -44 -45 -47 -52 -59 -60 -48 -53 -62 -63 -49 -54 -64 -65 0
-1 -2 -3 -4 -6 -10 -11 -15 -24 -32 -39 -46 -50 -51 -17 -26 -34 -41 -52 -59 -60 -18 -27 -35 -42 -53 -62 -63 -19 -28 -36 -43 -54 -64 -65 0
-2 -3 -4 -6 -10 -11 -12 -13 -14 -16 -20 -21 -24 -32 -39 -46 -50 -51 -26 -34 -41 -52 -59 -60 -27 -35 -42 -53 -62 -63 -28 -36 -43 -54 -64 -65 0
-1 -3 -4 -6 -10 -11 -12 -22 -23 -25 -29 -30 -15 -32 -39 -46 -50 -51 -17 -34 -41 -52 -59 -60 -18 -35 -42 -53 -62 -63 -19 -36 -43 -54 -64 -65 0
-3 -4 -6 -10 -11 -13 -14 -16 -20 -21 -22 -23 -25 -29 -30 -32 -39 -46 -50 -51 -34 -41 -52 -59 -60 -35 -42 -53 -62 -63 -36 -43 -54 -64 -65 0
-1 -2 -4 -6 -10 -11 -13 -22 -31 -33 -37 -38 -15 -24 -39 -46 -50 -51 -17 -26 -41 -52 -59 -60 -18 -27 -42 -53 -62 -63 -19 -28 -43 -54 -64 -65 0
-2 -4 -6 -10 -11 -12 -14 -16 -20 -21 -22 -31 -33 -37 -38 -24 -39 -46 -50 -51 -26 -41 -52 -59 -60 -27 -42 -53 -62 -63 -28 -43 -54 -64 -65 0
-1 -4 -6 -10 -11 -12 -23 -25 -29 -30 -13 -31 -33 -37 -38 -15 -39 -46 -50 -51 -17 -41 -52 -59 -60 -18 -42 -53 -62 -63 -19 -43 -54 -64 -65 0
-4 -6 -10 -11 -14 -16 -20 -21 -23 -25 -29 -30 -31 -33 -37 -38 -39 -46 -50 -51 -41 -52 -59 -60 -42 -53 -62 -63 -43 -54 -64 -65 0
-1 -2 -3 -6 -10 -11 -14 -23 -31 -40 -44 -45 -15 -24 -32 -46 -50 -51 -17 -26 -34 -52 -59 -60 -18 -27 -35 -53 -62 -63 -19 -28 -36 -54 -64 -65 0
-2 -3 -6 -10 -11 -12 -13 -16 -20 -21 -23 -31 -40 -44 -45 -24 -32 -46 -50 -51 -26 -34 -52 -59 -60 -27 -35 -53 -62 -63 -28 -36 -54 -64 -65 0
-1 -3 -6 -10 -11 -12 -22 -25 -29 -30 -14 -31 -40 -44 -45 -15 -32 -46 -50 -51 -17 -34 -52 -59 -60 -18 -35 -53 -62 -63 -19 -36 -54 -64 -65 0
-3 -6 -10 -11 -13 -16 -20 -21 -22 -25 -29 -30 -31 -40 -44 -45 -32 -46 -50 -51 -34 -52 -59 -60 -35 -53 -62 -63 -36 -54 -64 -65 0
-1 -2 -6 -10 -11 -13 -22 -33 -37 -38 -14 -23 -40 -44 -45 -15 -24 -46 -50 -51 -17 -26 -52 -59 -60 -18 -27 -53 -62 -63 -19 -28 -54 -64 -65 0
-2 -6 -10 -11 -12 -16 -20 -21 -22 -33 -37 -38 -23 -40 -44 -45 -24 -46 -50 -51 -26 -52 -59 -60 -27 -53 -62 -63 -28 -54 -64 -65 0
-1 -6 -10 -11 -12 -25 -29 -30 -13 -33 -37 -38 -14 -40 -44 -45 -15 -46 -50 -51 -17 -52 -59 -60 -18 -53 -62 -63 -19 -54 -64 -65 0
-6 -10 -11 -16 -20 -21 -25 -29 -30 -33 -37 -38 -40 -44 -45 -46 -50 -51 -52 -59 -60 -53 -62 -63 -54 -64 -65 0
-1 -2 -3 -4 -5 -10 -11 -16 -25 -33 -40 -46 -55 -56 -17 -26 -34 -41 -47 -59 -60 -18 -27 -35 -42 -48 -62 -63 -19 -28 -36 -43 -49 -64 -65 0
-2 -3 -4 -5 -10 -11 -12 -13 -14 -15 -20 -21 -25 -33 -40 -46 -55 -56 -26 -34 -41 -47 -59 -60 -27 -35 -42 -48 -62 -63 -28 -36 -43 -49 -64 -65 0
-1 -3 -4 -5 -10 -11 -12 -22 -23 -24 -29 -30 -16 -33 -40 -46 -55 -56 -17 -34 -41 -47 -59 -60 -18 -35 -42 -48 -62 -63 -19 -36 -43 -49 -64 -65 0
-3 -4 -5 -10 -11 -13 -14 -15 -20 -21 -22 -23 -24 -29 -30 -33 -40 -46 -55 -56 -34 -41 -47 -59 -60 -35 -42 -48 -62 -63 -36 -43 -49 -64 -65 0
-1 -2 -4 -5 -10 -11 -13 -22 -31 -32 -37 -38 -16 -25 -40 -46 -55 -56 -17 -26 -41 -47 -59 -60 -18 -27 -42 -48 -62 -63 -19 -28 -43 -49 -64 -65 0
-2 -4 -5 -10 -11 -12 -14 -15 -20 -21 -22 -31 -32 -37 -38 -25 -40 -46 -55 -56 -26 -41 -47 -59 -60 -27 -42 -48 -62 -63 -28 -43 -49 -64 -65 0
-1 -4 -5 -10 -11 -12 -23 -24 -29 -30 -13 -31 -32 -37 -38 -16 -40 -46 -55 -56 -17 -41 -47 -59 -60 -18 -42 -48 -62 -63 -19 -43 -49 -64 -65 0
-4 -5 -10 -11 -14 -15 -20 -21 -23 -24 -29 -30 -31 -32 -37 -38 -40 -46 -55 -56 -41 -47 -59 -60 -42 -48 -62 -63 -43 -49 -64 -65 0
-1 -2 -3 -5 -10 -11 -14 -23 -31 -39 -44 -45 -16 -25 -33 -46 -55 -56 -17 -26 -34 -47 -59 -60 -18 -27 -35 -48 -62 -63 -19 -28 -36 -49 -64 -65 0
-2 -3 -5 -10 -11 -12 -13 -15 -20 -21 -23 -31 -39 -44 -45 -25 -33 -46 -55 -56 -26 -34 -47 -59 -60 -27 -35 -48 -62 -63 -28 -36 -49 -64 -65 0
-1 -3 -5 -10 -11 -12 -22 -24 -29 -30 -14 -31 -39 -44 -45 -16 -33 -46 -55 -56 -17 -34 -47 -59 -60 -18 -35 -48 -62 -63 -19 -36 -49 -64 -65 0
-3 -5 -10 -11 -13 -15 -20 -21 -22 -24 -29 -30 -31 -39 -44 -45 -33 -46 -55 -56 -34 -47 -59 -60 -35 -48 -62 -63 -36 -49 -64 -65 0
-1 -2 -5 -10 -11 -13 -22 -32 -37 -38 -14 -23 -39 -44 -45 -16 -25 -46 -55 -56 -17 -26 -47 -59 -60 -18 -27 -48 -62 -63 -19 -28 -49 -64 -65 0
-2 -5 -10 -11 -12 -15 -20 -21 -22 -32 -37 -38 -23 -39 -44 -45 -25 -46 -55 -56 -26 -47 -59 -60 -27 -48 -62 -63 -28 -49 -64 -65 0
-1 -5 -10 -11 -12 -24 -29 -30 -13 -32 -37 -38 -14 -39 -44 -45 -16 -46 -55 -56 -17 -47 -59 -60 -18 -48 -62 -63 -19 -49 -64 -65 0
-5 -10 -11 -15 -20 -21 -24 -29 -30 -32 -37 -38 -39 -44 -45 -46 -55 -56 -47 -59 -60 -48 -62 -63 -49 -64 -65 0
-1 -2 -3 -4 -10 -11 -15 -24 -32 -39 -50 -51 -16 -25 -33 -40 -55 -56 -17 -26 -34 -41 -59 -60 -18 -27 -35 -42 -62 -63 -19 -28 -36 -43 -64 -65 0
-2 -3 -4 -10 -11 -12 -13 -14 -20 -21 -24 -32 -39 -50 -51 -25 -33 -40 -55 -56 -26 -34 -41 -59 -60 -27 -35 -42 -62 -63 -28 -36 -43 -64 -65 0
-1 -3 -4 -10 -11 -12 -22 -23 -29 -30 -15 -32 -39 -50 -51 -16 -33 -40 -55 -56 -17 -34 -41 -59 -60 -18 -35 -42 -62 -63 -19 -36 -43 -64 -65 0
-3 -4 -10 -11 -13 -14 -20 -21 -22 -23 -29 -30 -32 -39 -50 -51 -33 -40 -55 -56 -34 -41 -59 -60 -35 -42 -62 -63 -36 -43 -64 -65 0
-1 -2 -4 -10 -11 -13 -22 -31 -37 -38 -15 -24 -39 -50 -51 -16 -25 -40 -55 -56 -17 -26 -41 -59 -60 -18 -27 -42 -62 -63 -19 -28 -43 -64 -65 0
-2 -4 -10 -11 -12 -14 -20 -21 -22 -31 -37 -38 -24 -39 -50 -51 -25 -40 -55 -56 -26 -41 -59 -60 -27 -42 -62 -63 -28 -43 -64 -65 0
-1 -4 -10 -11 -12 -23 -29 -30 -13 -31 -37 -38 -15 -39 -50 -51 -16 -40 -55 -56 -17 -41 -59 -60 -18 -42 -62 -63 -19 -43 -64 -65 0
-4 -10 -11 -14 -20 -21 -23 -29 -30 -31 -37 -38 -39 -50 -51 -40 -55 -56 -41 -59 -60 -42 -62 -63 -43 -64 -65 0
-1 -2 -3 -10 -11 -14 -23 -31 -44 -45 -15 -24 -32 -50 -51 -16 -25 -33 -55 -56 -17 -26 -34 -59 -60 -18 -27 -35 -62 -63 -19 -28 -36 -64 -65 0
-2 -3 -10 -11 -12 -13 -20 -21 -23 -31 -44 -45 -24 -32 -50 -51 -25 -33 -55 -56 -26 -34 -59 -60 -27 -35 -62 -63 -28 -36 -64 -65 0
-1 -3 -10 -11 -12 -22 -29 -30 -14 -31 -44 -45 -15 -32 -50 -51 -16 -33 -55 -56 -17 -34 -59 -60 -18 -35 -62 -63 -19 -36 -64 -65 0
-3 -10 -11 -13 -20 -21 -22 -29 -30 -31 -44 -45 -32 -50 -51 -33 -55 -56 -34 -59 -60 -35 -62 -63 -36 -64 -65 0
-1 -2 -10 -11 -13 -22 -37 -38 -14 -23 -44 -45 -15 -24 -50 -51 -16 -25 -55 -56 -17 -26 -59 -60 -18 -27 -62 -63 -19 -28 -64 -65 0
-2 -10 -11 -12 -20 -21 -22 -37 -38 -23 -44 -45 -24 -50 -51 -25 -55 -56 -26 -59 -60 -27 -62 -63 -28 -64 -65 0
-1 -10 -11 -12 -29 -30 -13 -37 -38 -14 -44 -45 -15 -50 -51 -16 -55 -56 -17 -59 -60 -18 -62 -63 -19 -64 -65 0
-10 -11 -20 -21 -29 -30 -37 -38 -44 -45 -50 -51 -55 -56 -59 -60 -62 -63 -64 -65 0
-1 -2 -3 -4 -5 -6 -7 -8 -9 -11 -20 -29 -37 -44 -50 -55 -59 -62 -64 -66 0
-2 -3 -4 -5 -6 -7 -8 -9 -11 -12 -13 -14 -15 -16 -17 -18 -19 -21 -29 -37 -44 -50 -55 -59 -62 -64 -66 0
-1 -3 -4 -5 -6 -7 -8 -9 -11 -12 -22 -23 -24 -25 -26 -27 -28 -30 -20 -37 -44 -50 -55 -59 -62 -64 -66 0
-3 -4 -5 -6 -7 -8 -9 -11 -13 -14 -15 -16 -17 -18 -19 -21 -22 -23 -24 -25 -26 -27 -28 -30 -37 -44 -50 -55 -59 -62 -64 -66 0
-1 -2 -4 -5 -6 -7 -8 -9 -11 -13 -22 -31 -32 -33 -34 -35 -36 -38 -20 -29 -44 -50 -55 -59 -62 -64 -66 0
-2 -4 -5 -6 -7 -8 -9 -11 -12 -14 -15 -16 -17 -18 -19 -21 -22 -31 -32 -33 -34 -35 -36 -38 -29 -44 -50 -55 -59 -62 -64 -66 0
-1 -4 -5 -6 -7 -8 -9 -11 -12 -23 -24 -25 -26 -27 -28 -30 -13 -31 -32 -33 -34 -35 -36 -38 -20 -44 -50 -55 -59 -62 -64 -66 0
-4 -5 -6 -7 -8 -9 -11 -14 -15 -16 -17 -18 -19 -21 -23 -24 -25 -26 -27 -28 -30 -31 -32 -33 -34 -35 -36 -38 -44 -50 -55 -59 -62 -64 -66 0
-1 -2 -3 -5 -6 -7 -8 -9 -11 -14 -23 -31 -39 -40 -41 -42 -43 -45 -20 -29 -37 -50 -55 -59 -62 -64 -66 0
-2 -3 -5 -6 -7 -8 -9 -11 -12 -13 -15 -16 -17 -18 -19 -21 -23 -31 -39 -40 -41 -42 -43 -45 -29 -37 -50 -55 -59 -62 -64 -66 0
-1 -3 -5 -6 -7 -8 -9 -11 -12 -22 -24 -25 -26 -27 -28 -30 -14 -31 -39 -40 -41 -42 -43 -45 -20 -37 -50 -55 -59 -62 -64 -66 0
-3 -5 -6 -7 -8 -9 -11 -13 -15 -16 -17 -18 -19 -21 -22 -24 -25 -26 -27 -28 -30 -31 -39 -40 -41 -42 -43 -45 -37 -50 -55 -59 -62 -64 -66 0
-1 -2 -5 -6 -7 -8 -9 -11 -13 -22 -32 -33 -34 -35 -36 -38 -14 -23 -39 -40 -41 -42 -43 -45 -20 -29 -50 -55 -59 -62 -64 -66 0
-2 -5 -6 -7 -8 -9 -11 -12 -15 -16 -17 -18 -19 -21 -22 -32 -33 -34 -35 -36 -38 -23 -39 -40 -41 -42 -43 -45 -29 -50 -55 -59 -62 -64 -66 0
-1 -5 -6 -7 -8 -9 -11 -12 -24 -25 -26 -27 -28 -30 -13 -32 -33 -34 -35 -36 -38 -14 -39 -40 -41 -42 -43 -45 -20 -50 -55 -59 -62 -64 -66 0
-5 -6 -7 -8 -9 -11 -15 -16 -17 -18 -19 -21 -24 -25 -26 -27 -28 -30 -32 -33 -34 -35 -36 -38 -39 -40 -41 -42 -43 -45 -50 -55 -59 -62 -64 -66 0
-1 -2 -3 -4 -6 -7 -8 -9 -11 -15 -24 -32 -39 -46 -47 -48 -49 -51 -20 -29 -37 -44 -55 -59 -62 -64 -66 0
-2 -3 -4 -6 -7 -8 -9 -11 -12 -13 -14 -16 -17 -18 -19 -21 -24 -32 -39 -46 -47 -48 -49 -51 -29 -37 -44 -55 -59 -62 -64 -66 0
-1 -3 -4 -6 -7 -8 -9 -11 -12 -22 -23 -25 -26 -27 -28 -30 -15 -32 -39 -46 -47 -48 -49 -51 -20 -37 -44 -55 -59 -62 -64 -66 0
-3 -4 -6 -7 -8 -9 -11 -13 -14 -16 -17 -18 -19 -21 -22 -23 -25 -26 -27 -28 -30 -32 -39 -46 -47 -48 -49 -51 -37 -44 -55 -59 -62 -64 -66 0
-1 -2 -4 -6 -7 -8 -9 -11 -13 -22 -31 -33 -34 -35 -36 -38 -15 -24 -39 -46 -47 -48 -49 -51 -20 -29 -44 -55 -59 -62 -64 -66 0
-2 -4 -6 -7 -8 -9 -11 -12 -14 -16 -17 -18 -19 -21 -22 -31 -33 -34 -35 -36 -38 -24 -39 -46 -47 -48 -49 -51 -29 -44 -55 -59 -62 -64 -66 0
-1 -4 -6 -7 -8 -9 -11 -12 -23 -25 -26 -27 -28 -30 -13 -31 -33 -34 -35 -36 -38 -15 -39 -46 -47 -48 -49 -51 -20 -44 -55 -59 -62 -64 -66 0
-4 -6 -7 -8 -9 -11 -14 -16 -17 -18 -19 -21 -23 -25 -26 -27 -28 -30 -31 -33 -34 -35 -36 -38 -39 -46 -47 -48 -49 -51 -44 -55 -59 -62 -64 -66 0
-1 -2 -3 -6 -7 -8 -9 -11 -14 -23 -31 -40 -41 -42 -43 -45 -15 -24 -32 -46 -47 -48 -49 -51 -20 -29 -37 -55 -59 -62 -64 -66 0
-2 -3 -6 -7 -8 -9 -11 -12 -13 -16 -17 -18 -19 -21 -23 -31 -40 -41 -42 -43 -45 -24 -32 -46 -47 -48 -49 -51 -29 -37 -55 -59 -62 -64 -66 0
-1 -3 -6 -7 -8 -9 -11 -12 -22 -25 -26 -27 -28 -30 -14 -31 -40 -41 -42 -43 -45 -15 -32 -46 -47 -48 -49 -51 -20 -37 -55 -59 -62 -64 -66 0
-3 -6 -7 -8 -9 -11 -13 -16 -17 -18 -19 -21 -22 -25 -26 -27 -28 -30 -31 -40 -41 -42 -43 -45 -32 -46 -47 -48 -49 -51 -37 -55 -59 -62 -64 -66 0
-1 -2 -6 -7 -8 -9 -11 -13 -22 -33 -34 -35 -36 -38 -14 -23 -40 -41 -42 -43 -45 -15 -24 -46 -47 -48 -49 -51 -20 -29 -55 -59 -62 -64 -66 0
-2 -6 -7 -8 -9 -11 -12 -16 -17 -18 -19 -21 -22 -33 -34 -35 -36 -38 -23 -40 -41 -42 -43 -45 -24 -46 -47 -48 -49 -51 -29 -55 -59 -62 -64 -66 0
-1 -6 -7 -8 -9 -11 -12 -25 -26 -27 -28 -30 -13 -33 -34 -35 -36 -38 -14 -40 -41 -42 -43 -45 -15 -46 -47 -48 -49 -51 -20 -55 -59 -62 -64 -66 0
-6 -7 -8 -9 -11 -16 -17 -18 -19 -21 -25 -26 -27 -28 -30 -33 -34 -35 -36 -38 -40 -41 -42 -43 -45 -46 -47 -48 -49 -51 -55 -59 -62 -64 -66 0
-1 -2 -3 -4 -5 -7 -8 -9 -11 -16 -25 -33 -40 -46 -52 -53 -54 -56 -20 -29 -37 -44 -50 -59 -62 -64 -66 0
-2 -3 -4 -5 -7 -8 -9 -11 -12 -13 -14 -15 -17 -18 -19 -21 -25 -33 -40 -46 -52 -53 -54 -56 -29 -37 -44 -50 -59 -62 -64 -66 0
-1 -3 -4 -5 -7 -8 -9 -11 -12 -22 -23 -24 -26 -27 -28 -30 -16 -33 -40 -46 -52 -53 -54 -56 -20 -37 -44 -50 -59 -62 -64 -66 0
-3 -4 -5 -7 -8 -9 -11 -13 -14 -15 -17 -18 -19 -21 -22 -23 -24 -26 -27 -28 -30 -33 -40 -46 -52 -53 -54 -56 -37 -44 -50 -59 -62 -64 -66 0
-1 -2 -4 -5 -7 -8 -9 -11 -13 -22 -31 -32 -34 -35 -36 -38 -16 -25 -40 -46 -52 -53 -54 -56 -20 -29 -44 -50 -59 -62 -64 -66 0
-2 -4 -5 -7 -8 -9 -11 -12 -14 -15 -17 -18 -19 -21 -22 -31 -32 -34 -35 -36 -38 -25 -40 -46 -52 -53 -54 -56 -29 -44 -50 -59 -62 -64 -66 0
-1 -4 -5 -7 -8 -9 -11 -12 -23 -24 -26 -27 -28 -30 -13 -31 -32 -34 -35 -36 -38 -16 -40 -46 -52 -53 -54 -56 -20 -44 -50 -59 -62 -64 -66 0
-4 -5 -7 -8 -9 -11 -14 -15 -17 -18 -19 -21 -23 -24 -26 -27 -28 -30 -31 -32 -34 -35 -36 -38 -40 -46 -52 -53 -54 -56 -44 -50 -59 -62 -64 -66 0
-1 -2 -3 -5 -7 -8 -9 -11 -14 -23 -31 -39 -41 -42 -43 -45 -16 -25 -33 -46 -52 -53 -54 -56 -20 -29 -37 -50 -59 -62 -64 -66 0
-2 -3 -5 -7 -8 -9 -11 -12 -13 -15 -17 -18 -19 -21 -23 -31 -39 -41 -42 -43 -45 -25 -33 -46 -52 -53 -54 -56 -29 -37 -50 -59 -62 -64 -66 0
-1 -3 -5 -7 -8 -9 -11 -12 -22 -24 -26 -27 -28 -30 -14 -31 -39 -41 -42 -43 -45 -16 -33 -46 -52 -53 -54 -56 -20 -37 -50 -59 -62 -64 -66 0
-3 -5 -7 -8 -9 -11 -13 -15 -17 -18 -19 -21 -22 -24 -26 -27 -28 -30 -31 -39 -41 -42 -43 -45 -33 -46 -52 -53 -54 -56 -37 -50 -59 -62 -64 -66 0
-1 -2 -5 -7 -8 -9 -11 -13 -22 -32 -34 -35 -36 -38 -14 -23 -39 -41 -42 -43 -45 -16 -25 -46 -52 -53 -54 -56 -20 -29 -50 -59 -62 -64 -66 0
-2 -5 -7 -8 -9 -11 -12 -15 -17 -18 -19 -21 -22 -32 -34 -35 -36 -38 -23 -39 -41 -42 -43 -45 -25 -46 -52 -53 -54 -56 -29 -50 -59 -62 -64 -66 0
-1 -5 -7 -8 -9 -11 -12 -24 -26 -27 -28 -30 -13 -32 -34 -35 -36 -38 -14 -39 -41 -42 -43 -45 -16 -46 -52 -53 -54 -56 -20 -50 -59 -62 -64 -66 0
-5 -7 -8 -9 -11 -15 -17 -18 -19 -21 -24 -26 -27 -28 -30 -32 -34 -35 -36 -38 -39 -41 -42 -43 -45 -46 -52 -53 -54 -56 -50 -59 -62 -64 -66 0
-1 -2 -3 -4 -7 -8 -9 -11 -15 -24 -32 -39 -47 -48 -49 -51 -16 -25 -33 -40 -52 -53 -54 -56 -20 -29 -37 -44 -59 -62 -64 -66 0
-2 -3 -4 -7 -8 -9 -11 -12 -13 -14 -17 -18 -19 -21 -24 -32 -39 -47 -48 -49 -51 -25 -33 -40 -52 -53 -54 -56 -29 -37 -44 -59 -62 -64 -66 0
-1 -3 -4 -7 -8 -9 -11 -12 -22 -23 -26 -27 -28 -30 -15 -32 -39 -47 -48 -49 -51 -16 -33 -40 -52 -53 -54 -56 -20 -37 -44 -59 -62 -64 -66 0
-3 -4 -7 -8 -9 -11 -13 -14 -17 -18 -19 -21 -22 -23 -26 -27 -28 -30 -32 -39 -47 -48 -49 -51 -33 -40 -52 -53 -54 -56 -37 -44 -59 -62 -64 -66 0
-1 -2 -4 -7 -8 -9 -11 -13 -22 -31 -34 -35 -36 -38 -15 -24 -39 -47 -48 -49 -51 -16 -25 -40 -52 -53 -54 -56 -20 -29 -44 -59 -62 -64 -66 0
-2 -4 -7 -8 -9 -11 -12 -14 -17 -18 -19 -21 -22 -31 -34 -35 -36 -38 -24 -39 -47 -48 -49 -51 -25 -40 -52 -53 -54 -56 -29 -44 -59 -62 -64 -66 0
-1 -4 -7 -8 -9 -11 -12 -23 -26 -27 -28 -30 -13 -31 -34 -35 -36 -38 -15 -39 -47 -48 -49 -51 -16 -40 -52 -53 -54 -56 -20 -44 -59 -62 -64 -66 0
-4 -7 -8 -9 -11 -14 -17 -18 -19 -21 -23 -26 -27 -28 -30 -31 -34 -35 -36 -38 -39 -47 -48 -49 -51 -40 -52 -53 -54 -56 -44 -59 -62 -64 -66 0
-1 -2 -3 -7 -8 -9 -11 -14 -23 -31 -41 -42 -43 -45 -15 -24 -32 -47 -48 -49 -51 -16 -25 -33 -52 -53 -54 -56 -20 -29 -37 -59 -62 -64 -66 0
-2 -3 -7 -8 -9 -11 -12 -13 -17 -18 -19 -21 -23 -31 -41 -42 -43 -45 -24 -32 -47 -48 -49 -51 -25 -33 -52 -53 -54 -56 -29 -37 -59 -62 -64 -66 0
-1 -3 -7 -8 -9 -11 -12 -22 -26 -27 -28 -30 -14 -31 -41 -42 -43 -45 -15 -32 -47 -48 -49 -51 -16 -33 -52 -53 -54 -56 -20 -37 -59 -62 -64 -66 0
-3 -7 -8 -9 -11 -13 -17 -18 -19 -21 -22 -26 -27 -28 -30 -31 -41 -42 -43 -45 -32 -47 -48 -49 -51 -33 -52 -53 -54 -56 -37 -59 -62 -64 -66 0
-1 -2 -7 -8 -9 -11 -13 -22 -34 -35 -36 -38 -14 -23 -41 -42 -43 -45 -15 -24 -47 -48 -49 -51 -16 -25 -52 -53 -54 -56 -20 -29 -59 -62 -64 -66 0
-2 -7 -8 -9 -11 -12 -17 -18 -19 -21 -22 -34 -35 -36 -38 -23 -41 -42 -43 -45 -24 -47 -48 -49 -51 -25 -52 -53 -54 -56 -29 -59 -62 -64 -66 0
-1 -7 -8 -9 -11 -12 -26 -27 -28 -30 -13 -34 -35 -36 -38 -14 -41 -42 -43 -45 -15 -47 -48 -49 -51 -16 -52 -53 -54 -56 -20 -59 -62 -64 -66 0
-7 -8 -9 -11 -17 -18 -19 -21 -26 -27 -28 -30 -34 -35 -36 -38 -41 -42 -43 -45 -47 -48 -49 -51 -52 -53 -54 -56 -59 -62 -64 -66 0
-1 -2 -3 -4 -5 -6 -8 -9 -11 -17 -26 -34 -41 -47 -52 -57 -58 -60 -20 -29 -37 -44 -50 -55 -62 -64 -66 0
-2 -3 -4 -5 -6 -8 -9 -11 -12 -13 -14 -15 -16 -18 -19 -21 -26 -34 -41 -47 -52 -57 -58 -60 -29 -37 -44 -50 -55 -62 -64 -66 0
-1 -3 -4 -5 -6 -8 -9 -11 -12 -22 -23 -24 -25 -27 -28 -30 -17 -34 -41 -47 -52 -57 -58 -60 -20 -37 -44 -50 -55 -62 -64 -66 0
-3 -4 -5 -6 -8 -9 -11 -13 -14 -15 -16 -18 -19 -21 -22 -23 -24 -25 -27 -28 -30 -34 -41 -47 -52 -57 -58 -60 -37 -44 -50 -55 -62 -64 -66 0
-1 -2 -4 -5 -6 -8 -9 -11 -13 -22 -31 -32 -33 -35 -36 -38 -17 -26 -41 -47 -52 -57 -58 -60 -20 -29 -44 -50 -55 -62 -64 -66 0
-2 -4 -5 -6 -8 -9 -11 -12 -14 -15 -16 -18 -19 -21 -22 -31 -32 -33 -35 -36 -38 -26 -41 -47 -52 -57 -58 -60 -29 -44 -50 -55 -62 -64 -66 0
-1 -4 -5 -6 -8 -9 -11 -12 -23 -24 -25 -27 -28 -30 -13 -31 -32 -33 -35 -36 -38 -17 -41 -47 -52 -57 -58 -60 -20 -44 -50 -55 -62 -64 -66 0
-4 -5 -6 -8 -9 -11 -14 -15 -16 -18 -19 -21 -23 -24 -25 -27 -28 -30 -31 -32 -33 -35 -36 -38 -41 -47 -52 -57 -58 -60 -44 -50 -55 -62 -64 -66 0
-1 -2 -3 -5 -6 -8 -9 -11 -14 -23 -31 -39 -40 -42 -43 -45 -17 -26 -34 -47 -52 -57 -58 -60 -20 -29 -37 -50 -55 -62 -64 -66 0
-2 -3 -5 -6 -8 -9 -11 -12 -13 -15 -16 -18 -19 -21 -23 -31 -39 -40 -42 -43 -45 -26 -34 -47 -52 -57 -58 -60 -29 -37 -50 -55 -62 -64 -66 0
-1 -3 -5 -6 -8 -9 -11 -12 -22 -24 -25 -27 -28 -30 -14 -31 -39 -40 -42 -43 -45 -17 -34 -47 -52 -57 -58 -60 -20 -37 -50 -55 -62 -64 -66 0
-3 -5 -6 -8 -9 -11 -13 -15 -16 -18 -19 -21 -22 -24 -25 -27 -28 -30 -31 -39 -40 -42 -43 -45 -34 -47 -52 -57 -58 -60 -37 -50 -55 -62 -64 -66 0
-1 -2 -5 -6 -8 -9 -11 -13 -22 -32 -33 -35 -36 -38 -14 -23 -39 -40 -42 -43 -45 -17 -26 -47 -52 -57 -58 -60 -20 -29 -50 -55 -62 -64 -66 0
-2 -5 -6 -8 -9 -11 -12 -15 -16 -18 -19 -21 -22 -32 -33 -35 -36 -38 -23 -39 -40 -42 -43 -45 -26 -47 -52 -57 -58 -60 -29 -50 -55 -62 -64 -66 0
-1 -5 -6 -8 -9 -11 -12 -24 -25 -27 -28 -30 -13 -32 -33 -35 -36 -38 -14 -39 -40 -42 -43 -45 -17 -47 -52 -57 -58 -60 -20 -50 -55 -62 -64 -66 0
-5 -6 -8 -9 -11 -15 -16 -18 -19 -21 -24 -25 -27 -28 -30 -32 -33 -35 -36 -38 -39 -40 -42 -43 -45 -47 -52 -57 -58 -60 -50 -55 -62 -64 -66 0
-1 -2 -3 -4 -6 -8 -9 -11 -15 -24 -32 -39 -46 -48 -49 -51 -17 -26 -34 -41 -52 -57 -58 -60 -20 -29 -37 -44 -55 -62 -64 -66 0
-2 -3 -4 -6 -8 -9 -11 -12 -13 -14 -16 -18 -19 -21 -24 -32 -39 -46 -48 -49 -51 -26 -34 -41 -52 -57 -58 -60 -29 -37 -44 -55 -62 -64 -66 0
-1 -3 -4 -6 -8 -9 -11 -12 -22 -23 -25 -27 -28 -30 -15 -32 -39 -46 -48 -49 -51 -17 -34 -41 -52 -57 -58 -60 -20 -37 -44 -55 -62 -64 -66 0
-3 -4 -6 -8 -9 -11 -13 -14 -16 -18 -19 -21 -22 -23 -25 -27 -28 -30 -32 -39 -46 -48 -49 -51 -34 -41 -52 -57 -58 -60 -37 -44 -55 -62 -64 -66 0
-1 -2 -4 -6 -8 -9 -11 -13 -22 -31 -33 -35 -36 -38 -15 -24 -39 -46 -48 -49 -51 -17 -26 -41 -52 -57 -58 -60 -20 -29 -44 -55 -62 -64 -66 0
-2 -4 -6 -8 -9 -11 -12 -14 -16 -18 -19 -21 -22 -31 -33 -35 -36 -38 -24 -39 -46 -48 -49 -51 -26 -41 -52 -57 -58 -60 -29 -44 -55 -62 -64 -66 0
-1 -4 -6 -8 -9 -11 -12 -23 -25 -27 -28 -30 -13 -31 -33 -35 -36 -38 -15 -39 -46 -48 -49 -51 -17 -41 -52 -57 -58 -60 -20 -44 -55 -62 -64 -66 0
-4 -6 -8 -9 -11 -14 -16 -18 -19 -21 -23 -25 -27 -28 -30 -31 -33 -35 -36 -38 -39 -46 -48 -49 -51 -41 -52 -57 -58 -60 -44 -55 -62 -64 -66 0
-1 -2 -3 -6 -8 -9 -11 -14 -23 -31 -40 -42 -43 -45 -15 -24 -32 -46 -48 -49 -51 -17 -26 -34 -52 -57 -58 -60 -20 -29 -37 -55 -62 -64 -66 0
-2 -3 -6 -8 -9 -11 -12 -13 -16 -18 -19 -21 -23 -31 -40 -42 -43 -45 -24 -32 -46 -48 -49 -51 -26 -34 -52 -57 -58 -60 -29 -37 -55 -62 -64 -66 0
-1 -3 -6 -8 -9 -11 -12 -22 -25 -27 -28 -30 -14 -31 -40 -42 -43 -45 -15 -32 -46 -48 -49 -51 -17 -34 -52 -57 -58 -60 -20 -37 -55 -62 -64 -66 0
-3 -6 -8 -9 -11 -13 -16 -18 -19 -21 -22 -25 -27 -28 -30 -31 -40 -42 -43 -45 -32 -46 -48 -49 -51 -34 -52 -57 -58 -60 -37 -55 -62 -64 -66 0
-1 -2 -6 -8 -9 -11 -13 -22 -33 -35 -36 -38 -14 -23 -40 -42 -43 -45 -15 -24 -46 -48 -49 -51 -17 -26 -52 -57 -58 -60 -20 -29 -55 -62 -64 -66 0
-2 -6 -8 -9 -11 -12 -16 -18 -19 -21 -22 -33 -35 -36 -38 -23 -40 -42 -43 -45 -24 -46 -48 -49 -51 -26 -52 -57 -58 -60 -29 -55 -62 -64 -66 0
-1 -6 -8 -9 -11 -12 -25 -27 -28 -30 -13 -33 -35 -36 -38 -14 -40 -42 -43 -45 -15 -46 -48 -49 -51 -17 -52 -57 -58 -60 -20 -55 -62 -64 -66 0
-6 -8 -9 -11 -16 -18 -19 -21 -25 -27 -28 -30 -33 -35 -36 -38 -40 -42 -43 -45 -46 -48 -49 -51 -52 -57 -58 -60 -55 -62 -64 -66 0
-1 -2 -3 -4 -5 -8 -9 -11 -16 -25 -33 -40 -46 -53 -54 -56 -17 -26 -34 -41 -47 -57 -58 -60 -20 -29 -37 -44 -50 -62 -64 -66 0
-2 -3 -4 -5 -8 -9 -11 -12 -13 -14 -15 -18 -19 -21 -25 -33 -40 -46 -53 -54 -56 -26 -34 -41 -47 -57 -58 -60 -29 -37 -44 -50 -62 -64 -66 0
-1 -3 -4 -5 -8 -9 -11 -12 -22 -23 -24 -27 -28 -30 -16 -33 -40 -46 -53 -54 -56 -17 -34 -41 -47 -57 -58 -60 -20 -37 -44 -50 -62 -64 -66 0
-3 -4 -5 -8 -9 -11 -13 -14 -15 -18 -19 -21 -22 -23 -24 -27 -28 -30 -33 -40 -46 -53 -54 -56 -34 -41 -47 -57 -58 -60 -37 -44 -50 -62 -64 -66 0
-1 -2 -4 -5 -8 -9 -11 -13 -22 -31 -32 -35 -36 -38 -16 -25 -40 -46 -53 -54 -56 -17 -26 -41 -47 -57 -58 -60 -20 -29 -44 -50 -62 -64 -66 0
-2 -4 -5 -8 -9 -11 -12 -14 -15 -18 -19 -21 -22 -31 -32 -35 -36 -38 -25 -40 -46 -53 -54 -56 -26 -41 -47 -57 -58 -60 -29 -44 -50 -62 -64 -66 0
-1 -4 -5 -8 -9 -11 -12 -23 -24 -27 -28 -30 -13 -31 -32 -35 -36 -38 -16 -40 -46 -53 -54 -56 -17 -41 -47 -57 -58 -60 -20 -44 -50 -62 -64 -66 0
-4 -5 -8 -9 -11 -14 -15 -18 -19 -21 -23 -24 -27 -28 -30 -31 -32 -35 -36 -38 -40 -46 -53 -54 -56 -41 -47 -57 -58 -60 -44 -50 -62 -64 -66 0
-1 -2 -3 -5 -8 -9 -11 -14 -23 -31 -39 -42 -43 -45 -16 -25 -33 -46 -53 -54 -56 -17 -26 -34 -47 -57 -58 -60 -20 -29 -37 -50 -62 -64 -66 0
-2 -3 -5 -8 -9 -11 -12 -13 -15 -18 -19 -21 -23 -31 -39 -42 -43 -45 -25 -33 -46 -53 -54 -56 -26 -34 -47 -57 -58 -60 -29 -37 -50 -62 -64 -66 0
-1 -3 -5 -8 -9 -11 -12 -22 -24 -27 -28 -30 -14 -31 -39 -42 -43 -45 -16 -33 -46 -53 -54 -56 -17 -34 -47 -57 -58 -60 -20 -37 -50 -62 -64 -66 0
-3 -5 -8 -9 -11 -13 -15 -18 -19 -21 -22 -24 -27 -28 -30 -31 -39 -42 -43 -45 -33 -46 -53 -54 -56 -34 -47 -57 -58 -60 -37 -50 -62 -64 -66 0
-1 -2 -5 -8 -9 -11 -13 -22 -32 -35 -36 -38 -14 -23 -39 -42 -43 -45 -16 -25 -46 -53 -54 -56 -17 -26 -47 -57 -58 -60 -20 -29 -50 -62 -64 -66 0
-2 -5 -8 -9 -11 -12 -15 -18 -19 -21 -22 -32 -35 -36 -38 -23 -39 -42 -43 -45 -25 -46 -53 -54 -56 -26 -47 -57 -58 -60 -29 -50 -62 -64 -66 0
-1 -5 -8 -9 -11 -12 -24 -27 -28 -30 -13 -32 -35 -36 -38 -14 -39 -42 -43 -45 -16 -46 -53 -54 -56 -17 -47 -57 -58 -60 -20 -50 -62 -64 -66 0
-5 -8 -9 -11 -15 -18 -19 -21 -24 -27 -28 -30 -32 -35 -36 -38 -39 -42 -43 -45 -46 -53 -54 -56 -47 -57 -58 -60 -50 -62 -64 -66 0
-1 -2 -3 -4 -8 -9 -11 -15 -24 -32 -39 -48 -49 -51 -16 -25 -33 -40 -53 -54 -56 -17 -26 -34 -41 -57 -58 -60 -20 -29 -37 -44 -62 -64 -66 0
-2 -3 -4 -8 -9 -11 -12 -13 -14 -18 -19 -21 -24 -32 -39 -48 -49 -51 -25 -33 -40 -53 -54 -56 -26 -34 -41 -57 -58 -60 -29 -37 -44 -62 -64 -66 0
-1 -3 -4 -8 -9 -11 -12 -22 -23 -27 -28 -30 -15 -32 -39 -48 -49 -51 -16 -33 -40 -53 -54 -56 -17 -34 -41 -57 -58 -60 -20 -37 -44 -62 -64 -66 0
-3 -4 -8 -9 -11 -13 -14 -18 -19 -21 -22 -23 -27 -28 -30 -32 -39 -48 -49 -51 -33 -40 -53 -54 -56 -34 -41 -57 -58 -60 -37 -44 -62 -64 -66 0
-1 -2 -4 -8 -9 -11 -13 -22 -31 -35 -36 -38 -15 -24 -39 -48 -49 -51 -16 -25 -40 -53 -54 -56 -17 -26 -41 -57 -58 -60 -20 -29 -44 -62 -64 -66 0
-2 -4 -8 -9 -11 -12 -14 -18 -19 -21 -22 -31 -35 -36 -38 -24 -39 -48 -49 -51 -25 -40 -53 -54 -56 -26 -41 -57 -58 -60 -29 -44 -62 -64 -66 0
-1 -4 -8 -9 -11 -12 -23 -27 -28 -30 -13 -31 -35 -36 -38 -15 -39 -48 -49 -51 -16 -40 -53 -54 -56 -17 -41 -57 -58 -60 -20 -44 -62 -64 -66 0
-4 -8 -9 -11 -14 -18 -19 -21 -23 -27 -28 -30 -31 -35 -36 -38 -39 -48 -49 -51 -40 -53 -54 -56 -41 -57 -58 -60 -44 -62 -64 -66 0
-1 -2 -3 -8 -9 -11 -14 -23 -31 -42 -43 -45 -15 -24 -32 -48 -49 -51 -16 -25 -33 -53 -54 -56 -17 -26 -34 -57 -58 -60 -20 -29 -37 -62 -64 -66 0
-2 -3 -8 -9 -11 -12 -13 -18 -19 -21 -23 -31 -42 -43 -45 -24 -32 -48 -49 -51 -25 -33 -53 -54 -56 -26 -34 -57 -58 -60 -29 -37 -62 -64 -66 0
-1 -3 -8 -9 -11 -12 -22 -27 -28 -30 -14 -31 -42 -43 -45 -15 -32 -48 -49 -51 -16 -33 -53 -54 -56 -17 -34 -57 -58 -60 -20 -37 -62 -64 -66 0
-3 -8 -9 -11 -13 -18 -19 -21 -22 -27 -28 -30 -31 -42 -43 -45 -32 -48 -49 -51 -33 -53 -54 -56 -34 -57 -58 -60 -37 -62 -64 -66 0
-1 -2 -8 -9 -11 -13 -22 -35 -36 -38 -14 -23 -42 -43 -45 -15 -24 -48 -49 -51 -16 -25 -53 -54 -56 -17 -26 -57 -58 -60 -20 -29 -62 -64 -66 0
-2 -8 -9 -11 -12 -18 -19 -21 -22 -35 -36 -38 -23 -42 -43 -45 -24 -48 -49 -51 -25 -53 -54 -56 -26 -57 -58 -60 -29 -62 -64 -66 0
-1 -8 -9 -11 -12 -27 -28 -30 -13 -35 -36 -38 -14 -42 -43 -45 -15 -48 -49 -51 -16 -53 -54 -56 -17 -57 -58 -60 -20 -62 -64 -66 0
-8 -9 -11 -18 -19 -21 -27 -28 -30 -35 -36 -38 -42 -43 -45 -48 -49 -51 -53 -54 -56 -57 -58 -60 -62 -64 -66 0
-1 -2 -3 -4 -5 -6 -7 -9 -11 -18 -27 -35 -42 -48 -53 -57 -61 -63 -20 -29 -37 -44 -50 -55 -59 -64 -66 0
-2 -3 -4 -5 -6 -7 -9 -11 -12 -13 -14 -15 -16 -17 -19 -21 -27 -35 -42 -48 -53 -57 -61 -63 -29 -37 -44 -50 -55 -59 -64 -66 0
-1 -3 -4 -5 -6 -7 -9 -11 -12 -22 -23 -24 -25 -26 -28 -30 -18 -35 -42 -48 -53 -57 -61 -63 -20 -37 -44 -50 -55 -59 -64 -66 0
-3 -4 -5 -6 -7 -9 -11 -13 -14 -15 -16 -17 -19 -21 -22 -23 -24 -25 -26 -28 -30 -35 -42 -48 -53 -57 -61 -63 -37 -44 -50 -55 -59 -64 -66 0
-1 -2 -4 -5 -6 -7 -9 -11 -13 -22 -31 -32 -33 -34 -36 -38 -18 -27 -42 -48 -53 -57 -61 -63 -20 -29 -44 -50 -55 -59 -64 -66 0
-2 -4 -5 -6 -7 -9 -11 -12 -14 -15 -16 -17 -19 -21 -22 -31 -32 -33 -34 -36 -38 -27 -42 -48 -53 -57 -61 -63 -29 -44 -50 -55 -59 -64 -66 0
-1 -4 -5 -6 -7 -9 -11 -12 -23 -24 -25 -26 -28 -30 -13 -31 -32 -33 -34 -36 -38 -18 -42 -48 -53 -57 -61 -63 -20 -44 -50 -55 -59 -64 -66 0
-4 -5 -6 -7 -9 -11 -14 -15 -16 -17 -19 -21 -23 -24 -25 -26 -28 -30 -31 -32 -33 -34 -36 -38 -42 -48 -53 -57 -61 -63 -44 -50 -55 -59 -64 -66 0
-1 -2 -3 -5 -6 -7 -9 -11 -14 -23 -31 -39 -40 -41 -43 -45 -18 -27 -35 -48 -53 -57 -61 -63 -20 -29 -37 -50 -55 -59 -64 -66 0
-2 -3 -5 -6 -7 -9 -11 -12 -13 -15 -16 -17 -19 -21 -23 -31 -39 -40 -41 -43 -45 -27 -35 -48 -53 -57 -61 -63 -29 -37 -50 -55 -59 -64 -66 0
-1 -3 -5 -6 -7 -9 -11 -12 -22 -24 -25 -26 -28 -30 -14 -31 -39 -40 -41 -43 -45 -18 -35 -48 -53 -57 -61 -63 -20 -37 -50 -55 -59 -64 -66 0
-3 -5 -6 -7 -9 -11 -13 -15 -16 -17 -19 -21 -22 -24 -25 -26 -28 -30 -31 -39 -40 -41 -43 -45 -35 -48 -53 -57 -61 -63 -37 -50 -55 -59 -64 -66 0
-1 -2 -5 -6 -7 -9 -11 -13 -22 -32 -33 -34 -36 -38 -14 -23 -39 -40 -41 -43 -45 -18 -27 -48 -53 -57 -61 -63 -20 -29 -50 -55 -59 -64 -66 0
-2 -5 -6 -7 -9 -11 -12 -15 -16 -17 -19 -21 -22 -32 -33 -34 -36 -38 -23 -39 -40 -41 -43 -45 -27 -48 -53 -57 -61 -63 -29 -50 -55 -59 -64 -66 0
-1 -5 -6 -7 -9 -11 -12 -24 -25 -26 -28 -30 -13 -32 -33 -34 -36 -38 -14 -39 -40 -41 -43 -45 -18 -48 -53 -57 -61 -63 -20 -50 -55 -59 -64 -66 0
-5 -6 -7 -9 -11 -15 -16 -17 -19 -21 -24 -25 -26 -28 -30 -32 -33 -34 -36 -38 -39 -40 -41 -43 -45 -48 -53 -57 -61 -63 -50 -55 -59 -64 -66 0
-1 -2 -3 -4 -6 -7 -9 -11 -15 -24 -32 -39 -46 -47 -49 -51 -18 -27 -35 -42 -53 -57 -61 -63 -20 -29 -37 -44 -55 -59 -64 -66 0
-2 -3 -4 -6 -7 -9 -11 -12 -13 -14 -16 -17 -19 -21 -24 -32 -39 -46 -47 -49 -51 -27 -35 -42 -53 -57 -61 -63 -29 -37 -44 -55 -59 -64 -66 0
-1 -3 -4 -6 -7 -9 -11 -12 -22 -23 -25 -26 -28 -30 -15 -32 -39 -46 -47 -49 -51 -18 -35 -42 -53 -57 -61 -63 -20 -37 -44 -55 -59 -64 -66 0
-3 -4 -6 -7 -9 -11 -13 -14 -16 -17 -19 -21 -22 -23 -25 -26 -28 -30 -32 -39 -46 -47 -49 -51 -35 -42 -53 -57 -61 -63 -37 -44 -55 -59 -64 -66 0
-1 -2 -4 -6 -7 -9 -11 -13 -22 -31 -33 -34 -36 -38 -15 -24 -39 -46 -47 -49 -51 -18 -27 -42 -53 -57 -61 -63 -20 -29 -44 -55 -59 -64 -66 0
-2 -4 -6 -7 -9 -11 -12 -14 -16 -17 -19 -21 -22 -31 -33 -34 -36 -38 -24 -39 -46 -47 -49 -51 -27 -42 -53 -57 -61 -63 -29 -44 -55 -59 -64 -66 0
-1 -4 -6 -7 -9 -11 -12 -23 -25 -26 -28 -30 -13 -31 -33 -34 -36 -38 -15 -39 -46 -47 -49 -51 -18 -42 -53 -57 -61 -63 -20 -44 -55 -59 -64 -66 0
-4 -6 -7 -9 -11 -14 -16 -17 -19 -21 -23 -25 -26 -28 -30 -31 -33 -34 -36 -38 -39 -46 -47 -49 -51 -42 -53 -57 -61 -63 -44 -55 -59 -64 -66 0
-1 -2 -3 -6 -7 -9 -11 -14 -23 -31 -40 -41 -43 -45 -15 -24 -32 -46 -47 -49 -51 -18 -27 -35 -53 -57 -61 -63 -20 -29 -37 -55 -59 -64 -66 0
-2 -3 -6 -7 -9 -11 -12 -13 -16 -17 -19 -21 -23 -31 -40 -41 -43 -45 -24 -32 -46 -47 -49 -51 -27 -35 -53 -57 -61 -63 -29 -37 -55 -59 -64 -66 0
-1 -3 -6 -7 -9 -11 -12 -22 -25 -26 -28 -30 -14 -31 -40 -41 -43 -45 -15 -32 -46 -47 -49 -51 -18 -35 -53 -57 -61 -63 -20 -37 -55 -59 -64 -66 0
-3 -6 -7 -9 -11 -13 -16 -17 -19 -21 -22 -25 -26 -28 -30 -31 -40 -41 -43 -45 -32 -46 -47 -49 -51 -35 -53 -57 -61 -63 -37 -55 -59 -64 -66 0
-1 -2 -6 -7 -9 -11 -13 -22 -33 -34 -36 -38 -14 -23 -40 -41 -43 -45 -15 -24 -46 -47 -49 -51 -18 -27 -53 -57 -61 -63 -20 -29 -55 -59 -64 -66 0
-2 -6 -7 -9 -11 -12 -16 -17 -19 -21 -22 -33 -34 -36 -38 -23 -40 -41 -43 -45 -24 -46 -47 -49 -51 -27 -53 -57 -61 -63 -29 -55 -59 -64 -66 0
-1 -6 -7 -9 -11 -12 -25 -26 -28 -30 -13 -33 -34 -36 -38 -14 -40 -41 -43 -45 -15 -46 -47 -49 -51 -18 -53 -57 -61 -63 -20 -55 -59 -64 -66 0
-6 -7 -9 -11 -16 -17 -19 -21 -25 -26 -28 -30 -33 -34 -36 -38 -40 -41 -43 -45 -46 -47 -49 -51 -53 -57 -61 -63 -55 -59 -64 -66 0
-1 -2 -3 -4 -5 -7 -9 -11 -16 -25 -33 -40 -46 -52 -54 -56 -18 -27 -35 -42 -48 -57 -61 -63 -20 -29 -37 -44 -50 -59 -64 -66 0
-2 -3 -4 -5 -7 -9 -11 -12 -13 -14 -15 -17 -19 -21 -25 -33 -40 -46 -52 -54 -56 -27 -35 -42 -48 -57 -61 -63 -29 -37 -44 -50 -59 -64 -66 0
-1 -3 -4 -5 -7 -9 -11 -12 -22 -23 -24 -26 -28 -30 -16 -33 -40 -46 -52 -54 -56 -18 -35 -42 -48 -57 -61 -63 -20 -37 -44 -50 -59 -64 -66 0
-3 -4 -5 -7 -9 -11 -13 -14 -15 -17 -19 -21 -22 -23 -24 -26 -28 -30 -33 -40 -46 -52 -54 -56 -35 -42 -48 -57 -61 -63 -37 -44 -50 -59 -64 -66 0
-1 -2 -4 -5 -7 -9 -11 -13 -22 -31 -32 -34 -36 -38 -16 -25 -40 -46 -52 -54 -56 -18 -27 -42 -48 -57 -61 -63 -20 -29 -44 -50 -59 -64 -66 0
-2 -4 -5 -7 -9 -11 -12 -14 -15 -17 -19 -21 -22 -31 -32 -34 -36 -38 -25 -40 -46 -52 -54 -56 -27 -42 -48 -57 -61 -63 -29 -44 -50 -59 -64 -66 0
-1 -4 -5 -7 -9 -11 -12 -23 -24 -26 -28 -30 -13 -31 -32 -34 -36 -38 -16 -40 -46 -52 -54 -56 -18 -42 -48 -57 -61 -63 -20 -44 -50 -59 -64 -66 0
-4 -5 -7 -9 -11 -14 -15 -17 -19 -21 -23 -24 -26 -28 -30 -31 -32 -34 -36 -38 -40 -46 -52 -54 -56 -42 -48 -57 -61 -63 -44 -50 -59 -64 -66 0
-1 -2 -3 -5 -7 -9 -11 -14 -23 -31 -39 -41 -43 -45 -16 -25 -33 -46 -52 -54 -56 -18 -27 -35 -48 -57 -61 -63 -20 -29 -37 -50 -59 -64 -66 0
-2 -3 -5 -7 -9 -11 -12 -13 -15 -17 -19 -21 -23 -31 -39 -41 -43 -45 -25 -33 -46 -52 -54 -56 -27 -35 -48 -57 -61 -63 -29 -37 -50 -59 -64 -66 0
-1 -3 -5 -7 -9 -11 -12 -22 -24 -26 -28 -30 -14 -31 -39 -41 -43 -45 -16 -33 -46 -52 -54 -56 -18 -35 -48 -57 -61 -63 -20 -37 -50 -59 -64 -66 0
-3 -5 -7 -9 -11 -13 -15 -17 -19 -21 -22 -24 -26 -28 -30 -31 -39 -41 -43 -45 -33 -46 -52 -54 -56 -35 -48 -57 -61 -63 -37 -50 -59 -64 -66 0
-1 -2 -5 -7 -9 -11 -13 -22 -32 -34 -36 -38 -14 -23 -39 -41 -43 -45 -16 -25 -46 -52 -54 -56 -18 -27 -48 -57 -61 -63 -20 -29 -50 -59 -64 -66 0
-2 -5 -7 -9 -11 -12 -15 -17 -19 -21 -22 -32 -34 -36 -38 -23 -39 -41 -43 -45 -25 -46 -52 -54 -56 -27 -48 -57 -61 -63 -29 -50 -59 -64 -66 0
-1 -5 -7 -9 -11 -12 -24 -26 -28 -30 -13 -32 -34 -36 -38 -14 -39 -41 -43 -45 -16 -46 -52 -54 -56 -18 -48 -57 -61 -63 -20 -50 -59 -64 -66 0
-5 -7 -9 -11 -15 -17 -19 -21 -24 -26 -28 -30 -32 -34 -36 -38 -39 -41 -43 -45 -46 -52 -54 -56 -48 -57 -61 -63 -50 -59 -64 -66 0
-1 -2 -3 -4 -7 -9 -11 -15 -24 -32 -39 -47 -49 -51 -16 -25 -33 -40 -52 -54 -56 -18 -27 -35 -42 -57 -61 -63 -20 -29 -37 -44 -59 -64 -66 0
-2 -3 -4 -7 -9 -11 -12 -13 -14 -17 -19 -21 -24 -32 -39 -47 -49 -51 -25 -33 -40 -52 -54 -56 -27 -35 -42 -57 -61 -63 -29 -37 -44 -59 -64 -66 0
-1 -3 -4 -7 -9 -11 -12 -22 -23 -26 -28 -30 -15 -32 -39 -47 -49 -51 -16 -33 -40 -52 -54 -56 -18 -35 -42 -57 -61 -63 -20 -37 -44 -59 -64 -66 0
-3 -4 -7 -9 -11 -13 -14 -17 -19 -21 -22 -23 -26 -28 -30 -32 -39 -47 -49 -51 -33 -40 -52 -54 -56 -35 -42 -57 -61 -63 -37 -44 -59 -64 -66 0
-1 -2 -4 -7 -9 -11 -13 -22 -31 -34 -36 -38 -15 -24 -39 -47 -49 -51 -16 -25 -40 -52 -54 -56 -18 -27 -42 -57 -61 -63 -20 -29 -44 -59 -64 -66 0
-2 -4 -7 -9 -11 -12 -14 -17 -19 -21 -22 -31 -34 -36 -38 -24 -39 -47 -49 -51 -25 -40 -52 -54 -56 -27 -42 -57 -61 -63 -29 -44 -59 -64 -66 0
-1 -4 -7 -9 -11 -12 -23 -26 -28 -30 -13 -31 -34 -36 -38 -15 -39 -47 -49 -51 -16 -40 -52 -54 -56 -18 -42 -57 -61 -63 -20 -44 -59 -64 -66 0
-4 -7 -9 -11 -14 -17 -19 -21 -23 -26 -28 -30 -31 -34 -36 -38 -39 -47 -49 -51 -40 -52 -54 -56 -42 -57 -61 -63 -44 -59 -64 -66 0
-1 -2 -3 -7 -9 -11 -14 -23 -31 -41 -43 -45 -15 -24 -32 -47 -49 -51 -16 -25 -33 -52 -54 -56 -18 -27 -35 -57 -61 -63 -20 -29 -37 -59 -64 -66 0
-2 -3 -7 -9 -11 -12 -13 -17 -19 -21 -23 -31 -41 -43 -45 -24 -32 -47 -49 -51 -25 -33 -52 -54 -56 -27 -35 -57 -61 -63 -29 -37 -59 -64 -66 0
-1 -3 -7 -9 -11 -12 -22 -26 -28 -30 -14 -31 -41 -43 -45 -15 -32 -47 -49 -51 -16 -33 -52 -54 -56 -18 -35 -57 -61 -63 -20 -37 -59 -64 -66 0
-3 -7 -9 -11 -13 -17 -19 -21 -22 -26 -28 -30 -31 -41 -43 -45 -32 -47 -49 -51 -33 -52 -54 -56 -35 -57 -61 -63 -37 -59 -64 -66 0
-1 -2 -7 -9 -11 -13 -22 -34 -36 -38 -14 -23 -41 -43 -45 -15 -24 -47 -49 -51 -16 -25 -52 -54 -56 -18 -27 -57 -61 -63 -20 -29 -59 -64 -66 0
-2 -7 -9 -11 -12 -17 -19 -21 -22 -34 -36 -38 -23 -41 -43 -45 -24 -47 -49 -51 -25 -52 -54 -56 -27 -57 -61 -63 -29 -59 -64 -66 0
-1 -7 -9 -11 -12 -26 -28 -30 -13 -34 -36 -38 -14 -41 -43 -45 -15 -47 -49 -51 -16 -52 -54 -56 -18 -57 -61 -63 -20 -59 -64 -66 0
-7 -9 -11 -17 -19 -21 -26 -28 -30 -34 -36 -38 -41 -43 -45 -47 -49 -51 -52 -54 -56 -57 -61 -63 -59 -64 -66 0
-1 -2 -3 -4 -5 -6 -9 -11 -17 -26 -34 -41 -47 -52 -58 -60 -18 -27 -35 -42 -48 -53 -61 -63 -20 -29 -37 -44 -50 -55 -64 -66 0
-2 -3 -4 -5 -6 -9 -11 -12 -13 -14 -15 -16 -19 -21 -26 -34 -41 -47 -52 -58 -60 -27 -35 -42 -48 -53 -61 -63 -29 -37 -44 -50 -55 -64 -66 0
-1 -3 -4 -5 -6 -9 -11 -12 -22 -23 -24 -25 -28 -30 -17 -34 -41 -47 -52 -58 -60 -18 -35 -42 -48 -53 -61 -63 -20 -37 -44 -50 -55 -64 -66 0
-3 -4 -5 -6 -9 -11 -13 -14 -15 -16 -19 -21 -22 -23 -24 -25 -28 -30 -34 -41 -47 -52 -58 -60 -35 -42 -48 -53 -61 -63 -37 -44 -50 -55 -64 -66 0
-1 -2 -4 -5 -6 -9 -11 -13 -22 -31 -32 -33 -36 -38 -17 -26 -41 -47 -52 -58 -60 -18 -27 -42 -48 -53 -61 -63 -20 -29 -44 -50 -55 -64 -66 0
-2 -4 -5 -6 -9 -11 -12 -14 -15 -16 -19 -21 -22 -31 -32 -33 -36 -38 -26 -41 -47 -52 -58 -60 -27 -42 -48 -53 -61 -63 -29 -44 -50 -55 -64 -66 0
-1 -4 -5 -6 -9 -11 -12 -23 -24 -25 -28 -30 -13 -31 -32 -33 -36 -38 -17 -41 -47 -52 -58 -60 -18 -42 -48 -53 -61 -63 -20 -44 -50 -55 -64 -66 0
-4 -5 -6 -9 -11 -14 -15 -16 -19 -21 -23 -24 -25 -28 -30 -31 -32 -33 -36 -38 -41 -47 -52 -58 -60 -42 -48 -53 -61 -63 -44 -50 -55 -64 -66 0
-1 -2 -3 -5 -6 -9 -11 -14 -23 -31 -39 -40 -43 -45 -17 -26 -34 -47 -52 -58 -60 -18 -27 -35 -48 -53 -61 -63 -20 -29 -37 -50 -55 -64 -66 0
-2 -3 -5 -6 -9 -11 -12 -13 -15 -16 -19 -21 -23 -31 -39 -40 -43 -45 -26 -34 -47 -52 -58 -60 -27 -35 -48 -53 -61 -63 -29 -37 -50 -55 -64 -66 0
-1 -3 -5 -6 -9 -11 -12 -22 -24 -25 -28 -30 -14 -31 -39 -40 -43 -45 -17 -34 -47 -52 -58 -60 -18 -35 -48 -53 -61 -63 -20 -37 -50 -55 -64 -66 0
-3 -5 -6 -9 -11 -13 -15 -16 -19 -21 -22 -24 -25 -28 -30 -31 -39 -40 -43 -45 -34 -47 -52 -58 -60 -35 -48 -53 -61 -63 -37 -50 -55 -64 -66 0
-1 -2 -5 -6 -9 -11 -13 -22 -32 -33 -36 -38 -14 -23 -39 -40 -43 -45 -17 -26 -47 -52 -58 -60 -18 -27 -48 -53 -61 -63 -20 -29 -50 -55 -64 -66 0
-2 -5 -6 -9 -11 -12 -15 -16 -19 -21 -22 -32 -33 -36 -38 -23 -39 -40 -43 -45 -26 -47 -52 -58 -60 -27 -48 -53 -61 -63 -29 -50 -55 -64 -66 0
-1 -5 -6 -9 -11 -12 -24 -25 -28 -30 -13 -32 -33 -36 -38 -14 -39 -40 -43 -45 -17 -47 -52 -58 -60 -18 -48 -53 -61 -63 -20 -50 -55 -64 -66 0
-5 -6 -9 -11 -15 -16 -19 -21 -24 -25 -28 -30 -32 -33 -36 -38 -39 -40 -43 -45 -47 -52 -58 -60 -48 -53 -61 -63 -50 -55 -64 -66 0
-1 -2 -3 -4 -6 -9 -11 -15 -24 -32 -39 -46 -49 -51 -17 -26 -34 -41 -52 -58 -60 -18 -27 -35 -42 -53 -61 -63 -20 -29 -37 -44 -55 -64 -66 0
-2 -3 -4 -6 -9 -11 -12 -13 -14 -16 -19 -21 -24 -32 -39 -46 -49 -51 -26 -34 -41 -52 -58 -60 -27 -35 -42 -53 -61 -63 -29 -37 -44 -55 -64 -66 0
-1 -3 -4 -6 -9 -11 -12 -22 -23 -25 -28 -30 -15 -32 -39 -46 -49 -51 -17 -34 -41 -52 -58 -60 -18 -35 -42 -53 -61 -63 -20 -37 -44 -55 -64 -66 0
-3 -4 -6 -9 -11 -13 -14 -16 -19 -21 -22 -23 -25 -28 -30 -32 -39 -46 -49 -51 -34 -41 -52 -58 -60 -35 -42 -53 -61 -63 -37 -44 -55 -64 -66 0
-1 -2 -4 -6 -9 -11 -13 -22 -31 -33 -36 -38 -15 -24 -39 -46 -49 -51 -17 -26 -41 -52 -58 -60 -18 -27 -42 -53 -61 -63 -20 -29 -44 -55 -64 -66 0
-2 -4 -6 -9 -11 -12 -14 -16 -19 -21 -22 -31 -33 -36 -38 -24 -39 -46 -49 -51 -26 -41 -52 -58 -60 -27 -42 -53 -61 -63 -29 -44 -55 -64 -66 0
-1 -4 -6 -9 -11 -12 -23 -25 -28 -30 -13 -31 -33 -36 -38 -15 -39 -46 -49 -51 -17 -41 -52 -58 -60 -18 -42 -53 -61 -63 -20 -44 -55 -64 -66 0
-4 -6 -9 -11 -14 -16 -19 -21 -23 -25 -28 -30 -31 -33 -36 -38 -39 -46 -49 -51 -41 -52 -58 -60 -42 -53 -61 -63 -44 -55 -64 -66 0
-1 -2 -3 -6 -9 -11 -14 -23 -31 -40 -43 -45 -15 -24 -32 -46 -49 -51 -17 -26 -34 -52 -58 -60 -18 -27 -35 -53 -61 -63 -20 -29 -37 -55 -64 -66 0
-2 -3 -6 -9 -11 -12 -13 -16 -19 -21 -23 -31 -40 -43 -45 -24 -32 -46 -49 -51 -26 -34 -52 -58 -60 -27 -35 -53 -61 -63 -29 -37 -55 -64 -66 0
-1 -3 -6 -9 -11 -12 -22 -25 -28 -30 -14 -31 -40 -43 -45 -15 -32 -46 -49 -51 -17 -34 -52 -58 -60 -18 -35 -53 -61 -63 -20 -37 -55 -64 -66 0
-3 -6 -9 -11 -13 -16 -19 -21 -22 -25 -28 -30 -31 -40 -43 -45 -32 -46 -49 -51 -34 -52 -58 -60 -35 -53 -61 -63 -37 -55 -64 -66 0
-1 -2 -6 -9 -11 -13 -22 -33 -36 -38 -14 -23 -40 -43 -45 -15 -24 -46 -49 -51 -17 -26 -52 -58 -60 -18 -27 -53 -61 -63 -20 -29 -55 -64 -66 0
-2 -6 -9 -11 -12 -16 -19 -21 -22 -33 -36 -38 -23 -40 -43 -45 -24 -46 -49 -51 -26 -52 -58 -60 -27 -53 -61 -63 -29 -55 -64 -66 0
-1 -6 -9 -11 -12 -25 -28 -30 -13 -33 -36 -38 -14 -40 -43 -45 -15 -46 -49 -51 -17 -52 -58 -60 -18 -53 -61 -63 -20 -55 -64 -66 0
-6 -9 -11 -16 -19 -21 -25 -28 -30 -33 -36 -38 -40 -43 -45 -46 -49 -51 -52 -58 -60 -53 -61 -63 -55 -64 -66 0
-1 -2 -3 -4 -5 -9 -11 -16 -25 -33 -40 -46 -54 -56 -17 -26 -34 -41 -47 -58 -60 -18 -27 -35 -42 -48 -61 -63 -20 -29 -37 -44 -50 -64 -66 0
-2 -3 -4 -5 -9 -11 -12 -13 -14 -15 -19 -21 -25 -33 -40 -46 -54 -56 -26 -34 -41 -47 -58 -60 -27 -35 -42 -48 -61 -63 -29 -37 -44 -50 -64 -66 0
-1 -3 -4 -5 -9 -11 -12 -22 -23 -24 -28 -30 -16 -33 -40 -46 -54 -56 -17 -34 -41 -47 -58 -60 -18 -35 -42 -48 -61 -63 -20 -37 -44 -50 -64 -66 0
-3 -4 -5 -9 -11 -13 -14 -15 -19 -21 -22 -23 -24 -28 -30 -33 -40 -46 -54 -56 -34 -41 -47 -58 -60 -35 -42 -48 -61 -63 -37 -44 -50 -64 -66 0
-1 -2 -4 -5 -9 -11 -13 -22 -31 -32 -36 -38 -16 -25 -40 -46 -54 -56 -17 -26 -41 -47 -58 -60 -18 -27 -42 -48 -61 -63 -20 -29 -44 -50 -64 -66 0
-2 -4 -5 -9 -11 -12 -14 -15 -19 -21 -22 -31 -32 -36 -38 -25 -40 -46 -54 -56 -26 -41 -47 -58 -60 -27 -42 -48 -61 -63 -29 -44 -50 -64 -66 0
-1 -4 -5 -9 -11 -12 -23 -24 -28 -30 -13 -31 -32 -36 -38 -16 -40 -46 -54 -56 -17 -41 -47 -58 -60 -18 -42 -48 -61 -63 -20 -44 -50 -64 -66 0
-4 -5 -9 -11 -14 -15 -19 -21 -23 -24 -28 -30 -31 -32 -36 -38 -40 -46 -54 -56 -41 -47 -58 -60 -42 -48 -61 -63 -44 -50 -64 -66 0
-1 -2 -3 -5 -9 -11 -14 -23 -31 -39 -43 -45 -16 -25 -33 -46 -54 -56 -17 -26 -34 -47 -58 -60 -18 -27 -35 -48 -61 -63 -20 -29 -37 -50 -64 -66 0
-2 -3 -5 -9 -11 -12 -13 -15 -19 -21 -23 -31 -39 -43 -45 -25 -33 -46 -54 -56 -26 -34 -47 -58 -60 -27 -35 -48 -61 -63 -29 -37 -50 -64 -66 0
-1 -3 -5 -9 -11 -12 -22 -24 -28 -30 -14 -31 -39 -43 -45 -16 -33 -46 -54 -56 -17 -34 -47 -58 -60 -18 -35 -48 -61 -63 -20 -37 -50 -64 -66 0
-3 -5 -9 -11 -13 -15 -19 -21 -22 -24 -28 -30 -31 -39 -43 -45 -33 -46 -54 -56 -34 -47 -58 -60 -35 -48 -61 -63 -37 -50 -64 -66 0
-1 -2 -5 -9 -11 -13 -22 -32 -36 -38 -14 -23 -39 -43 -45 -16 -25 -46 -54 -56 -17 -26 -47 -58 -60 -18 -27 -48 -61 -63 -20 -29 -50 -64 -66 0
-2 -5 -9 -11 -12 -15 -19 -21 -22 -32 -36 -38 -23 -39 -43 -45 -25 -46 -54 -56 -26 -47 -58 -60 -27 -48 -61 -63 -29 -50 -64 -66 0
-1 -5 -9 -11 -12 -24 -28 -30 -13 -32 -36 -38 -14 -39 -43 -45 -16 -46 -54 -56 -17 -47 -58 -60 -18 -48 -61 -63 -20 -50 -64 -66 0
-5 -9 -11 -15 -19 -21 -24 -28 -30 -32 -36 -38 -39 -43 -45 -46 -54 -56 -47 -58 -60 -48 -61 -63 -50 -64 -66 0
-1 -2 -3 -4 -9 -11 -15 -24 -32 -39 -49 -51 -16 -25 -33 -40 -54 -56 -17 -26 -34 -41 -58 -60 -18 -27 -35 -42 -61 -63 -20 -29 -37 -44 -64 -66 0
-2 -3 -4 -9 -11 -12 -13 -14 -19 -21 -24 -32 -39 -49 -51 -25 -33 -40 -54 -56 -26 -34 -41 -58 -60 -27 -35 -42 -61 -63 -29 -37 -44 -64 -66 0
-1 -3 -4 -9 -11 -12 -22 -23 -28 -30 -15 -32 -39 -49 -51 -16 -33 -40 -54 -56 -17 -34 -41 -58 -60 -18 -35 -42 -61 -63 -20 -37 -44 -64 -66 0
-3 -4 -9 -11 -13 -14 -19 -21 -22 -23 -28 -30 -32 -39 -49 -51 -33 -40 -54 -56 -34 -41 -58 -60 -35 -42 -61 -63 -37 -44 -64 -66 0
-1 -2 -4 -9 -11 -13 -22 -31 -36 -38 -15 -24 -39 -49 -51 -16 -25 -40 -54 -56 -17 -26 -41 -58 -60 -18 -27 -42 -61 -63 -20 -29 -44 -64 -66 0
-2 -4 -9 -11 -12 -14 -19 -21 -22 -31 -36 -38 -24 -39 -49 -51 -25 -40 -54 -56 -26 -41 -58 -60 -27 -42 -61 -63 -29 -44 -64 -66 0
-1 -4 -9 -11 -12 -23 -28 -30 -13 -31 -36 -38 -15 -39 -49 -51 -16 -40 -54 -56 -17 -41 -58 -60 -18 -42 -61 -63 -20 -44 -64 -66 0
-4 -9 -11 -14 -19 -21 -23 -28 -30 -31 -36 -38 -39 -49 -51 -40 -54 -56 -41 -58 -60 -42 -61 -63 -44 -64 -66 0
-1 -2 -3 -9 -11 -14 -23 -31 -43 -45 -15 -24 -32 -49 -51 -16 -25 -33 -54 -56 -17 -26 -34 -58 -60 -18 -27 -35 -61 -63 -20 -29 -37 -64 -66 0
-2 -3 -9 -11 -12 -13 -19 -21 -23 -31 -43 -45 -24 -32 -49 -51 -25 -33 -54 -56 -26 -34 -58 -60 -27 -35 -61 -63 -29 -37 -64 -66 0
-1 -3 -9 -11 -12 -22 -28 -30 -14 -31 -43 -45 -15 -32 -49 -51 -16 -33 -54 -56 -17 -34 -58 -60 -18 -35 -61 -63 -20 -37 -64 -66 0
-3 -9 -11 -13 -19 -21 -22 -28 -30 -31 -43 -45 -32 -49 -51 -33 -54 -56 -34 -58 -60 -35 -61 -63 -37 -64 -66 0
-1 -2 -9 -11 -13 -22 -36 -38 -14 -23 -43 -45 -15 -24 -49 -51 -16 -25 -54 -56 -17 -26 -58 -60 -18 -27 -61 -63 -20 -29 -64 -66 0
-2 -9 -11 -12 -19 -21 -22 -36 -38 -23 -43 -45 -24 -49 -51 -25 -54 -56 -26 -58 -60 -27 -61 -63 -29 -64 -66 0
-1 -9 -11 -12 -28 -30 -13 -36 -38 -14 -43 -45 -15 -49 -51 -16 -54 -56 -17 -58 -60 -18 -61 -63 -20 -64 -66 0
-9 -11 -19 -21 -28 -30 -36 -38 -43 -45 -49 -51 -54 -56 -58 -60 -61 -63 -64 -66 0
-1 -2 -3 -4 -5 -6 -7 -8 -11 -19 -28 -36 -43 -49 -54 -58 -61 -65 -20 -29 -37 -44 -50 -55 -59 -62 -66 0
-2 -3 -4 -5 -6 -7 -8 -11 -12 -13 -14 -15 -16 -17 -18 -21 -28 -36 -43 -49 -54 -58 -61 -65 -29 -37 -44 -50 -55 -59 -62 -66 0
-1 -3 -4 -5 -6 -7 -8 -11 -12 -22 -23 -24 -25 -26 -27 -30 -19 -36 -43 -49 -54 -58 -61 -65 -20 -37 -44 -50 -55 -59 -62 -66 0
-3 -4 -5 -6 -7 -8 -11 -13 -14 -15 -16 -17 -18 -21 -22 -23 -24 -25 -26 -27 -30 -36 -43 -49 -54 -58 -61 -65 -37 -44 -50 -55 -59 -62 -66 0
-1 -2 -4 -5 -6 -7 -8 -11 -13 -22 -31 -32 -33 -34 -35 -38 -19 -28 -43 -49 -54 -58 -61 -65 -20 -29 -44 -50 -55 -59 -62 -66 0
-2 -4 -5 -6 -7 -8 -11 -12 -14 -15 -16 -17 -18 -21 -22 -31 -32 -33 -34 -35 -38 -28 -43 -49 -54 -58 -61 -65 -29 -44 -50 -55 -59 -62 -66 0
-1 -4 -5 -6 -7 -8 -11 -12 -23 -24 -25 -26 -27 -30 -13 -31 -32 -33 -34 -35 -38 -19 -43 -49 -54 -58 -61 -65 -20 -44 -50 -55 -59 -62 -66 0
-4 -5 -6 -7 -8 -11 -14 -15 -16 -17 -18 -21 -23 -24 -25 -26 -27 -30 -31 -32 -33 -34 -35 -38 -43 -49 -54 -58 -61 -65 -44 -50 -55 -59 -62 -66 0
-1 -2 -3 -5 -6 -7 -8 -11 -14 -23 -31 -39 -40 -41 -42 -45 -19 -28 -36 -49 -54 -58 -61 -65 -20 -29 -37 -50 -55 -59 -62 -66 0
-2 -3 -5 -6 -7 -8 -11 -12 -13 -15 -16 -17 -18 -21 -23 -31 -39 -40 -41 -42 -45 -28 -36 -49 -54 -58 -61 -65 -29 -37 -50 -55 -59 -62 -66 0
-1 -3 -5 -6 -7 -8 -11 -12 -22 -24 -25 -26 -27 -30 -14 -31 -39 -40 -41 -42 -45 -19 -36 -49 -54 -58 -61 -65 -20 -37 -50 -55 -59 -62 -66 0
-3 -5 -6 -7 -8 -11 -13 -15 -16 -17 -18 -21 -22 -24 -25 -26 -27 -30 -31 -39 -40 -41 -42 -45 -36 -49 -54 -58 -61 -65 -37 -50 -55 -59 -62 -66 0
-1 -2 -5 -6 -7 -8 -11 -13 -22 -32 -33 -34 -35 -38 -14 -23 -39 -40 -41 -42 -45 -19 -28 -49 -54 -58 -61 -65 -20 -29 -50 -55 -59 -62 -66 0
-2 -5 -6 -7 -8 -11 -12 -15 -16 -17 -18 -21 -22 -32 -33 -34 -35 -38 -23 -39 -40 -41 -42 -45 -28 -49 -54 -58 -61 -65 -29 -50 -55 -59 -62 -66 0
-1 -5 -6 -7 -8 -11 -12 -24 -25 -26 -27 -30 -13 -32 -33 -34 -35 -38 -14 -39 -40 -41 -42 -45 -19 -49 -54 -58 -61 -65 -20 -50 -55 -59 -62 -66 0
-5 -6 -7 -8 -11 -15 -16 -17 -18 -21 -24 -25 -26 -27 -30 -32 -33 -34 -35 -38 -39 -40 -41 -42 -45 -49 -54 -58 -61 -65 -50 -55 -59 -62 -66 0
-1 -2 -3 -4 -6 -7 -8 -11 -15 -24 -32 -39 -46 -47 -48 -51 -19 -28 -36 -43 -54 -58 -61 -65 -20 -29 -37 -44 -55 -59 -62 -66 0
-2 -3 -4 -6 -7 -8 -11 -12 -13 -14 -16 -17 -18 -21 -24 -32 -39 -46 -47 -48 -51 -28 -36 -43 -54 -58 -61 -65 -29 -37 -44 -55 -59 -62 -66 0
-1 -3 -4 -6 -7 -8 -11 -12 -22 -23 -25 -26 -27 -30 -15 -32 -39 -46 -47 -48 -51 -19 -36 -43 -54 -58 -61 -65 -20 -37 -44 -55 -59 -62 -66 0
-3 -4 -6 -7 -8 -11 -13 -14 -16 -17 -18 -21 -22 -23 -25 -26 -27 -30 -32 -39 -46 -47 -48 -51 -36 -43 -54 -58 -61 -65 -37 -44 -55 -59 -62 -66 0
-1 -2 -4 -6 -7 -8 -11 -13 -22 -31 -33 -34 -35 -38 -15 -24 -39 -46 -47 -48 -51 -19 -28 -43 -54 -58 -61 -65 -20 -29 -44 -55 -59 -62 -66 0
-2 -4 -6 -7 -8 -11 -12 -14 -16 -17 -18 -21 -22 -31 -33 -34 -35 -38 -24 -39 -46 -47 -48 -51 -28 -43 -54 -58 -61 -65 -29 -44 -55 -59 -62 -66 0
-1 -4 -6 -7 -8 -11 -12 -23 -25 -26 -27 -30 -13 -31 -33 -34 -35 -38 -15 -39 -46 -47 -48 -51 -19 -43 -54 -58 -61 -65 -20 -44 -55 -59 -62 -66 0
-4 -6 -7 -8 -11 -14 -16 -17 -18 -21 -23 -25 -26 -27 -30 -31 -33 -34 -35 -38 -39 -46 -47 -48 -51 -43 -54 -58 -61 -65 -44 -55 -59 -62 -66 0
-1 -2 -3 -6 -7 -8 -11 -14 -23 -31 -40 -41 -42 -45 -15 -24 -32 -46 -47 -48 -51 -19 -28 -36 -54 -58 -61 -65 -20 -29 -37 -55 -59 -62 -66 0
-2 -3 -6 -7 -8 -11 -12 -13 -16 -17 -18 -21 -23 -31 -40 -41 -42 -45 -24 -32 -46 -47 -48 -51 -28 -36 -54 -58 -61 -65 -29 -37 -55 -59 -62 -66 0
-1 -3 -6 -7 -8 -11 -12 -22 -25 -26 -27 -30 -14 -31 -40 -41 -42 -45 -15 -32 -46 -47 -48 -51 -19 -36 -54 -58 -61 -65 -20 -37 -55 -59 -62 -66 0
-3 -6 -7 -8 -11 -13 -16 -17 -18 -21 -22 -25 -26 -27 -30 -31 -40 -41 -42 -45 -32 -46 -47 -48 -51 -36 -54 -58 -61 -65 -37 -55 -59 -62 -66 0
-1 -2 -6 -7 -8 -11 -13 -22 -33 -34 -35 -38 -14 -23 -40 -41 -42 -45 -15 -24 -46 -47 -48 -51 -19 -28 -54 -58 -61 -65 -20 -29 -55 -59 -62 -66 0
-2 -6 -7 -8 -11 -12 -16 -17 -18 -21 -22 -33 -34 -35 -38 -23 -40 -41 -42 -45 -24 -46 -47 -48 -51 -28 -54 -58 -61 -65 -29 -55 -59 -62 -66 0
-1 -6 -7 -8 -11 -12 -25 -26 -27 -30 -13 -33 -34 -35 -38 -14 -40 -41 -42 -45 -15 -46 -47 -48 -51 -19 -54 -58 -61 -65 -20 -55 -59 -62 -66 0
-6 -7 -8 -11 -16 -17 -18 -21 -25 -26 -27 -30 -33 -34 -35 -38 -40 -41 -42 -45 -46 -47 -48 -51 -54 -58 -61 -65 -55 -59 -62 -66 0
-1 -2 -3 -4 -5 -7 -8 -11 -16 -25 -33 -40 -46 -52 -53 -56 -19 -28 -36 -43 -49 -58 -61 -65 -20 -29 -37 -44 -50 -59 -62 -66 0
-2 -3 -4 -5 -7 -8 -11 -12 -13 -14 -15 -17 -18 -21 -25 -33 -40 -46 -52 -53 -56 -28 -36 -43 -49 -58 -61 -65 -29 -37 -44 -50 -59 -62 -66 0
-1 -3 -4 -5 -7 -8 -11 -12 -22 -23 -24 -26 -27 -30 -16 -33 -40 -46 -52 -53 -56 -19 -36 -43 -49 -58 -61 -65 -20 -37 -44 -50 -59 -62 -66 0
-3 -4 -5 -7 -8 -11 -13 -14 -15 -17 -18 -21 -22 -23 -24 -26 -27 -30 -33 -40 -46 -52 -53 -56 -36 -43 -49 -58 -61 -65 -37 -44 -50 -59 -62 -66 0
-1 -2 -4 -5 -7 -8 -11 -13 -22 -31 -32 -34 -35 -38 -16 -25 -40 -46 -52 -53 -56 -19 -28 -43 -49 -58 -61 -65 -20 -29 -44 -50 -59 -62 -66 0
-2 -4 -5 -7 -8 -11 -12 -14 -15 -17 -18 -21 -22 -31 -32 -34 -35 -38 -25 -40 -46 -52 -53 -56 -28 -43 -49 -58 -61 -65 -29 -44 -50 -59 -62 -66 0
-1 -4 -5 -7 -8 -11 -12 -23 -24 -26 -27 -30 -13 -31 -32 -34 -35 -38 -16 -40 -46 -52 -53 -56 -19 -43 -49 -58 -61 -65 -20 -44 -50 -59 -62 -66 0
-4 -5 -7 -8 -11 -14 -15 -17 -18 -21 -23 -24 -26 -27 -30 -31 -32 -34 -35 -38 -40 -46 -52 -53 -56 -43 -49 -58 -61 -65 -44 -50 -59 -62 -66 0
-1 -2 -3 -5 -7 -8 -11 -14 -23 -31 -39 -41 -42 -45 -16 -25 -33 -46 -52 -53 -56 -19 -28 -36 -49 -58 -61 -65 -20 -29 -37 -50 -59 -62 -66 0
-2 -3 -5 -7 -8 -11 -12 -13 -15 -17 -18 -21 -23 -31 -39 -41 -42 -45 -25 -33 -46 -52 -53 -56 -28 -36 -49 -58 -61 -65 -29 -37 -50 -59 -62 -66 0
-1 -3 -5 -7 -8 -11 -12 -22 -24 -26 -27 -30 -14 -31 -39 -41 -42 -45 -16 -33 -46 -52 -53 -56 -19 -36 -49 -58 -61 -65 -20 -37 -50 -59 -62 -66 0
-3 -5 -7 -8 -11 -13 -15 -17 -18 -21 -22 -24 -26 -27 -30 -31 -39 -41 -42 -45 -33 -46 -52 -53 -56 -36 -49 -58 -61 -65 -37 -50 -59 -62 -66 0
-1 -2 -5 -7 -8 -11 -13 -22 -32 -34 -35 -38 -14 -23 -39 -41 -42 -45 -16 -25 -46 -52 -53 -56 -19 -28 -49 -58 -61 -65 -20 -29 -50 -59 -62 -66 0
-2 -5 -7 -8 -11 -12 -15 -17 -18 -21 -22 -32 -34 -35 -38 -23 -39 -41 -42 -45 -25 -46 -52 -53 -56 -28 -49 -58 -61 -65 -29 -50 -59 -62 -66 0
-1 -5 -7 -8 -11 -12 -24 -26 -27 -30 -13 -32 -34 -35 -38 -14 -39 -41 -42 -45 -16 -46 -52 -53 -56 -19 -49 -58 -61 -65 -20 -50 -59 -62 -66 0
-5 -7 -8 -11 -15 -17 -18 -21 -24 -26 -27 -30 -32 -34 -35 -38 -39 -41 -42 -45 -46 -52 -53 -56 -49 -58 -61 -65 -50 -59 -62 -66 0
-1 -2 -3 -4 -7 -8 -11 -15 -24 -32 -39 -47 -48 -51 -16 -25 -33 -40 -52 -53 -56 -19 -28 -36 -43 -58 -61 -65 -20 -29 -37 -44 -59 -62 -66 0
-2 -3 -4 -7 -8 -11 -12 -13 -14 -17 -18 -21 -24 -32 -39 -47 -48 -51 -25 -33 -40 -52 -53 -56 -28 -36 -43 -58 -61 -65 -29 -37 -44 -59 -62 -66 0
-1 -3 -4 -7 -8 -11 -12 -22 -23 -26 -27 -30 -15 -32 -39 -47 -48 -51 -16 -33 -40 -52 -53 -56 -19 -36 -43 -58 -61 -65 -20 -37 -44 -59 -62 -66 0
-3 -4 -7 -8 -11 -13 -14 -17 -18 -21 -22 -23 -26 -27 -30 -32 -39 -47 -48 -51 -33 -40 -52 -53 -56 -36 -43 -58 -61 -65 -37 -44 -59 -62 -66 0
-1 -2 -4 -7 -8 -11 -13 -22 -31 -34 -35 -38 -15 -24 -39 -47 -48 -51 -16 -25 -40 -52 -53 -56 -19 -28 -43 -58 -61 -65 -20 -29 -44 -59 -62 -66 0
-2 -4 -7 -8 -11 -12 -14 -17 -18 -21 -22 -31 -34 -35 -38 -24 -39 -47 -48 -51 -25 -40 -52 -53 -56 -28 -43 -58 -61 -65 -29 -44 -59 -62 -66 0
-1 -4 -7 -8 -11 -12 -23 -26 -27 -30 -13 -31 -34 -35 -38 -15 -39 -47 -48 -51 -16 -40 -52 -53 -56 -19 -43 -58 -61 -65 -20 -44 -59 -62 -66 0
-4 -7 -8 -11 -14 -17 -18 -21 -23 -26 -27 -30 -31 -34 -35 -38 -39 -47 -48 -51 -40 -52 -53 -56 -43 -58 -61 -65 -44 -59 -62 -66 0
-1 -2 -3 -7 -8 -11 -14 -23 -31 -41 -42 -45 -15 -24 -32 -47 -48 -51 -16 -25 -33 -52 -53 -56 -19 -28 -36 -58 -61 -65 -20 -29 -37 -59 -62 -66 0
-2 -3 -7 -8 -11 -12 -13 -17 -18 -21 -23 -31 -41 -42 -45 -24 -32 -47 -48 -51 -25 -33 -52 -53 -56 -28 -36 -58 -61 -65 -29 -37 -59 -62 -66 0
-1 -3 -7 -8 -11 -12 -22 -26 -27 -30 -14 -31 -41 -42 -45 -15 -32 -47 -48 -51 -16 -33 -52 -53 -56 -19 -36 -58 -61 -65 -20 -37 -59 -62 -66 0
-3 -7 -8 -11 -13 -17 -18 -21 -22 -26 -27 -30 -31 -41 -42 -45 -32 -47 -48 -51 -33 -52 -53 -56 -36 -58 -61 -65 -37 -59 -62 -66 0
-1 -2 -7 -8 -11 -13 -22 -34 -35 -38 -14 -23 -41 -42 -45 -15 -24 -47 -48 -51 -16 -25 -52 -53 -56 -19 -28 -58 -61 -65 -20 -29 -59 -62 -66 0
-2 -7 -8 -11 -12 -17 -18 -21 -22 -34 -35 -38 -23 -41 -42 -45 -24 -47 -48 -51 -25 -52 -53 -56 -28 -58 -61 -65 -29 -59 -62 -66 0
-1 -7 -8 -11 -12 -26 -27 -30 -13 -34 -35 -38 -14 -41 -42 -45 -15 -47 -48 -51 -16 -52 -53 -56 -19 -58 -61 -65 -20 -59 -62 -66 0
-7 -8 -11 -17 -18 -21 -26 -27 -30 -34 -35 -38 -41 -42 -45 -47 -48 -51 -52 -53 -56 -58 -61 -65 -59 -62 -66 0
-1 -2 -3 -4 -5 -6 -8 -11 -17 -26 -34 -41 -47 -52 -57 -60 -19 -28 -36 -43 -49 -54 -61 -65 -20 -29 -37 -44 -50 -55 -62 -66 0
-2 -3 -4 -5 -6 -8 -11 -12 -13 -14 -15 -16 -18 -21 -26 -34 -41 -47 -52 -57 -60 -28 -36 -43 -49 -54 -61 -65 -29 -37 -44 -50 -55 -62 -66 0
-1 -3 -4 -5 -6 -8 -11 -12 -22 -23 -24 -25 -27 -30 -17 -34 -41 -47 -52 -57 -60 -19 -36 -43 -49 -54 -61 -65 -20 -37 -44 -50 -55 -62 -66 0
-3 -4 -5 -6 -8 -11 -13 -14 -15 -16 -18 -21 -22 -23 -24 -25 -27 -30 -34 -41 -47 -52 -57 -60 -36 -43 -49 -54 -61 -65 -37 -44 -50 -55 -62 -66 0
-1 -2 -4 -5 -6 -8 -11 -13 -22 -31 -32 -33 -35 -38 -17 -26 -41 -47 -52 -57 -60 -19 -28 -43 -49 -54 -61 -65 -20 -29 -44 -50 -55 -62 -66 0
-2 -4 -5 -6 -8 -11 -12 -14 -15 -16 -18 -21 -22 -31 -32 -33 -35 -38 -26 -41 -47 -52 -57 -60 -28 -43 -49 -54 -61 -65 -29 -44 -50 -55 -62 -66 0
-1 -4 -5 -6 -8 -11 -12 -23 -24 -25 -27 -30 -13 -31 -32 -33 -35 -38 -17 -41 -47 -52 -57 -60 -19 -43 -49 -54 -61 -65 -20 -44 -50 -55 -62 -66 0
-4 -5 -6 -8 -11 -14 -15 -16 -18 -21 -23 -24 -25 -27 -30 -31 -32 -33 -35 -38 -41 -47 -52 -57 -60 -43 -49 -54 -61 -65 -44 -50 -55 -62 -66 0
-1 -2 -3 -5 -6 -8 -11 -14 -23 -31 -39 -40 -42 -45 -17 -26 -34 -47 -52 -57 -60 -19 -28 -36 -49 -54 -61 -65 -20 -29 -37 -50 -55 -62 -66 0
-2 -3 -5 -6 -8 -11 -12 -13 -15 -16 -18 -21 -23 -31 -39 -40 -42 -45 -26 -34 -47 -52 -57 -60 -28 -36 -49 -54 -61 -65 -29 -37 -50 -55 -62 -66 0
-1 -3 -5 -6 -8 -11 -12 -22 -24 -25 -27 -30 -14 -31 -39 -40 -42 -45 -17 -34 -47 -52 -57 -60 -19 -36 -49 -54 -61 -65 -20 -37 -50 -55 -62 -66 0
-3 -5 -6 -8 -11 -13 -15 -16 -18 -21 -22 -24 -25 -27 -30 -31 -39 -40 -42 -45 -34 -47 -52 -57 -60 -36 -49 -54 -61 -65 -37 -50 -55 -62 -66 0
-1 -2 -5 -6 -8 -11 -13 -22 -32 -33 -35 -38 -14 -23 -39 -40 -42 -45 -17 -26 -47 -52 -57 -60 -19 -28 -49 -54 -61 -65 -20 -29 -50 -55 -62 -66 0
-2 -5 -6 -8 -11 -12 -15 -16 -18 -21 -22 -32 -33 -35 -38 -23 -39 -40 -42 -45 -26 -47 -52 -57 -60 -28 -49 -54 -61 -65 -29 -50 -55 -62 -66 0
-1 -5 -6 -8 -11 -12 -24 -25 -27 -30 -13 -32 -33 -35 -38 -14 -39 -40 -42 -45 -17 -47 -52 -57 -60 -19 -49 -54 -61 -65 -20 -50 -55 -62 -66 0
-5 -6 -8 -11 -15 -16 -18 -21 -24 -25 -27 -30 -32 -33 -35 -38 -39 -40 -42 -45 -47 -52 -57 -60 -49 -54 -61 -65 -50 -55 -62 -66 0
-1 -2 -3 -4 -6 -8 -11 -15 -24 -32 -39 -46 -48 -51 -17 -26 -34 -41 -52 -57 -60 -19 -28 -36 -43 -54 -61 -65 -20 -29 -37 -44 -55 -62 -66 0
-2 -3 -4 -6 -8 -11 -12 -13 -14 -16 -18 -21 -24 -32 -39 -46 -48 -51 -26 -34 -41 -52 -57 -60 -28 -36 -43 -54 -61 -65 -29 -37 -44 -55 -62 -66 0
-1 -3 -4 -6 -8 -11 -12 -22 -23 -25 -27 -30 -15 -32 -39 -46 -48 -51 -17 -34 -41 -52 -57 -60 -19 -36 -43 -54 -61 -65 -20 -37 -44 -55 -62 -66 0
-3 -4 -6 -8 -11 -13 -14 -16 -18 -21 -22 -23 -25 -27 -30 -32 -39 -46 -48 -51 -34 -41 -52 -57 -60 -36 -43 -54 -61 -65 -37 -44 -55 -62 -66 0
-1 -2 -4 -6 -8 -11 -13 -22 -31 -33 -35 -38 -15 -24 -39 -46 -48 -51 -17 -26 -41 -52 -57 -60 -19 -28 -43 -54 -61 -65 -20 -29 -44 -55 -62 -66 0
-2 -4 -6 -8 -11 -12 -14 -16 -18 -21 -22 -31 -33 -35 -38 -24 -39 -46 -48 -51 -26 -41 -52 -57 -60 -28 -43 -54 -61 -65 -29 -44 -55 -62 -66 0
-1 -4 -6 -8 -11 -12 -23 -25 -27 -30 -13 -31 -33 -35 -38 -15 -39 -46 -48 -51 -17 -41 -52 -57 -60 -19 -43 -54 -61 -65 -20 -44 -55 -62 -66 0
-4 -6 -8 -11 -14 -16 -18 -21 -23 -25 -27 -30 -31 -33 -35 -38 -39 -46 -48 -51 -41 -52 -57 -60 -43 -54 -61 -65 -44 -55 -62 -66 0
-1 -2 -3 -6 -8 -11 -14 -23 -31 -40 -42 -45 -15 -24 -32 -46 -48 -51 -17 -26 -34 -52 -57 -60 -19 -28 -36 -54 -61 -65 -20 -29 -37 -55 -62 -66 0
-2 -3 -6 -8 -11 -12 -13 -16 -18 -21 -23 -31 -40 -42 -45 -24 -32 -46 -48 -51 -26 -34 -52 -57 -60 -28 -36 -54 -61 -65 -29 -37 -55 -62 -66 0
-1 -3 -6 -8 -11 -12 -22 -25 -27 -30 -14 -31 -40 -42 -45 -15 -32 -46 -48 -51 -17 -34 -52 -57 -60 -19 -36 -54 -61 -65 -20 -37 -55 -62 -66 0
-3 -6 -8 -11 -13 -16 -18 -21 -22 -25 -27 -30 -31 -40 -42 -45 -32 -46 -48 -51 -34 -52 -57 -60 -36 -54 -61 -65 -37 -55 -62 -66 0
-1 -2 -6 -8 -11 -13 -22 -33 -35 -38 -14 -23 -40 -42 -45 -15 -24 -46 -48 -51 -17 -26 -52 -57 -60 -19 -28 -54 -61 -65 -20 -29 -55 -62 -66 0
-2 -6 -8 -11 -12 -16 -18 -21 -22 -33 -35 -38 -23 -40 -42 -45 -24 -46 -48 -51 -26 -52 -57 -60 -28 -54 -61 -65 -29 -55 -62 -66 0
-1 -6 -8 -11 -12 -25 -27 -30 -13 -33 -35 -38 -14 -40 -42 -45 -15 -46 -48 -51 -17 -52 -57 -60 -19 -54 -61 -65 -20 -55 -62 -66 0
-6 -8 -11 -16 -18 -21 -25 -27 -30 -33 -35 -38 -40 -42 -45 -46 -48 -51 -52 -57 -60 -54 -61 -65 -55 -62 -66 0
-1 -2 -3 -4 -5 -8 -11 -16 -25 -33 -40 -46 -53 -56 -17 -26 -34 -41 -47 -57 -60 -19 -28 -36 -43 -49 -61 -65 -20 -29 -37 -44 -50 -62 -66 0
-2 -3 -4 -5 -8 -11 -12 -13 -14 -15 -18 -21 -25 -33 -40 -46 -53 -56 -26 -34 -41 -47 -57 -60 -28 -36 -43 -49 -61 -65 -29 -37 -44 -50 -62 -66 0
-1 -3 -4 -5 -8 -11 -12 -22 -23 -24 -27 -30 -16 -33 -40 -46 -53 -56 -17 -34 -41 -47 -57 -60 -19 -36 -43 -49 -61 -65 -20 -37 -44 -50 -62 -66 0
-3 -4 -5 -8 -11 -13 -14 -15 -18 -21 -22 -23 -24 -27 -30 -33 -40 -46 -53 -56 -34 -41 -47 -57 -60 -36 -43 -49 -61 -65 -37 -44 -50 -62 -66 0
-1 -2 -4 -5 -8 -11 -13 -22 -31 -32 -35 -38 -16 -25 -40 -46 -53 -56 -17 -26 -41 -47 -57 -60 -19 -28 -43 -49 -61 -65 -20 -29 -44 -50 -62 -66 0
-2 -4 -5 -8 -11 -12 -14 -15 -18 -21 -22 -31 -32 -35 -38 -25 -40 -46 -53 -56 -26 -41 -47 -57 -60 -28 -43 -49 -61 -65 -29 -44 -50 -62 -66 0
-1 -4 -5 -8 -11 -12 -23 -24 -27 -30 -13 -31 -32 -35 -38 -16 -40 -46 -53 -56 -17 -41 -47 -57 -60 -19 -43 -49 -61 -65 -20 -44 -50 -62 -66 0
-4 -5 -8 -11 -14 -15 -18 -21 -23 -24 -27 -30 -31 -32 -35 -38 -40 -46 -53 -56 -41 -47 -57 -60 -43 -49 -61 -65 -44 -50 -62 -66 0
-1 -2 -3 -5 -8 -11 -14 -23 -31 -39 -42 -45 -16 -25 -33 -46 -53 -56 -17 -26 -34 -47 -57 -60 -19 -28 -36 -49 -61 -65 -20 -29 -37 -50 -62 -66 0
-2 -3 -5 -8 -11 -12 -13 -15 -18 -21 -23 -31 -39 -42 -45 -25 -33 -46 -53 -56 -26 -34 -47 -57 -60 -28 -36 -49 -61 -65 -29 -37 -50 -62 -66 0
-1 -3 -5 -8 -11 -12 -22 -24 -27 -30 -14 -31 -39 -42 -45 -16 -33 -46 -53 -56 -17 -34 -47 -57 -60 -19 -36 -49 -61 -65 -20 -37 -50 -62 -66 0
-3 -5 -8 -11 -13 -15 -18 -21 -22 -24 -27 -30 -31 -39 -42 -45 -33 -46 -53 -56 -34 -47 -57 -60 -36 -49 -61 -65 -37 -50 -62 -66 0
-1 -2 -5 -8 -11 -13 -22 -32 -35 -38 -14 -23 -39 -42 -45 -16 -25 -46 -53 -56 -17 -26 -47 -57 -60 -19 -28 -49 -61 -65 -20 -29 -50 -62 -66 0
-2 -5 -8 -11 -12 -15 -18 -21 -22 -32 -35 -38 -23 -39 -42 -45 -25 -46 -53 -56 -26 -47 -57 -60 -28 -49 -61 -65 -29 -50 -62 -66 0
-1 -5 -8 -11 -12 -24 -27 -30 -13 -32 -35 -38 -14 -39 -42 -45 -16 -46 -53 -56 -17 -47 -57 -60 -19 -49 -61 -65 -20 -50 -62 -66 0
-5 -8 -11 -15 -18 -21 -24 -27 -30 -32 -35 -38 -39 -42 -45 -46 -53 -56 -47 -57 -60 -49 -61 -65 -50 -62 -66 0
-1 -2 -3 -4 -8 -11 -15 -24 -32 -39 -48 -51 -16 -25 -33 -40 -53 -56 -17 -26 -34 -41 -57 -60 -19 -28 -36 -43 -61 -65 -20 -29 -37 -44 -62 -66 0
-2 -3 -4 -8 -11 -12 -13 -14 -18 -21 -24 -32 -39 -48 -51 -25 -33 -40 -53 -56 -26 -34 -41 -57 -60 -28 -36 -43 -61 -65 -29 -37 -44 -62 -66 0
-1 -3 -4 -8 -11 -12 -22 -23 -27 -30 -15 -32 -39 -48 -51 -16 -33 -40 -53 -56 -17 -34 -41 -57 -60 -19 -36 -43 -61 -65 -20 -37 -44 -62 -66 0
-3 -4 -8 -11 -13 -14 -18 -21 -22 -23 -27 -30 -32 -39 -48 -51 -33 -40 -53 -56 -34 -41 -57 -60 -36 -43 -61 -65 -37 -44 -62 -66 0
-1 -2 -4 -8 -11 -13 -22 -31 -35 -38 -15 -24 -39 -48 -51 -16 -25 -40 -53 -56 -17 -26 -41 -57 -60 -19 -28 -43 -61 -65 -20 -29 -44 -62 -66 0
-2 -4 -8 -11 -12 -14 -18 -21 -22 -31 -35 -38 -24 -39 -48 -51 -25 -40 -53 -56 -26 -41 -57 -60 -28 -43 -61 -65 -29 -44 -62 -66 0
-1 -4 -8 -11 -12 -23 -27 -30 -13 -31 -35 -38 -15 -39 -48 -51 -16 -40 -53 -56 -17 -41 -57 -60 -19 -43 -61 -65 -20 -44 -62 -66 0
-4 -8 -11 -14 -18 -21 -23 -27 -30 -31 -35 -38 -39 -48 -51 -40 -53 -56 -41 -57 -60 -43 -61 -65 -44 -62 -66 0
-1 -2 -3 -8 -11 -14 -23 -31 -42 -45 -15 -24 -32 -48 -51 -16 -25 -33 -53 -56 -17 -26 -34 -57 -60 -19 -28 -36 -61 -65 -20 -29 -37 -62 -66 0
-2 -3 -8 -11 -12 -13 -18 -21 -23 -31 -42 -45 -24 -32 -48 -51 -25 -33 -53 -56 -26 -34 -57 -60 -28 -36 -61 -65 -29 -37 -62 -66 0
-1 -3 -8 -11 -12 -22 -27 -30 -14 -31 -42 -45 -15 -32 -48 -51 -16 -33 -53 -56 -17 -34 -57 -60 -19 -36 -61 -65 -20 -37 -62 -66 0
-3 -8 -11 -13 -18 -21 -22 -27 -30 -31 -42 -45 -32 -48 -51 -33 -53 -56 -34 -57 -60 -36 -61 -65 -37 -62 -66 0
-1 -2 -8 -11 -13 -22 -35 -38 -14 -23 -42 -45 -15 -24 -48 -51 -16 -25 -53 -56 -17 -26 -57 -60 -19 -28 -61 -65 -20 -29 -62 -66 0
-2 -8 -11 -12 -18 -21 -22 -35 -38 -23 -42 -45 -24 -48 -51 -25 -53 -56 -26 -57 -60 -28 -61 -65 -29 -62 -66 0
-1 -8 -11 -12 -27 -30 -13 -35 -38 -14 -42 -45 -15 -48 -51 -16 -53 -56 -17 -57 -60 -19 -61 -65 -20 -62 -66 0
-8 -11 -18 -21 -27 -30 -35 -38 -42 -45 -48 -51 -53 -56 -57 -60 -61 -65 -62 -66 0
-1 -2 -3 -4 -5 -6 -7 -11 -18 -27 -35 -42 -48 -53 -57 -63 -19 -28 -36 -43 -49 -54 -58 -65 -20 -29 -37 -44 -50 -55 -59 -66 0
-2 -3 -4 -5 -6 -7 -11 -12 -13 -14 -15 -16 -17 -21 -27 -35 -42 -48 -53 -57 -63 -28 -36 -43 -49 -54 -58 -65 -29 -37 -44 -50 -55 -59 -66 0
-1 -3 -4 -5 -6 -7 -11 -12 -22 -23 -24 -25 -26 -30 -18 -35 -42 -48 -53 -57 -63 -19 -36 -43 -49 -54 -58 -65 -20 -37 -44 -50 -55 -59 -66 0
-3 -4 -5 -6 -7 -11 -13 -14 -15 -16 -17 -21 -22 -23 -24 -25 -26 -30 -35 -42 -48 -53 -57 -63 -36 -43 -49 -54 -58 -65 -37 -44 -50 -55 -59 -66 0
-1 -2 -4 -5 -6 -7 -11 -13 -22 -31 -32 -33 -34 -38 -18 -27 -42 -48 -53 -57 -63 -19 -28 -43 -49 -54 -58 -65 -20 -29 -44 -50 -55 -59 -66 0
-2 -4 -5 -6 -7 -11 -12 -14 -15 -16 -17 -21 -22 -31 -32 -33 -34 -38 -27 -42 -48 -53 -57 -63 -28 -43 -49 -54 -58 -65 -29 -44 -50 -55 -59 -66 0
-1 -4 -5 -6 -7 -11 -12 -23 -24 -25 -26 -30 -13 -31 -32 -33 -34 -38 -18 -42 -48 -53 -57 -63 -19 -43 -49 -54 -58 -65 -20 -44 -50 -55 -59 -66 0
-4 -5 -6 -7 -11 -14 -15 -16 -17 -21 -23 -24 -25 -26 -30 -31 -32 -33 -34 -38 -42 -48 -53 -57 -63 -43 -49 -54 -58 -65 -44 -50 -55 -59 -66 0
-1 -2 -3 -5 -6 -7 -11 -14 -23 -31 -39 -40 -41 -45 -18 -27 -35 -48 -53 -57 -63 -19 -28 -36 -49 -54 -58 -65 -20 -29 -37 -50 -55 -59 -66 0
-2 -3 -5 -6 -7 -11 -12 -13 -15 -16 -17 -21 -23 -31 -39 -40 -41 -45 -27 -35 -48 -53 -57 -63 -28 -36 -49 -54 -58 -65 -29 -37 -50 -55 -59 -66 0
-1 -3 -5 -6 -7 -11 -12 -22 -24 -25 -26 -30 -14 -31 -39 -40 -41 -45 -18 -35 -48 -53 -57 -63 -19 -36 -49 -54 -58 -65 -20 -37 -50 -55 -59 -66 0
-3 -5 -6 -7 -11 -13 -15 -16 -17 -21 -22 -24 -25 -26 -30 -31 -39 -40 -41 -45 -35 -48 -53 -57 -63 -36 -49 -54 -58 -65 -37 -50 -55 -59 -66 0
-1 -2 -5 -6 -7 -11 -13 -22 -32 -33 -34 -38 -14 -23 -39 -40 -41 -45 -18 -27 -48 -53 -57 -63 -19 -28 -49 -54 -58 -65 -20 -29 -50 -55 -59 -66 0
-2 -5 -6 -7 -11 -12 -15 -16 -17 -21 -22 -32 -33 -34 -38 -23 -39 -40 -41 -45 -27 -48 -53 -57 -63 -28 -49 -54 -58 -65 -29 -50 -55 -59 -66 0
-1 -5 -6 -7 -11 -12 -24 -25 -26 -30 -13 -32 -33 -34 -38 -14 -39 -40 -41 -45 -18 -48 -53 -57 -63 -19 -49 -54 -58 -65 -20 -50 -55 -59 -66 0
-5 -6 -7 -11 -15 -16 -17 -21 -24 -25 -26 -30 -32 -33 -34 -38 -39 -40 -41 -45 -48 -53 -57 -63 -49 -54 -58 -65 -50 -55 -59 -66 0
-1 -2 -3 -4 -6 -7 -11 -15 -24 -32 -39 -46 -47 -51 -18 -27 -35 -42 -53 -57 -63 -19 -28 -36 -43 -54 -58 -65 -20 -29 -37 -44 -55 -59 -66 0
-2 -3 -4 -6 -7 -11 -12 -13 -14 -16 -17 -21 -24 -32 -39 -46 -47 -51 -27 -35 -42 -53 -57 -63 -28 -36 -43 -54 -58 -65 -29 -37 -44 -55 -59 -66 0
-1 -3 -4 -6 -7 -11 -12 -22 -23 -25 -26 -30 -15 -32 -39 -46 -47 -51 -18 -35 -42 -53 -57 -63 -19 -36 -43 -54 -58 -65 -20 -37 -44 -55 -59 -66 0
-3 -4 -6 -7 -11 -13 -14 -16 -17 -21 -22 -23 -25 -26 -30 -32 -39 -46 -47 -51 -35 -42 -53 -57 -63 -36 -43 -54 -58 -65 -37 -44 -55 -59 -66 0
-1 -2 -4 -6 -7 -11 -13 -22 -31 -33 -34 -38 -15 -24 -39 -46 -47 -51 -18 -27 -42 -53 -57 -63 -19 -28 -43 -54 -58 -65 -20 -29 -44 -55 -59 -66 0
-2 -4 -6 -7 -11 -12 -14 -16 -17 -21 -22 -31 -33 -34 -38 -24 -39 -46 -47 -51 -27 -42 -53 -57 -63 -28 -43 -54 -58 -65 -29 -44 -55 -59 -66 0
-1 -4 -6 -7 -11 -12 -23 -25 -26 -30 -13 -31 -33 -34 -38 -15 -39 -46 -47 -51 -18 -42 -53 -57 -63 -19 -43 -54 -58 -65 -20 -44 -55 -59 -66 0
-4 -6 -7 -11 -14 -16 -17 -21 -23 -25 -26 -30 -31 -33 -34 -38 -39 -46 -47 -51 -42 -53 -57 -63 -43 -54 -58 -65 -44 -55 -59 -66 0
-1 -2 -3 -6 -7 -11 -14 -23 -31 -40 -41 -45 -15 -24 -32 -46 -47 -51 -18 -27 -35 -53 -57 -63 -19 -28 -36 -54 -58 -65 -20 -29 -37 -55 -59 -66 0
-2 -3 -6 -7 -11 -12 -13 -16 -17 -21 -23 -31 -40 -41 -45 -24 -32 -46 -47 -51 -27 -35 -53 -57 -63 -28 -36 -54 -58 -65 -29 -37 -55 -59 -66 0
-1 -3 -6 -7 -11 -12 -22 -25 -26 -30 -14 -31 -40 -41 -45 -15 -32 -46 -47 -51 -18 -35 -53 -57 -63 -19 -36 -54 -58 -65 -20 -37 -55 -59 -66 0
-3 -6 -7 -11 -13 -16 -17 -21 -22 -25 -26 -30 -31 -40 -41 -45 -32 -46 -47 -51 -35 -53 -57 -63 -36 -54 -58 -65 -37 -55 -59 -66 0
-1 -2 -6 -7 -11 -13 -22 -33 -34 -38 -14 -23 -40 -41 -45 -15 -24 -46 -47 -51 -18 -27 -53 -57 -63 -19 -28 -54 -58 -65 -20 -29 -55 -59 -66 0
-2 -6 -7 -11 -12 -16 -17 -21 -22 -33 -34 -38 -23 -40 -41 -45 -24 -46 -47 -51 -27 -53 -57 -63 -28 -54 -58 -65 -29 -55 -59 -66 0
-1 -6 -7 -11 -12 -25 -26 -30 -13 -33 -34 -38 -14 -40 -41 -45 -15 -46 -47 -51 -18 -53 -57 -63 -19 -54 -58 -65 -20 -55 -59 -66 0
-6 -7 -11 -16 -17 -21 -25 -26 -30 -33 -34 -38 -40 -41 -45 -46 -47 -51 -53 -57 -63 -54 -58 -65 -55 -59 -66 0
-1 -2 -3 -4 -5 -7 -11 -16 -25 -33 -40 -46 -52 -56 -18 -27 -35 -42 -48 -57 -63 -19 -28 -36 -43 -49 -58 -65 -20 -29 -37 -44 -50 -59 -66 0
-2 -3 -4 -5 -7 -11 -12 -13 -14 -15 -17 -21 -25 -33 -40 -46 -52 -56 -27 -35 -42 -48 -57 -63 -28 -36 -43 -49 -58 -65 -29 -37 -44 -50 -59 -66 0
-1 -3 -4 -5 -7 -11 -12 -22 -23 -24 -26 -30 -16 -33 -40 -46 -52 -56 -18 -35 -42 -48 -57 -63 -19 -36 -43 -49 -58 -65 -20 -37 -44 -50 -59 -66 0
-3 -4 -5 -7 -11 -13 -14 -15 -17 -21 -22 -23 -24 -26 -30 -33 -40 -46 -52 -56 -35 -42 -48 -57 -63 -36 -43 -49 -58 -65 -37 -44 -50 -59 -66 0
-1 -2 -4 -5 -7 -11 -13 -22 -31 -32 -34 -38 -16 -25 -40 -46 -52 -56 -18 -27 -42 -48 -57 -63 -19 -28 -43 -49 -58 -65 -20 -29 -44 -50 -59 -66 0
-2 -4 -5 -7 -11 -12 -14 -15 -17 -21 -22 -31 -32 -34 -38 -25 -40 -46 -52 -56 -27 -42 -48 -57 -63 -28 -43 -49 -58 -65 -29 -44 -50 -59 -66 0
-1 -4 -5 -7 -11 -12 -23 -24 -26 -30 -13 -31 -32 -34 -38 -16 -40 -46 -52 -56 -18 -42 -48 -57 -63 -19 -43 -49 -58 -65 -20 -44 -50 -59 -66 0
-4 -5 -7 -11 -14 -15 -17 -21 -23 -24 -26 -30 -31 -32 -34 -38 -40 -46 -52 -56 -42 -48 -57 -63 -43 -49 -58 -65 -44 -50 -59 -66 0
-1 -2 -3 -5 -7 -11 -14 -23 -31 -39 -41 -45 -16 -25 -33 -46 -52 -56 -18 -27 -35 -48 -57 -63 -19 -28 -36 -49 -58 -65 -20 -29 -37 -50 -59 -66 0
-2 -3 -5 -7 -11 -12 -13 -15 -17 -21 -23 -31 -39 -41 -45 -25 -33 -46 -52 -56 -27 -35 -48 -57 -63 -28 -36 -49 -58 -65 -29 -37 -50 -59 -66 0
-1 -3 -5 -7 -11 -12 -22 -24 -26 -30 -14 -31 -39 -41 -45 -16 -33 -46 -52 -56 -18 -35 -48 -57 -63 -19 -36 -49 -58 -65 -20 -37 -50 -59 -66 0
-3 -5 -7 -11 -13 -15 -17 -21 -22 -24 -26 -30 -31 -39 -41 -45 -33 -46 -52 -56 -35 -48 -57 -63 -36 -49 -58 -65 -37 -50 -59 -66 0
-1 -2 -5 -7 -11 -13 -22 -32 -34 -38 -14 -23 -39 -41 -45 -16 -25 -46 -52 -56 -18 -27 -48 -57 -63 -19 -28 -49 -58 -65 -20 -29 -50 -59 -66 0
-2 -5 -7 -11 -12 -15 -17 -21 -22 -32 -34 -38 -23 -39 -41 -45 -25 -46 -52 -56 -27 -48 -57 -63 -28 -49 -58 -65 -29 -50 -59 -66 0
-1 -5 -7 -11 -12 -24 -26 -30 -13 -32 -34 -38 -14 -39 -41 -45 -16 -46 -52 -56 -18 -48 -57 -63 -19 -49 -58 -65 -20 -50 -59 -66 0
-5 -7 -11 -15 -17 -21 -24 -26 -30 -32 -34 -38 -39 -41 -45 -46 -52 -56 -48 -57 -63 -49 -58 -65 -50 -59 -66 0
-1 -2 -3 -4 -7 -11 -15 -24 -32 -39 -47 -51 -16 -25 -33 -40 -52 -56 -18 -27 -35 -42 -57 -63 -19 -28 -36 -43 -58 -65 -20 -29 -37 -44 -59 -66 0
-2 -3 -4 -7 -11 -12 -13 -14 -17 -21 -24 -32 -39 -47 -51 -25 -33 -40 -52 -56 -27 -35 -42 -57 -63 -28 -36 -43 -58 -65 -29 -37 -44 -59 -66 0
-1 -3 -4 -7 -11 -12 -22 -23 -26 -30 -15 -32 -39 -47 -51 -16 -33 -40 -52 -56 -18 -35 -42 -57 -63 -19 -36 -43 -58 -65 -20 -37 -44 -59 -66 0
-3 -4 -7 -11 -13 -14 -17 -21 -22 -23 -26 -30 -32 -39 -47 -51 -33 -40 -52 -56 -35 -42 -57 -63 -36 -43 -58 -65 -37 -44 -59 -66 0
-1 -2 -4 -7 -11 -13 -22 -31 -34 -38 -15 -24 -39 -47 -51 -16 -25 -40 -52 -56 -18 -27 -42 -57 -63 -19 -28 -43 -58 -65 -20 -29 -44 -59 -66 0
-2 -4 -7 -11 -12 -14 -17 -21 -22 -31 -34 -38 -24 -39 -47 -51 -25 -40 -52 -56 -27 -42 -57 -63 -28 -43 -58 -65 -29 -44 -59 -66 0
-1 -4 -7 -11 -12 -23 -26 -30 -13 -31 -34 -38 -15 -39 -47 -51 -16 -40 -52 -56 -18 -42 -57 -63 -19 -43 -58 -65 -20 -44 -59 -66 0
-4 -7 -11 -14 -17 -21 -23 -26 -30 -31 -34 -38 -39 -47 -51 -40 -52 -56 -42 -57 -63 -43 -58 -65 -44 -59 -66 0
-1 -2 -3 -7 -11 -14 -23 -31 -41 -45 -15 -24 -32 -47 -51 -16 -25 -33 -52 -56 -18 -27 -35 -57 -63 -19 -28 -36 -58 -65 -20 -29 -37 -59 -66 0
-2 -3 -7 -11 -12 -13 -17 -21 -23 -31 -41 -45 -24 -32 -47 -51 -25 -33 -52 -56 -27 -35 -57 -63 -28 -36 -58 -65 -29 -37 -59 -66 0
-1 -3 -7 -11 -12 -22 -26 -30 -14 -31 -41 -45 -15 -32 -47 -51 -16 -33 -52 -56 -18 -35 -57 -63 -19 -36 -58 -65 -20 -37 -59 -66 0
-3 -7 -11 -13 -17 -21 -22 -26 -30 -31 -41 -45 -32 -47 -51 -33 -52 -56 -35 -57 -63 -36 -58 -65 -37 -59 -66 0
-1 -2 -7 -11 -13 -22 -34 -38 -14 -23 -41 -45 -15 -24 -47 -51 -16 -25 -52 -56 -18 -27 -57 -63 -19 -28 -58 -65 -20 -29 -59 -66 0
-2 -7 -11 -12 -17 -21 -22 -34 -38 -23 -41 -45 -24 -47 -51 -25 -52 -56 -27 -57 -63 -28 -58 -65 -29 -59 -66 0
-1 -7 -11 -12 -26 -30 -13 -34 -38 -14 -41 -45 -15 -47 -51 -16 -52 -56 -18 -57 -63 -19 -58 -65 -20 -59 -66 0
-7 -11 -17 -21 -26 -30 -34 -38 -41 -45 -47 -51 -52 -56 -57 -63 -58 -65 -59 -66 0
-1 -2 -3 -4 -5 -6 -11 -17 -26 -34 -41 -47 -52 -60 -18 -27 -35 -42 -48 -53 -63 -19 -28 -36 -43 -49 -54 -65 -20 -29 -37 -44 -50 -55 -66 0
-2 -3 -4 -5 -6 -11 -12 -13 -14 -15 -16 -21 -26 -34 -41 -47 -52 -60 -27 -35 -42 -48 -53 -63 -28 -36 -43 -49 -54 -65 -29 -37 -44 -50 -55 -66 0
-1 -3 -4 -5 -6 -11 -12 -22 -23 -24 -25 -30 -17 -34 -41 -47 -52 -60 -18 -35 -42 -48 -53 -63 -19 -36 -43 -49 -54 -65 -20 -37 -44 -50 -55 -66 0
-3 -4 -5 -6 -11 -13 -14 -15 -16 -21 -22 -23 -24 -25 -30 -34 -41 -47 -52 -60 -35 -42 -48 -53 -63 -36 -43 -49 -54 -65 -37 -44 -50 -55 -66 0
-1 -2 -4 -5 -6 -11 -13 -22 -31 -32 -33 -38 -17 -26 -41 -47 -52 -60 -18 -27 -42 -48 -53 -63 -19 -28 -43 -49 -54 -65 -20 -29 -44 -50 -55 -66 0
-2 -4 -5 -6 -11 -12 -14 -15 -16 -21 -22 -31 -32 -33 -38 -26 -41 -47 -52 -60 -27 -42 -48 -53 -63 -28 -43 -49 -54 -65 -29 -44 -50 -55 -66 0
-1 -4 -5 -6 -11 -12 -23 -24 -25 -30 -13 -31 -32 -33 -38 -17 -41 -47 -52 -60 -18 -42 -48 -53 -63 -19 -43 -49 -54 -65 -20 -44 -50 -55 -66 0
-4 -5 -6 -11 -14 -15 -16 -21 -23 -24 -25 -30 -31 -32 -33 -38 -41 -47 -52 -60 -42 -48 -53 -63 -43 -49 -54 -65 -44 -50 -55 -66 0
-1 -2 -3 -5 -6 -11 -14 -23 -31 -39 -40 -45 -17 -26 -34 -47 -52 -60 -18 -27 -35 -48 -53 -63 -19 -28 -36 -49 -54 -65 -20 -29 -37 -50 -55 -66 0
-2 -3 -5 -6 -11 -12 -13 -15 -16 -21 -23 -31 -39 -40 -45 -26 -34 -47 -52 -60 -27 -35 -48 -53 -63 -28 -36 -49 -54 -65 -29 -37 -50 -55 -66 0
-1 -3 -5 -6 -11 -12 -22 -24 -25 -30 -14 -31 -39 -40 -45 -17 -34 -47 -52 -60 -18 -35 -48 -53 -63 -19 -36 -49 -54 -65 -20 -37 -50 -55 -66 0
-3 -5 -6 -11 -13 -15 -16 -21 -22 -24 -25 -30 -31 -39 -40 -45 -34 -47 -52 -60 -35 -48 -53 -63 -36 -49 -54 -65 -37 -50 -55 -66 0
-1 -2 -5 -6 -11 -13 -22 -32 -33 -38 -14 -23 -39 -40 -45 -17 -26 -47 -52 -60 -18 -27 -48 -53 -63 -19 -28 -49 -54 -65 -20 -29 -50 -55 -66 0
-2 -5 -6 -11 -12 -15 -16 -21 -22 -32 -33 -38 -23 -39 -40 -45 -26 -47 -52 -60 -27 -48 -53 -63 -28 -49 -54 -65 -29 -50 -55 -66 0
-1 -5 -6 -11 -12 -24 -25 -30 -13 -32 -33 -38 -14 -39 -40 -45 -17 -47 -52 -60 -18 -48 -53 -63 -19 -49 -54 -65 -20 -50 -55 -66 0
-5 -6 -11 -15 -16 -21 -24 -25 -30 -32 -33 -38 -39 -40 -45 -47 -52 -60 -48 -53 -63 -49 -54 -65 -50 -55 -66 0
-1 -2 -3 -4 -6 -11 -15 -24 -32 -39 -46 -51 -17 -26 -34 -41 -52 -60 -18 -27 -35 -42 -53 -63 -19 -28 -36 -43 -54 -65 -20 -29 -37 -44 -55 -66 0
-2 -3 -4 -6 -11 -12 -13 -14 -16 -21 -24 -32 -39 -46 -51 -26 -34 -41 -52 -60 -27 -35 -42 -53 -63 -28 -36 -43 -54 -65 -29 -37 -44 -55 -66 0
-1 -3 -4 -6 -11 -12 -22 -23 -25 -30 -15 -32 -39 -46 -51 -17 -34 -41 -52 -60 -18 -35 -42 -53 -63 -19 -36 -43 -54 -65 -20 -37 -44 -55 -66 0
-3 -4 -6 -11 -13 -14 -16 -21 -22 -23 -25 -30 -32 -39 -46 -51 -34 -41 -52 -60 -35 -42 -53 -63 -36 -43 -54 -65 -37 -44 -55 -66 0
-1 -2 -4 -6 -11 -13 -22 -31 -33 -38 -15 -24 -39 -46 -51 -17 -26 -41 -52 -60 -18 -27 -42 -53 -63 -19 -28 -43 -54 -65 -20 -29 -44 -55 -66 0
-2 -4 -6 -11 -12 -14 -16 -21 -22 -31 -33 -38 -24 -39 -46 -51 -26 -41 -52 -60 -27 -42 -53 -63 -28 -43 -54 -65 -29 -44 -55 -66 0
-1 -4 -6 -11 -12 -23 -25 -30 -13 -31 -33 -38 -15 -39 -46 -51 -17 -41 -52 -60 -18 -42 -53 -63 -19 -43 -54 -65 -20 -44 -55 -66 0
-4 -6 -11 -14 -16 -21 -23 -25 -30 -31 -33 -38 -39 -46 -51 -41 -52 -60 -42 -53 -63 -43 -54 -65 -44 -55 -66 0
-1 -2 -3 -6 -11 -14 -23 -31 -40 -45 -15 -24 -32 -46 -51 -17 -26 -34 -52 -60 -18 -27 -35 -53 -63 -19 -28 -36 -54 -65 -20 -29 -37 -55 -66 0
-2 -3 -6 -11 -12 -13 -16 -21 -23 -31 -40 -45 -24 -32 -46 -51 -26 -34 -52 -60 -27 -35 -53 -63 -28 -36 -54 -65 -29 -37 -55 -66 0
-1 -3 -6 -11 -12 -22 -25 -30 -14 -31 -40 -45 -15 -32 -46 -51 -17 -34 -52 -60 -18 -35 -53 -63 -19 -36 -54 -65 -20 -37 -55 -66 0
-3 -6 -11 -13 -16 -21 -22 -25 -30 -31 -40 -45 -32 -46 -51 -34 -52 -60 -35 -53 -63 -36 -54 -65 -37 -55 -66 0
-1 -2 -6 -11 -13 -22 -33 -38 -14 -23 -40 -45 -15 -24 -46 -51 -17 -26 -52 -60 -18 -27 -53 -63 -19 -28 -54 -65 -20 -29 -55 -66 0
-2 -6 -11 -12 -16 -21 -22 -33 -38 -23 -40 -45 -24 -46 -51 -26 -52 -60 -27 -53 -63 -28 -54 -65 -29 -55 -66 0
-1 -6 -11 -12 -25 -30 -13 -33 -38 -14 -40 -45 -15 -46 -51 -17 -52 -60 -18 -53 -63 -19 -54 -65 -20 -55 -66 0
-6 -11 -16 -21 -25 -30 -33 -38 -40 -45 -46 -51 -52 -60 -53 -63 -54 -65 -55 -66 0
-1 -2 -3 -4 -5 -11 -16 -25 -33 -40 -46 -56 -17 -26 -34 -41 -47 -60 -18 -27 -35 -42 -48 -63 -19 -28 -36 -43 -49 -65 -20 -29 -37 -44 -50 -66 0
-2 -3 -4 -5 -11 -12 -13 -14 -15 -21 -25 -33 -40 -46 -56 -26 -34 -41 -47 -60 -27 -35 -42 -48 -63 -28 -36 -43 -49 -65 -29 -37 -44 -50 -66 0
-1 -3 -4 -5 -11 -12 -22 -23 -24 -30 -16 -33 -40 -46 -56 -17 -34 -41 -47 -60 -18 -35 -42 -48 -63 -19 -36 -43 -49 -65 -20 -37 -44 -50 -66 0
-3 -4 -5 -11 -13 -14 -15 -21 -22 -23 -24 -30 -33 -40 -46 -56 -34 -41 -47 -60 -35 -42 -48 -63 -36 -43 -49 -65 -37 -44 -50 -66 0
-1 -2 -4 -5 -11 -13 -22 -31 -32 -38 -16 -25 -40 -46 -56 -17 -26 -41 -47 -60 -18 -27 -42 -48 -63 -19 -28 -43 -49 -65 -20 -29 -44 -50 -66 0
-2 -4 -5 -11 -12 -14 -15 -21 -22 -31 -32 -38 -25 -40 -46 -56 -26 -41 -47 -60 -27 -42 -48 -63 -28 -43 -49 -65 -29 -44 -50 -66 0
-1 -4 -5 -11 -12 -23 -24 -30 -13 -31 -32 -38 -16 -40 -46 -56 -17 -41 -47 -60 -18 -42 -48 -63 -19 -43 -49 -65 -20 -44 -50 -66 0
-4 -5 -11 -14 -15 -21 -23 -24 -30 -31 -32 -38 -40 -46 -56 -41 -47 -60 -42 -48 -63 -43 -49 -65 -44 -50 -66 0
-1 -2 -3 -5 -11 -14 -23 -31 -39 -45 -16 -25 -33 -46 -56 -17 -26 -34 -47 -60 -18 -27 -35 -48 -63 -19 -28 -36 -49 -65 -20 -29 -37 -50 -66 0
-2 -3 -5 -11 -12 -13 -15 -21 -23 -31 -39 -45 -25 -33 -46 -56 -26 -34 -47 -60 -27 -35 -48 -63 -28 -36 -49 -65 -29 -37 -50 -66 0
-1 -3 -5 -11 -12 -22 -24 -30 -14 -31 -39 -45 -16 -33 -46 -56 -17 -34 -47 -60 -18 -35 -48 -63 -19 -36 -49 -65 -20 -37 -50 -66 0
-3 -5 -11 -13 -15 -21 -22 -24 -30 -31 -39 -45 -33 -46 -56 -34 -47 -60 -35 -48 -63 -36 -49 -65 -37 -50 -66 0
-1 -2 -5 -11 -13 -22 -32 -38 -14 -23 -39 -45 -16 -25 -46 -56 -17 -26 -47 -60 -18 -27 -48 -63 -19 -28 -49 -65 -20 -29 -50 -66 0
-2 -5 -11 -12 -15 -21 -22 -32 -38 -23 -39 -45 -25 -46 -56 -26 -47 -60 -27 -48 -63 -28 -49 -65 -29 -50 -66 0
-1 -5 -11 -12 -24 -30 -13 -32 -38 -14 -39 -45 -16 -46 -56 -17 -47 -60 -18 -48 -63 -19 -49 -65 -20 -50 -66 0
-5 -11 -15 -21 -24 -30 -32 -38 -39 -45 -46 -56 -47 -60 -48 -63 -49 -65 -50 -66 0
-1 -2 -3 -4 -11 -15 -24 -32 -39 -51 -16 -25 -33 -40 -56 -17 -26 -34 -41 -60 -18 -27 -35 -42 -63 -19 -28 -36 -43 -65 -20 -29 -37 -44 -66 0
-2 -3 -4 -11 -12 -13 -14 -21 -24 -32 -39 -51 -25 -33 -40 -56 -26 -34 -41 -60 -27 -35 -42 -63 -28 -36 -43 -65 -29 -37 -44 -66 0
-1 -3 -4 -11 -12 -22 -23 -30 -15 -32 -39 -51 -16 -33 -40 -56 -17 -34 -41 -60 -18 -35 -42 -63 -19 -36 -43 -65 -20 -37 -44 -66 0
-3 -4 -11 -13 -14 -21 -22 -23 -30 -32 -39 -51 -33 -40 -56 -34 -41 -60 -35 -42 -63 -36 -43 -65 -37 -44 -66 0
-1 -2 -4 -11 -13 -22 -31 -38 -15 -24 -39 -51 -16 -25 -40 -56 -17 -26 -41 -60 -18 -27 -42 -63 -19 -28 -43 -65 -20 -29 -44 -66 0
-2 -4 -11 -12 -14 -21 -22 -31 -38 -24 -39 -51 -25 -40 -56 -26 -41 -60 -27 -42 -63 -28 -43 -65 -29 -44 -66 0
-1 -4 -11 -12 -23 -30 -13 -31 -38 -15 -39 -51 -16 -40 -56 -17 -41 -60 -18 -42 -63 -19 -43 -65 -20 -44 -66 0
-4 -11 -14 -21 -23 -30 -31 -38 -39 -51 -40 -56 -41 -60 -42 -63 -43 -65 -44 -66 0
-1 -2 -3 -11 -14 -23 -31 -45 -15 -24 -32 -51 -16 -25 -33 -56 -17 -26 -34 -60 -18 -27 -35 -63 -19 -28 -36 -65 -20 -29 -37 -66 0
-2 -3 -11 -12 -13 -21 -23 -31 -45 -24 -32 -51 -25 -33 -56 -26 -34 -60 -27 -35 -63 -28 -36 -65 -29 -37 -66 0
-1 -3 -11 -12 -22 -30 -14 -31 -45 -15 -32 -51 -16 -33 -56 -17 -34 -60 -18 -35 -63 -19 -36 -65 -20 -37 -66 0
-3 -11 -13 -21 -22 -30 -31 -45 -32 -51 -33 -56 -34 -60 -35 -63 -36 -65 -37 -66 0
-1 -2 -11 -13 -22 -38 -14 -23 -45 -15 -24 -51 -16 -25 -56 -17 -26 -60 -18 -27 -63 -19 -28 -65 -20 -29 -66 0
-2 -11 -12 -21 -22 -38 -23 -45 -24 -51 -25 -56 -26 -60 -27 -63 -28 -65 -29 -66 0
-1 -11 -12 -30 -13 -38 -14 -45 -15 -51 -16 -56 -17 -60 -18 -63 -19 -65 -20 -66 0
-11 -21 -30 -38 -45 -51 -56 -60 -63 -65 -66 0
-1 -2 -3 -4 -5 -6 -7 -8 -9 -10 -21 -30 -38 -45 -51 -56 -60 -63 -65 -66 0
-2 -3 -4 -5 -6 -7 -8 -9 -10 -12 -13 -14 -15 -16 -17 -18 -19 -20 -30 -38 -45 -51 -56 -60 -63 -65 -66 0
-1 -3 -4 -5 -6 -7 -8 -9 -10 -12 -22 -23 -24 -25 -26 -27 -28 -29 -21 -38 -45 -51 -56 -60 -63 -65 -66 0
-3 -4 -5 -6 -7 -8 -9 -10 -13 -14 -15 -16 -17 -18 -19 -20 -22 -23 -24 -25 -26 -27 -28 -29 -38 -45 -51 -56 -60 -63 -65 -66 0
-1 -2 -4 -5 -6 -7 -8 -9 -10 -13 -22 -31 -32 -33 -34 -35 -36 -37 -21 -30 -45 -51 -56 -60 -63 -65 -66 0
-2 -4 -5 -6 -7 -8 -9 -10 -12 -14 -15 -16 -17 -18 -19 -20 -22 -31 -32 -33 -34 -35 -36 -37 -30 -45 -51 -56 -60 -63 -65 -66 0
-1 -4 -5 -6 -7 -8 -9 -10 -12 -23 -24 -25 -26 -27 -28 -29 -13 -31 -32 -33 -34 -35 -36 -37 -21 -45 -51 -56 -60 -63 -65 -66 0
-4 -5 -6 -7 -8 -9 -10 -14 -15 -16 -17 -18 -19 -20 -23 -24 -25 -26 -27 -28 -29 -31 -32 -33 -34 -35 -36 -37 -45 -51 -56 -60 -63 -65 -66 0
-1 -2 -3 -5 -6 -7 -8 -9 -10 -14 -23 -31 -39 -40 -41 -42 -43 -44 -21 -30 -38 -51 -56 -60 -63 -65 -66 0
-2 -3 -5 -6 -7 -8 -9 -10 -12 -13 -15 -16 -17 -18 -19 -20 -23 -31 -39 -40 -41 -42 -43 -44 -30 -38 -51 -56 -60 -63 -65 -66 0
-1 -3 -5 -6 -7 -8 -9 -10 -12 -22 -24 -25 -26 -27 -28 -29 -14 -31 -39 -40 -41 -42 -43 -44 -21 -38 -51 -56 -60 -63 -65 -66 0
-3 -5 -6 -7 -8 -9 -10 -13 -15 -16 -17 -18 -19 -20 -22 -24 -25 -26 -27 -28 -29 -31 -39 -40 -41 -42 -43 -44 -38 -51 -56 -60 -63 -65 -66 0
-1 -2 -5 -6 -7 -8 -9 -10 -13 -22 -32 -33 -34 -35 -36 -37 -14 -23 -39 -40 -41 -42 -43 -44 -21 -30 -51 -56 -60 -63 -65 -66 0
-2 -5 -6 -7 -8 -9 -10 -12 -15 -16 -17 -18 -19 -20 -22 -32 -33 -34 -35 -36 -37 -23 -39 -40 -41 -42 -43 -44 -30 -51 -56 -60 -63 -65 -66 0
-1 -5 -6 -7 -8 -9 -10 -12 -24 -25 -26 -27 -28 -29 -13 -32 -33 -34 -35 -36 -37 -14 -39 -40 -41 -42 -43 -44 -21 -51 -56 -60 -63 -65 -66 0
-5 -6 -7 -8 -9 -10 -15 -16 -17 -18 -19 -20 -24 -25 -26 -27 -28 -29 -32 -33 -34 -35 -36 -37 -39 -40 -41 -42 -43 -44 -51 -56 -60 -63 -65 -66 0
-1 -2 -3 -4 -6 -7 -8 -9 -10 -15 -24 -32 -39 -46 -47 -48 -49 -50 -21 -30 -38 -45 -56 -60 -63 -65 -66 0
-2 -3 -4 -6 -7 -8 -9 -10 -12 -13 -14 -16 -17 -18 -19 -20 -24 -32 -39 -46 -47 -48 -49 -50 -30 -38 -45 -56 -60 -63 -65 -66 0
-1 -3 -4 -6 -7 -8 -9 -10 -12 -22 -23 -25 -26 -27 -28 -29 -15 -32 -39 -46 -47 -48 -49 -50 -21 -38 -45 -56 -60 -63 -65 -66 0
-3 -4 -6 -7 -8 -9 -10 -13 -14 -16 -17 -18 -19 -20 -22 -23 -25 -26 -27 -28 -29 -32 -39 -46 -47 -48 -49 -50 -38 -45 -56 -60 -63 -65 -66 0
-1 -2 -4 -6 -7 -8 -9 -10 -13 -22 -31 -33 -34 -35 -36 -37 -15 -24 -39 -46 -47 -48 -49 -50 -21 -30 -45 -56 -60 -63 -65 -66 0
-2 -4 -6 -7 -8 -9 -10 -12 -14 -16 -17 -18 -19 -20 -22 -31 -33 -34 -35 -36 -37 -24 -39 -46 -47 -48 -49 -50 -30 -45 -56 -60 -63 -65 -66 0
-1 -4 -6 -7 -8 -9 -10 -12 -23 -25 -26 -27 -28 -29 -13 -31 -33 -34 -35 -36 -37 -15 -39 -46 -47 -48 -49 -50 -21 -45 -56 -60 -63 -65 -66 0
-4 -6 -7 -8 -9 -10 -14 -16 -17 -18 -19 -20 -23 -25 -26 -27 -28 -29 -31 -33 -34 -35 -36 -37 -39 -46 -47 -48 -49 -50 -45 -56 -60 -63 -65 -66 0
-1 -2 -3 -6 -7 -8 -9 -10 -14 -23 -31 -40 -41 -42 -43 -44 -15 -24 -32 -46 -47 -48 -49 -50 -21 -30 -38 -56 -60 -63 -65 -66 0
-2 -3 -6 -7 -8 -9 -10 -12 -13 -16 -17 -18 -19 -20 -23 -31 -40 -41 -42 -43 -44 -24 -32 -46 -47 -48 -49 -50 -30 -38 -56 -60 -63 -65 -66 0
-1 -3 -6 -7 -8 -9 -10 -12 -22 -25 -26 -27 -28 -29 -14 -31 -40 -41 -42 -43 -44 -15 -32 -46 -47 -48 -49 -50 -21 -38 -56 -60 -63 -65 -66 0
-3 -6 -7 -8 -9 -10 -13 -16 -17 -18 -19 -20 -22 -25 -26 -27 -28 -29 -31 -40 -41 -42 -43 -44 -32 -46 -47 -48 -49 -50 -38 -56 -60 -63 -65 -66 0
-1 -2 -6 -7 -8 -9 -10 -13 -22 -33 -34 -35 -36 -37 -14 -23 -40 -41 -42 -43 -44 -15 -24 -46 -47 -48 -49 -50 -21 -30 -56 -60 -63 -65 -66 0
-2 -6 -7 -8 -9 -10 -12 -16 -17 -18 -19 -20 -22 -33 -34 -35 -36 -37 -23 -40 -41 -42 -43 -44 -24 -46 -47 -48 -49 -50 -30 -56 -60 -63 -65 -66 0
-1 -6 -7 -8 -9 -10 -12 -25 -26 -27 -28 -29 -13 -33 -34 -35 -36 -37 -14 -40 -41 -42 -43 -44 -15 -46 -47 -48 -49 -50 -21 -56 -60 -63 -65 -66 0
-6 -7 -8 -9 -10 -16 -17 -18 -19 -20 -25 -26 -27 -28 -29 -33 -34 -35 -36 -37 -40 -41 -42 -43 -44 -46 -47 -48 -49 -50 -56 -60 -63 -65 -66 0
-1 -2 -3 -4 -5 -7 -8 -9 -10 -16 -25 -33 -40 -46 -52 -53 -54 -55 -21 -30 -38 -45 -51 -60 -63 -65 -66 0
-2 -3 -4 -5 -7 -8 -9 -10 -12 -13 -14 -15 -17 -18 -19 -20 -25 -33 -40 -46 -52 -53 -54 -55 -30 -38 -45 -51 -60 -63 -65 -66 0
-1 -3 -4 -5 -7 -8 -9 -10 -12 -22 -23 -24 -26 -27 -28 -29 -16 -33 -40 -46 -52 -53 -54 -55 -21 -38 -45 -51 -60 -63 -65 -66 0
-3 -4 -5 -7 -8 -9 -10 -13 -14 -15 -17 -18 -19 -20 -22 -23 -24 -26 -27 -28 -29 -33 -40 -46 -52 -53 -54 -55 -38 -45 -51 -60 -63 -65 -66 0
-1 -2 -4 -5 -7 -8 -9 -10 -13 -22 -31 -32 -34 -35 -36 -37 -16 -25 -40 -46 -52 -53 -54 -55 -21 -30 -45 -51 -60 -63 -65 -66 0
-2 -4 -5 -7 -8 -9 -10 -12 -14 -15 -17 -18 -19 -20 -22 -31 -32 -34 -35 -36 -37 -25 -40 -46 -52 -53 -54 -55 -30 -45 -51 -60 -63 -65 -66 0
-1 -4 -5 -7 -8 -9 -10 -12 -23 -24 -26 -27 -28 -29 -13 -31 -32 -34 -35 -36 -37 -16 -40 -46 -52 -53 -54 -55 -21 -45 -51 -60 -63 -65 -66 0
-4 -5 -7 -8 -9 -10 -14 -15 -17 -18 -19 -20 -23 -24 -26 -27 -28 -29 -31 -32 -34 -35 -36 -37 -40 -46 -52 -53 -54 -55 -45 -51 -60 -63 -65 -66 0
-1 -2 -3 -5 -7 -8 -9 -10 -14 -23 -31 -39 -41 -42 -43 -44 -16 -25 -33 -46 -52 -53 -54 -55 -21 -30 -38 -51 -60 -63 -65 -66 0
-2 -3 -5 -7 -8 -9 -10 -12 -13 -15 -17 -18 -19 -20 -23 -31 -39 -41 -42 -43 -44 -25 -33 -46 -52 -53 -54 -55 -30 -38 -51 -60 -63 -65 -66 0
-1 -3 -5 -7 -8 -9 -10 -12 -22 -24 -26 -27 -28 -29 -14 -31 -39 -41 -42 -43 -44 -16 -33 -46 -52 -53 -54 -55 -21 -38 -51 -60 -63 -65 -66 0
-3 -5 -7 -8 -9 -10 -13 -15 -17 -18 -19 -20 -22 -24 -26 -27 -28 -29 -31 -39 -41 -42 -43 -44 -33 -46 -52 -53 -54 -55 -38 -51 -60 -63 -65 -66 0
-1 -2 -5 -7 -8 -9 -10 -13 -22 -32 -34 -35 -36 -37 -14 -23 -39 -41 -42 -43 -44 -16 -25 -46 -52 -53 -54 -55 -21 -30 -51 -60 -63 -65 -66 0
-2 -5 -7 -8 -9 -10 -12 -15 -17 -18 -19 -20 -22 -32 -34 -35 -36 -37 -23 -39 -41 -42 -43 -44 -25 -46 -52 -53 -54 -55 -30 -51 -60 -63 -65 -66 0
-1 -5 -7 -8 -9 -10 -12 -24 -26 -27 -28 -29 -13 -32 -34 -35 -36 -37 -14 -39 -41 -42 -43 -44 -16 -46 -52 -53 -54 -55 -21 -51 -60 -63 -65 -66 0
-5 -7 -8 -9 -10 -15 -17 -18 -19 -20 -24 -26 -27 -28 -29 -32 -34 -35 -36 -37 -39 -41 -42 -43 -44 -46 -52 -53 -54 -55 -51 -60 -63 -65 -66 0
-1 -2 -3 -4 -7 -8 -9 -10 -15 -24 -32 -39 -47 -48 -49 -50 -16 -25 -33 -40 -52 -53 -54 -55 -21 -30 -38 -45 -60 -63 -65 -66 0
-2 -3 -4 -7 -8 -9 -10 -12 -13 -14 -17 -18 -19 -20 -24 -32 -39 -47 -48 -49 -50 -25 -33 -40 -52 -53 -54 -55 -30 -38 -45 -60 -63 -65 -66 0
-1 -3 -4 -7 -8 -9 -10 -12 -22 -23 -26 -27 -28 -29 -15 -32 -39 -47 -48 -49 -50 -16 -33 -40 -52 -53 -54 -55 -21 -38 -45 -60 -63 -65 -66 0
-3 -4 -7 -8 -9 -10 -13 -14 -17 -18 -19 -20 -22 -23 -26 -27 -28 -29 -32 -39 -47 -48 -49 -50 -33 -40 -52 -53 -54 -55 -38 -45 -60 -63 -65 -66 0
-1 -2 -4 -7 -8 -9 -10 -13 -22 -31 -34 -35 -36 -37 -15 -24 -39 -47 -48 -49 -50 -16 -25 -40 -52 -53 -54 -55 -21 -30 -45 -60 -63 -65 -66 0
-2 -4 -7 -8 -9 -10 -12 -14 -17 -18 -19 -20 -22 -31 -34 -35 -36 -37 -24 -39 -47 -48 -49 -50 -25 -40 -52 -53 -54 -55 -30 -45 -60 -63 -65 -66 0
-1 -4 -7 -8 -9 -10 -12 -23 -26 -27 -28 -29 -13 -31 -34 -35 -36 -37 -15 -39 -47 -48 -49 -50 -16 -40 -52 -53 -54 -55 -21 -45 -60 -63 -65 -66 0
-4 -7 -8 -9 -10 -14 -17 -18 -19 -20 -23 -26 -27 -28 -29 -31 -34 -35 -36 -37 -39 -47 -48 -49 -50 -40 -52 -53 -54 -55 -45 -60 -63 -65 -66 0
-1 -2 -3 -7 -8 -9 -10 -14 -23 -31 -41 -42 -43 -44 -15 -24 -32 -47 -48 -49 -50 -16 -25 -33 -52 -53 -54 -55 -21 -30 -38 -60 -63 -65 -66 0
-2 -3 -7 -8 -9 -10 -12 -13 -17 -18 -19 -20 -23 -31 -41 -42 -43 -44 -24 -32 -47 -48 -49 -50 -25 -33 -52 -53 -54 -55 -30 -38 -60 -63 -65 -66 0
-1 -3 -7 -8 -9 -10 -12 -22 -26 -27 -28 -29 -14 -31 -41 -42 -43 -44 -15 -32 -47 -48 -49 -50 -16 -33 -52 -53 -54 -55 -21 -38 -60 -63 -65 -66 0
-3 -7 -8 -9 -10 -13 -17 -18 -19 -20 -22 -26 -27 -28 -29 -31 -41 -42 -43 -44 -32 -47 -48 -49 -50 -33 -52 -53 -54 -55 -38 -60 -63 -65 -66 0
-1 -2 -7 -8 -9 -10 -13 -22 -34 -35 -36 -37 -14 -23 -41 -42 -43 -44 -15 -24 -47 -48 -49 -50 -16 -25 -52 -53 -54 -55 -21 -30 -60 -63 -65 -66 0
-2 -7 -8 -9 -10 -12 -17 -18 -19 -20 -22 -34 -35 -36 -37 -23 -41 -42 -43 -44 -24 -47 -48 -49 -50 -25 -52 -53 -54 -55 -30 -60 -63 -65 -66 0
-1 -7 -8 -9 -10 -12 -26 -27 -28 -29 -13 -34 -35 -36 -37 -14 -41 -42 -43 -44 -15 -47 -48 -49 -50 -16 -52 -53 -54 -55 -21 -60 -63 -65 -66 0
-7 -8 -9 -10 -17 -18 -19 -20 -26 -27 -28 -29 -34 -35 -36 -37 -41 -42 -43 -44 -47 -48 -49 -50 -52 -53 -54 -55 -60 -63 -65 -66 0
-1 -2 -3 -4 -5 -6 -8 -9 -10 -17 -26 -34 -41 -47 -52 -57 -58 -59 -21 -30 -38 -45 -51 -56 -63 -65 -66 0
-2 -3 -4 -5 -6 -8 -9 -10 -12 -13 -14 -15 -16 -18 -19 -20 -26 -34 -41 -47 -52 -57 -58 -59 -30 -38 -45 -51 -56 -63 -65 -66 0
-1 -3 -4 -5 -6 -8 -9 -10 -12 -22 -23 -24 -25 -27 -28 -29 -17 -34 -41 -47 -52 -57 -58 -59 -21 -38 -45 -51 -56 -63 -65 -66 0
-3 -4 -5 -6 -8 -9 -10 -13 -14 -15 -16 -18 -19 -20 -22 -23 -24 -25 -27 -28 -29 -34 -41 -47 -52 -57 -58 -59 -38 -45 -51 -56 -63 -65 -66 0
-1 -2 -4 -5 -6 -8 -9 -10 -13 -22 -31 -32 -33 -35 -36 -37 -17 -26 -41 -47 -52 -57 -58 -59 -21 -30 -45 -51 -56 -63 -65 -66 0
-2 -4 -5 -6 -8 -9 -10 -12 -14 -15 -16 -18 -19 -20 -22 -31 -32 -33 -35 -36 -37 -26 -41 -47 -52 -57 -58 -59 -30 -45 -51 -56 -63 -65 -66 0
-1 -4 -5 -6 -8 -9 -10 -12 -23 -24 -25 -27 -28 -29 -13 -31 -32 -33 -35 -36 -37 -17 -41 -47 -52 -57 -58 -59 -21 -45 -51 -56 -63 -65 -66 0
-4 -5 -6 -8 -9 -10 -14 -15 -16 -18 -19 -20 -23 -24 -25 -27 -28 -29 -31 -32 -33 -35 -36 -37 -41 -47 -52 -57 -58 -59 -45 -51 -56 -63 -65 -66 0
-1 -2 -3 -5 -6 -8 -9 -10 -14 -23 -31 -39 -40 -42 -43 -44 -17 -26 -34 -47 -52 -57 -58 -59 -21 -30 -38 -51 -56 -63 -65 -66 0
-2 -3 -5 -6 -8 -9 -10 -12 -13 -15 -16 -18 -19 -20 -23 -31 -39 -40 -42 -43 -44 -26 -34 -47 -52 -57 -58 -59 -30 -38 -51 -56 -63 -65 -66 0
-1 -3 -5 -6 -8 -9 -10 -12 -22 -24 -25 -27 -28 -29 -14 -31 -39 -40 -42 -43 -44 -17 -34 -47 -52 -57 -58 -59 -21 -38 -51 -56 -63 -65 -66 0
-3 -5 -6 -8 -9 -10 -13 -15 -16 -18 -19 -20 -22 -24 -25 -27 -28 -29 -31 -39 -40 -42 -43 -44 -34 -47 -52 -57 -58 -59 -38 -51 -56 -63 -65 -66 0
-1 -2 -5 -6 -8 -9 -10 -13 -22 -32 -33 -35 -36 -37 -14 -23 -39 -40 -42 -43 -44 -17 -26 -47 -52 -57 -58 -59 -21 -30 -51 -56 -63 -65 -66 0
-2 -5 -6 -8 -9 -10 -12 -15 -16 -18 -19 -20 -22 -32 -33 -35 -36 -37 -23 -39 -40 -42 -43 -44 -26 -47 -52 -57 -58 -59 -30 -51 -56 -63 -65 -66 0
-1 -5 -6 -8 -9 -10 -12 -24 -25 -27 -28 -29 -13 -32 -33 -35 -36 -37 -14 -39 -40 -42 -43 -44 -17 -47 -52 -57 -58 -59 -21 -51 -56 -63 -65 -66 0
-5 -6 -8 -9 -10 -15 -16 -18 -19 -20 -24 -25 -27 -28 -29 -32 -33 -35 -36 -37 -39 -40 -42 -43 -44 -47 -52 -57 -58 -59 -51 -56 -63 -65 -66 0
-1 -2 -3 -4 -6 -8 -9 -10 -15 -24 -32 -39 -46 -48 -49 -50 -17 -26 -34 -41 -52 -57 -58 -59 -21 -30 -38 -45 -56 -63 -65 -66 0
-2 -3 -4 -6 -8 -9 -10 -12 -13 -14 -16 -18 -19 -20 -24 -32 -39 -46 -48 -49 -50 -26 -34 -41 -52 -57 -58 -59 -30 -38 -45 -56 -63 -65 -66 0
-1 -3 -4 -6 -8 -9 -10 -12 -22 -23 -25 -27 -28 -29 -15 -32 -39 -46 -48 -49 -50 -17 -34 -41 -52 -57 -58 -59 -21 -38 -45 -56 -63 -65 -66 0
-3 -4 -6 -8 -9 -10 -13 -14 -16 -18 -19 -20 -22 -23 -25 -27 -28 -29 -32 -39 -46 -48 -49 -50 -34 -41 -52 -57 -58 -59 -38 -45 -56 -63 -65 -66 0
-1 -2 -4 -6 -8 -9 -10 -13 -22 -31 -33 -35 -36 -37 -15 -24 -39 -46 -48 -49 -50 -17 -26 -41 -52 -57 -58 -59 -21 -30 -45 -56 -63 -65 -66 0
-2 -4 -6 -8 -9 -10 -12 -14 -16 -18 -19 -20 -22 -31 -33 -35 -36 -37 -24 -39 -46 -48 -49 -50 -26 -41 -52 -57 -58 -59 -30 -45 -56 -63 -65 -66 0
-1 -4 -6 -8 -9 -10 -12 -23 -25 -27 -28 -29 -13 -31 -33 -35 -36 -37 -15 -39 -46 -48 -49 -50 -17 -41 -52 -57 -58 -59 -21 -45 -56 -63 -65 -66 0
-4 -6 -8 -9 -10 -14 -16 -18 -19 -20 -23 -25 -27 -28 -29 -31 -33 -35 -36 -37 -39 -46 -48 -49 -50 -41 -52 -57 -58 -59 -45 -56 -63 -65 -66 0
-1 -2 -3 -6 -8 -9 -10 -14 -23 -31 -40 -42 -43 -44 -15 -24 -32 -46 -48 -49 -50 -17 -26 -34 -52 -57 -58 -59 -21 -30 -38 -56 -63 -65 -66 0
-2 -3 -6 -8 -9 -10 -12 -13 -16 -18 -19 -20 -23 -31 -40 -42 -43 -44 -24 -32 -46 -48 -49 -50 -26 -34 -52 -57 -58 -59 -30 -38 -56 -63 -65 -66 0
-1 -3 -6 -8 -9 -10 -12 -22 -25 -27 -28 -29 -14 -31 -40 -42 -43 -44 -15 -32 -46 -48 -49 -50 -17 -34 -52 -57 -58 -59 -21 -38 -56 -63 -65 -66 0
-3 -6 -8 -9 -10 -13 -16 -18 -19 -20 -22 -25 -27 -28 -29 -31 -40 -42 -43 -44 -32 -46 -48 -49 -50 -34 -52 -57 -58 -59 -38 -56 -63 -65 -66 0
-1 -2 -6 -8 -9 -10 -13 -22 -33 -35 -36 -37 -14 -23 -40 -42 -43 -44 -15 -24 -46 -48 -49 -50 -17 -26 -52 -57 -58 -59 -21 -30 -56 -63 -65 -66 0
-2 -6 -8 -9 -10 -12 -16 -18 -19 -20 -22 -33 -35 -36 -37 -23 -40 -42 -43 -44 -24 -46 -48 -49 -50 -26 -52 -57 -58 -59 -30 -56 -63 -65 -66 0
-1 -6 -8 -9 -10 -12 -25 -27 -28 -29 -13 -33 -35 -36 -37 -14 -40 -42 -43 -44 -15 -46 -48 -49 -50 -17 -52 -57 -58 -59 -21 -56 -63 -65 -66 0
-6 -8 -9 -10 -16 -18 -19 -20 -25 -27 -28 -29 -33 -35 -36 -37 -40 -42 -43 -44 -46 -48 -49 -50 -52 -57 -58 -59 -56 -63 -65 -66 0
-1 -2 -3 -4 -5 -8 -9 -10 -16 -25 -33 -40 -46 -53 -54 -55 -17 -26 -34 -41 -47 -57 -58 -59 -21 -30 -38 -45 -51 -63 -65 -66 0
-2 -3 -4 -5 -8 -9 -10 -12 -13 -14 -15 -18 -19 -20 -25 -33 -40 -46 -53 -54 -55 -26 -34 -41 -47 -57 -58 -59 -30 -38 -45 -51 -63 -65 -66 0
-1 -3 -4 -5 -8 -9 -10 -12 -22 -23 -24 -27 -28 -29 -16 -33 -40 -46 -53 -54 -55 -17 -34 -41 -47 -57 -58 -59 -21 -38 -45 -51 -63 -65 -66 0
-3 -4 -5 -8 -9 -10 -13 -14 -15 -18 -19 -20 -22 -23 -24 -27 -28 -29 -33 -40 -46 -53 -54 -55 -34 -41 -47 -57 -58 -59 -38 -45 -51 -63 -65 -66 0
-1 -2 -4 -5 -8 -9 -10 -13 -22 -31 -32 -35 -36 -37 -16 -25 -40 -46 -53 -54 -55 -17 -26 -41 -47 -57 -58 -59 -21 -30 -45 -51 -63 -65 -66 0
-2 -4 -5 -8 -9 -10 -12 -14 -15 -18 -19 -20 -22 -31 -32 -35 -36 -37 -25 -40 -46 -53 -54 -55 -26 -41 -47 -57 -58 -59 -30 -45 -51 -63 -65 -66 0
-1 -4 -5 -8 -9 -10 -12 -23 -24 -27 -28 -29 -13 -31 -32 -35 -36 -37 -16 -40 -46 -53 -54 -55 -17 -41 -47 -57 -58 -59 -21 -45 -51 -63 -65 -66 0
-4 -5 -8 -9 -10 -14 -15 -18 -19 -20 -23 -24 -27 -28 -29 -31 -32 -35 -36 -37 -40 -46 -53 -54 -55 -41 -47 -57 -58 -59 -45 -51 -63 -65 -66 0
-1 -2 -3 -5 -8 -9 -10 -14 -23 -31 -39 -42 -43 -44 -16 -25 -33 -46 -53 -54 -55 -17 -26 -34 -47 -57 -58 -59 -21 -30 -38 -51 -63 -65 -66 0
-2 -3 -5 -8 -9 -10 -12 -13 -15 -18 -19 -20 -23 -31 -39 -42 -43 -44 -25 -33 -46 -53 -54 -55 -26 -34 -47 -57 -58 -59 -30 -38 -51 -63 -65 -66 0
-1 -3 -5 -8 -9 -10 -12 -22 -24 -27 -28 -29 -14 -31 -39 -42 -43 -44 -16 -33 -46 -53 -54 -55 -17 -34 -47 -57 -58 -59 -21 -38 -51 -63 -65 -66 0
-3 -5 -8 -9 -10 -13 -15 -18 -19 -20 -22 -24 -27 -28 -29 -31 -39 -42 -43 -44 -33 -46 -53 -54 -55 -34 -47 -57 -58 -59 -38 -51 -63 -65 -66 0
-1 -2 -5 -8 -9 -10 -13 -22 -32 -35 -36 -37 -14 -23 -39 -42 -43 -44 -16 -25 -46 -53 -54 -55 -17 -26 -47 -57 -58 -59 -21 -30 -51 -63 -65 -66 0
-2 -5 -8 -9 -10 -12 -15 -18 -19 -20 -22 -32 -35 -36 -37 -23 -39 -42 -43 -44 -25 -46 -53 -54 -55 -26 -47 -57 -58 -59 -30 -51 -63 -65 -66 0
-1 -5 -8 -9 -10 -12 -24 -27 -28 -29 -13 -32 -35 -36 -37 -14 -39 -42 -43 -44 -16 -46 -53 -54 -55 -17 -47 -57 -58 -59 -21 -51 -63 -65 -66 0
-5 -8 -9 -10 -15 -18 -19 -20 -24 -27 -28 -29 -32 -35 -36 -37 -39 -42 -43 -44 -46 -53 -54 -55 -47 -57 -58 -59 -51 -63 -65 -66 0
-1 -2 -3 -4 -8 -9 -10 -15 -24 -32 -39 -48 -49 -50 -16 -25 -33 -40 -53 -54 -55 -17 -26 -34 -41 -57 -58 -59 -21 -30 -38 -45 -63 -65 -66 0
-2 -3 -4 -8 -9 -10 -12 -13 -14 -18 -19 -20 -24 -32 -39 -48 -49 -50 -25 -33 -40 -53 -54 -55 -26 -34 -41 -57 -58 -59 -30 -38 -45 -63 -65 -66 0
-1 -3 -4 -8 -9 -10 -12 -22 -23 -27 -28 -29 -15 -32 -39 -48 -49 -50 -16 -33 -40 -53 -54 -55 -17 -34 -41 -57 -58 -59 -21 -38 -45 -63 -65 -66 0
-3 -4 -8 -9 -10 -13 -14 -18 -19 -20 -22 -23 -27 -28 -29 -32 -39 -48 -49 -50 -33 -40 -53 -54 -55 -34 -41 -57 -58 -59 -38 -45 -63 -65 -66 0
-1 -2 -4 -8 -9 -10 -13 -22 -31 -35 -36 -37 -15 -24 -39 -48 -49 -50 -16 -25 -40 -53 -54 -55 -17 -26 -41 -57 -58 -59 -21 -30 -45 -63 -65 -66 0
-2 -4 -8 -9 -10 -12 -14 -18 -19 -20 -22 -31 -35 -36 -37 -24 -39 -48 -49 -50 -25 -40 -53 -54 -55 -26 -41 -57 -58 -59 -30 -45 -63 -65 -66 0
-1 -4 -8 -9 -10 -12 -23 -27 -28 -29 -13 -31 -35 -36 -37 -15 -39 -48 -49 -50 -16 -40 -53 -54 -55 -17 -41 -57 -58 -59 -21 -45 -63 -65 -66 0
-4 -8 -9 -10 -14 -18 -19 -20 -23 -27 -28 -29 -31 -35 -36 -37 -39 -48 -49 -50 -40 -53 -54 -55 -41 -57 -58 -59 -45 -63 -65 -66 0
-1 -2 -3 -8 -9 -10 -14 -23 -31 -42 -43 -44 -15 -24 -32 -48 -49 -50 -16 -25 -33 -53 -54 -55 -17 -26 -34 -57 -58 -59 -21 -30 -38 -63 -65 -66 0
-2 -3 -8 -9 -10 -12 -13 -18 -19 -20 -23 -31 -42 -43 -44 -24 -32 -48 -49 -50 -25 -33 -53 -54 -55 -26 -34 -57 -58 -59 -30 -38 -63 -65 -66 0
-1 -3 -8 -9 -10 -12 -22 -27 -28 -29 -14 -31 -42 -43 -44 -15 -32 -48 -49 -50 -16 -33 -53 -54 -55 -17 -34 -57 -58 -59 -21 -38 -63 -65 -66 0
-3 -8 -9 -10 -13 -18 -19 -20 -22 -27 -28 -29 -31 -42 -43 -44 -32 -48 -49 -50 -33 -53 -54 -55 -34 -57 -58 -59 -38 -63 -65 -66 0
-1 -2 -8 -9 -10 -13 -22 -35 -36 -37 -14 -23 -42 -43 -44 -15 -24 -48 -49 -50 -16 -25 -53 -54 -55 -17 -26 -57 -58 -59 -21 -30 -63 -65 -66 0
-2 -8 -9 -10 -12 -18 -19 -20 -22 -35 -36 -37 -23 -42 -43 -44 -24 -48 -49 -50 -25 -53 -54 -55 -26 -57 -58 -59 -30 -63 -65 -66 0
-1 -8 -9 -10 -12 -27 -28 -29 -13 -35 -36 -37 -14 -42 -43 -44 -15 -48 -49 -50 -16 -53 -54 -55 -17 -57 -58 -59 -21 -63 -65 -66 0
-8 -9 -10 -18 -19 -20 -27 -28 -29 -35 -36 -37 -42 -43 -44 -48 -49 -50 -53 -54 -55 -57 -58 -59 -63 -65 -66 0
-1 -2 -3 -4 -5 -6 -7 -9 -10 -18 -27 -35 -42 -48 -53 -57 -61 -62 -21 -30 -38 -45 -51 -56 -60 -65 -66 0
-2 -3 -4 -5 -6 -7 -9 -10 -12 -13 -14 -15 -16 -17 -19 -20 -27 -35 -42 -48 -53 -57 -61 -62 -30 -38 -45 -51 -56 -60 -65 -66 0
-1 -3 -4 -5 -6 -7 -9 -10 -12 -22 -23 -24 -25 -26 -28 -29 -18 -35 -42 -48 -53 -57 -61 -62 -21 -38 -45 -51 -56 -60 -65 -66 0
-3 -4 -5 -6 -7 -9 -10 -13 -14 -15 -16 -17 -19 -20 -22 -23 -24 -25 -26 -28 -29 -35 -42 -48 -53 -57 -61 -62 -38 -45 -51 -56 -60 -65 -66 0
-1 -2 -4 -5 -6 -7 -9 -10 -13 -22 -31 -32 -33 -34 -36 -37 -18 -27 -42 -48 -53 -57 -61 -62 -21 -30 -45 -51 -56 -60 -65 -66 0
-2 -4 -5 -6 -7 -9 -10 -12 -14 -15 -16 -17 -19 -20 -22 -31 -32 -33 -34 -36 -37 -27 -42 -48 -53 -57 -61 -62 -30 -45 -51 -56 -60 -65 -66 0
-1 -4 -5 -6 -7 -9 -10 -12 -23 -24 -25 -26 -28 -29 -13 -31 -32 -33 -34 -36 -37 -18 -42 -48 -53 -57 -61 -62 -21 -45 -51 -56 -60 -65 -66 0
-4 -5 -6 -7 -9 -10 -14 -15 -16 -17 -19 -20 -23 -24 -25 -26 -28 -29 -31 -32 -33 -34 -36 -37 -42 -48 -53 -57 -61 -62 -45 -51 -56 -60 -65 -66 0
-1 -2 -3 -5 -6 -7 -9 -10 -14 -23 -31 -39 -40 -41 -43 -44 -18 -27 -35 -48 -53 -57 -61 -62 -21 -30 -38 -51 -56 -60 -65 -66 0
-2 -3 -5 -6 -7 -9 -10 -12 -13 -15 -16 -17 -19 -20 -23 -31 -39 -40 -41 -43 -44 -27 -35 -48 -53 -57 -61 -62 -30 -38 -51 -56 -60 -65 -66 0
-1 -3 -5 -6 -7 -9 -10 -12 -22 -24 -25 -26 -28 -29 -14 -31 -39 -40 -41 -43 -44 -18 -35 -48 -53 -57 -61 -62 -21 -38 -51 -56 -60 -65 -66 0
-3 -5 -6 -7 -9 -10 -13 -15 -16 -17 -19 -20 -22 -24 -25 -26 -28 -29 -31 -39 -40 -41 -43 -44 -35 -48 -53 -57 -61 -62 -38 -51 -56 -60 -65 -66 0
-1 -2 -5 -6 -7 -9 -10 -13 -22 -32 -33 -34 -36 -37 -14 -23 -39 -40 -41 -43 -44 -18 -27 -48 -53 -57 -61 -62 -21 -30 -51 -56 -60 -65 -66 0
-2 -5 -6 -7 -9 -10 -12 -15 -16 -17 -19 -20 -22 -32 -33 -34 -36 -37 -23 -39 -40 -41 -43 -44 -27 -48 -53 -57 -61 -62 -30 -51 -56 -60 -65 -66 0
-1 -5 -6 -7 -9 -10 -12 -24 -25 -26 -28 -29 -13 -32 -33 -34 -36 -37 -14 -39 -40 -41 -43 -44 -18 -48 -53 -57 -61 -62 -21 -51 -56 -60 -65 -66 0
-5 -6 -7 -9 -10 -15 -16 -17 -19 -20 -24 -25 -26 -28 -29 -32 -33 -34 -36 -37 -39 -40 -41 -43 -44 -48 -53 -57 -61 -62 -51 -56 -60 -65 -66 0
-1 -2 -3 -4 -6 -7 -9 -10 -15 -24 -32 -39 -46 -47 -49 -50 -18 -27 -35 -42 -53 -57 -61 -62 -21 -30 -38 -45 -56 -60 -65 -66 0
-2 -3 -4 -6 -7 -9 -10 -12 -13 -14 -16 -17 -19 -20 -24 -32 -39 -46 -47 -49 -50 -27 -35 -42 -53 -57 -61 -62 -30 -38 -45 -56 -60 -65 -66 0
-1 -3 -4 -6 -7 -9 -10 -12 -22 -23 -25 -26 -28 -29 -15 -32 -39 -46 -47 -49 -50 -18 -35 -42 -53 -57 -61 -62 -21 -38 -45 -56 -60 -65 -66 0
-3 -4 -6 -7 -9 -10 -13 -14 -16 -17 -19 -20 -22 -23 -25 -26 -28 -29 -32 -39 -46 -47 -49 -50 -35 -42 -53 -57 -61 -62 -38 -45 -56 -60 -65 -66 0
-1 -2 -4 -6 -7 -9 -10 -13 -22 -31 -33 -34 -36 -37 -15 -24 -39 -46 -47 -49 -50 -18 -27 -42 -53 -57 -61 -62 -21 -30 -45 -56 -60 -65 -66 0
-2 -4 -6 -7 -9 -10 -12 -14 -16 -17 -19 -20 -22 -31 -33 -34 -36 -37 -24 -39 -46 -47 -49 -50 -27 -42 -53 -57 -61 -62 -30 -45 -56 -60 -65 -66 0
-1 -4 -6 -7 -9 -10 -12 -23 -25 -26 -28 -29 -13 -31 -33 -34 -36 -37 -15 -39 -46 -47 -49 -50 -18 -42 -53 -57 -61 -62 -21 -45 -56 -60 -65 -66 0
-4 -6 -7 -9 -10 -14 -16 -17 -19 -20 -23 -25 -26 -28 -29 -31 -33 -34 -36 -37 -39 -46 -47 -49 -50 -42 -53 -57 -61 -62 -45 -56 -60 -65 -66 0
-1 -2 -3 -6 -7 -9 -10 -14 -23 -31 -40 -41 -43 -44 -15 -24 -32 -46 -47 -49 -50 -18 -27 -35 -53 -57 -61 -62 -21 -30 -38 -56 -60 -65 -66 0
-2 -3 -6 -7 -9 -10 -12 -13 -16 -17 -19 -20 -23 -31 -40 -41 -43 -44 -24 -32 -46 -47 -49 -50 -27 -35 -53 -57 -61 -62 -30 -38 -56 -60 -65 -66 0
-1 -3 -6 -7 -9 -10 -12 -22 -25 -26 -28 -29 -14 -31 -40 -41 -43 -44 -15 -32 -46 -47 -49 -50 -18 -35 -53 -57 -61 -62 -21 -38 -56 -60 -65 -66 0
-3 -6 -7 -9 -10 -13 -16 -17 -19 -20 -22 -25 -26 -28 -29 -31 -40 -41 -43 -44 -32 -46 -47 -49 -50 -35 -53 -57 -61 -62 -38 -56 -60 -65 -66 0
-1 -2 -6 -7 -9 -10 -13 -22 -33 -34 -36 -37 -14 -23 -40 -41 -43 -44 -15 -24 -46 -47 -49 -50 -18 -27 -53 -57 -61 -62 -21 -30 -56 -60 -65 -66 0
-2 -6 -7 -9 -10 -12 -16 -17 -19 -20 -22 -33 -34 -36 -37 -23 -40 -41 -43 -44 -24 -46 -47 -49 -50 -27 -53 -57 -61 -62 -30 -56 -60 -65 -66 0
-1 -6 -7 -9 -10 -12 -25 -26 -28 -29 -13 -33 -34 -36 -37 -14 -40 -41 -43 -44 -15 -46 -47 -49 -50 -18 -53 -57 -61 -62 -21 -56 -60 -65 -66 0
-6 -7 -9 -10 -16 -17 -19 -20 -25 -26 -28 -29 -33 -34 -36 -37 -40 -41 -43 -44 -46 -47 -49 -50 -53 -57 -61 -62 -56 -60 -65 -66 0
-1 -2 -3 -4 -5 -7 -9 -10 -16 -25 -33 -40 -46 -52 -54 -55 -18 -27 -35 -42 -48 -57 -61 -62 -21 -30 -38 -45 -51 -60 -65 -66 0
-2 -3 -4 -5 -7 -9 -10 -12 -13 -14 -15 -17 -19 -20 -25 -33 -40 -46 -52 -54 -55 -27 -35 -42 -48 -57 -61 -62 -30 -38 -45 -51 -60 -65 -66 0
-1 -3 -4 -5 -7 -9 -10 -12 -22 -23 -24 -26 -28 -29 -16 -33 -40 -46 -52 -54 -55 -18 -35 -42 -48 -57 -61 -62 -21 -38 -45 -51 -60 -65 -66 0
-3 -4 -5 -7 -9 -10 -13 -14 -15 -17 -19 -20 -22 -23 -24 -26 -28 -29 -33 -40 -46 -52 -54 -55 -35 -42 -48 -57 -61 -62 -38 -45 -51 -60 -65 -66 0
-1 -2 -4 -5 -7 -9 -10 -13 -22 -31 -32 -34 -36 -37 -16 -25 -40 -46 -52 -54 -55 -18 -27 -42 -48 -57 -61 -62 -21 -30 -45 -51 -60 -65 -66 0
-2 -4 -5 -7 -9 -10 -12 -14 -15 -17 -19 -20 -22 -31 -32 -34 -36 -37 -25 -40 -46 -52 -54 -55 -27 -42 -48 -57 -61 -62 -30 -45 -51 -60 -65 -66 0
-1 -4 -5 -7 -9 -10 -12 -23 -24 -26 -28 -29 -13 -31 -32 -34 -36 -37 -16 -40 -46 -52 -54 -55 -18 -42 -48 -57 -61 -62 -21 -45 -51 -60 -65 -66 0
-4 -5 -7 -9 -10 -14 -15 -17 -19 -20 -23 -24 -26 -28 -29 -31 -32 -34 -36 -37 -40 -46 -52 -54 -55 -42 -48 -57 -61 -62 -45 -51 -60 -65 -66 0
-1 -2 -3 -5 -7 -9 -10 -14 -23 -31 -39 -41 -43 -44 -16 -25 -33 -46 -52 -54 -55 -18 -27 -35 -48 -57 -61 -62 -21 -30 -38 -51 -60 -65 -66 0
-2 -3 -5 -7 -9 -10 -12 -13 -15 -17 -19 -20 -23 -31 -39 -41 -43 -44 -25 -33 -46 -52 -54 -55 -27 -35 -48 -57 -61 -62 -30 -38 -51 -60 -65 -66 0
-1 -3 -5 -7 -9 -10 -12 -22 -24 -26 -28 -29 -14 -31 -39 -41 -43 -44 -16 -33 -46 -52 -54 -55 -18 -35 -48 -57 -61 -62 -21 -38 -51 -60 -65 -66 0
-3 -5 -7 -9 -10 -13 -15 -17 -19 -20 -22 -24 -26 -28 -29 -31 -39 -41 -43 -44 -33 -46 -52 -54 -55 -35 -48 -57 -61 -62 -38 -51 -60 -65 -66 0
-1 -2 -5 -7 -9 -10 -13 -22 -32 -34 -36 -37 -14 -23 -39 -41 -43 -44 -16 -25 -46 -52 -54 -55 -18 -27 -48 -57 -61 -62 -21 -30 -51 -60 -65 -66 0
-2 -5 -7 -9 -10 -12 -15 -17 -19 -20 -22 -32 -34 -36 -37 -23 -39 -41 -43 -44 -25 -46 -52 -54 -55 -27 -48 -57 -61 -62 -30 -51 -60 -65 -66 0
-1 -5 -7 -9 -10 -12 -24 -26 -28 -29 -13 -32 -34 -36 -37 -14 -39 -41 -43 -44 -16 -46 -52 -54 -55 -18 -48 -57 -61 -62 -21 -51 -60 -65 -66 0
-5 -7 -9 -10 -15 -17 -19 -20 -24 -26 -28 -29 -32 -34 -36 -37 -39 -41 -43 -44 -46 -52 -54 -55 -48 -57 -61 -62 -51 -60 -65 -66 0
-1 -2 -3 -4 -7 -9 -10 -15 -24 -32 -39 -47 -49 -50 -16 -25 -33 -40 -52 -54 -55 -18 -27 -35 -42 -57 -61 -62 -21 -30 -38 -45 -60 -65 -66 0
-2 -3 -4 -7 -9 -10 -12 -13 -14 -17 -19 -20 -24 -32 -39 -47 -49 -50 -25 -33 -40 -52 -54 -55 -27 -35 -42 -57 -61 -62 -30 -38 -45 -60 -65 -66 0
-1 -3 -4 -7 -9 -10 -12 -22 -23 -26 -28 -29 -15 -32 -39 -47 -49 -50 -16 -33 -40 -52 -54 -55 -18 -35 -42 -57 -61 -62 -21 -38 -45 -60 -65 -66 0
-3 -4 -7 -9 -10 -13 -14 -17 -19 -20 -22 -23 -26 -28 -29 -32 -39 -47 -49 -50 -33 -40 -52 -54 -55 -35 -42 -57 -61 -62 -38 -45 -60 -65 -66 0
-1 -2 -4 -7 -9 -10 -13 -22 -31 -34 -36 -37 -15 -24 -39 -47 -49 -50 -16 -25 -40 -52 -54 -55 -18 -27 -42 -57 -61 -62 -21 -30 -45 -60 -65 -66 0
-2 -4 -7 -9 -10 -12 -14 -17 -19 -20 -22 -31 -34 -36 -37 -24 -39 -47 -49 -50 -25 -40 -52 -54 -55 -27 -42 -57 -61 -62 -30 -45 -60 -65 -66 0
-1 -4 -7 -9 -10 -12 -23 -26 -28 -29 -13 -31 -34 -36 -37 -15 -39 -47 -49 -50 -16 -40 -52 -54 -55 -18 -42 -57 -61 -62 -21 -45 -60 -65 -66 0
-4 -7 -9 -10 -14 -17 -19 -20 -23 -26 -28 -29 -31 -34 -36 -37 -39 -47 -49 -50 -40 -52 -54 -55 -42 -57 -61 -62 -45 -60 -65 -66 0
-1 -2 -3 -7 -9 -10 -14 -23 -31 -41 -43 -44 -15 -24 -32 -47 -49 -50 -16 -25 -33 -52 -54 -55 -18 -27 -35 -57 -61 -62 -21 -30 -38 -60 -65 -66 0
-2 -3 -7 -9 -10 -12 -13 -17 -19 -20 -23 -31 -41 -43 -44 -24 -32 -47 -49 -50 -25 -33 -52 -54 -55 -27 -35 -57 -61 -62 -30 -38 -60 -65 -66 0
-1 -3 -7 -9 -10 -12 -22 -26 -28 -29 -14 -31 -41 -43 -44 -15 -32 -47 -49 -50 -16 -33 -52 -54 -55 -18 -35 -57 -61 -62 -21 -38 -60 -65 -66 0
-3 -7 -9 -10 -13 -17 -19 -20 -22 -26 -28 -29 -31 -41 -43 -44 -32 -47 -49 -50 -33 -52 -54 -55 -35 -57 -61 -62 -38 -60 -65 -66 0
-1 -2 -7 -9 -10 -13 -22 -34 -36 -37 -14 -23 -41 -43 -44 -15 -24 -47 -49 -50 -16 -25 -52 -54 -55 -18 -27 -57 -61 -62 -21 -30 -60 -65 -66 0
-2 -7 -9 -10 -12 -17 -19 -20 -22 -34 -36 -37 -23 -41 -43 -44 -24 -47 -49 -50 -25 -52 -54 -55 -27 -57 -61 -62 -30 -60 -65 -66 0
-1 -7 -9 -10 -12 -26 -28 -29 -13 -34 -36 -37 -14 -41 -43 -44 -15 -47 -49 -50 -16 -52 -54 -55 -18 -57 -61 -62 -21 -60 -65 -66 0
-7 -9 -10 -17 -19 -20 -26 -28 -29 -34 -36 -37 -41 -43 -44 -47 -49 -50 -52 -54 -55 -57 -61 -62 -60 -65 -66 0
-1 -2 -3 -4 -5 -6 -9 -10 -17 -26 -34 -41 -47 -52 -58 -59 -18 -27 -35 -42 -48 -53 -61 -62 -21 -30 -38 -45 -51 -56 -65 -66 0
-2 -3 -4 -5 -6 -9 -10 -12 -13 -14 -15 -16 -19 -20 -26 -34 -41 -47 -52 -58 -59 -27 -35 -42 -48 -53 -61 -62 -30 -38 -45 -51 -56 -65 -66 0
-1 -3 -4 -5 -6 -9 -10 -12 -22 -23 -24 -25 -28 -29 -17 -34 -41 -47 -52 -58 -59 -18 -35 -42 -48 -53 -61 -62 -21 -38 -45 -51 -56 -65 -66 0
-3 -4 -5 -6 -9 -10 -13 -14 -15 -16 -19 -20 -22 -23 -24 -25 -28 -29 -34 -41 -47 -52 -58 -59 -35 -42 -48 -53 -61 -62 -38 -45 -51 -56 -65 -66 0
-1 -2 -4 -5 -6 -9 -10 -13 -22 -31 -32 -33 -36 -37 -17 -26 -41 -47 -52 -58 -59 -18 -27 -42 -48 -53 -61 -62 -21 -30 -45 -51 -56 -65 -66 0
-2 -4 -5 -6 -9 -10 -12 -14 -15 -16 -19 -20 -22 -31 -32 -33 -36 -37 -26 -41 -47 -52 -58 -59 -27 -42 -48 -53 -61 -62 -30 -45 -51 -56 -65 -66 0
-1 -4 -5 -6 -9 -10 -12 -23 -24 -25 -28 -29 -13 -31 -32 -33 -36 -37 -17 -41 -47 -52 -58 -59 -18 -42 -48 -53 -61 -62 -21 -45 -51 -56 -65 -66 0
-4 -5 -6 -9 -10 -14 -15 -16 -19 -20 -23 -24 -25 -28 -29 -31 -32 -33 -36 -37 -41 -47 -52 -58 -59 -42 -48 -53 -61 -62 -45 -51 -56 -65 -66 0
-1 -2 -3 -5 -6 -9 -10 -14 -23 -31 -39 -40 -43 -44 -17 -26 -34 -47 -52 -58 -59 -18 -27 -35 -48 -53 -61 -62 -21 -30 -38 -51 -56 -65 -66 0
-2 -3 -5 -6 -9 -10 -12 -13 -15 -16 -19 -20 -23 -31 -39 -40 -43 -44 -26 -34 -47 -52 -58 -59 -27 -35 -48 -53 -61 -62 -30 -38 -51 -56 -65 -66 0
-1 -3 -5 -6 -9 -10 -12 -22 -24 -25 -28 -29 -14 -31 -39 -40 -43 -44 -17 -34 -47 -52 -58 -59 -18 -35 -48 -53 -61 -62 -21 -38 -51 -56 -65 -66 0
-3 -5 -6 -9 -10 -13 -15 -16 -19 -20 -22 -24 -25 -28 -29 -31 -39 -40 -43 -44 -34 -47 -52 -58 -59 -35 -48 -53 -61 -62 -38 -51 -56 -65 -66 0
-1 -2 -5 -6 -9 -10 -13 -22 -32 -33 -36 -37 -14 -23 -39 -40 -43 -44 -17 -26 -47 -52 -58 -59 -18 -27 -48 -53 -61 -62 -21 -30 -51 -56 -65 -66 0
-2 -5 -6 -9 -10 -12 -15 -16 -19 -20 -22 -32 -33 -36 -37 -23 -39 -40 -43 -44 -26 -47 -52 -58 -59 -27 -48 -53 -61 -62 -30 -51 -56 -65 -66 0
-1 -5 -6 -9 -10 -12 -24 -25 -28 -29 -13 -32 -33 -36 -37 -14 -39 -40 -43 -44 -17 -47 -52 -58 -59 -18 -48 -53 -61 -62 -21 -51 -56 -65 -66 0
-5 -6 -9 -10 -15 -16 -19 -20 -24 -25 -28 -29 -32 -33 -36 -37 -39 -40 -43 -44 -47 -52 -58 -59 -48 -53 -61 -62 -51 -56 -65 -66 0
-1 -2 -3 -4 -6 -9 -10 -15 -24 -32 -39 -46 -49 -50 -17 -26 -34 -41 -52 -58 -59 -18 -27 -35 -42 -53 -61 -62 -21 -30 -38 -45 -56 -65 -66 0
-2 -3 -4 -6 -9 -10 -12 -13 -14 -16 -19 -20 -24 -32 -39 -46 -49 -50 -26 -34 -41 -52 -58 -59 -27 -35 -42 -53 -61 -62 -30 -38 -45 -56 -65 -66 0
-1 -3 -4 -6 -9 -10 -12 -22 -23 -25 -28 -29 -15 -32 -39 -46 -49 -50 -17 -34 -41 -52 -58 -59 -18 -35 -42 -53 -61 -62 -21 -38 -45 -56 -65 -66 0
-3 -4 -6 -9 -10 -13 -14 -16 -19 -20 -22 -23 -25 -28 -29 -32 -39 -46 -49 -50 -34 -41 -52 -58 -59 -35 -42 -53 -61 -62 -38 -45 -56 -65 -66 0
-1 -2 -4 -6 -9 -10 -13 -22 -31 -33 -36 -37 -15 -24 -39 -46 -49 -50 -17 -26 -41 -52 -58 -59 -18 -27 -42 -53 -61 -62 -21 -30 -45 -56 -65 -66 0
-2 -4 -6 -9 -10 -12 -14 -16 -19 -20 -22 -31 -33 -36 -37 -24 -39 -46 -49 -50 -26 -41 -52 -58 -59 -27 -42 -53 -61 -62 -30 -45 -56 -65 -66 0
-1 -4 -6 -9 -10 -12 -23 -25 -28 -29 -13 -31 -33 -36 -37 -15 -39 -46 -49 -50 -17 -41 -52 -58 -59 -18 -42 -53 -61 -62 -21 -45 -56 -65 -66 0
-4 -6 -9 -10 -14 -16 -19 -20 -23 -25 -28 -29 -31 -33 -36 -37 -39 -46 -49 -50 -41 -52 -58 -59 -42 -53 -61 -62 -45 -56 -65 -66 0
-1 -2 -3 -6 -9 -10 -14 -23 -31 -40 -43 -44 -15 -24 -32 -46 -49 -50 -17 -26 -34 -52 -58 -59 -18 -27 -35 -53 -61 -62 -21 -30 -38 -56 -65 -66 0
-2 -3 -6 -9 -10 -12 -13 -16 -19 -20 -23 -31 -40 -43 -44 -24 -32 -46 -49 -50 -26 -34 -52 -58 -59 -27 -35 -53 -61 -62 -30 -38 -56 -65 -66 0
-1 -3 -6 -9 -10 -12 -22 -25 -28 -29 -14 -31 -40 -43 -44 -15 -32 -46 -49 -50 -17 -34 -52 -58 -59 -18 -35 -53 -61 -62 -21 -38 -56 -65 -66 0
-3 -6 -9 -10 -13 -16 -19 -20 -22 -25 -28 -29 -31 -40 -43 -44 -32 -46 -49 -50 -34 -52 -58 -59 -35 -53 -61 -62 -38 -56 -65 -66 0
-1 -2 -6 -9 -10 -13 -22 -33 -36 -37 -14 -23 -40 -43 -44 -15 -24 -46 -49 -50 -17 -26 -52 -58 -59 -18 -27 -53 -61 -62 -21 -30 -56 -65 -66 0
-2 -6 -9 -10 -12 -16 -19 -20 -22 -33 -36 -37 -23 -40 -43 -44 -24 -46 -49 -50 -26 -52 -58 -59 -27 -53 -61 -62 -30 -56 -65 -66 0
-1 -6 -9 -10 -12 -25 -28 -29 -13 -33 -36 -37 -14 -40 -43 -44 -15 -46 -49 -50 -17 -52 -58 -59 -18 -53 -61 -62 -21 -56 -65 -66 0
-6 -9 -10 -16 -19 -20 -25 -28 -29 -33 -36 -37 -40 -43 -44 -46 -49 -50 -52 -58 -59 -53 -61 -62 -56 -65 -66 0
-1 -2 -3 -4 -5 -9 -10 -16 -25 -33 -40 -46 -54 -55 -17 -26 -34 -41 -47 -58 -59 -18 -27 -35 -42 -48 -61 -62 -21 -30 -38 -45 -51 -65 -66 0
-2 -3 -4 -5 -9 -10 -12 -13 -14 -15 -19 -20 -25 -33 -40 -46 -54 -55 -26 -34 -41 -47 -58 -59 -27 -35 -42 -48 -61 -62 -30 -38 -45 -51 -65 -66 0
-1 -3 -4 -5 -9 -10 -12 -22 -23 -24 -28 -29 -16 -33 -40 -46 -54 -55 -17 -34 -41 -47 -58 -59 -18 -35 -42 -48 -61 -62 -21 -38 -45 -51 -65 -66 0
-3 -4 -5 -9 -10 -13 -14 -15 -19 -20 -22 -23 -24 -28 -29 -33 -40 -46 -54 -55 -34 -41 -47 -58 -59 -35 -42 -48 -61 -62 -38 -45 -51 -65 -66 0
-1 -2 -4 -5 -9 -10 -13 -22 -31 -32 -36 -37 -16 -25 -40 -46 -54 -55 -17 -26 -41 -47 -58 -59 -18 -27 -42 -48 -61 -62 -21 -30 -45 -51 -65 -66 0
-2 -4 -5 -9 -10 -12 -14 -15 -19 -20 -22 -31 -32 -36 -37 -25 -40 -46 -54 -55 -26 -41 -47 -58 -59 -27 -42 -48 -61 -62 -30 -45 -51 -65 -66 0
-1 -4 -5 -9 -10 -12 -23 -24 -28 -29 -13 -31 -32 -36 -37 -16 -40 -46 -54 -55 -17 -41 -47 -58 -59 -18 -42 -48 -61 -62 -21 -45 -51 -65 -66 0
-4 -5 -9 -10 -14 -15 -19 -20 -23 -24 -28 -29 -31 -32 -36 -37 -40 -46 -54 -55 -41 -47 -58 -59 -42 -48 -61 -62 -45 -51 -65 -66 0
-1 -2 -3 -5 -9 -10 -14 -23 -31 -39 -43 -44 -16 -25 -33 -46 -54 -55 -17 -26 -34 -47 -58 -59 -18 -27 -35 -48 -61 -62 -21 -30 -38 -51 -65 -66 0
-2 -3 -5 -9 -10 -12 -13 -15 -19 -20 -23 -31 -39 -43 -44 -25 -33 -46 -54 -55 -26 -34 -47 -58 -59 -27 -35 -48 -61 -62 -30 -38 -51 -65 -66 0
-1 -3 -5 -9 -10 -12 -22 -24 -28 -29 -14 -31 -39 -43 -44 -16 -33 -46 -54 -55 -17 -34 -47 -58 -59 -18 -35 -48 -61 -62 -21 -38 -51 -65 -66 0
-3 -5 -9 -10 -13 -15 -19 -20 -22 -24 -28 -29 -31 -39 -43 -44 -33 -46 -54 -55 -34 -47 -58 -59 -35 -48 -61 -62 -38 -51 -65 -66 0
-1 -2 -5 -9 -10 -13 -22 -32 -36 -37 -14 -23 -39 -43 -44 -16 -25 -46 -54 -55 -17 -26 -47 -58 -59 -18 -27 -48 -61 -62 -21 -30 -51 -65 -66 0
-2 -5 -9 -10 -12 -15 -19 -20 -22 -32 -36 -37 -23 -39 -43 -44 -25 -46 -54 -55 -26 -47 -58 -59 -27 -48 -61 -62 -30 -51 -65 -66 0
-1 -5 -9 -10 -12 -24 -28 -29 -13 -32 -36 -37 -14 -39 -43 -44 -16 -46 -54 -55 -17 -47 -58 -59 -18 -48 -61 -62 -21 -51 -65 -66 0
-5 -9 -10 -15 -19 -20 -24 -28 -29 -32 -36 -37 -39 -43 -44 -46 -54 -55 -47 -58 -59 -48 -61 -62 -51 -65 -66 0
-1 -2 -3 -4 -9 -10 -15 -24 -32 -39 -49 -50 -16 -25 -33 -40 -54 -55 -17 -26 -34 -41 -58 -59 -18 -27 -35 -42 -61 -62 -21 -30 -38 -45 -65 -66 0
-2 -3 -4 -9 -10 -12 -13 -14 -19 -20 -24 -32 -39 -49 -50 -25 -33 -40 -54 -55 -26 -34 -41 -58 -59 -27 -35 -42 -61 -62 -30 -38 -45 -65 -66 0
-1 -3 -4 -9 -10 -12 -22 -23 -28 -29 -15 -32 -39 -49 -50 -16 -33 -40 -54 -55 -17 -34 -41 -58 -59 -18 -35 -42 -61 -62 -21 -38 -45 -65 -66 0
-3 -4 -9 -10 -13 -14 -19 -20 -22 -23 -28 -29 -32 -39 -49 -50 -33 -40 -54 -55 -34 -41 -58 -59 -35 -42 -61 -62 -38 -45 -65 -66 0
-1 -2 -4 -9 -10 -13 -22 -31 -36 -37 -15 -24 -39 -49 -50 -16 -25 -40 -54 -55 -17 -26 -41 -58 -59 -18 -27 -42 -61 -62 -21 -30 -45 -65 -66 0
-2 -4 -9 -10 -12 -14 -19 -20 -22 -31 -36 -37 -24 -39 -49 -50 -25 -40 -54 -55 -26 -41 -58 -59 -27 -42 -61 -62 -30 -45 -65 -66 0
-1 -4 -9 -10 -12 -23 -28 -29 -13 -31 -36 -37 -15 -39 -49 -50 -16 -40 -54 -55 -17 -41 -58 -59 -18 -42 -61 -62 -21 -45 -65 -66 0
-4 -9 -10 -14 -19 -20 -23 -28 -29 -31 -36 -37 -39 -49 -50 -40 -54 -55 -41 -58 -59 -42 -61 -62 -45 -65 -66 0
-1 -2 -3 -9 -10 -14 -23 -31 -43 -44 -15 -24 -32 -49 -50 -16 -25 -33 -54 -55 -17 -26 -34 -58 -59 -18 -27 -35 -61 -62 -21 -30 -38 -65 -66 0
-2 -3 -9 -10 -12 -13 -19 -20 -23 -31 -43 -44 -24 -32 -49 -50 -25 -33 -54 -55 -26 -34 -58 -59 -27 -35 -61 -62 -30 -38 -65 -66 0
-1 -3 -9 -10 -12 -22 -28 -29 -14 -31 -43 -44 -15 -32 -49 -50 -16 -33 -54 -55 -17 -34 -58 -59 -18 -35 -61 -62 -21 -38 -65 -66 0
-3 -9 -10 -13 -19 -20 -22 -28 -29 -31 -43 -44 -32 -49 -50 -33 -54 -55 -34 -58 -59 -35 -61 -62 -38 -65 -66 0
-1 -2 -9 -10 -13 -22 -36 -37 -14 -23 -43 -44 -15 -24 -49 -50 -16 -25 -54 -55 -17 -26 -58 -59 -18 -27 -61 -62 -21 -30 -65 -66 0
-2 -9 -10 -12 -19 -20 -22 -36 -37 -23 -43 -44 -24 -49 -50 -25 -54 -55 -26 -58 -59 -27 -61 -62 -30 -65 -66 0
-1 -9 -10 -12 -28 -29 -13 -36 -37 -14 -43 -44 -15 -49 -50 -16 -54 -55 -17 -58 -59 -18 -61 -62 -21 -65 -66 0
-9 -10 -19 -20 -28 -29 -36 -37 -43 -44 -49 -50 -54 -55 -58 -59 -61 -62 -65 -66 0
-1 -2 -3 -4 -5 -6 -7 -8 -10 -19 -28 -36 -43 -49 -54 -58 -61 -64 -21 -30 -38 -45 -51 -56 -60 -63 -66 0
-2 -3 -4 -5 -6 -7 -8 -10 -12 -13 -14 -15 -16 -17 -18 -20 -28 -36 -43 -49 -54 -58 -61 -64 -30 -38 -45 -51 -56 -60 -63 -66 0
-1 -3 -4 -5 -6 -7 -8 -10 -12 -22 -23 -24 -25 -26 -27 -29 -19 -36 -43 -49 -54 -58 -61 -64 -21 -38 -45 -51 -56 -60 -63 -66 0
-3 -4 -5 -6 -7 -8 -10 -13 -14 -15 -16 -17 -18 -20 -22 -23 -24 -25 -26 -27 -29 -36 -43 -49 -54 -58 -61 -64 -38 -45 -51 -56 -60 -63 -66 0
-1 -2 -4 -5 -6 -7 -8 -10 -13 -22 -31 -32 -33 -34 -35 -37 -19 -28 -43 -49 -54 -58 -61 -64 -21 -30 -45 -51 -56 -60 -63 -66 0
-2 -4 -5 -6 -7 -8 -10 -12 -14 -15 -16 -17 -18 -20 -22 -31 -32 -33 -34 -35 -37 -28 -43 -49 -54 -58 -61 -64 -30 -45 -51 -56 -60 -63 -66 0
-1 -4 -5 -6 -7 -8 -10 -12 -23 -24 -25 -26 -27 -29 -13 -31 -32 -33 -34 -35 -37 -19 -43 -49 -54 -58 -61 -64 -21 -45 -51 -56 -60 -63 -66 0
-4 -5 -6 -7 -8 -10 -14 -15 -16 -17 -18 -20 -23 -24 -25 -26 -27 -29 -31 -32 -33 -34 -35 -37 -43 -49 -54 -58 -61 -64 -45 -51 -56 -60 -63 -66 0
-1 -2 -3 -5 -6 -7 -8 -10 -14 -23 -31 -39 -40 -41 -42 -44 -19 -28 -36 -49 -54 -58 -61 -64 -21 -30 -38 -51 -56 -60 -63 -66 0
-2 -3 -5 -6 -7 -8 -10 -12 -13 -15 -16 -17 -18 -20 -23 -31 -39 -40 -41 -42 -44 -28 -36 -49 -54 -58 -61 -64 -30 -38 -51 -56 -60 -63 -66 0
-1 -3 -5 -6 -7 -8 -10 -12 -22 -24 -25 -26 -27 -29 -14 -31 -39 -40 -41 -42 -44 -19 -36 -49 -54 -58 -61 -64 -21 -38 -51 -56 -60 -63 -66 0
-3 -5 -6 -7 -8 -10 -13 -15 -16 -17 -18 -20 -22 -24 -25 -26 -27 -29 -31 -39 -40 -41 -42 -44 -36 -49 -54 -58 -61 -64 -38 -51 -56 -60 -63 -66 0
-1 -2 -5 -6 -7 -8 -10 -13 -22 -32 -33 -34 -35 -37 -14 -23 -39 -40 -41 -42 -44 -19 -28 -49 -54 -58 -61 -64 -21 -30 -51 -56 -60 -63 -66 0
-2 -5 -6 -7 -8 -10 -12 -15 -16 -17 -18 -20 -22 -32 -33 -34 -35 -37 -23 -39 -40 -41 -42 -44 -28 -49 -54 -58 -61 -64 -30 -51 -56 -60 -63 -66 0
-1 -5 -6 -7 -8 -10 -12 -24 -25 -26 -27 -29 -13 -32 -33 -34 -35 -37 -14 -39 -40 -41 -42 -44 -19 -49 -54 -58 -61 -64 -21 -51 -56 -60 -63 -66 0
-5 -6 -7 -8 -10 -15 -16 -17 -18 -20 -24 -25 -26 -27 -29 -32 -33 -34 -35 -37 -39 -40 -41 -42 -44 -49 -54 -58 -61 -64 -51 -56 -60 -63 -66 0
-1 -2 -3 -4 -6 -7 -8 -10 -15 -24 -32 -39 -46 -47 -48 -50 -19 -28 -36 -43 -54 -58 -61 -64 -21 -30 -38 -45 -56 -60 -63 -66 0
-2 -3 -4 -6 -7 -8 -10 -12 -13 -14 -16 -17 -18 -20 -24 -32 -39 -46 -47 -48 -50 -28 -36 -43 -54 -58 -61 -64 -30 -38 -45 -56 -60 -63 -66 0
-1 -3 -4 -6 -7 -8 -10 -12 -22 -23 -25 -26 -27 -29 -15 -32 -39 -46 -47 -48 -50 -19 -36 -43 -54 -58 -61 -64 -21 -38 -45 -56 -60 -63 -66 0
-3 -4 -6 -7 -8 -10 -13 -14 -16 -17 -18 -20 -22 -23 -25 -26 -27 -29 -32 -39 -46 -47 -48 -50 -36 -43 -54 -58 -61 -64 -38 -45 -56 -60 -63 -66 0
-1 -2 -4 -6 -7 -8 -10 -13 -22 -31 -33 -34 -35 -37 -15 -24 -39 -46 -47 -48 -50 -19 -28 -43 -54 -58 -61 -64 -21 -30 -45 -56 -60 -63 -66 0
-2 -4 -6 -7 -8 -10 -12 -14 -16 -17 -18 -20 -22 -31 -33 -34 -35 -37 -24 -39 -46 -47 -48 -50 -28 -43 -54 -58 -61 -64 -30 -45 -56 -60 -63 -66 0
-1 -4 -6 -7 -8 -10 -12 -23 -25 -26 -27 -29 -13 -31 -33 -34 -35 -37 -15 -39 -46 -47 -48 -50 -19 -43 -54 -58 -61 -64 -21 -45 -56 -60 -63 -66 0
-4 -6 -7 -8 -10 -14 -16 -17 -18 -20 -23 -25 -26 -27 -29 -31 -33 -34 -35 -37 -39 -46 -47 -48 -50 -43 -54 -58 -61 -64 -45 -56 -60 -63 -66 0
-1 -2 -3 -6 -7 -8 -10 -14 -23 -31 -40 -41 -42 -44 -15 -24 -32 -46 -47 -48 -50 -19 -28 -36 -54 -58 -61 -64 -21 -30 -38 -56 -60 -63 -66 0
-2 -3 -6 -7 -8 -10 -12 -13 -16 -17 -18 -20 -23 -31 -40 -41 -42 -44 -24 -32 -46 -47 -48 -50 -28 -36 -54 -58 -61 -64 -30 -38 -56 -60 -63 -66 0
-1 -3 -6 -7 -8 -10 -12 -22 -25 -26 -27 -29 -14 -31 -40 -41 -42 -44 -15 -32 -46 -47 -48 -50 -19 -36 -54 -58 -61 -64 -21 -38 -56 -60 -63 -66 0
-3 -6 -7 -8 -10 -13 -16 -17 -18 -20 -22 -25 -26 -27 -29 -31 -40 -41 -42 -44 -32 -46 -47 -48 -50 -36 -54 -58 -61 -64 -38 -56 -60 -63 -66 0
-1 -2 -6 -7 -8 -10 -13 -22 -33 -34 -35 -37 -14 -23 -40 -41 -42 -44 -15 -24 -46 -47 -48 -50 -19 -28 -54 -58 -61 -64 -21 -30 -56 -60 -63 -66 0
-2 -6 -7 -8 -10 -12 -16 -17 -18 -20 -22 -33 -34 -35 -37 -23 -40 -41 -42 -44 -24 -46 -47 -48 -50 -28 -54 -58 -61 -64 -30 -56 -60 -63 -66 0
-1 -6 -7 -8 -10 -12 -25 -26 -27 -29 -13 -33 -34 -35 -37 -14 -40 -41 -42 -44 -15 -46 -47 -48 -50 -19 -54 -58 -61 -64 -21 -56 -60 -63 -66 0
-6 -7 -8 -10 -16 -17 -18 -20 -25 -26 -27 -29 -33 -34 -35 -37 -40 -41 -42 -44 -46 -47 -48 -50 -54 -58 -61 -64 -56 -60 -63 -66 0
-1 -2 -3 -4 -5 -7 -8 -10 -16 -25 -33 -40 -46 -52 -53 -55 -19 -28 -36 -43 -49 -58 -61 -64 -21 -30 -38 -45 -51 -60 -63 -66 0
-2 -3 -4 -5 -7 -8 -10 -12 -13 -14 -15 -17 -18 -20 -25 -33 -40 -46 -52 -53 -55 -28 -36 -43 -49 -58 -61 -64 -30 -38 -45 -51 -60 -63 -66 0
-1 -3 -4 -5 -7 -8 -10 -12 -22 -23 -24 -26 -27 -29 -16 -33 -40 -46 -52 -53 -55 -19 -36 -43 -49 -58 -61 -64 -21 -38 -45 -51 -60 -63 -66 0
-3 -4 -5 -7 -8 -10 -13 -14 -15 -17 -18 -20 -22 -23 -24 -26 -27 -29 -33 -40 -46 -52 -53 -55 -36 -43 -49 -58 -61 -64 -38 -45 -51 -60 -63 -66 0
-1 -2 -4 -5 -7 -8 -10 -13 -22 -31 -32 -34 -35 -37 -16 -25 -40 -46 -52 -53 -55 -19 -28 -43 -49 -58 -61 -64 -21 -30 -45 -51 -60 -63 -66 0
-2 -4 -5 -7 -8 -10 -12 -14 -15 -17 -18 -20 -22 -31 -32 -34 -35 -37 -25 -40 -46 -52 -53 -55 -28 -43 -49 -58 -61 -64 -30 -45 -51 -60 -63 -66 0
-1 -4 -5 -7 -8 -10 -12 -23 -24 -26 -27 -29 -13 -31 -32 -34 -35 -37 -16 -40 -46 -52 -53 -55 -19 -43 -49 -58 -61 -64 -21 -45 -51 -60 -63 -66 0
-4 -5 -7 -8 -10 -14 -15 -17 -18 -20 -23 -24 -26 -27 -29 -31 -32 -34 -35 -37 -40 -46 -52 -53 -55 -43 -49 -58 -61 -64 -45 -51 -60 -63 -66 0
-1 -2 -3 -5 -7 -8 -10 -14 -23 -31 -39 -41 -42 -44 -16 -25 -33 -46 -52 -53 -55 -19 -28 -36 -49 -58 -61 -64 -21 -30 -38 -51 -60 -63 -66 0
-2 -3 -5 -7 -8 -10 -12 -13 -15 -17 -18 -20 -23 -31 -39 -41 -42 -44 -25 -33 -46 -52 -53 -55 -28 -36 -49 -58 -61 -64 -30 -38 -51 -60 -63 -66 0
-1 -3 -5 -7 -8 -10 -12 -22 -24 -26 -27 -29 -14 -31 -39 -41 -42 -44 -16 -33 -46 -52 -53 -55 -19 -36 -49 -58 -61 -64 -21 -38 -51 -60 -63 -66 0
-3 -5 -7 -8 -10 -13 -15 -17 -18 -20 -22 -24 -26 -27 -29 -31 -39 -41 -42 -44 -33 -46 -52 -53 -55 -36 -49 -58 -61 -64 -38 -51 -60 -63 -66 0
-1 -2 -5 -7 -8 -10 -13 -22 -32 -34 -35 -37 -14 -23 -39 -41 -42 -44 -16 -25 -46 -52 -53 -55 -19 -28 -49 -58 -61 -64 -21 -30 -51 -60 -63 -66 0
-2 -5 -7 -8 -10 -12 -15 -17 -18 -20 -22 -32 -34 -35 -37 -23 -39 -41 -42 -44 -25 -46 -52 -53 -55 -28 -49 -58 -61 -64 -30 -51 -60 -63 -66 0
-1 -5 -7 -8 -10 -12 -24 -26 -27 -29 -13 -32 -34 -35 -37 -14 -39 -41 -42 -44 -16 -46 -52 -53 -55 -19 -49 -58 -61 -64 -21 -51 -60 -63 -66 0
-5 -7 -8 -10 -15 -17 -18 -20 -24 -26 -27 -29 -32 -34 -35 -37 -39 -41 -42 -44 -46 -52 -53 -55 -49 -58 -61 -64 -51 -60 -63 -66 0
-1 -2 -3 -4 -7 -8 -10 -15 -24 -32 -39 -47 -48 -50 -16 -25 -33 -40 -52 -53 -55 -19 -28 -36 -43 -58 -61 -64 -21 -30 -38 -45 -60 -63 -66 0
-2 -3 -4 -7 -8 -10 -12 -13 -14 -17 -18 -20 -24 -32 -39 -47 -48 -50 -25 -33 -40 -52 -53 -55 -28 -36 -43 -58 -61 -64 -30 -38 -45 -60 -63 -66 0
-1 -3 -4 -7 -8 -10 -12 -22 -23 -26 -27 -29 -15 -32 -39 -47 -48 -50 -16 -33 -40 -52 -53 -55 -19 -36 -43 -58 -61 -64 -21 -38 -45 -60 -63 -66 0
-3 -4 -7 -8 -10 -13 -14 -17 -18 -20 -22 -23 -26 -27 -29 -32 -39 -47 -48 -50 -33 -40 -52 -53 -55 -36 -43 -58 -61 -64 -38 -45 -60 -63 -66 0
-1 -2 -4 -7 -8 -10 -13 -22 -31 -34 -35 -37 -15 -24 -39 -47 -48 -50 -16 -25 -40 -52 -53 -55 -19 -28 -43 -58 -61 -64 -21 -30 -45 -60 -63 -66 0
-2 -4 -7 -8 -10 -12 -14 -17 -18 -20 -22 -31 -34 -35 -37 -24 -39 -47 -48 -50 -25 -40 -52 -53 -55 -28 -43 -58 -61 -64 -30 -45 -60 -63 -66 0
-1 -4 -7 -8 -10 -12 -23 -26 -27 -29 -13 -31 -34 -35 -37 -15 -39 -47 -48 -50 -16 -40 -52 -53 -55 -19 -43 -58 -61 -64 -21 -45 -60 -63 -66 0
-4 -7 -8 -10 -14 -17 -18 -20 -23 -26 -27 -29 -31 -34 -35 -37 -39 -47 -48 -50 -40 -52 -53 -55 -43 -58 -61 -64 -45 -60 -63 -66 0
-1 -2 -3 -7 -8 -10 -14 -23 -31 -41 -42 -44 -15 -24 -32 -47 -48 -50 -16 -25 -33 -52 -53 -55 -19 -28 -36 -58 -61 -64 -21 -30 -38 -60 -63 -66 0
-2 -3 -7 -8 -10 -12 -13 -17 -18 -20 -23 -31 -41 -42 -44 -24 -32 -47 -48 -50 -25 -33 -52 -53 -55 -28 -36 -58 -61 -64 -30 -38 -60 -63 -66 0
-1 -3 -7 -8 -10 -12 -22 -26 -27 -29 -14 -31 -41 -42 -44 -15 -32 -47 -48 -50 -16 -33 -52 -53 -55 -19 -36 -58 -61 -64 -21 -38 -60 -63 -66 0
-3 -7 -8 -10 -13 -17 -18 -20 -22 -26 -27 -29 -31 -41 -42 -44 -32 -47 -48 -50 -33 -52 -53 -55 -36 -58 -61 -64 -38 -60 -63 -66 0
-1 -2 -7 -8 -10 -13 -22 -34 -35 -37 -14 -23 -41 -42 -44 -15 -24 -47 -48 -50 -16 -25 -52 -53 -55 -19 -28 -58 -61 -64 -21 -30 -60 -63 -66 0
-2 -7 -8 -10 -12 -17 -18 -20 -22 -34 -35 -37 -23 -41 -42 -44 -24 -47 -48 -50 -25 -52 -53 -55 -28 -58 -61 -64 -30 -60 -63 -66 0
-1 -7 -8 -10 -12 -26 -27 -29 -13 -34 -35 -37 -14 -41 -42 -44 -15 -47 -48 -50 -16 -52 -53 -55 -19 -58 -61 -64 -21 -60 -63 -66 0
-7 -8 -10 -17 -18 -20 -26 -27 -29 -34 -35 -37 -41 -42 -44 -47 -48 -50 -52 -53 -55 -58 -61 -64 -60 -63 -66 0
-1 -2 -3 -4 -5 -6 -8 -10 -17 -26 -34 -41 -47 -52 -57 -59 -19 -28 -36 -43 -49 -54 -61 -64 -21 -30 -38 -45 -51 -56 -63 -66 0
-2 -3 -4 -5 -6 -8 -10 -12 -13 -14 -15 -16 -18 -20 -26 -34 -41 -47 -52 -57 -59 -28 -36 -43 -49 -54 -61 -64 -30 -38 -45 -51 -56 -63 -66 0
-1 -3 -4 -5 -6 -8 -10 -12 -22 -23 -24 -25 -27 -29 -17 -34 -41 -47 -52 -57 -59 -19 -36 -43 -49 -54 -61 -64 -21 -38 -45 -51 -56 -63 -66 0
-3 -4 -5 -6 -8 -10 -13 -14 -15 -16 -18 -20 -22 -23 -24 -25 -27 -29 -34 -41 -47 -52 -57 -59 -36 -43 -49 -54 -61 -64 -38 -45 -51 -56 -63 -66 0
-1 -2 -4 -5 -6 -8 -10 -13 -22 -31 -32 -33 -35 -37 -17 -26 -41 -47 -52 -57 -59 -19 -28 -43 -49 -54 -61 -64 -21 -30 -45 -51 -56 -63 -66 0
-2 -4 -5 -6 -8 -10 -12 -14 -15 -16 -18 -20 -22 -31 -32 -33 -35 -37 -26 -41 -47 -52 -57 -59 -28 -43 -49 -54 -61 -64 -30 -45 -51 -56 -63 -66 0
-1 -4 -5 -6 -8 -10 -12 -23 -24 -25 -27 -29 -13 -31 -32 -33 -35 -37 -17 -41 -47 -52 -57 -59 -19 -43 -49 -54 -61 -64 -21 -45 -51 -56 -63 -66 0
-4 -5 -6 -8 -10 -14 -15 -16 -18 -20 -23 -24 -25 -27 -29 -31 -32 -33 -35 -37 -41 -47 -52 -57 -59 -43 -49 -54 -61 -64 -45 -51 -56 -63 -66 0
-1 -2 -3 -5 -6 -8 -10 -14 -23 -31 -39 -40 -42 -44 -17 -26 -34 -47 -52 -57 -59 -19 -28 -36 -49 -54 -61 -64 -21 -30 -38 -51 -56 -63 -66 0
-2 -3 -5 -6 -8 -10 -12 -13 -15 -16 -18 -20 -23 -31 -39 -40 -42 -44 -26 -34 -47 -52 -57 -59 -28 -36 -49 -54 -61 -64 -30 -38 -51 -56 -63 -66 0
-1 -3 -5 -6 -8 -10 -12 -22 -24 -25 -27 -29 -14 -31 -39 -40 -42 -44 -17 -34 -47 -52 -57 -59 -19 -36 -49 -54 -61 -64 -21 -38 -51 -56 -63 -66 0
-3 -5 -6 -8 -10 -13 -15 -16 -18 -20 -22 -24 -25 -27 -29 -31 -39 -40 -42 -44 -34 -47 -52 -57 -59 -36 -49 -54 -61 -64 -38 -51 -56 -63 -66 0
-1 -2 -5 -6 -8 -10 -13 -22 -32 -33 -35 -37 -14 -23 -39 -40 -42 -44 -17 -26 -47 -52 -57 -59 -19 -28 -49 -54 -61 -64 -21 -30 -51 -56 -63 -66 0
-2 -5 -6 -8 -10 -12 -15 -16 -18 -20 -22 -32 -33 -35 -37 -23 -39 -40 -42 -44 -26 -47 -52 -57 -59 -28 -49 -54 -61 -64 -30 -51 -56 -63 -66 0
-1 -5 -6 -8 -10 -12 -24 -25 -27 -29 -13 -32 -33 -35 -37 -14 -39 -40 -42 -44 -17 -47 -52 -57 -59 -19 -49 -54 -61 -64 -21 -51 -56 -63 -66 0
-5 -6 -8 -10 -15 -16 -18 -20 -24 -25 -27 -29 -32 -33 -35 -37 -39 -40 -42 -44 -47 -52 -57 -59 -49 -54 -61 -64 -51 -56 -63 -66 0
-1 -2 -3 -4 -6 -8 -10 -15 -24 -32 -39 -46 -48 -50 -17 -26 -34 -41 -52 -57 -59 -19 -28 -36 -43 -54 -61 -64 -21 -30 -38 -45 -56 -63 -66 0
-2 -3 -4 -6 -8 -10 -12 -13 -14 -16 -18 -20 -24 -32 -39 -46 -48 -50 -26 -34 -41 -52 -57 -59 -28 -36 -43 -54 -61 -64 -30 -38 -45 -56 -63 -66 0
-1 -3 -4 -6 -8 -10 -12 -22 -23 -25 -27 -29 -15 -32 -39 -46 -48 -50 -17 -34 -41 -52 -57 -59 -19 -36 -43 -54 -61 -64 -21 -38 -45 -56 -63 -66 0
-3 -4 -6 -8 -10 -13 -14 -16 -18 -20 -22 -23 -25 -27 -29 -32 -39 -46 -48 -50 -34 -41 -52 -57 -59 -36 -43 -54 -61 -64 -38 -45 -56 -63 -66 0
-1 -2 -4 -6 -8 -10 -13 -22 -31 -33 -35 -37 -15 -24 -39 -46 -48 -50 -17 -26 -41 -52 -57 -59 -19 -28 -43 -54 -61 -64 -21 -30 -45 -56 -63 -66 0
-2 -4 -6 -8 -10 -12 -14 -16 -18 -20 -22 -31 -33 -35 -37 -24 -39 -46 -48 -50 -26 -41 -52 -57 -59 -28 -43 -54 -61 -64 -30 -45 -56 -63 -66 0
-1 -4 -6 -8 -10 -12 -23 -25 -27 -29 -13 -31 -33 -35 -37 -15 -39 -46 -48 -50 -17 -41 -52 -57 -59 -19 -43 -54 -61 -64 -21 -45 -56 -63 -66 0
-4 -6 -8 -10 -14 -16 -18 -20 -23 -25 -27 -29 -31 -33 -35 -37 -39 -46 -48 -50 -41 -52 -57 -59 -43 -54 -61 -64 -45 -56 -63 -66 0
-1 -2 -3 -6 -8 -10 -14 -23 -31 -40 -42 -44 -15 -24 -32 -46 -48 -50 -17 -26 -34 -52 -57 -59 -19 -28 -36 -54 -61 -64 -21 -30 -38 -56 -63 -66 0
-2 -3 -6 -8 -10 -12 -13 -16 -18 -20 -23 -31 -40 -42 -44 -24 -32 -46 -48 -50 -26 -34 -52 -57 -59 -28 -36 -54 -61 -64 -30 -38 -56 -63 -66 0
-1 -3 -6 -8 -10 -12 -22 -25 -27 -29 -14 -31 -40 -42 -44 -15 -32 -46 -48 -50 -17 -34 -52 -57 -59 -19 -36 -54 -61 -64 -21 -38 -56 -63 -66 0
-3 -6 -8 -10 -13 -16 -18 -20 -22 -25 -27 -29 -31 -40 -42 -44 -32 -46 -48 -50 -34 -52 -57 -59 -36 -54 -61 -64 -38 -56 -63 -66 0
-1 -2 -6 -8 -10 -13 -22 -33 -35 -37 -14 -23 -40 -42 -44 -15 -24 -46 -48 -50 -17 -26 -52 -57 -59 -19 -28 -54 -61 -64 -21 -30 -56 -63 -66 0
-2 -6 -8 -10 -12 -16 -18 -20 -22 -33 -35 -37 -23 -40 -42 -44 -24 -46 -48 -50 -26 -52 -57 -59 -28 -54 -61 -64 -30 -56 -63 -66 0
-1 -6 -8 -10 -12 -25 -27 -29 -13 -33 -35 -37 -14 -40 -42 -44 -15 -46 -48 -50 -17 -52 -57 -59 -19 -54 -61 -64 -21 -56 -63 -66 0
-6 -8 -10 -16 -18 -20 -25 -27 -29 -33 -35 -37 -40 -42 -44 -46 -48 -50 -52 -57 -59 -54 -61 -64 -56 -63 -66 0
-1 -2 -3 -4 -5 -8 -10 -16 -25 -33 -40 -46 -53 -55 -17 -26 -34 -41 -47 -57 -59 -19 -28 -36 -43 -49 -61 -64 -21 -30 -38 -45 -51 -63 -66 0
-2 -3 -4 -5 -8 -10 -12 -13 -14 -15 -18 -20 -25 -33 -40 -46 -53 -55 -26 -34 -41 -47 -57 -59 -28 -36 -43 -49 -61 -64 -30 -38 -45 -51 -63 -66 0
-1 -3 -4 -5 -8 -10 -12 -22 -23 -24 -27 -29 -16 -33 -40 -46 -53 -55 -17 -34 -41 -47 -57 -59 -19 -36 -43 -49 -61 -64 -21 -38 -45 -51 -63 -66 0
-3 -4 -5 -8 -10 -13 -14 -15 -18 -20 -22 -23 -24 -27 -29 -33 -40 -46 -53 -55 -34 -41 -47 -57 -59 -36 -43 -49 -61 -64 -38 -45 -51 -63 -66 0
-1 -2 -4 -5 -8 -10 -13 -22 -31 -32 -35 -37 -16 -25 -40 -46 -53 -55 -17 -26 -41 -47 -57 -59 -19 -28 -43 -49 -61 -64 -21 -30 -45 -51 -63 -66 0
-2 -4 -5 -8 -10 -12 -14 -15 -18 -20 -22 -31 -32 -35 -37 -25 -40 -46 -53 -55 -26 -41 -47 -57 -59 -28 -43 -49 -61 -64 -30 -45 -51 -63 -66 0
-1 -4 -5 -8 -10 -12 -23 -24 -27 -29 -13 -31 -32 -35 -37 -16 -40 -46 -53 -55 -17 -41 -47 -57 -59 -19 -43 -49 -61 -64 -21 -45 -51 -63 -66 0
-4 -5 -8 -10 -14 -15 -18 -20 -23 -24 -27 -29 -31 -32 -35 -37 -40 -46 -53 -55 -41 -47 -57 -59 -43 -49 -61 -64 -45 -51 -63 -66 0
-1 -2 -3 -5 -8 -10 -14 -23 -31 -39 -42 -44 -16 -25 -33 -46 -53 -55 -17 -26 -34 -47 -57 -59 -19 -28 -36 -49 -61 -64 -21 -30 -38 -51 -63 -66 0
-2 -3 -5 -8 -10 -12 -13 -15 -18 -20 -23 -31 -39 -42 -44 -25 -33 -46 -53 -55 -26 -34 -47 -57 -59 -28 -36 -49 -61 -64 -30 -38 -51 -63 -66 0
-1 -3 -5 -8 -10 -12 -22 -24 -27 -29 -14 -31 -39 -42 -44 -16 -33 -46 -53 -55 -17 -34 -47 -57 -59 -19 -36 -49 -61 -64 -21 -38 -51 -63 -66 0
-3 -5 -8 -10 -13 -15 -18 -20 -22 -24 -27 -29 -31 -39 -42 -44 -33 -46 -53 -55 -34 -47 -57 -59 -36 -49 -61 -64 -38 -51 -63 -66 0
-1 -2 -5 -8 -10 -13 -22 -32 -35 -37 -14 -23 -39 -42 -44 -16 -25 -46 -53 -55 -17 -26 -47 -57 -59 -19 -28 -49 -61 -64 -21 -30 -51 -63 -66 0
-2 -5 -8 -10 -12 -15 -18 -20 -22 -32 -35 -37 -23 -39 -42 -44 -25 -46 -53 -55 -26 -47 -57 -59 -28 -49 -61 -64 -30 -51 -63 -66 0
-1 -5 -8 -10 -12 -24 -27 -29 -13 -32 -35 -37 -14 -39 -42 -44 -16 -46 -53 -55 -17 -47 -57 -59 -19 -49 -61 -64 -21 -51 -63 -66 0
-5 -8 -10 -15 -18 -20 -24 -27 -29 -32 -35 -37 -39 -42 -44 -46 -53 -55 -47 -57 -59 -49 -61 -64 -51 -63 -66 0
-1 -2 -3 -4 -8 -10 -15 -24 -32 -39 -48 -50 -16 -25 -33 -40 -53 -55 -17 -26 -34 -41 -57 -59 -19 -28 -36 -43 -61 -64 -21 -30 -38 -45 -63 -66 0
-2 -3 -4 -8 -10 -12 -13 -14 -18 -20 -24 -32 -39 -48 -50 -25 -33 -40 -53 -55 -26 -34 -41 -57 -59 -28 -36 -43 -61 -64 -30 -38 -45 -63 -66 0
-1 -3 -4 -8 -10 -12 -22 -23 -27 -29 -15 -32 -39 -48 -50 -16 -33 -40 -53 -55 -17 -34 -41 -57 -59 -19 -36 -43 -61 -64 -21 -38 -45 -63 -66 0
-3 -4 -8 -10 -13 -14 -18 -20 -22 -23 -27 -29 -32 -39 -48 -50 -33 -40 -53 -55 -34 -41 -57 -59 -36 -43 -61 -64 -38 -45 -63 -66 0
-1 -2 -4 -8 -10 -13 -22 -31 -35 -37 -15 -24 -39 -48 -50 -16 -25 -40 -53 -55 -17 -26 -41 -57 -59 -19 -28 -43 -61 -64 -21 -30 -45 -63 -66 0
-2 -4 -8 -10 -12 -14 -18 -20 -22 -31 -35 -37 -24 -39 -48 -50 -25 -40 -53 -55 -26 -41 -57 -59 -28 -43 -61 -64 -30 -45 -63 -66 0
-1 -4 -8 -10 -12 -23 -27 -29 -13 -31 -35 -37 -15 -39 -48 -50 -16 -40 -53 -55 -17 -41 -57 -59 -19 -43 -61 -64 -21 -45 -63 -66 0
-4 -8 -10 -14 -18 -20 -23 -27 -29 -31 -35 -37 -39 -48 -50 -40 -53 -55 -41 -57 -59 -43 -61 -64 -45 -63 -66 0
-1 -2 -3 -8 -10 -14 -23 -31 -42 -44 -15 -24 -32 -48 -50 -16 -25 -33 -53 -55 -17 -26 -34 -57 -59 -19 -28 -36 -61 -64 -21 -30 -38 -63 -66 0
-2 -3 -8 -10 -12 -13 -18 -20 -23 -31 -42 -44 -24 -32 -48 -50 -25 -33 -53 -55 -26 -34 -57 -59 -28 -36 -61 -64 -30 -38 -63 -66 0
-1 -3 -8 -10 -12 -22 -27 -29 -14 -31 -42 -44 -15 -32 -48 -50 -16 -33 -53 -55 -17 -34 -57 -59 -19 -36 -61 -64 -21 -38 -63 -66 0
-3 -8 -10 -13 -18 -20 -22 -27 -29 -31 -42 -44 -32 -48 -50 -33 -53 -55 -34 -57 -59 -36 -61 -64 -38 -63 -66 0
-1 -2 -8 -10 -13 -22 -35 -37 -14 -23 -42 -44 -15 -24 -48 -50 -16 -25 -53 -55 -17 -26 -57 -59 -19 -28 -61 -64 -21 -30 -63 -66 0
-2 -8 -10 -12 -18 -20 -22 -35 -37 -23 -42 -44 -24 -48 -50 -25 -53 -55 -26 -57 -59 -28 -61 -64 -30 -63 -66 0
-1 -8 -10 -12 -27 -29 -13 -35 -37 -14 -42 -44 -15 -48 -50 -16 -53 -55 -17 -57 -59 -19 -61 -64 -21 -63 -66 0
-8 -10 -18 -20 -27 -29 -35 -37 -42 -44 -48 -50 -53 -55 -57 -59 -61 -64 -63 -66 0
-1 -2 -3 -4 -5 -6 -7 -10 -18 -27 -35 -42 -48 -53 -57 -62 -19 -28 -36 -43 -49 -54 -58 -64 -21 -30 -38 -45 -51 -56 -60 -66 0
-2 -3 -4 -5 -6 -7 -10 -12 -13 -14 -15 -16 -17 -20 -27 -35 -42 -48 -53 -57 -62 -28 -36 -43 -49 -54 -58 -64 -30 -38 -45 -51 -56 -60 -66 0
-1 -3 -4 -5 -6 -7 -10 -12 -22 -23 -24 -25 -26 -29 -18 -35 -42 -48 -53 -57 -62 -19 -36 -43 -49 -54 -58 -64 -21 -38 -45 -51 -56 -60 -66 0
-3 -4 -5 -6 -7 -10 -13 -14 -15 -16 -17 -20 -22 -23 -24 -25 -26 -29 -35 -42 -48 -53 -57 -62 -36 -43 -49 -54 -58 -64 -38 -45 -51 -56 -60 -66 0
-1 -2 -4 -5 -6 -7 -10 -13 -22 -31 -32 -33 -34 -37 -18 -27 -42 -48 -53 -57 -62 -19 -28 -43 -49 -54 -58 -64 -21 -30 -45 -51 -56 -60 -66 0
-2 -4 -5 -6 -7 -10 -12 -14 -15 -16 -17 -20 -22 -31 -32 -33 -34 -37 -27 -42 -48 -53 -57 -62 -28 -43 -49 -54 -58 -64 -30 -45 -51 -56 -60 -66 0
-1 -4 -5 -6 -7 -10 -12 -23 -24 -25 -26 -29 -13 -31 -32 -33 -34 -37 -18 -42 -48 -53 -57 -62 -19 -43 -49 -54 -58 -64 -21 -45 -51 -56 -60 -66 0
-4 -5 -6 -7 -10 -14 -15 -16 -17 -20 -23 -24 -25 -26 -29 -31 -32 -33 -34 -37 -42 -48 -53 -57 -62 -43 -49 -54 -58 -64 -45 -51 -56 -60 -66 0
-1 -2 -3 -5 -6 -7 -10 -14 -23 -31 -39 -40 -41 -44 -18 -27 -35 -48 -53 -57 -62 -19 -28 -36 -49 -54 -58 -64 -21 -30 -38 -51 -56 -60 -66 0
-2 -3 -5 -6 -7 -10 -12 -13 -15 -16 -17 -20 -23 -31 -39 -40 -41 -44 -27 -35 -48 -53 -57 -62 -28 -36 -49 -54 -58 -64 -30 -38 -51 -56 -60 -66 0
-1 -3 -5 -6 -7 -10 -12 -22 -24 -25 -26 -29 -14 -31 -39 -40 -41 -44 -18 -35 -48 -53 -57 -62 -19 -36 -49 -54 -58 -64 -21 -38 -51 -56 -60 -66 0
-3 -5 -6 -7 -10 -13 -15 -16 -17 -20 -22 -24 -25 -26 -29 -31 -39 -40 -41 -44 -35 -48 -53 -57 -62 -36 -49 -54 -58 -64 -38 -51 -56 -60 -66 0
-1 -2 -5 -6 -7 -10 -13 -22 -32 -33 -34 -37 -14 -23 -39 -40 -41 -44 -18 -27 -48 -53 -57 -62 -19 -28 -49 -54 -58 -64 -21 -30 -51 -56 -60 -66 0
-2 -5 -6 -7 -10 -12 -15 -16 -17 -20 -22 -32 -33 -34 -37 -23 -39 -40 -41 -44 -27 -48 -53 -57 -62 -28 -49 -54 -58 -64 -30 -51 -56 -60 -66 0
-1 -5 -6 -7 -10 -12 -24 -25 -26 -29 -13 -32 -33 -34 -37 -14 -39 -40 -41 -44 -18 -48 -53 -57 -62 -19 -49 -54 -58 -64 -21 -51 -56 -60 -66 0
-5 -6 -7 -10 -15 -16 -17 -20 -24 -25 -26 -29 -32 -33 -34 -37 -39 -40 -41 -44 -48 -53 -57 -62 -49 -54 -58 -64 -51 -56 -60 -66 0
-1 -2 -3 -4 -6 -7 -10 -15 -24 -32 -39 -46 -47 -50 -18 -27 -35 -42 -53 -57 -62 -19 -28 -36 -43 -54 -58 -64 -21 -30 -38 -45 -56 -60 -66 0
-2 -3 -4 -6 -7 -10 -12 -13 -14 -16 -17 -20 -24 -32 -39 -46 -47 -50 -27 -35 -42 -53 -57 -62 -28 -36 -43 -54 -58 -64 -30 -38 -45 -56 -60 -66 0
-1 -3 -4 -6 -7 -10 -12 -22 -23 -25 -26 -29 -15 -32 -39 -46 -47 -50 -18 -35 -42 -53 -57 -62 -19 -36 -43 -54 -58 -64 -21 -38 -45 -56 -60 -66 0
-3 -4 -6 -7 -10 -13 -14 -16 -17 -20 -22 -23 -25 -26 -29 -32 -39 -46 -47 -50 -35 -42 -53 -57 -62 -36 -43 -54 -58 -64 -38 -45 -56 -60 -66 0
-1 -2 -4 -6 -7 -10 -13 -22 -31 -33 -34 -37 -15 -24 -39 -46 -47 -50 -18 -27 -42 -53 -57 -62 -19 -28 -43 -54 -58 -64 -21 -30 -45 -56 -60 -66 0
-2 -4 -6 -7 -10 -12 -14 -16 -17 -20 -22 -31 -33 -34 -37 -24 -39 -46 -47 -50 -27 -42 -53 -57 -62 -28 -43 -54 -58 -64 -30 -45 -56 -60 -66 0
-1 -4 -6 -7 -10 -12 -23 -25 -26 -29 -13 -31 -33 -34 -37 -15 -39 -46 -47 -50 -18 -42 -53 -57 -62 -19 -43 -54 -58 -64 -21 -45 -56 -60 -66 0
-4 -6 -7 -10 -14 -16 -17 -20 -23 -25 -26 -29 -31 -33 -34 -37 -39 -46 -47 -50 -42 -53 -57 -62 -43 -54 -58 -64 -45 -56 -60 -66 0
-1 -2 -3 -6 -7 -10 -14 -23 -31 -40 -41 -44 -15 -24 -32 -46 -47 -50 -18 -27 -35 -53 -57 -62 -19 -28 -36 -54 -58 -64 -21 -30 -38 -56 -60 -66 0
-2 -3 -6 -7 -10 -12 -13 -16 -17 -20 -23 -31 -40 -41 -44 -24 -32 -46 -47 -50 -27 -35 -53 -57 -62 -28 -36 -54 -58 -64 -30 -38 -56 -60 -66 0
-1 -3 -6 -7 -10 -12 -22 -25 -26 -29 -14 -31 -40 -41 -44 -15 -32 -46 -47 -50 -18 -35 -53 -57 -62 -19 -36 -54 -58 -64 -21 -38 -56 -60 -66 0
-3 -6 -7 -10 -13 -16 -17 -20 -22 -25 -26 -29 -31 -40 -41 -44 -32 -46 -47 -50 -35 -53 -57 -62 -36 -54 -58 -64 -38 -56 -60 -66 0
-1 -2 -6 -7 -10 -13 -22 -33 -34 -37 -14 -23 -40 -41 -44 -15 -24 -46 -47 -50 -18 -27 -53 -57 -62 -19 -28 -54 -58 -64 -21 -30 -56 -60 -66 0
-2 -6 -7 -10 -12 -16 -17 -20 -22 -33 -34 -37 -23 -40 -41 -44 -24 -46 -47 -50 -27 -53 -57 -62 -28 -54 -58 -64 -30 -56 -60 -66 0
-1 -6 -7 -10 -12 -25 -26 -29 -13 -33 -34 -37 -14 -40 -41 -44 -15 -46 -47 -50 -18 -53 -57 -62 -19 -54 -58 -64 -21 -56 -60 -66 0
-6 -7 -10 -16 -17 -20 -25 -26 -29 -33 -34 -37 -40 -41 -44 -46 -47 -50 -53 -57 -62 -54 -58 -64 -56 -60 -66 0
-1 -2 -3 -4 -5 -7 -10 -16 -25 -33 -40 -46 -52 -55 -18 -27 -35 -42 -48 -57 -62 -19 -28 -36 -43 -49 -58 -64 -21 -30 -38 -45 -51 -60 -66 0
-2 -3 -4 -5 -7 -10 -12 -13 -14 -15 -17 -20 -25 -33 -40 -46 -52 -55 -27 -35 -42 -48 -57 -62 -28 -36 -43 -49 -58 -64 -30 -38 -45 -51 -60 -66 0
-1 -3 -4 -5 -7 -10 -12 -22 -23 -24 -26 -29 -16 -33 -40 -46 -52 -55 -18 -35 -42 -48 -57 -62 -19 -36 -43 -49 -58 -64 -21 -38 -45 -51 -60 -66 0
-3 -4 -5 -7 -10 -13 -14 -15 -17 -20 -22 -23 -24 -26 -29 -33 -40 -46 -52 -55 -35 -42 -48 -57 -62 -36 -43 -49 -58 -64 -38 -45 -51 -60 -66 0
-1 -2 -4 -5 -7 -10 -13 -22 -31 -32 -34 -37 -16 -25 -40 -46 -52 -55 -18 -27 -42 -48 -57 -62 -19 -28 -43 -49 -58 -64 -21 -30 -45 -51 -60 -66 0
-2 -4 -5 -7 -10 -12 -14 -15 -17 -20 -22 -31 -32 -34 -37 -25 -40 -46 -52 -55 -27 -42 -48 -57 -62 -28 -43 -49 -58 -64 -30 -45 -51 -60 -66 0
-1 -4 -5 -7 -10 -12 -23 -24 -26 -29 -13 -31 -32 -34 -37 -16 -40 -46 -52 -55 -18 -42 -48 -57 -62 -19 -43 -49 -58 -64 -21 -45 -51 -60 -66 0
-4 -5 -7 -10 -14 -15 -17 -20 -23 -24 -26 -29 -31 -32 -34 -37 -40 -46 -52 -55 -42 -48 -57 -62 -43 -49 -58 -64 -45 -51 -60 -66 0
-1 -2 -3 -5 -7 -10 -14 -23 -31 -39 -41 -44 -16 -25 -33 -46 -52 -55 -18 -27 -35 -48 -57 -62 -19 -28 -36 -49 -58 -64 -21 -30 -38 -51 -60 -66 0
-2 -3 -5 -7 -10 -12 -13 -15 -17 -20 -23 -31 -39 -41 -44 -25 -33 -46 -52 -55 -27 -35 -48 -57 -62 -28 -36 -49 -58 -64 -30 -38 -51 -60 -66 0
-1 -3 -5 -7 -10 -12 -22 -24 -26 -29 -14 -31 -39 -41 -44 -16 -33 -46 -52 -55 -18 -35 -48 -57 -62 -19 -36 -49 -58 -64 -21 -38 -51 -60 -66 0
-3 -5 -7 -10 -13 -15 -17 -20 -22 -24 -26 -29 -31 -39 -41 -44 -33 -46 -52 -55 -35 -48 -57 -62 -36 -49 -58 -64 -38 -51 -60 -66 0
-1 -2 -5 -7 -10 -13 -22 -32 -34 -37 -14 -23 -39 -41 -44 -16 -25 -46 -52 -55 -18 -27 -48 -57 -62 -19 -28 -49 -58 -64 -21 -30 -51 -60 -66 0
-2 -5 -7 -10 -12 -15 -17 -20 -22 -32 -34 -37 -23 -39 -41 -44 -25 -46 -52 -55 -27 -48 -57 -62 -28 -49 -58 -64 -30 -51 -60 -66 0
-1 -5 -7 -10 -12 -24 -26 -29 -13 -32 -34 -37 -14 -39 -41 -44 -16 -46 -52 -55 -18 -48 -57 -62 -19 -49 -58 -64 -21 -51 -60 -66 0
-5 -7 -10 -15 -17 -20 -24 -26 -29 -32 -34 -37 -39 -41 -44 -46 -52 -55 -48 -57 -62 -49 -58 -64 -51 -60 -66 0
-1 -2 -3 -4 -7 -10 -15 -24 -32 -39 -47 -50 -16 -25 -33 -40 -52 -55 -18 -27 -35 -42 -57 -62 -19 -28 -36 -43 -58 -64 -21 -30 -38 -45 -60 -66 0
-2 -3 -4 -7 -10 -12 -13 -14 -17 -20 -24 -32 -39 -47 -50 -25 -33 -40 -52 -55 -27 -35 -42 -57 -62 -28 -36 -43 -58 -64 -30 -38 -45 -60 -66 0
-1 -3 -4 -7 -10 -12 -22 -23 -26 -29 -15 -32 -39 -47 -50 -16 -33 -40 -52 -55 -18 -35 -42 -57 -62 -19 -36 -43 -58 -64 -21 -38 -45 -60 -66 0
-3 -4 -7 -10 -13 -14 -17 -20 -22 -23 -26 -29 -32 -39 -47 -50 -33 -40 -52 -55 -35 -42 -57 -62 -36 -43 -58 -64 -38 -45 -60 -66 0
-1 -2 -4 -7 -10 -13 -22 -31 -34 -37 -15 -24 -39 -47 -50 -16 -25 -40 -52 -55 -18 -27 -42 -57 -62 -19 -28 -43 -58 -64 -21 -30 -45 -60 -66 0
-2 -4 -7 -10 -12 -14 -17 -20 -22 -31 -34 -37 -24 -39 -47 -50 -25 -40 -52 -55 -27 -42 -57 -62 -28 -43 -58 -64 -30 -45 -60 -66 0
-1 -4 -7 -10 -12 -23 -26 -29 -13 -31 -34 -37 -15 -39 -47 -50 -16 -40 -52 -55 -18 -42 -57 -62 -19 -43 -58 -64 -21 -45 -60 -66 0
-4 -7 -10 -14 -17 -20 -23 -26 -29 -31 -34 -37 -39 -47 -50 -40 -52 -55 -42 -57 -62 -43 -58 -64 -45 -60 -66 0
-1 -2 -3 -7 -10 -14 -23 -31 -41 -44 -15 -24 -32 -47 -50 -16 -25 -33 -52 -55 -18 -27 -35 -57 -62 -19 -28 -36 -58 -64 -21 -30 -38 -60 -66 0
-2 -3 -7 -10 -12 -13 -17 -20 -23 -31 -41 -44 -24 -32 -47 -50 -25 -33 -52 -55 -27 -35 -57 -62 -28 -36 -58 -64 -30 -38 -60 -66 0
-1 -3 -7 -10 -12 -22 -26 -29 -14 -31 -41 -44 -15 -32 -47 -50 -16 -33 -52 -55 -18 -35 -57 -62 -19 -36 -58 -64 -21 -38 -60 -66 0
-3 -7 -10 -13 -17 -20 -22 -26 -29 -31 -41 -44 -32 -47 -50 -33 -52 -55 -35 -57 -62 -36 -58 -64 -38 -60 -66 0
-1 -2 -7 -10 -13 -22 -34 -37 -14 -23 -41 -44 -15 -24 -47 -50 -16 -25 -52 -55 -18 -27 -57 -62 -19 -28 -58 -64 -21 -30 -60 -66 0
-2 -7 -10 -12 -17 -20 -22 -34 -37 -23 -41 -44 -24 -47 -50 -25 -52 -55 -27 -57 -62 -28 -58 -64 -30 -60 -66 0
-1 -7 -10 -12 -26 -29 -13 -34 -37 -14 -41 -44 -15 -47 -50 -16 -52 -55 -18 -57 -62 -19 -58 -64 -21 -60 -66 0
-7 -10 -17 -20 -26 -29 -34 -37 -41 -44 -47 -50 -52 -55 -57 -62 -58 -64 -60 -66 0
-1 -2 -3 -4 -5 -6 -10 -17 -26 -34 -41 -47 -52 -59 -18 -27 -35 -42 -48 -53 -62 -19 -28 -36 -43 -49 -54 -64 -21 -30 -38 -45 -51 -56 -66 0
-2 -3 -4 -5 -6 -10 -12 -13 -14 -15 -16 -20 -26 -34 -41 -47 -52 -59 -27 -35 -42 -48 -53 -62 -28 -36 -43 -49 -54 -64 -30 -38 -45 -51 -56 -66 0
-1 -3 -4 -5 -6 -10 -12 -22 -23 -24 -25 -29 -17 -34 -41 -47 -52 -59 -18 -35 -42 -48 -53 -62 -19 -36 -43 -49 -54 -64 -21 -38 -45 -51 -56 -66 0
-3 -4 -5 -6 -10 -13 -14 -15 -16 -20 -22 -23 -24 -25 -29 -34 -41 -47 -52 -59 -35 -42 -48 -53 -62 -36 -43 -49 -54 -64 -38 -45 -51 -56 -66 0
-1 -2 -4 -5 -6 -10 -13 -22 -31 -32 -33 -37 -17 -26 -41 -47 -52 -59 -18 -27 -42 -48 -53 -62 -19 -28 -43 -49 -54 -64 -21 -30 -45 -51 -56 -66 0
-2 -4 -5 -6 -10 -12 -14 -15 -16 -20 -22 -31 -32 -33 -37 -26 -41 -47 -52 -59 -27 -42 -48 -53 -62 -28 -43 -49 -54 -64 -30 -45 -51 -56 -66 0
-1 -4 -5 -6 -10 -12 -23 -24 -25 -29 -13 -31 -32 -33 -37 -17 -41 -47 -52 -59 -18 -42 -48 -53 -62 -19 -43 -49 -54 -64 -21 -45 -51 -56 -66 0
-4 -5 -6 -10 -14 -15 -16 -20 -23 -24 -25 -29 -31 -32 -33 -37 -41 -47 -52 -59 -42 -48 -53 -62 -43 -49 -54 -64 -45 -51 -56 -66 0
-1 -2 -3 -5 -6 -10 -14 -23 -31 -39 -40 -44 -17 -26 -34 -47 -52 -59 -18 -27 -35 -48 -53 -62 -19 -28 -36 -49 -54 -64 -21 -30 -38 -51 -56 -66 0
-2 -3 -5 -6 -10 -12 -13 -15 -16 -20 -23 -31 -39 -40 -44 -26 -34 -47 -52 -59 -27 -35 -48 -53 -62 -28 -36 -49 -54 -64 -30 -38 -51 -56 -66 0
-1 -3 -5 -6 -10 -12 -22 -24 -25 -29 -14 -31 -39 -40 -44 -17 -34 -47 -52 -59 -18 -35 -48 -53 -62 -19 -36 -49 -54 -64 -21 -38 -51 -56 -66 0
-3 -5 -6 -10 -13 -15 -16 -20 -22 -24 -25 -29 -31 -39 -40 -44 -34 -47 -52 -59 -35 -48 -53 -62 -36 -49 -54 -64 -38 -51 -56 -66 0
-1 -2 -5 -6 -10 -13 -22 -32 -33 -37 -14 -23 -39 -40 -44 -17 -26 -47 -52 -59 -18 -27 -48 -53 -62 -19 -28 -49 -54 -64 -21 -30 -51 -56 -66 0
-2 -5 -6 -10 -12 -15 -16 -20 -22 -32 -33 -37 -23 -39 -40 -44 -26 -47 -52 -59 -27 -48 -53 -62 -28 -49 -54 -64 -30 -51 -56 -66 0
-1 -5 -6 -10 -12 -24 -25 -29 -13 -32 -33 -37 -14 -39 -40 -44 -17 -47 -52 -59 -18 -48 -53 -62 -19 -49 -54 -64 -21 -51 -56 -66 0
-5 -6 -10 -15 -16 -20 -24 -25 -29 -32 -33 -37 -39 -40 -44 -47 -52 -59 -48 -53 -62 -49 -54 -64 -51 -56 -66 0
-1 -2 -3 -4 -6 -10 -15 -24 -32 -39 -46 -50 -17 -26 -34 -41 -52 -59 -18 -27 -35 -42 -53 -62 -19 -28 -36 -43 -54 -64 -21 -30 -38 -45 -56 -66 0
-2 -3 -4 -6 -10 -12 -13 -14 -16 -20 -24 -32 -39 -46 -50 -26 -34 -41 -52 -59 -27 -35 -42 -53 -62 -28 -36 -43 -54 -64 -30 -38 -45 -56 -66 0
-1 -3 -4 -6 -10 -12 -22 -23 -25 -29 -15 -32 -39 -46 -50 -17 -34 -41 -52 -59 -18 -35 -42 -53 -62 -19 -36 -43 -54 -64 -21 -38 -45 -56 -66 0
-3 -4 -6 -10 -13 -14 -16 -20 -22 -23 -25 -29 -32 -39 -46 -50 -34 -41 -52 -59 -35 -42 -53 -62 -36 -43 -54 -64 -38 -45 -56 -66 0
-1 -2 -4 -6 -10 -13 -22 -31 -33 -37 -15 -24 -39 -46 -50 -17 -26 -41 -52 -59 -18 -27 -42 -53 -62 -19 -28 -43 -54 -64 -21 -30 -45 -56 -66 0
-2 -4 -6 -10 -12 -14 -16 -20 -22 -31 -33 -37 -24 -39 -46 -50 -26 -41 -52 -59 -27 -42 -53 -62 -28 -43 -54 -64 -30 -45 -56 -66 0
-1 -4 -6 -10 -12 -23 -25 -29 -13 -31 -33 -37 -15 -39 -46 -50 -17 -41 -52 -59 -18 -42 -53 -62 -19 -43 -54 -64 -21 -45 -56 -66 0
-4 -6 -10 -14 -16 -20 -23 -25 -29 -31 -33 -37 -39 -46 -50 -41 -52 -59 -42 -53 -62 -43 -54 -64 -45 -56 -66 0
-1 -2 -3 -6 -10 -14 -23 -31 -40 -44 -15 -24 -32 -46 -50 -17 -26 -34 -52 -59 -18 -27 -35 -53 -62 -19 -28 -36 -54 -64 -21 -30 -38 -56 -66 0
-2 -3 -6 -10 -12 -13 -16 -20 -23 -31 -40 -44 -24 -32 -46 -50 -26 -34 -52 -59 -27 -35 -53 -62 -28 -36 -54 -64 -30 -38 -56 -66 0
-1 -3 -6 -10 -12 -22 -25 -29 -14 -31 -40 -44 -15 -32 -46 -50 -17 -34 -52 -59 -18 -35 -53 -62 -19 -36 -54 -64 -21 -38 -56 -66 0
-3 -6 -10 -13 -16 -20 -22 -25 -29 -31 -40 -44 -32 -46 -50 -34 -52 -59 -35 -53 -62 -36 -54 -64 -38 -56 -66 0
-1 -2 -6 -10 -13 -22 -33 -37 -14 -23 -40 -44 -15 -24 -46 -50 -17 -26 -52 -59 -18 -27 -53 -62 -19 -28 -54 -64 -21 -30 -56 -66 0
-2 -6 -10 -12 -16 -20 -22 -33 -37 -23 -40 -44 -24 -46 -50 -26 -52 -59 -27 -53 -62 -28 -54 -64 -30 -56 -66 0
-1 -6 -10 -12 -25 -29 -13 -33 -37 -14 -40 -44 -15 -46 -50 -17 -52 -59 -18 -53 -62 -19 -54 -64 -21 -56 -66 0
-6 -10 -16 -20 -25 -29 -33 -37 -40 -44 -46 -50 -52 -59 -53 -62 -54 -64 -56 -66 0
-1 -2 -3 -4 -5 -10 -16 -25 -33 -40 -46 -55 -17 -26 -34 -41 -47 -59 -18 -27 -35 -42 -48 -62 -19 -28 -36 -43 -49 -64 -21 -30 -38 -45 -51 -66 0
-2 -3 -4 -5 -10 -12 -13 -14 -15 -20 -25 -33 -40 -46 -55 -26 -34 -41 -47 -59 -27 -35 -42 -48 -62 -28 -36 -43 -49 -64 -30 -38 -45 -51 -66 0
-1 -3 -4 -5 -10 -12 -22 -23 -24 -29 -16 -33 -40 -46 -55 -17 -34 -41 -47 -59 -18 -35 -42 -48 -62 -19 -36 -43 -49 -64 -21 -38 -45 -51 -66 0
-3 -4 -5 -10 -13 -14 -15 -20 -22 -23 -24 -29 -33 -40 -46 -55 -34 -41 -47 -59 -35 -42 -48 -62 -36 -43 -49 -64 -38 -45 -51 -66 0
-1 -2 -4 -5 -10 -13 -22 -31 -32 -37 -16 -25 -40 -46 -55 -17 -26 -41 -47 -59 -18 -27 -42 -48 -62 -19 -28 -43 -49 -64 -21 -30 -45 -51 -66 0
-2 -4 -5 -10 -12 -14 -15 -20 -22 -31 -32 -37 -25 -40 -46 -55 -26 -41 -47 -59 -27 -42 -48 -62 -28 -43 -49 -64 -30 -45 -51 -66 0
-1 -4 -5 -10 -12 -23 -24 -29 -13 -31 -32 -37 -16 -40 -46 -55 -17 -41 -47 -59 -18 -42 -48 -62 -19 -43 -49 -64 -21 -45 -51 -66 0
-4 -5 -10 -14 -15 -20 -23 -24 -29 -31 -32 -37 -40 -46 -55 -41 -47 -59 -42 -48 -62 -43 -49 -64 -45 -51 -66 0
-1 -2 -3 -5 -10 -14 -23 -31 -39 -44 -16 -25 -33 -46 -55 -17 -26 -34 -47 -59 -18 -27 -35 -48 -62 -19 -28 -36 -49 -64 -21 -30 -38 -51 -66 0
-2 -3 -5 -10 -12 -13 -15 -20 -23 -31 -39 -44 -25 -33 -46 -55 -26 -34 -47 -59 -27 -35 -48 -62 -28 -36 -49 -64 -30 -38 -51 -66 0
-1 -3 -5 -10 -12 -22 -24 -29 -14 -31 -39 -44 -16 -33 -46 -55 -17 -34 -47 -59 -18 -35 -48 -62 -19 -36 -49 -64 -21 -38 -51 -66 0
-3 -5 -10 -13 -15 -20 -22 -24 -29 -31 -39 -44 -33 -46 -55 -34 -47 -59 -35 -48 -62 -36 -49 -64 -38 -51 -66 0
-1 -2 -5 -10 -13 -22 -32 -37 -14 -23 -39 -44 -16 -25 -46 -55 -17 -26 -47 -59 -18 -27 -48 -62 -19 -28 -49 -64 -21 -30 -51 -66 0
-2 -5 -10 -12 -15 -20 -22 -32 -37 -23 -39 -44 -25 -46 -55 -26 -47 -59 -27 -48 -62 -28 -49 -64 -30 -51 -66 0
-1 -5 -10 -12 -24 -29 -13 -32 -37 -14 -39 -44 -16 -46 -55 -17 -47 -59 -18 -48 -62 -19 -49 -64 -21 -51 -66 0
-5 -10 -15 -20 -24 -29 -32 -37 -39 -44 -46 -55 -47 -59 -48 -62 -49 -64 -51 -66 0
-1 -2 -3 -4 -10 -15 -24 -32 -39 -50 -16 -25 -33 -40 -55 -17 -26 -34 -41 -59 -18 -27 -35 -42 -62 -19 -28 -36 -43 -64 -21 -30 -38 -45 -66 0
-2 -3 -4 -10 -12 -13 -14 -20 -24 -32 -39 -50 -25 -33 -40 -55 -26 -34 -41 -59 -27 -35 -42 -62 -28 -36 -43 -64 -30 -38 -45 -66 0
-1 -3 -4 -10 -12 -22 -23 -29 -15 -32 -39 -50 -16 -33 -40 -55 -17 -34 -41 -59 -18 -35 -42 -62 -19 -36 -43 -64 -21 -38 -45 -66 0
-3 -4 -10 -13 -14 -20 -22 -23 -29 -32 -39 -50 -33 -40 -55 -34 -41 -59 -35 -42 -62 -36 -43 -64 -38 -45 -66 0
-1 -2 -4 -10 -13 -22 -31 -37 -15 -24 -39 -50 -16 -25 -40 -55 -17 -26 -41 -59 -18 -27 -42 -62 -19 -28 -43 -64 -21 -30 -45 -66 0
-2 -4 -10 -12 -14 -20 -22 -31 -37 -24 -39 -50 -25 -40 -55 -26 -41 -59 -27 -42 -62 -28 -43 -64 -30 -45 -66 0
-1 -4 -10 -12 -23 -29 -13 -31 -37 -15 -39 -50 -16 -40 -55 -17 -41 -59 -18 -42 -62 -19 -43 -64 -21 -45 -66 0
-4 -10 -14 -20 -23 -29 -31 -37 -39 -50 -40 -55 -41 -59 -42 -62 -43 -64 -45 -66 0
-1 -2 -3 -10 -14 -23 -31 -44 -15 -24 -32 -50 -16 -25 -33 -55 -17 -26 -34 -59 -18 -27 -35 -62 -19 -28 -36 -64 -21 -30 -38 -66 0
-2 -3 -10 -12 -13 -20 -23 -31 -44 -24 -32 -50 -25 -33 -55 -26 -34 -59 -27 -35 -62 -28 -36 -64 -30 -38 -66 0
-1 -3 -10 -12 -22 -29 -14 -31 -44 -15 -32 -50 -16 -33 -55 -17 -34 -59 -18 -35 -62 -19 -36 -64 -21 -38 -66 0
-3 -10 -13 -20 -22 -29 -31 -44 -32 -50 -33 -55 -34 -59 -35 -62 -36 -64 -38 -66 0
-1 -2 -10 -13 -22 -37 -14 -23 -44 -15 -24 -50 -16 -25 -55 -17 -26 -59 -18 -27 -62 -19 -28 -64 -21 -30 -66 0
-2 -10 -12 -20 -22 -37 -23 -44 -24 -50 -25 -55 -26 -59 -27 -62 -28 -64 -30 -66 0
-1 -10 -12 -29 -13 -37 -14 -44 -15 -50 -16 -55 -17 -59 -18 -62 -19 -64 -21 -66 0
-10 -20 -29 -37 -44 -50 -55 -59 -62 -64 -66 0
-1 -2 -3 -4 -5 -6 -7 -8 -9 -20 -29 -37 -44 -50 -55 -59 -62 -64 -21 -30 -38 -45 -51 -56 -60 -63 -65 0
-2 -3 -4 -5 -6 -7 -8 -9 -12 -13 -14 -15 -16 -17 -18 -19 -29 -37 -44 -50 -55 -59 -62 -64 -30 -38 -45 -51 -56 -60 -63 -65 0
-1 -3 -4 -5 -6 -7 -8 -9 -12 -22 -23 -24 -25 -26 -27 -28 -20 -37 -44 -50 -55 -59 -62 -64 -21 -38 -45 -51 -56 -60 -63 -65 0
-3 -4 -5 -6 -7 -8 -9 -13 -14 -15 -16 -17 -18 -19 -22 -23 -24 -25 -26 -27 -28 -37 -44 -50 -55 -59 -62 -64 -38 -45 -51 -56 -60 -63 -65 0
-1 -2 -4 -5 -6 -7 -8 -9 -13 -22 -31 -32 -33 -34 -35 -36 -20 -29 -44 -50 -55 -59 -62 -64 -21 -30 -45 -51 -56 -60 -63 -65 0
-2 -4 -5 -6 -7 -8 -9 -12 -14 -15 -16 -17 -18 -19 -22 -31 -32 -33 -34 -35 -36 -29 -44 -50 -55 -59 -62 -64 -30 -45 -51 -56 -60 -63 -65 0
-1 -4 -5 -6 -7 -8 -9 -12 -23 -24 -25 -26 -27 -28 -13 -31 -32 -33 -34 -35 -36 -20 -44 -50 -55 -59 -62 -64 -21 -45 -51 -56 -60 -63 -65 0
-4 -5 -6 -7 -8 -9 -14 -15 -16 -17 -18 -19 -23 -24 -25 -26 -27 -28 -31 -32 -33 -34 -35 -36 -44 -50 -55 -59 -62 -64 -45 -51 -56 -60 -63 -65 0
-1 -2 -3 -5 -6 -7 -8 -9 -14 -23 -31 -39 -40 -41 -42 -43 -20 -29 -37 -50 -55 -59 -62 -64 -21 -30 -38 -51 -56 -60 -63 -65 0
-2 -3 -5 -6 -7 -8 -9 -12 -13 -15 -16 -17 -18 -19 -23 -31 -39 -40 -41 -42 -43 -29 -37 -50 -55 -59 -62 -64 -30 -38 -51 -56 -60 -63 -65 0
-1 -3 -5 -6 -7 -8 -9 -12 -22 -24 -25 -26 -27 -28 -14 -31 -39 -40 -41 -42 -43 -20 -37 -50 -55 -59 -62 -64 -21 -38 -51 -56 -60 -63 -65 0
-3 -5 -6 -7 -8 -9 -13 -15 -16 -17 -18 -19 -22 -24 -25 -26 -27 -28 -31 -39 -40 -41 -42 -43 -37 -50 -55 -59 -62 -64 -38 -51 -56 -60 -63 -65 0
-1 -2 -5 -6 -7 -8 -9 -13 -22 -32 -33 -34 -35 -36 -14 -23 -39 -40 -41 -42 -43 -20 -29 -50 -55 -59 -62 -64 -21 -30 -51 -56 -60 -63 -65 0
-2 -5 -6 -7 -8 -9 -12 -15 -16 -17 -18 -19 -22 -32 -33 -34 -35 -36 -23 -39 -40 -41 -42 -43 -29 -50 -55 -59 -62 -64 -30 -51 -56 -60 -63 -65 0
-1 -5 -6 -7 -8 -9 -12 -24 -25 -26 -27 -28 -13 -32 -33 -34 -35 -36 -14 -39 -40 -41 -42 -43 -20 -50 -55 -59 -62 -64 -21 -51 -56 -60 -63 -65 0
-5 -6 -7 -8 -9 -15 -16 -17 -18 -19 -24 -25 -26 -27 -28 -32 -33 -34 -35 -36 -39 -40 -41 -42 -43 -50 -55 -59 -62 -64 -51 -56 -60 -63 -65 0
-1 -2 -3 -4 -6 -7 -8 -9 -15 -24 -32 -39 -46 -47 -48 -49 -20 -29 -37 -44 -55 -59 -62 -64 -21 -30 -38 -45 -56 -60 -63 -65 0
-2 -3 -4 -6 -7 -8 -9 -12 -13 -14 -16 -17 -18 -19 -24 -32 -39 -46 -47 -48 -49 -29 -37 -44 -55 -59 -62 -64 -30 -38 -45 -56 -60 -63 -65 0
-1 -3 -4 -6 -7 -8 -9 -12 -22 -23 -25 -26 -27 -28 -15 -32 -39 -46 -47 -48 -49 -20 -37 -44 -55 -59 -62 -64 -21 -38 -45 -56 -60 -63 -65 0
-3 -4 -6 -7 -8 -9 -13 -14 -16 -17 -18 -19 -22 -23 -25 -26 -27 -28 -32 -39 -46 -47 -48 -49 -37 -44 -55 -59 -62 -64 -38 -45 -56 -60 -63 -65 0
-1 -2 -4 -6 -7 -8 -9 -13 -22 -31 -33 -34 -35 -36 -15 -24 -39 -46 -47 -48 -49 -20 -29 -44 -55 -59 -62 -64 -21 -30 -45 -56 -60 -63 -65 0
-2 -4 -6 -7 -8 -9 -12 -14 -16 -17 -18 -19 -22 -31 -33 -34 -35 -36 -24 -39 -46 -47 -48 -49 -29 -44 -55 -59 -62 -64 -30 -45 -56 -60 -63 -65 0
-1 -4 -6 -7 -8 -9 -12 -23 -25 -26 -27 -28 -13 -31 -33 -34 -35 -36 -15 -39 -46 -47 -48 -49 -20 -44 -55 -59 -62 -64 -21 -45 -56 -60 -63 -65 0
-4 -6 -7 -8 -9 -14 -16 -17 -18 -19 -23 -25 -26 -27 -28 -31 -33 -34 -35 -36 -39 -46 -47 -48 -49 -44 -55 -59 -62 -64 -45 -56 -60 -63 -65 0
-1 -2 -3 -6 -7 -8 -9 -14 -23 -31 -40 -41 -42 -43 -15 -24 -32 -46 -47 -48 -49 -20 -29 -37 -55 -59 -62 -64 -21 -30 -38 -56 -60 -63 -65 0
-2 -3 -6 -7 -8 -9 -12 -13 -16 -17 -18 -19 -23 -31 -40 -41 -42 -43 -24 -32 -46 -47 -48 -49 -29 -37 -55 -59 -62 -64 -30 -38 -56 -60 -63 -65 0
-1 -3 -6 -7 -8 -9 -12 -22 -25 -26 -27 -28 -14 -31 -40 -41 -42 -43 -15 -32 -46 -47 -48 -49 -20 -37 -55 -59 -62 -64 -21 -38 -56 -60 -63 -65 0
-3 -6 -7 -8 -9 -13 -16 -17 -18 -19 -22 -25 -26 -27 -28 -31 -40 -41 -42 -43 -32 -46 -47 -48 -49 -37 -55 -59 -62 -64 -38 -56 -60 -63 -65 0
-1 -2 -6 -7 -8 -9 -13 -22 -33 -34 -35 -36 -14 -23 -40 -41 -42 -43 -15 -24 -46 -47 -48 -49 -20 -29 -55 -59 -62 -64 -21 -30 -56 -60 -63 -65 0
-2 -6 -7 -8 -9 -12 -16 -17 -18 -19 -22 -33 -34 -35 -36 -23 -40 -41 -42 -43 -24 -46 -47 -48 -49 -29 -55 -59 -62 -64 -30 -56 -60 -63 -65 0
-1 -6 -7 -8 -9 -12 -25 -26 -27 -28 -13 -33 -34 -35 -36 -14 -40 -41 -42 -43 -15 -46 -47 -48 -49 -20 -55 -59 -62 -64 -21 -56 -60 -63 -65 0
-6 -7 -8 -9 -16 -17 -18 -19 -25 -26 -27 -28 -33 -34 -35 -36 -40 -41 -42 -43 -46 -47 -48 -49 -55 -59 -62 -64 -56 -60 -63 -65 0
-1 -2 -3 -4 -5 -7 -8 -9 -16 -25 -33 -40 -46 -52 -53 -54 -20 -29 -37 -44 -50 -59 -62 -64 -21 -30 -38 -45 -51 -60 -63 -65 0
-2 -3 -4 -5 -7 -8 -9 -12 -13 -14 -15 -17 -18 -19 -25 -33 -40 -46 -52 -53 -54 -29 -37 -44 -50 -59 -62 -64 -30 -38 -45 -51 -60 -63 -65 0
-1 -3 -4 -5 -7 -8 -9 -12 -22 -23 -24 -26 -27 -28 -16 -33 -40 -46 -52 -53 -54 -20 -37 -44 -50 -59 -62 -64 -21 -38 -45 -51 -60 -63 -65 0
-3 -4 -5 -7 -8 -9 -13 -14 -15 -17 -18 -19 -22 -23 -24 -26 -27 -28 -33 -40 -46 -52 -53 -54 -37 -44 -50 -59 -62 -64 -38 -45 -51 -60 -63 -65 0
-1 -2 -4 -5 -7 -8 -9 -13 -22 -31 -32 -34 -35 -36 -16 -25 -40 -46 -52 -53 -54 -20 -29 -44 -50 -59 -62 -64 -21 -30 -45 -51 -60 -63 -65 0
-2 -4 -5 -7 -8 -9 -12 -14 -15 -17 -18 -19 -22 -31 -32 -34 -35 -36 -25 -40 -46 -52 -53 -54 -29 -44 -50 -59 -62 -64 -30 -45 -51 -60 -63 -65 0
-1 -4 -5 -7 -8 -9 -12 -23 -24 -26 -27 -28 -13 -31 -32 -34 -35 -36 -16 -40 -46 -52 -53 -54 -20 -44 -50 -59 -62 -64 -21 -45 -51 -60 -63 -65 0
-4 -5 -7 -8 -9 -14 -15 -17 -18 -19 -23 -24 -26 -27 -28 -31 -32 -34 -35 -36 -40 -46 -52 -53 -54 -44 -50 -59 -62 -64 -45 -51 -60 -63 -65 0
-1 -2 -3 -5 -7 -8 -9 -14 -23 -31 -39 -41 -42 -43 -16 -25 -33 -46 -52 -53 -54 -20 -29 -37 -50 -59 -62 -64 -21 -30 -38 -51 -60 -63 -65 0
-2 -3 -5 -7 -8 -9 -12 -13 -15 -17 -18 -19 -23 -31 -39 -41 -42 -43 -25 -33 -46 -52 -53 -54 -29 -37 -50 -59 -62 -64 -30 -38 -51 -60 -63 -65 0
-1 -3 -5 -7 -8 -9 -12 -22 -24 -26 -27 -28 -14 -31 -39 -41 -42 -43 -16 -33 -46 -52 -53 -54 -20 -37 -50 -59 -62 -64 -21 -38 -51 -60 -63 -65 0
-3 -5 -7 -8 -9 -13 -15 -17 -18 -19 -22 -24 -26 -27 -28 -31 -39 -41 -42 -43 -33 -46 -52 -53 -54 -37 -50 -59 -62 -64 -38 -51 -60 -63 -65 0
-1 -2 -5 -7 -8 -9 -13 -22 -32 -34 -35 -36 -14 -23 -39 -41 -42 -43 -16 -25 -46 -52 -53 -54 -20 -29 -50 -59 -62 -64 -21 -30 -51 -60 -63 -65 0
-2 -5 -7 -8 -9 -12 -15 -17 -18 -19 -22 -32 -34 -35 -36 -23 -39 -41 -42 -43 -25 -46 -52 -53 -54 -29 -50 -59 -62 -64 -30 -51 -60 -63 -65 0
-1 -5 -7 -8 -9 -12 -24 -26 -27 -28 -13 -32 -34 -35 -36 -14 -39 -41 -42 -43 -16 -46 -52 -53 -54 -20 -50 -59 -62 -64 -21 -51 -60 -63 -65 0
-5 -7 -8 -9 -15 -17 -18 -19 -24 -26 -27 -28 -32 -34 -35 -36 -39 -41 -42 -43 -46 -52 -53 -54 -50 -59 -62 -64 -51 -60 -63 -65 0
-1 -2 -3 -4 -7 -8 -9 -15 -24 -32 -39 -47 -48 -49 -16 -25 -33 -40 -52 -53 -54 -20 -29 -37 -44 -59 -62 -64 -21 -30 -38 -45 -60 -63 -65 0
-2 -3 -4 -7 -8 -9 -12 -13 -14 -17 -18 -19 -24 -32 -39 -47 -48 -49 -25 -33 -40 -52 -53 -54 -29 -37 -44 -59 -62 -64 -30 -38 -45 -60 -63 -65 0
-1 -3 -4 -7 -8 -9 -12 -22 -23 -26 -27 -28 -15 -32 -39 -47 -48 -49 -16 -33 -40 -52 -53 -54 -20 -37 -44 -59 -62 -64 -21 -38 -45 -60 -63 -65 0
-3 -4 -7 -8 -9 -13 -14 -17 -18 -19 -22 -23 -26 -27 -28 -32 -39 -47 -48 -49 -33 -40 -52 -53 -54 -37 -44 -59 -62 -64 -38 -45 -60 -63 -65 0
-1 -2 -4 -7 -8 -9 -13 -22 -31 -34 -35 -36 -15 -24 -39 -47 -48 -49 -16 -25 -40 -52 -53 -54 -20 -29 -44 -59 -62 -64 -21 -30 -45 -60 -63 -65 0
-2 -4 -7 -8 -9 -12 -14 -17 -18 -19 -22 -31 -34 -35 -36 -24 -39 -47 -48 -49 -25 -40 -52 -53 -54 -29 -44 -59 -62 -64 -30 -45 -60 -63 -65 0
-1 -4 -7 -8 -9 -12 -23 -26 -27 -28 -13 -31 -34 -35 -36 -15 -39 -47 -48 -49 -16 -40 -52 -53 -54 -20 -44 -59 -62 -64 -21 -45 -60 -63 -65 0
-4 -7 -8 -9 -14 -17 -18 -19 -23 -26 -27 -28 -31 -34 -35 -36 -39 -47 -48 -49 -40 -52 -53 -54 -44 -59 -62 -64 -45 -60 -63 -65 0
-1 -2 -3 -7 -8 -9 -14 -23 -31 -41 -42 -43 -15 -24 -32 -47 -48 -49 -16 -25 -33 -52 -53 -54 -20 -29 -37 -59 -62 -64 -21 -30 -38 -60 -63 -65 0
-2 -3 -7 -8 -9 -12 -13 -17 -18 -19 -23 -31 -41 -42 -43 -24 -32 -47 -48 -49 -25 -33 -52 -53 -54 -29 -37 -59 -62 -64 -30 -38 -60 -63 -65 0
-1 -3 -7 -8 -9 -12 -22 -26 -27 -28 -14 -31 -41 -42 -43 -15 -32 -47 -48 -49 -16 -33 -52 -53 -54 -20 -37 -59 -62 -64 -21 -38 -60 -63 -65 0
-3 -7 -8 -9 -13 -17 -18 -19 -22 -26 -27 -28 -31 -41 -42 -43 -32 -47 -48 -49 -33 -52 -53 -54 -37 -59 -62 -64 -38 -60 -63 -65 0
-1 -2 -7 -8 -9 -13 -22 -34 -35 -36 -14 -23 -41 -42 -43 -15 -24 -47 -48 -49 -16 -25 -52 -53 -54 -20 -29 -59 -62 -64 -21 -30 -60 -63 -65 0
-2 -7 -8 -9 -12 -17 -18 -19 -22 -34 -35 -36 -23 -41 -42 -43 -24 -47 -48 -49 -25 -52 -53 -54 -29 -59 -62 -64 -30 -60 -63 -65 0
-1 -7 -8 -9 -12 -26 -27 -28 -13 -34 -35 -36 -14 -41 -42 -43 -15 -47 -48 -49 -16 -52 -53 -54 -20 -59 -62 -64 -21 -60 -63 -65 0
-7 -8 -9 -17 -18 -19 -26 -27 -28 -34 -35 -36 -41 -42 -43 -47 -48 -49 -52 -53 -54 -59 -62 -64 -60 -63 -65 0
-1 -2 -3 -4 -5 -6 -8 -9 -17 -26 -34 -41 -47 -52 -57 -58 -20 -29 -37 -44 -50 -55 -62 -64 -21 -30 -38 -45 -51 -56 -63 -65 0
-2 -3 -4 -5 -6 -8 -9 -12 -13 -14 -15 -16 -18 -19 -26 -34 -41 -47 -52 -57 -58 -29 -37 -44 -50 -55 -62 -64 -30 -38 -45 -51 -56 -63 -65 0
-1 -3 -4 -5 -6 -8 -9 -12 -22 -23 -24 -25 -27 -28 -17 -34 -41 -47 -52 -57 -58 -20 -37 -44 -50 -55 -62 -64 -21 -38 -45 -51 -56 -63 -65 0
-3 -4 -5 -6 -8 -9 -13 -14 -15 -16 -18 -19 -22 -23 -24 -25 -27 -28 -34 -41 -47 -52 -57 -58 -37 -44 -50 -55 -62 -64 -38 -45 -51 -56 -63 -65 0
-1 -2 -4 -5 -6 -8 -9 -13 -22 -31 -32 -33 -35 -36 -17 -26 -41 -47 -52 -57 -58 -20 -29 -44 -50 -55 -62 -64 -21 -30 -45 -51 -56 -63 -65 0
-2 -4 -5 -6 -8 -9 -12 -14 -15 -16 -18 -19 -22 -31 -32 -33 -35 -36 -26 -41 -47 -52 -57 -58 -29 -44 -50 -55 -62 -64 -30 -45 -51 -56 -63 -65 0
-1 -4 -5 -6 -8 -9 -12 -23 -24 -25 -27 -28 -13 -31 -32 -33 -35 -36 -17 -41 -47 -52 -57 -58 -20 -44 -50 -55 -62 -64 -21 -45 -51 -56 -63 -65 0
-4 -5 -6 -8 -9 -14 -15 -16 -18 -19 -23 -24 -25 -27 -28 -31 -32 -33 -35 -36 -41 -47 -52 -57 -58 -44 -50 -55 -62 -64 -45 -51 -56 -63 -65 0
-1 -2 -3 -5 -6 -8 -9 -14 -23 -31 -39 -40 -42 -43 -17 -26 -34 -47 -52 -57 -58 -20 -29 -37 -50 -55 -62 -64 -21 -30 -38 -51 -56 -63 -65 0
-2 -3 -5 -6 -8 -9 -12 -13 -15 -16 -18 -19 -23 -31 -39 -40 -42 -43 -26 -34 -47 -52 -57 -58 -29 -37 -50 -55 -62 -64 -30 -38 -51 -56 -63 -65 0
-1 -3 -5 -6 -8 -9 -12 -22 -24 -25 -27 -28 -14 -31 -39 -40 -42 -43 -17 -34 -47 -52 -57 -58 -20 -37 -50 -55 -62 -64 -21 -38 -51 -56 -63 -65 0
-3 -5 -6 -8 -9 -13 -15 -16 -18 -19 -22 -24 -25 -27 -28 -31 -39 -40 -42 -43 -34 -47 -52 -57 -58 -37 -50 -55 -62 -64 -38 -51 -56 -63 -65 0
-1 -2 -5 -6 -8 -9 -13 -22 -32 -33 -35 -36 -14 -23 -39 -40 -42 -43 -17 -26 -47 -52 -57 -58 -20 -29 -50 -55 -62 -64 -21 -30 -51 -56 -63 -65 0
-2 -5 -6 -8 -9 -12 -15 -16 -18 -19 -22 -32 -33 -35 -36 -23 -39 -40 -42 -43 -26 -47 -52 -57 -58 -29 -50 -55 -62 -64 -30 -51 -56 -63 -65 0
-1 -5 -6 -8 -9 -12 -24 -25 -27 -28 -13 -32 -33 -35 -36 -14 -39 -40 -42 -43 -17 -47 -52 -57 -58 -20 -50 -55 -62 -64 -21 -51 -56 -63 -65 0
-5 -6 -8 -9 -15 -16 -18 -19 -24 -25 -27 -28 -32 -33 -35 -36 -39 -40 -42 -43 -47 -52 -57 -58 -50 -55 -62 -64 -51 -56 -63 -65 0
-1 -2 -3 -4 -6 -8 -9 -15 -24 -32 -39 -46 -48 -49 -17 -26 -34 -41 -52 -57 -58 -20 -29 -37 -44 -55 -62 -64 -21 -30 -38 -45 -56 -63 -65 0
-2 -3 -4 -6 -8 -9 -12 -13 -14 -16 -18 -19 -24 -32 -39 -46 -48 -49 -26 -34 -41 -52 -57 -58 -29 -37 -44 -55 -62 -64 -30 -38 -45 -56 -63 -65 0
-1 -3 -4 -6 -8 -9 -12 -22 -23 -25 -27 -28 -15 -32 -39 -46 -48 -49 -17 -34 -41 -52 -57 -58 -20 -37 -44 -55 -62 -64 -21 -38 -45 -56 -63 -65 0
-3 -4 -6 -8 -9 -13 -14 -16 -18 -19 -22 -23 -25 -27 -28 -32 -39 -46 -48 -49 -34 -41 -52 -57 -58 -37 -44 -55 -62 -64 -38 -45 -56 -63 -65 0
-1 -2 -4 -6 -8 -9 -13 -22 -31 -33 -35 -36 -15 -24 -39 -46 -48 -49 -17 -26 -41 -52 -57 -58 -20 -29 -44 -55 -62 -64 -21 -30 -45 -56 -63 -65 0
-2 -4 -6 -8 -9 -12 -14 -16 -18 -19 -22 -31 -33 -35 -36 -24 -39 -46 -48 -49 -26 -41 -52 -57 -58 -29 -44 -55 -62 -64 -30 -45 -56 -63 -65 0
-1 -4 -6 -8 -9 -12 -23 -25 -27 -28 -13 -31 -33 -35 -36 -15 -39 -46 -48 -49 -17 -41 -52 -57 -58 -20 -44 -55 -62 -64 -21 -45 -56 -63 -65 0
-4 -6 -8 -9 -14 -16 -18 -19 -23 -25 -27 -28 -31 -33 -35 -36 -39 -46 -48 -49 -41 -52 -57 -58 -44 -55 -62 -64 -45 -56 -63 -65 0
-1 -2 -3 -6 -8 -9 -14 -23 -31 -40 -42 -43 -15 -24 -32 -46 -48 -49 -17 -26 -34 -52 -57 -58 -20 -29 -37 -55 -62 -64 -21 -30 -38 -56 -63 -65 0
-2 -3 -6 -8 -9 -12 -13 -16 -18 -19 -23 -31 -40 -42 -43 -24 -32 -46 -48 -49 -26 -34 -52 -57 -58 -29 -37 -55 -62 -64 -30 -38 -56 -63 -65 0
-1 -3 -6 -8 -9 -12 -22 -25 -27 -28 -14 -31 -40 -42 -43 -15 -32 -46 -48 -49 -17 -34 -52 -57 -58 -20 -37 -55 -62 -64 -21 -38 -56 -63 -65 0
-3 -6 -8 -9 -13 -16 -18 -19 -22 -25 -27 -28 -31 -40 -42 -43 -32 -46 -48 -49 -34 -52 -57 -58 -37 -55 -62 -64 -38 -56 -63 -65 0
-1 -2 -6 -8 -9 -13 -22 -33 -35 -36 -14 -23 -40 -42 -43 -15 -24 -46 -48 -49 -17 -26 -52 -57 -58 -20 -29 -55 -62 -64 -21 -30 -56 -63 -65 0
-2 -6 -8 -9 -12 -16 -18 -19 -22 -33 -35 -36 -23 -40 -42 -43 -24 -46 -48 -49 -26 -52 -57 -58 -29 -55 -62 -64 -30 -56 -63 -65 0
-1 -6 -8 -9 -12 -25 -27 -28 -13 -33 -35 -36 -14 -40 -42 -43 -15 -46 -48 -49 -17 -52 -57 -58 -20 -55 -62 -64 -21 -56 -63 -65 0
-6 -8 -9 -16 -18 -19 -25 -27 -28 -33 -35 -36 -40 -42 -43 -46 -48 -49 -52 -57 -58 -55 -62 -64 -56 -63 -65 0
-1 -2 -3 -4 -5 -8 -9 -16 -25 -33 -40 -46 -53 -54 -17 -26 -34 -41 -47 -57 -58 -20 -29 -37 -44 -50 -62 -64 -21 -30 -38 -45 -51 -63 -65 0
-2 -3 -4 -5 -8 -9 -12 -13 -14 -15 -18 -19 -25 -33 -40 -46 -53 -54 -26 -34 -41 -47 -57 -58 -29 -37 -44 -50 -62 -64 -30 -38 -45 -51 -63 -65 0
-1 -3 -4 -5 -8 -9 -12 -22 -23 -24 -27 -28 -16 -33 -40 -46 -53 -54 -17 -34 -41 -47 -57 -58 -20 -37 -44 -50 -62 -64 -21 -38 -45 -51 -63 -65 0
-3 -4 -5 -8 -9 -13 -14 -15 -18 -19 -22 -23 -24 -27 -28 -33 -40 -46 -53 -54 -34 -41 -47 -57 -58 -37 -44 -50 -62 -64 -38 -45 -51 -63 -65 0
-1 -2 -4 -5 -8 -9 -13 -22 -31 -32 -35 -36 -16 -25 -40 -46 -53 -54 -17 -26 -41 -47 -57 -58 -20 -29 -44 -50 -62 -64 -21 -30 -45 -51 -63 -65 0
-2 -4 -5 -8 -9 -12 -14 -15 -18 -19 -22 -31 -32 -35 -36 -25 -40 -46 -53 -54 -26 -41 -47 -57 -58 -29 -44 -50 -62 -64 -30 -45 -51 -63 -65 0
-1 -4 -5 -8 -9 -12 -23 -24 -27 -28 -13 -31 -32 -35 -36 -16 -40 -46 -53 -54 -17 -41 -47 -57 -58 -20 -44 -50 -62 -64 -21 -45 -51 -63 -65 0
-4 -5 -8 -9 -14 -15 -18 -19 -23 -24 -27 -28 -31 -32 -35 -36 -40 -46 -53 -54 -41 -47 -57 -58 -44 -50 -62 -64 -45 -51 -63 -65 0
-1 -2 -3 -5 -8 -9 -14 -23 -31 -39 -42 -43 -16 -25 -33 -46 -53 -54 -17 -26 -34 -47 -57 -58 -20 -29 -37 -50 -62 -64 -21 -30 -38 -51 -63 -65 0
-2 -3 -5 -8 -9 -12 -13 -15 -18 -19 -23 -31 -39 -42 -43 -25 -33 -46 -53 -54 -26 -34 -47 -57 -58 -29 -37 -50 -62 -64 -30 -38 -51 -63 -65 0
-1 -3 -5 -8 -9 -12 -22 -24 -27 -28 -14 -31 -39 -42 -43 -16 -33 -46 -53 -54 -17 -34 -47 -57 -58 -20 -37 -50 -62 -64 -21 -38 -51 -63 -65 0
-3 -5 -8 -9 -13 -15 -18 -19 -22 -24 -27 -28 -31 -39 -42 -43 -33 -46 -53 -54 -34 -47 -57 -58 -37 -50 -62 -64 -38 -51 -63 -65 0
-1 -2 -5 -8 -9 -13 -22 -32 -35 -36 -14 -23 -39 -42 -43 -16 -25 -46 -53 -54 -17 -26 -47 -57 -58 -20 -29 -50 -62 -64 -21 -30 -51 -63 -65 0
-2 -5 -8 -9 -12 -15 -18 -19 -22 -32 -35 -36 -23 -39 -42 -43 -25 -46 -53 -54 -26 -47 -57 -58 -29 -50 -62 -64 -30 -51 -63 -65 0
-1 -5 -8 -9 -12 -24 -27 -28 -13 -32 -35 -36 -14 -39 -42 -43 -16 -46 -53 -54 -17 -47 -57 -58 -20 -50 -62 -64 -21 -51 -63 -65 0
-5 -8 -9 -15 -18 -19 -24 -27 -28 -32 -35 -36 -39 -42 -43 -46 -53 -54 -47 -57 -58 -50 -62 -64 -51 -63 -65 0
-1 -2 -3 -4 -8 -9 -15 -24 -32 -39 -48 -49 -16 -25 -33 -40 -53 -54 -17 -26 -34 -41 -57 -58 -20 -29 -37 -44 -62 -64 -21 -30 -38 -45 -63 -65 0
-2 -3 -4 -8 -9 -12 -13 -14 -18 -19 -24 -32 -39 -48 -49 -25 -33 -40 -53 -54 -26 -34 -41 -57 -58 -29 -37 -44 -62 -64 -30 -38 -45 -63 -65 0
-1 -3 -4 -8 -9 -12 -22 -23 -27 -28 -15 -32 -39 -48 -49 -16 -33 -40 -53 -54 -17 -34 -41 -57 -58 -20 -37 -44 -62 -64 -21 -38 -45 -63 -65 0
-3 -4 -8 -9 -13 -14 -18 -19 -22 -23 -27 -28 -32 -39 -48 -49 -33 -40 -53 -54 -34 -41 -57 -58 -37 -44 -62 -64 -38 -45 -63 -65 0
-1 -2 -4 -8 -9 -13 -22 -31 -35 -36 -15 -24 -39 -48 -49 -16 -25 -40 -53 -54 -17 -26 -41 -57 -58 -20 -29 -44 -62 -64 -21 -30 -45 -63 -65 0
-2 -4 -8 -9 -12 -14 -18 -19 -22 -31 -35 -36 -24 -39 -48 -49 -25 -40 -53 -54 -26 -41 -57 -58 -29 -44 -62 -64 -30 -45 -63 -65 0
-1 -4 -8 -9 -12 -23 -27 -28 -13 -31 -35 -36 -15 -39 -48 -49 -16 -40 -53 -54 -17 -41 -57 -58 -20 -44 -62 -64 -21 -45 -63 -65 0
-4 -8 -9 -14 -18 -19 -23 -27 -28 -31 -35 -36 -39 -48 -49 -40 -53 -54 -41 -57 -58 -44 -62 -64 -45 -63 -65 0
-1 -2 -3 -8 -9 -14 -23 -31 -42 -43 -15 -24 -32 -48 -49 -16 -25 -33 -53 -54 -17 -26 -34 -57 -58 -20 -29 -37 -62 -64 -21 -30 -38 -63 -65 0
-2 -3 -8 -9 -12 -13 -18 -19 -23 -31 -42 -43 -24 -32 -48 -49 -25 -33 -53 -54 -26 -34 -57 -58 -29 -37 -62 -64 -30 -38 -63 -65 0
-1 -3 -8 -9 -12 -22 -27 -28 -14 -31 -42 -43 -15 -32 -48 -49 -16 -33 -53 -54 -17 -34 -57 -58 -20 -37 -62 -64 -21 -38 -63 -65 0
-3 -8 -9 -13 -18 -19 -22 -27 -28 -31 -42 -43 -32 -48 -49 -33 -53 -54 -34 -57 -58 -37 -62 -64 -38 -63 -65 0
-1 -2 -8 -9 -13 -22 -35 -36 -14 -23 -42 -43 -15 -24 -48 -49 -16 -25 -53 -54 -17 -26 -57 -58 -20 -29 -62 -64 -21 -30 -63 -65 0
-2 -8 -9 -12 -18 -19 -22 -35 -36 -23 -42 -43 -24 -48 -49 -25 -53 -54 -26 -57 -58 -29 -62 -64 -30 -63 -65 0
-1 -8 -9 -12 -27 -28 -13 -35 -36 -14 -42 -43 -15 -48 -49 -16 -53 -54 -17 -57 -58 -20 -62 -64 -21 -63 -65 0
-8 -9 -18 -19 -27 -28 -35 -36 -42 -43 -48 -49 -53 -54 -57 -58 -62 -64 -63 -65 0
-1 -2 -3 -4 -5 -6 -7 -9 -18 -27 -35 -42 -48 -53 -57 -61 -20 -29 -37 -44 -50 -55 -59 -64 -21 -30 -38 -45 -51 -56 -60 -65 0
-2 -3 -4 -5 -6 -7 -9 -12 -13 -14 -15 -16 -17 -19 -27 -35 -42 -48 -53 -57 -61 -29 -37 -44 -50 -55 -59 -64 -30 -38 -45 -51 -56 -60 -65 0
-1 -3 -4 -5 -6 -7 -9 -12 -22 -23 -24 -25 -26 -28 -18 -35 -42 -48 -53 -57 -61 -20 -37 -44 -50 -55 -59 -64 -21 -38 -45 -51 -56 -60 -65 0
-3 -4 -5 -6 -7 -9 -13 -14 -15 -16 -17 -19 -22 -23 -24 -25 -26 -28 -35 -42 -48 -53 -57 -61 -37 -44 -50 -55 -59 -64 -38 -45 -51 -56 -60 -65 0
-1 -2 -4 -5 -6 -7 -9 -13 -22 -31 -32 -33 -34 -36 -18 -27 -42 -48 -53 -57 -61 -20 -29 -44 -50 -55 -59 -64 -21 -30 -45 -51 -56 -60 -65 0
-2 -4 -5 -6 -7 -9 -12 -14 -15 -16 -17 -19 -22 -31 -32 -33 -34 -36 -27 -42 -48 -53 -57 -61 -29 -44 -50 -55 -59 -64 -30 -45 -51 -56 -60 -65 0
-1 -4 -5 -6 -7 -9 -12 -23 -24 -25 -26 -28 -13 -31 -32 -33 -34 -36 -18 -42 -48 -53 -57 -61 -20 -44 -50 -55 -59 -64 -21 -45 -51 -56 -60 -65 0
-4 -5 -6 -7 -9 -14 -15 -16 -17 -19 -23 -24 -25 -26 -28 -31 -32 -33 -34 -36 -42 -48 -53 -57 -61 -44 -50 -55 -59 -64 -45 -51 -56 -60 -65 0
-1 -2 -3 -5 -6 -7 -9 -14 -23 -31 -39 -40 -41 -43 -18 -27 -35 -48 -53 -57 -61 -20 -29 -37 -50 -55 -59 -64 -21 -30 -38 -51 -56 -60 -65 0
-2 -3 -5 -6 -7 -9 -12 -13 -15 -16 -17 -19 -23 -31 -39 -40 -41 -43 -27 -35 -48 -53 -57 -61 -29 -37 -50 -55 -59 -64 -30 -38 -51 -56 -60 -65 0
-1 -3 -5 -6 -7 -9 -12 -22 -24 -25 -26 -28 -14 -31 -39 -40 -41 -43 -18 -35 -48 -53 -57 -61 -20 -37 -50 -55 -59 -64 -21 -38 -51 -56 -60 -65 0
-3 -5 -6 -7 -9 -13 -15 -16 -17 -19 -22 -24 -25 -26 -28 -31 -39 -40 -41 -43 -35 -48 -53 -57 -61 -37 -50 -55 -59 -64 -38 -51 -56 -60 -65 0
-1 -2 -5 -6 -7 -9 -13 -22 -32 -33 -34 -36 -14 -23 -39 -40 -41 -43 -18 -27 -48 -53 -57 -61 -20 -29 -50 -55 -59 -64 -21 -30 -51 -56 -60 -65 0
-2 -5 -6 -7 -9 -12 -15 -16 -17 -19 -22 -32 -33 -34 -36 -23 -39 -40 -41 -43 -27 -48 -53 -57 -61 -29 -50 -55 -59 -64 -30 -51 -56 -60 -65 0
-1 -5 -6 -7 -9 -12 -24 -25 -26 -28 -13 -32 -33 -34 -36 -14 -39 -40 -41 -43 -18 -48 -53 -57 -61 -20 -50 -55 -59 -64 -21 -51 -56 -60 -65 0
-5 -6 -7 -9 -15 -16 -17 -19 -24 -25 -26 -28 -32 -33 -34 -36 -39 -40 -41 -43 -48 -53 -57 -61 -50 -55 -59 -64 -51 -56 -60 -65 0
-1 -2 -3 -4 -6 -7 -9 -15 -24 -32 -39 -46 -47 -49 -18 -27 -35 -42 -53 -57 -61 -20 -29 -37 -44 -55 -59 -64 -21 -30 -38 -45 -56 -60 -65 0
-2 -3 -4 -6 -7 -9 -12 -13 -14 -16 -17 -19 -24 -32 -39 -46 -47 -49 -27 -35 -42 -53 -57 -61 -29 -37 -44 -55 -59 -64 -30 -38 -45 -56 -60 -65 0
-1 -3 -4 -6 -7 -9 -12 -22 -23 -25 -26 -28 -15 -32 -39 -46 -47 -49 -18 -35 -42 -53 -57 -61 -20 -37 -44 -55 -59 -64 -21 -38 -45 -56 -60 -65 0
-3 -4 -6 -7 -9 -13 -14 -16 -17 -19 -22 -23 -25 -26 -28 -32 -39 -46 -47 -49 -35 -42 -53 -57 -61 -37 -44 -55 -59 -64 -38 -45 -56 -60 -65 0
-1 -2 -4 -6 -7 -9 -13 -22 -31 -33 -34 -36 -15 -24 -39 -46 -47 -49 -18 -27 -42 -53 -57 -61 -20 -29 -44 -55 -59 -64 -21 -30 -45 -56 -60 -65 0
-2 -4 -6 -7 -9 -12 -14 -16 -17 -19 -22 -31 -33 -34 -36 -24 -39 -46 -47 -49 -27 -42 -53 -57 -61 -29 -44 -55 -59 -64 -30 -45 -56 -60 -65 0
-1 -4 -6 -7 -9 -12 -23 -25 -26 -28 -13 -31 -33 -34 -36 -15 -39 -46 -47 -49 -18 -42 -53 -57 -61 -20 -44 -55 -59 -64 -21 -45 -56 -60 -65 0
-4 -6 -7 -9 -14 -16 -17 -19 -23 -25 -26 -28 -31 -33 -34 -36 -39 -46 -47 -49 -42 -53 -57 -61 -44 -55 -59 -64 -45 -56 -60 -65 0
-1 -2 -3 -6 -7 -9 -14 -23 -31 -40 -41 -43 -15 -24 -32 -46 -47 -49 -18 -27 -35 -53 -57 -61 -20 -29 -37 -55 -59 -64 -21 -30 -38 -56 -60 -65 0
-2 -3 -6 -7 -9 -12 -13 -16 -17 -19 -23 -31 -40 -41 -43 -24 -32 -46 -47 -49 -27 -35 -53 -57 -61 -29 -37 -55 -59 -64 -30 -38 -56 -60 -65 0
-1 -3 -6 -7 -9 -12 -22 -25 -26 -28 -14 -31 -40 -41 -43 -15 -32 -46 -47 -49 -18 -35 -53 -57 -61 -20 -37 -55 -59 -64 -21 -38 -56 -60 -65 0
-3 -6 -7 -9 -13 -16 -17 -19 -22 -25 -26 -28 -31 -40 -41 -43 -32 -46 -47 -49 -35 -53 -57 -61 -37 -55 -59 -64 -38 -56 -60 -65 0
-1 -2 -6 -7 -9 -13 -22 -33 -34 -36 -14 -23 -40 -41 -43 -15 -24 -46 -47 -49 -18 -27 -53 -57 -61 -20 -29 -55 -59 -64 -21 -30 -56 -60 -65 0
-2 -6 -7 -9 -12 -16 -17 -19 -22 -33 -34 -36 -23 -40 -41 -43 -24 -46 -47 -49 -27 -53 -57 -61 -29 -55 -59 -64 -30 -56 -60 -65 0
-1 -6 -7 -9 -12 -25 -26 -28 -13 -33 -34 -36 -14 -40 -41 -43 -15 -46 -47 -49 -18 -53 -57 -61 -20 -55 -59 -64 -21 -56 -60 -65 0
-6 -7 -9 -16 -17 -19 -25 -26 -28 -33 -34 -36 -40 -41 -43 -46 -47 -49 -53 -57 -61 -55 -59 -64 -56 -60 -65 0
-1 -2 -3 -4 -5 -7 -9 -16 -25 -33 -40 -46 -52 -54 -18 -27 -35 -42 -48 -57 -61 -20 -29 -37 -44 -50 -59 -64 -21 -30 -38 -45 -51 -60 -65 0
-2 -3 -4 -5 -7 -9 -12 -13 -14 -15 -17 -19 -25 -33 -40 -46 -52 -54 -27 -35 -42 -48 -57 -61 -29 -37 -44 -50 -59 -64 -30 -38 -45 -51 -60 -65 0
-1 -3 -4 -5 -7 -9 -12 -22 -23 -24 -26 -28 -16 -33 -40 -46 -52 -54 -18 -35 -42 -48 -57 -61 -20 -37 -44 -50 -59 -64 -21 -38 -45 -51 -60 -65 0
-3 -4 -5 -7 -9 -13 -14 -15 -17 -19 -22 -23 -24 -26 -28 -33 -40 -46 -52 -54 -35 -42 -48 -57 -61 -37 -44 -50 -59 -64 -38 -45 -51 -60 -65 0
-1 -2 -4 -5 -7 -9 -13 -22 -31 -32 -34 -36 -16 -25 -40 -46 -52 -54 -18 -27 -42 -48 -57 -61 -20 -29 -44 -50 -59 -64 -21 -30 -45 -51 -60 -65 0
-2 -4 -5 -7 -9 -12 -14 -15 -17 -19 -22 -31 -32 -34 -36 -25 -40 -46 -52 -54 -27 -42 -48 -57 -61 -29 -44 -50 -59 -64 -30 -45 -51 -60 -65 0
-1 -4 -5 -7 -9 -12 -23 -24 -26 -28 -13 -31 -32 -34 -36 -16 -40 -46 -52 -54 -18 -42 -48 -57 -61 -20 -44 -50 -59 -64 -21 -45 -51 -60 -65 0
-4 -5 -7 -9 -14 -15 -17 -19 -23 -24 -26 -28 -31 -32 -34 -36 -40 -46 -52 -54 -42 -48 -57 -61 -44 -50 -59 -64 -45 -51 -60 -65 0
-1 -2 -3 -5 -7 -9 -14 -23 -31 -39 -41 -43 -16 -25 -33 -46 -52 -54 -18 -27 -35 -48 -57 -61 -20 -29 -37 -50 -59 -64 -21 -30 -38 -51 -60 -65 0
-2 -3 -5 -7 -9 -12 -13 -15 -17 -19 -23 -31 -39 -41 -43 -25 -33 -46 -52 -54 -27 -35 -48 -57 -61 -29 -37 -50 -59 -64 -30 -38 -51 -60 -65 0
-1 -3 -5 -7 -9 -12 -22 -24 -26 -28 -14 -31 -39 -41 -43 -16 -33 -46 -52 -54 -18 -35 -48 -57 -61 -20 -37 -50 -59 -64 -21 -38 -51 -60 -65 0
-3 -5 -7 -9 -13 -15 -17 -19 -22 -24 -26 -28 -31 -39 -41 -43 -33 -46 -52 -54 -35 -48 -57 -61 -37 -50 -59 -64 -38 -51 -60 -65 0
-1 -2 -5 -7 -9 -13 -22 -32 -34 -36 -14 -23 -39 -41 -43 -16 -25 -46 -52 -54 -18 -27 -48 -57 -61 -20 -29 -50 -59 -64 -21 -30 -51 -60 -65 0
-2 -5 -7 -9 -12 -15 -17 -19 -22 -32 -34 -36 -23 -39 -41 -43 -25 -46 -52 -54 -27 -48 -57 -61 -29 -50 -59 -64 -30 -51 -60 -65 0
-1 -5 -7 -9 -12 -24 -26 -28 -13 -32 -34 -36 -14 -39 -41 -43 -16 -46 -52 -54 -18 -48 -57 -61 -20 -50 -59 -64 -21 -51 -60 -65 0
-5 -7 -9 -15 -17 -19 -24 -26 -28 -32 -34 -36 -39 -41 -43 -46 -52 -54 -48 -57 -61 -50 -59 -64 -51 -60 -65 0
-1 -2 -3 -4 -7 -9 -15 -24 -32 -39 -47 -49 -16 -25 -33 -40 -52 -54 -18 -27 -35 -42 -57 -61 -20 -29 -37 -44 -59 -64 -21 -30 -38 -45 -60 -65 0
-2 -3 -4 -7 -9 -12 -13 -14 -17 -19 -24 -32 -39 -47 -49 -25 -33 -40 -52 -54 -27 -35 -42 -57 -61 -29 -37 -44 -59 -64 -30 -38 -45 -60 -65 0
-1 -3 -4 -7 -9 -12 -22 -23 -26 -28 -15 -32 -39 -47 -49 -16 -33 -40 -52 -54 -18 -35 -42 -57 -61 -20 -37 -44 -59 -64 -21 -38 -45 -60 -65 0
-3 -4 -7 -9 -13 -14 -17 -19 -22 -23 -26 -28 -32 -39 -47 -49 -33 -40 -52 -54 -35 -42 -57 -61 -37 -44 -59 -64 -38 -45 -60 -65 0
-1 -2 -4 -7 -9 -13 -22 -31 -34 -36 -15 -24 -39 -47 -49 -16 -25 -40 -52 -54 -18 -27 -42 -57 -61 -20 -29 -44 -59 -64 -21 -30 -45 -60 -65 0
-2 -4 -7 -9 -12 -14 -17 -19 -22 -31 -34 -36 -24 -39 -47 -49 -25 -40 -52 -54 -27 -42 -57 -61 -29 -44 -59 -64 -30 -45 -60 -65 0
-1 -4 -7 -9 -12 -23 -26 -28 -13 -31 -34 -36 -15 -39 -47 -49 -16 -40 -52 -54 -18 -42 -57 -61 -20 -44 -59 -64 -21 -45 -60 -65 0
-4 -7 -9 -14 -17 -19 -23 -26 -28 -31 -34 -36 -39 -47 -49 -40 -52 -54 -42 -57 -61 -44 -59 -64 -45 -60 -65 0
-1 -2 -3 -7 -9 -14 -23 -31 -41 -43 -15 -24 -32 -47 -49 -16 -25 -33 -52 -54 -18 -27 -35 -57 -61 -20 -29 -37 -59 -64 -21 -30 -38 -60 -65 0
-2 -3 -7 -9 -12 -13 -17 -19 -23 -31 -41 -43 -24 -32 -47 -49 -25 -33 -52 -54 -27 -35 -57 -61 -29 -37 -59 -64 -30 -38 -60 -65 0
-1 -3 -7 -9 -12 -22 -26 -28 -14 -31 -41 -43 -15 -32 -47 -49 -16 -33 -52 -54 -18 -35 -57 -61 -20 -37 -59 -64 -21 -38 -60 -65 0
-3 -7 -9 -13 -17 -19 -22 -26 -28 -31 -41 -43 -32 -47 -49 -33 -52 -54 -35 -57 -61 -37 -59 -64 -38 -60 -65 0
-1 -2 -7 -9 -13 -22 -34 -36 -14 -23 -41 -43 -15 -24 -47 -49 -16 -25 -52 -54 -18 -27 -57 -61 -20 -29 -59 -64 -21 -30 -60 -65 0
-2 -7 -9 -12 -17 -19 -22 -34 -36 -23 -41 -43 -24 -47 -49 -25 -52 -54 -27 -57 -61 -29 -59 -64 -30 -60 -65 0
-1 -7 -9 -12 -26 -28 -13 -34 -36 -14 -41 -43 -15 -47 -49 -16 -52 -54 -18 -57 -61 -20 -59 -64 -21 -60 -65 0
-7 -9 -17 -19 -26 -28 -34 -36 -41 -43 -47 -49 -52 -54 -57 -61 -59 -64 -60 -65 0
-1 -2 -3 -4 -5 -6 -9 -17 -26 -34 -41 -47 -52 -58 -18 -27 -35 -42 -48 -53 -61 -20 -29 -37 -44 -50 -55 -64 -21 -30 -38 -45 -51 -56 -65 0
-2 -3 -4 -5 -6 -9 -12 -13 -14 -15 -16 -19 -26 -34 -41 -47 -52 -58 -27 -35 -42 -48 -53 -61 -29 -37 -44 -50 -55 -64 -30 -38 -45 -51 -56 -65 0
-1 -3 -4 -5 -6 -9 -12 -22 -23 -24 -25 -28 -17 -34 -41 -47 -52 -58 -18 -35 -42 -48 -53 -61 -20 -37 -44 -50 -55 -64 -21 -38 -45 -51 -56 -65 0
-3 -4 -5 -6 -9 -13 -14 -15 -16 -19 -22 -23 -24 -25 -28 -34 -41 -47 -52 -58 -35 -42 -48 -53 -61 -37 -44 -50 -55 -64 -38 -45 -51 -56 -65 0
-1 -2 -4 -5 -6 -9 -13 -22 -31 -32 -33 -36 -17 -26 -41 -47 -52 -58 -18 -27 -42 -48 -53 -61 -20 -29 -44 -50 -55 -64 -21 -30 -45 -51 -56 -65 0
-2 -4 -5 -6 -9 -12 -14 -15 -16 -19 -22 -31 -32 -33 -36 -26 -41 -47 -52 -58 -27 -42 -48 -53 -61 -29 -44 -50 -55 -64 -30 -45 -51 -56 -65 0
-1 -4 -5 -6 -9 -12 -23 -24 -25 -28 -13 -31 -32 -33 -36 -17 -41 -47 -52 -58 -18 -42 -48 -53 -61 -20 -44 -50 -55 -64 -21 -45 -51 -56 -65 0
-4 -5 -6 -9 -14 -15 -16 -19 -23 -24 -25 -28 -31 -32 -33 -36 -41 -47 -52 -58 -42 -48 -53 -61 -44 -50 -55 -64 -45 -51 -56 -65 0
-1 -2 -3 -5 -6 -9 -14 -23 -31 -39 -40 -43 -17 -26 -34 -47 -52 -58 -18 -27 -35 -48 -53 -61 -20 -29 -37 -50 -55 -64 -21 -30 -38 -51 -56 -65 0
-2 -3 -5 -6 -9 -12 -13 -15 -16 -19 -23 -31 -39 -40 -43 -26 -34 -47 -52 -58 -27 -35 -48 -53 -61 -29 -37 -50 -55 -64 -30 -38 -51 -56 -65 0
-1 -3 -5 -6 -9 -12 -22 -24 -25 -28 -14 -31 -39 -40 -43 -17 -34 -47 -52 -58 -18 -35 -48 -53 -61 -20 -37 -50 -55 -64 -21 -38 -51 -56 -65 0
-3 -5 -6 -9 -13 -15 -16 -19 -22 -24 -25 -28 -31 -39 -40 -43 -34 -47 -52 -58 -35 -48 -53 -61 -37 -50 -55 -64 -38 -51 -56 -65 0
-1 -2 -5 -6 -9 -13 -22 -32 -33 -36 -14 -23 -39 -40 -43 -17 -26 -47 -52 -58 -18 -27 -48 -53 -61 -20 -29 -50 -55 -64 -21 -30 -51 -56 -65 0
-2 -5 -6 -9 -12 -15 -16 -19 -22 -32 -33 -36 -23 -39 -40 -43 -26 -47 -52 -58 -27 -48 -53 -61 -29 -50 -55 -64 -30 -51 -56 -65 0
-1 -5 -6 -9 -12 -24 -25 -28 -13 -32 -33 -36 -14 -39 -40 -43 -17 -47 -52 -58 -18 -48 -53 -61 -20 -50 -55 -64 -21 -51 -56 -65 0
-5 -6 -9 -15 -16 -19 -24 -25 -28 -32 -33 -36 -39 -40 -43 -47 -52 -58 -48 -53 -61 -50 -55 -64 -51 -56 -65 0
-1 -2 -3 -4 -6 -9 -15 -24 -32 -39 -46 -49 -17 -26 -34 -41 -52 -58 -18 -27 -35 -42 -53 -61 -20 -29 -37 -44 -55 -64 -21 -30 -38 -45 -56 -65 0
-2 -3 -4 -6 -9 -12 -13 -14 -16 -19 -24 -32 -39 -46 -49 -26 -34 -41 -52 -58 -27 -35 -42 -53 -61 -29 -37 -44 -55 -64 -30 -38 -45 -56 -65 0
-1 -3 -4 -6 -9 -12 -22 -23 -25 -28 -15 -32 -39 -46 -49 -17 -34 -41 -52 -58 -18 -35 -42 -53 -61 -20 -37 -44 -55 -64 -21 -38 -45 -56 -65 0
-3 -4 -6 -9 -13 -14 -16 -19 -22 -23 -25 -28 -32 -39 -46 -49 -34 -41 -52 -58 -35 -42 -53 -61 -37 -44 -55 -64 -38 -45 -56 -65 0
-1 -2 -4 -6 -9 -13 -22 -31 -33 -36 -15 -24 -39 -46 -49 -17 -26 -41 -52 -58 -18 -27 -42 -53 -61 -20 -29 -44 -55 -64 -21 -30 -45 -56 -65 0
-2 -4 -6 -9 -12 -14 -16 -19 -22 -31 -33 -36 -24 -39 -46 -49 -26 -41 -52 -58 -27 -42 -53 -61 -29 -44 -55 -64 -30 -45 -56 -65 0
-1 -4 -6 -9 -12 -23 -25 -28 -13 -31 -33 -36 -15 -39 -46 -49 -17 -41 -52 -58 -18 -42 -53 -61 -20 -44 -55 -64 -21 -45 -56 -65 0
-4 -6 -9 -14 -16 -19 -23 -25 -28 -31 -33 -36 -39 -46 -49 -41 -52 -58 -42 -53 -61 -44 -55 -64 -45 -56 -65 0
-1 -2 -3 -6 -9 -14 -23 -31 -40 -43 -15 -24 -32 -46 -49 -17 -26 -34 -52 -58 -18 -27 -35 -53 -61 -20 -29 -37 -55 -64 -21 -30 -38 -56 -65 0
-2 -3 -6 -9 -12 -13 -16 -19 -23 -31 -40 -43 -24 -32 -46 -49 -26 -34 -52 -58 -27 -35 -53 -61 -29 -37 -55 -64 -30 -38 -56 -65 0
-1 -3 -6 -9 -12 -22 -25 -28 -14 -31 -40 -43 -15 -32 -46 -49 -17 -34 -52 -58 -18 -35 -53 -61 -20 -37 -55 -64 -21 -38 -56 -65 0
-3 -6 -9 -13 -16 -19 -22 -25 -28 -31 -40 -43 -32 -46 -49 -34 -52 -58 -35 -53 -61 -37 -55 -64 -38 -56 -65 0
-1 -2 -6 -9 -13 -22 -33 -36 -14 -23 -40 -43 -15 -24 -46 -49 -17 -26 -52 -58 -18 -27 -53 -61 -20 -29 -55 -64 -21 -30 -56 -65 0
-2 -6 -9 -12 -16 -19 -22 -33 -36 -23 -40 -43 -24 -46 -49 -26 -52 -58 -27 -53 -61 -29 -55 -64 -30 -56 -65 0
-1 -6 -9 -12 -25 -28 -13 -33 -36 -14 -40 -43 -15 -46 -49 -17 -52 -58 -18 -53 -61 -20 -55 -64 -21 -56 -65 0
-6 -9 -16 -19 -25 -28 -33 -36 -40 -43 -46 -49 -52 -58 -53 -61 -55 -64 -56 -65 0
-1 -2 -3 -4 -5 -9 -16 -25 -33 -40 -46 -54 -17 -26 -34 -41 -47 -58 -18 -27 -35 -42 -48 -61 -20 -29 -37 -44 -50 -64 -21 -30 -38 -45 -51 -65 0
-2 -3 -4 -5 -9 -12 -13 -14 -15 -19 -25 -33 -40 -46 -54 -26 -34 -41 -47 -58 -27 -35 -42 -48 -61 -29 -37 -44 -50 -64 -30 -38 -45 -51 -65 0
-1 -3 -4 -5 -9 -12 -22 -23 -24 -28 -16 -33 -40 -46 -54 -17 -34 -41 -47 -58 -18 -35 -42 -48 -61 -20 -37 -44 -50 -64 -21 -38 -45 -51 -65 0
-3 -4 -5 -9 -13 -14 -15 -19 -22 -23 -24 -28 -33 -40 -46 -54 -34 -41 -47 -58 -35 -42 -48 -61 -37 -44 -50 -64 -38 -45 -51 -65 0
-1 -2 -4 -5 -9 -13 -22 -31 -32 -36 -16 -25 -40 -46 -54 -17 -26 -41 -47 -58 -18 -27 -42 -48 -61 -20 -29 -44 -50 -64 -21 -30 -45 -51 -65 0
-2 -4 -5 -9 -12 -14 -15 -19 -22 -31 -32 -36 -25 -40 -46 -54 -26 -41 -47 -58 -27 -42 -48 -61 -29 -44 -50 -64 -30 -45 -51 -65 0
-1 -4 -5 -9 -12 -23 -24 -28 -13 -31 -32 -36 -16 -40 -46 -54 -17 -41 -47 -58 -18 -42 -48 -61 -20 -44 -50 -64 -21 -45 -51 -65 0
-4 -5 -9 -14 -15 -19 -23 -24 -28 -31 -32 -36 -40 -46 -54 -41 -47 -58 -42 -48 -61 -44 -50 -64 -45 -51 -65 0
-1 -2 -3 -5 -9 -14 -23 -31 -39 -43 -16 -25 -33 -46 -54 -17 -26 -34 -47 -58 -18 -27 -35 -48 -61 -20 -29 -37 -50 -64 -21 -30 -38 -51 -65 0
-2 -3 -5 -9 -12 -13 -15 -19 -23 -31 -39 -43 -25 -33 -46 -54 -26 -34 -47 -58 -27 -35 -48 -61 -29 -37 -50 -64 -30 -38 -51 -65 0
-1 -3 -5 -9 -12 -22 -24 -28 -14 -31 -39 -43 -16 -33 -46 -54 -17 -34 -47 -58 -18 -35 -48 -61 -20 -37 -50 -64 -21 -38 -51 -65 0
-3 -5 -9 -13 -15 -19 -22 -24 -28 -31 -39 -43 -33 -46 -54 -34 -47 -58 -35 -48 -61 -37 -50 -64 -38 -51 -65 0
-1 -2 -5 -9 -13 -22 -32 -36 -14 -23 -39 -43 -16 -25 -46 -54 -17 -26 -47 -58 -18 -27 -48 -61 -20 -29 -50 -64 -21 -30 -51 -65 0
-2 -5 -9 -12 -15 -19 -22 -32 -36 -23 -39 -43 -25 -46 -54 -26 -47 -58 -27 -48 -61 -29 -50 -64 -30 -51 -65 0
-1 -5 -9 -12 -24 -28 -13 -32 -36 -14 -39 -43 -16 -46 -54 -17 -47 -58 -18 -48 -61 -20 -50 -64 -21 -51 -65 0
-5 -9 -15 -19 -24 -28 -32 -36 -39 -43 -46 -54 -47 -58 -48 -61 -50 -64 -51 -65 0
-1 -2 -3 -4 -9 -15 -24 -32 -39 -49 -16 -25 -33 -40 -54 -17 -26 -34 -41 -58 -18 -27 -35 -42 -61 -20 -29 -37 -44 -64 -21 -30 -38 -45 -65 0
-2 -3 -4 -9 -12 -13 -14 -19 -24 -32 -39 -49 -25 -33 -40 -54 -26 -34 -41 -58 -27 -35 -42 -61 -29 -37 -44 -64 -30 -38 -45 -65 0
-1 -3 -4 -9 -12 -22 -23 -28 -15 -32 -39 -49 -16 -33 -40 -54 -17 -34 -41 -58 -18 -35 -42 -61 -20 -37 -44 -64 -21 -38 -45 -65 0
-3 -4 -9 -13 -14 -19 -22 -23 -28 -32 -39 -49 -33 -40 -54 -34 -41 -58 -35 -42 -61 -37 -44 -64 -38 -45 -65 0
-1 -2 -4 -9 -13 -22 -31 -36 -15 -24 -39 -49 -16 -25 -40 -54 -17 -26 -41 -58 -18 -27 -42 -61 -20 -29 -44 -64 -21 -30 -45 -65 0
-2 -4 -9 -12 -14 -19 -22 -31 -36 -24 -39 -49 -25 -40 -54 -26 -41 -58 -27 -42 -61 -29 -44 -64 -30 -45 -65 0
-1 -4 -9 -12 -23 -28 -13 -31 -36 -15 -39 -49 -16 -40 -54 -17 -41 -58 -18 -42 -61 -20 -44 -64 -21 -45 -65 0
-4 -9 -14 -19 -23 -28 -31 -36 -39 -49 -40 -54 -41 -58 -42 -61 -44 -64 -45 -65 0
-1 -2 -3 -9 -14 -23 -31 -43 -15 -24 -32 -49 -16 -25 -33 -54 -17 -26 -34 -58 -18 -27 -35 -61 -20 -29 -37 -64 -21 -30 -38 -65 0
-2 -3 -9 -12 -13 -19 -23 -31 -43 -24 -32 -49 -25 -33 -54 -26 -34 -58 -27 -35 -61 -29 -37 -64 -30 -38 -65 0
-1 -3 -9 -12 -22 -28 -14 -31 -43 -15 -32 -49 -16 -33 -54 -17 -34 -58 -18 -35 -61 -20 -37 -64 -21 -38 -65 0
-3 -9 -13 -19 -22 -28 -31 -43 -32 -49 -33 -54 -34 -58 -35 -61 -37 -64 -38 -65 0
-1 -2 -9 -13 -22 -36 -14 -23 -43 -15 -24 -49 -16 -25 -54 -17 -26 -58 -18 -27 -61 -20 -29 -64 -21 -30 -65 0
-2 -9 -12 -19 -22 -36 -23 -43 -24 -49 -25 -54 -26 -58 -27 -61 -29 -64 -30 -65 0
-1 -9 -12 -28 -13 -36 -14 -43 -15 -49 -16 -54 -17 -58 -18 -61 -20 -64 -21 -65 0
-9 -19 -28 -36 -43 -49 -54 -58 -61 -64 -65 0
-1 -2 -3 -4 -5 -6 -7 -8 -19 -28 -36 -43 -49 -54 -58 -61 -20 -29 -37 -44 -50 -55 -59 -62 -21 -30 -38 -45 -51 -56 -60 -63 0
-2 -3 -4 -5 -6 -7 -8 -12 -13 -14 -15 -16 -17 -18 -28 -36 -43 -49 -54 -58 -61 -29 -37 -44 -50 -55 -59 -62 -30 -38 -45 -51 -56 -60 -63 0
-1 -3 -4 -5 -6 -7 -8 -12 -22 -23 -24 -25 -26 -27 -19 -36 -43 -49 -54 -58 -61 -20 -37 -44 -50 -55 -59 -62 -21 -38 -45 -51 -56 -60 -63 0
-3 -4 -5 -6 -7 -8 -13 -14 -15 -16 -17 -18 -22 -23 -24 -25 -26 -27 -36 -43 -49 -54 -58 -61 -37 -44 -50 -55 -59 -62 -38 -45 -51 -56 -60 -63 0
-1 -2 -4 -5 -6 -7 -8 -13 -22 -31 -32 -33 -34 -35 -19 -28 -43 -49 -54 -58 -61 -20 -29 -44 -50 -55 -59 -62 -21 -30 -45 -51 -56 -60 -63 0
-2 -4 -5 -6 -7 -8 -12 -14 -15 -16 -17 -18 -22 -31 -32 -33 -34 -35 -28 -43 -49 -54 -58 -61 -29 -44 -50 -55 -59 -62 -30 -45 -51 -56 -60 -63 0
-1 -4 -5 -6 -7 -8 -12 -23 -24 -25 -26 -27 -13 -31 -32 -33 -34 -35 -19 -43 -49 -54 -58 -61 -20 -44 -50 -55 -59 -62 -21 -45 -51 -56 -60 -63 0
-4 -5 -6 -7 -8 -14 -15 -16 -17 -18 -23 -24 -25 -26 -27 -31 -32 -33 -34 -35 -43 -49 -54 -58 -61 -44 -50 -55 -59 -62 -45 -51 -56 -60 -63 0
-1 -2 -3 -5 -6 -7 -8 -14 -23 -31 -39 -40 -41 -42 -19 -28 -36 -49 -54 -58 -61 -20 -29 -37 -50 -55 -59 -62 -21 -30 -38 -51 -56 -60 -63 0
-2 -3 -5 -6 -7 -8 -12 -13 -15 -16 -17 -18 -23 -31 -39 -40 -41 -42 -28 -36 -49 -54 -58 -61 -29 -37 -50 -55 -59 -62 -30 -38 -51 -56 -60 -63 0
-1 -3 -5 -6 -7 -8 -12 -22 -24 -25 -26 -27 -14 -31 -39 -40 -41 -42 -19 -36 -49 -54 -58 -61 -20 -37 -50 -55 -59 -62 -21 -38 -51 -56 -60 -63 0
-3 -5 -6 -7 -8 -13 -15 -16 -17 -18 -22 -24 -25 -26 -27 -31 -39 -40 -41 -42 -36 -49 -54 -58 -61 -37 -50 -55 -59 -62 -38 -51 -56 -60 -63 0
-1 -2 -5 -6 -7 -8 -13 -22 -32 -33 -34 -35 -14 -23 -39 -40 -41 -42 -19 -28 -49 -54 -58 -61 -20 -29 -50 -55 -59 -62 -21 -30 -51 -56 -60 -63 0
-2 -5 -6 -7 -8 -12 -15 -16 -17 -18 -22 -32 -33 -34 -35 -23 -39 -40 -41 -42 -28 -49 -54 -58 -61 -29 -50 -55 -59 -62 -30 -51 -56 -60 -63 0
-1 -5 -6 -7 -8 -12 -24 -25 -26 -27 -13 -32 -33 -34 -35 -14 -39 -40 -41 -42 -19 -49 -54 -58 -61 -20 -50 -55 -59 -62 -21 -51 -56 -60 -63 0
-5 -6 -7 -8 -15 -16 -17 -18 -24 -25 -26 -27 -32 -33 -34 -35 -39 -40 -41 -42 -49 -54 -58 -61 -50 -55 -59 -62 -51 -56 -60 -63 0
-1 -2 -3 -4 -6 -7 -8 -15 -24 -32 -39 -46 -47 -48 -19 -28 -36 -43 -54 -58 -61 -20 -29 -37 -44 -55 -59 -62 -21 -30 -38 -45 -56 -60 -63 0
-2 -3 -4 -6 -7 -8 -12 -13 -14 -16 -17 -18 -24 -32 -39 -46 -47 -48 -28 -36 -43 -54 -58 -61 -29 -37 -44 -55 -59 -62 -30 -38 -45 -56 -60 -63 0
-1 -3 -4 -6 -7 -8 -12 -22 -23 -25 -26 -27 -15 -32 -39 -46 -47 -48 -19 -36 -43 -54 -58 -61 -20 -37 -44 -55 -59 -62 -21 -38 -45 -56 -60 -63 0
-3 -4 -6 -7 -8 -13 -14 -16 -17 -18 -22 -23 -25 -26 -27 -32 -39 -46 -47 -48 -36 -43 -54 -58 -61 -37 -44 -55 -59 -62 -38 -45 -56 -60 -63 0
-1 -2 -4 -6 -7 -8 -13 -22 -31 -33 -34 -35 -15 -24 -39 -46 -47 -48 -19 -28 -43 -54 -58 -61 -20 -29 -44 -55 -59 -62 -21 -30 -45 -56 -60 -63 0
-2 -4 -6 -7 -8 -12 -14 -16 -17 -18 -22 -31 -33 -34 -35 -24 -39 -46 -47 -48 -28 -43 -54 -58 -61 -29 -44 -55 -59 -62 -30 -45 -56 -60 -63 0
-1 -4 -6 -7 -8 -12 -23 -25 -26 -27 -13 -31 -33 -34 -35 -15 -39 -46 -47 -48 -19 -43 -54 -58 -61 -20 -44 -55 -59 -62 -21 -45 -56 -60 -63 0
-4 -6 -7 -8 -14 -16 -17 -18 -23 -25 -26 -27 -31 -33 -34 -35 -39 -46 -47 -48 -43 -54 -58 -61 -44 -55 -59 -62 -45 -56 -60 -63 0
-1 -2 -3 -6 -7 -8 -14 -23 -31 -40 -41 -42 -15 -24 -32 -46 -47 -48 -19 -28 -36 -54 -58 -61 -20 -29 -37 -55 -59 -62 -21 -30 -38 -56 -60 -63 0
-2 -3 -6 -7 -8 -12 -13 -16 -17 -18 -23 -31 -40 -41 -42 -24 -32 -46 -47 -48 -28 -36 -54 -58 -61 -29 -37 -55 -59 -62 -30 -38 -56 -60 -63 0
-1 -3 -6 -7 -8 -12 -22 -25 -26 -27 -14 -31 -40 -41 -42 -15 -32 -46 -47 -48 -19 -36 -54 -58 -61 -20 -37 -55 -59 -62 -21 -38 -56 -60 -63 0
-3 -6 -7 -8 -13 -16 -17 -18 -22 -25 -26 -27 -31 -40 -41 -42 -32 -46 -47 -48 -36 -54 -58 -61 -37 -55 -59 -62 -38 -56 -60 -63 0
-1 -2 -6 -7 -8 -13 -22 -33 -34 -35 -14 -23 -40 -41 -42 -15 -24 -46 -47 -48 -19 -28 -54 -58 -61 -20 -29 -55 -59 -62 -21 -30 -56 -60 -63 0
-2 -6 -7 -8 -12 -16 -17 -18 -22 -33 -34 -35 -23 -40 -41 -42 -24 -46 -47 -48 -28 -54 -58 -61 -29 -55 -59 -62 -30 -56 -60 -63 0
-1 -6 -7 -8 -12 -25 -26 -27 -13 -33 -34 -35 -14 -40 -41 -42 -15 -46 -47 -48 -19 -54 -58 -61 -20 -55 -59 -62 -21 -56 -60 -63 0
-6 -7 -8 -16 -17 -18 -25 -26 -27 -33 -34 -35 -40 -41 -42 -46 -47 -48 -54 -58 -61 -55 -59 -62 -56 -60 -63 0
-1 -2 -3 -4 -5 -7 -8 -16 -25 -33 -40 -46 -52 -53 -19 -28 -36 -43 -49 -58 -61 -20 -29 -37 -44 -50 -59 -62 -21 -30 -38 -45 -51 -60 -63 0
-2 -3 -4 -5 -7 -8 -12 -13 -14 -15 -17 -18 -25 -33 -40 -46 -52 -53 -28 -36 -43 -49 -58 -61 -29 -37 -44 -50 -59 -62 -30 -38 -45 -51 -60 -63 0
-1 -3 -4 -5 -7 -8 -12 -22 -23 -24 -26 -27 -16 -33 -40 -46 -52 -53 -19 -36 -43 -49 -58 -61 -20 -37 -44 -50 -59 -62 -21 -38 -45 -51 -60 -63 0
-3 -4 -5 -7 -8 -13 -14 -15 -17 -18 -22 -23 -24 -26 -27 -33 -40 -46 -52 -53 -36 -43 -49 -58 -61 -37 -44 -50 -59 -62 -38 -45 -51 -60 -63 0
-1 -2 -4 -5 -7 -8 -13 -22 -31 -32 -34 -35 -16 -25 -40 -46 -52 -53 -19 -28 -43 -49 -58 -61 -20 -29 -44 -50 -59 -62 -21 -30 -45 -51 -60 -63 0
-2 -4 -5 -7 -8 -12 -14 -15 -17 -18 -22 -31 -32 -34 -35 -25 -40 -46 -52 -53 -28 -43 -49 -58 -61 -29 -44 -50 -59 -62 -30 -45 -51 -60 -63 0
-1 -4 -5 -7 -8 -12 -23 -24 -26 -27 -13 -31 -32 -34 -35 -16 -40 -46 -52 -53 -19 -43 -49 -58 -61 -20 -44 -50 -59 -62 -21 -45 -51 -60 -63 0
-4 -5 -7 -8 -14 -15 -17 -18 -23 -24 -26 -27 -31 -32 -34 -35 -40 -46 -52 -53 -43 -49 -58 -61 -44 -50 -59 -62 -45 -51 -60 -63 0
-1 -2 -3 -5 -7 -8 -14 -23 -31 -39 -41 -42 -16 -25 -33 -46 -52 -53 -19 -28 -36 -49 -58 -61 -20 -29 -37 -50 -59 -62 -21 -30 -38 -51 -60 -63 0
-2 -3 -5 -7 -8 -12 -13 -15 -17 -18 -23 -31 -39 -41 -42 -25 -33 -46 -52 -53 -28 -36 -49 -58 -61 -29 -37 -50 -59 -62 -30 -38 -51 -60 -63 0
-1 -3 -5 -7 -8 -12 -22 -24 -26 -27 -14 -31 -39 -41 -42 -16 -33 -46 -52 -53 -19 -36 -49 -58 -61 -20 -37 -50 -59 -62 -21 -38 -51 -60 -63 0
-3 -5 -7 -8 -13 -15 -17 -18 -22 -24 -26 -27 -31 -39 -41 -42 -33 -46 -52 -53 -36 -49 -58 -61 -37 -50 -59 -62 -38 -51 -60 -63 0
-1 -2 -5 -7 -8 -13 -22 -32 -34 -35 -14 -23 -39 -41 -42 -16 -25 -46 -52 -53 -19 -28 -49 -58 -61 -20 -29 -50 -59 -62 -21 -30 -51 -60 -63 0
-2 -5 -7 -8 -12 -15 -17 -18 -22 -32 -34 -35 -23 -39 -41 -42 -25 -46 -52 -53 -28 -49 -58 -61 -29 -50 -59 -62 -30 -51 -60 -63 0
-1 -5 -7 -8 -12 -24 -26 -27 -13 -32 -34 -35 -14 -39 -41 -42 -16 -46 -52 -53 -19 -49 -58 -61 -20 -50 -59 -62 -21 -51 -60 -63 0
-5 -7 -8 -15 -17 -18 -24 -26 -27 -32 -34 -35 -39 -41 -42 -46 -52 -53 -49 -58 -61 -50 -59 -62 -51 -60 -63 0
-1 -2 -3 -4 -7 -8 -15 -24 -32 -39 -47 -48 -16 -25 -33 -40 -52 -53 -19 -28 -36 -43 -58 -61 -20 -29 -37 -44 -59 -62 -21 -30 -38 -45 -60 -63 0
-2 -3 -4 -7 -8 -12 -13 -14 -17 -18 -24 -32 -39 -47 -48 -25 -33 -40 -52 -53 -28 -36 -43 -58 -61 -29 -37 -44 -59 -62 -30 -38 -45 -60 -63 0
-1 -3 -4 -7 -8 -12 -22 -23 -26 -27 -15 -32 -39 -47 -48 -16 -33 -40 -52 -53 -19 -36 -43 -58 -61 -20 -37 -44 -59 -62 -21 -38 -45 -60 -63 0
-3 -4 -7 -8 -13 -14 -17 -18 -22 -23 -26 -27 -32 -39 -47 -48 -33 -40 -52 -53 -36 -43 -58 -61 -37 -44 -59 -62 -38 -45 -60 -63 0
-1 -2 -4 -7 -8 -13 -22 -31 -34 -35 -15 -24 -39 -47 -48 -16 -25 -40 -52 -53 -19 -28 -43 -58 -61 -20 -29 -44 -59 -62 -21 -30 -45 -60 -63 0
-2 -4 -7 -8 -12 -14 -17 -18 -22 -31 -34 -35 -24 -39 -47 -48 -25 -40 -52 -53 -28 -43 -58 -61 -29 -44 -59 -62 -30 -45 -60 -63 0
-1 -4 -7 -8 -12 -23 -26 -27 -13 -31 -34 -35 -15 -39 -47 -48 -16 -40 -52 -53 -19 -43 -58 -61 -20 -44 -59 -62 -21 -45 -60 -63 0
-4 -7 -8 -14 -17 -18 -23 -26 -27 -31 -34 -35 -39 -47 -48 -40 -52 -53 -43 -58 -61 -44 -59 -62 -45 -60 -63 0
-1 -2 -3 -7 -8 -14 -23 -31 -41 -42 -15 -24 -32 -47 -48 -16 -25 -33 -52 -53 -19 -28 -36 -58 -61 -20 -29 -37 -59 -62 -21 -30 -38 -60 -63 0
-2 -3 -7 -8 -12 -13 -17 -18 -23 -31 -41 -42 -24 -32 -47 -48 -25 -33 -52 -53 -28 -36 -58 -61 -29 -37 -59 -62 -30 -38 -60 -63 0
-1 -3 -7 -8 -12 -22 -26 -27 -14 -31 -41 -42 -15 -32 -47 -48 -16 -33 -52 -53 -19 -36 -58 -61 -20 -37 -59 -62 -21 -38 -60 -63 0
-3 -7 -8 -13 -17 -18 -22 -26 -27 -31 -41 -42 -32 -47 -48 -33 -52 -53 -36 -58 -61 -37 -59 -62 -38 -60 -63 0
-1 -2 -7 -8 -13 -22 -34 -35 -14 -23 -41 -42 -15 -24 -47 -48 -16 -25 -52 -53 -19 -28 -58 -61 -20 -29 -59 -62 -21 -30 -60 -63 0
-2 -7 -8 -12 -17 -18 -22 -34 -35 -23 -41 -42 -24 -47 -48 -25 -52 -53 -28 -58 -61 -29 -59 -62 -30 -60 -63 0
-1 -7 -8 -12 -26 -27 -13 -34 -35 -14 -41 -42 -15 -47 -48 -16 -52 -53 -19 -58 -61 -20 -59 -62 -21 -60 -63 0
-7 -8 -17 -18 -26 -27 -34 -35 -41 -42 -47 -48 -52 -53 -58 -61 -59 -62 -60 -63 0
-1 -2 -3 -4 -5 -6 -8 -17 -26 -34 -41 -47 -52 -57 -19 -28 -36 -43 -49 -54 -61 -20 -29 -37 -44 -50 -55 -62 -21 -30 -38 -45 -51 -56 -63 0
-2 -3 -4 -5 -6 -8 -12 -13 -14 -15 -16 -18 -26 -34 -41 -47 -52 -57 -28 -36 -43 -49 -54 -61 -29 -37 -44 -50 -55 -62 -30 -38 -45 -51 -56 -63 0
-1 -3 -4 -5 -6 -8 -12 -22 -23 -24 -25 -27 -17 -34 -41 -47 -52 -57 -19 -36 -43 -49 -54 -61 -20 -37 -44 -50 -55 -62 -21 -38 -45 -51 -56 -63 0
-3 -4 -5 -6 -8 -13 -14 -15 -16 -18 -22 -23 -24 -25 -27 -34 -41 -47 -52 -57 -36 -43 -49 -54 -61 -37 -44 -50 -55 -62 -38 -45 -51 -56 -63 0
-1 -2 -4 -5 -6 -8 -13 -22 -31 -32 -33 -35 -17 -26 -41 -47 -52 -57 -19 -28 -43 -49 -54 -61 -20 -29 -44 -50 -55 -62 -21 -30 -45 -51 -56 -63 0
-2 -4 -5 -6 -8 -12 -14 -15 -16 -18 -22 -31 -32 -33 -35 -26 -41 -47 -52 -57 -28 -43 -49 -54 -61 -29 -44 -50 -55 -62 -30 -45 -51 -56 -63 0
-1 -4 -5 -6 -8 -12 -23 -24 -25 -27 -13 -31 -32 -33 -35 -17 -41 -47 -52 -57 -19 -43 -49 -54 -61 -20 -44 -50 -55 -62 -21 -45 -51 -56 -63 0
-4 -5 -6 -8 -14 -15 -16 -18 -23 -24 -25 -27 -31 -32 -33 -35 -41 -47 -52 -57 -43 -49 -54 -61 -44 -50 -55 -62 -45 -51 -56 -63 0
-1 -2 -3 -5 -6 -8 -14 -23 -31 -39 -40 -42 -17 -26 -34 -47 -52 -57 -19 -28 -36 -49 -54 -61 -20 -29 -37 -50 -55 -62 -21 -30 -38 -51 -56 -63 0
-2 -3 -5 -6 -8 -12 -13 -15 -16 -18 -23 -31 -39 -40 -42 -26 -34 -47 -52 -57 -28 -36 -49 -54 -61 -29 -37 -50 -55 -62 -30 -38 -51 -56 -63 0
-1 -3 -5 -6 -8 -12 -22 -24 -25 -27 -14 -31 -39 -40 -42 -17 -34 -47 -52 -57 -19 -36 -49 -54 -61 -20 -37 -50 -55 -62 -21 -38 -51 -56 -63 0
-3 -5 -6 -8 -13 -15 -16 -18 -22 -24 -25 -27 -31 -39 -40 -42 -34 -47 -52 -57 -36 -49 -54 -61 -37 -50 -55 -62 -38 -51 -56 -63 0
-1 -2 -5 -6 -8 -13 -22 -32 -33 -35 -14 -23 -39 -40 -42 -17 -26 -47 -52 -57 -19 -28 -49 -54 -61 -20 -29 -50 -55 -62 -21 -30 -51 -56 -63 0
-2 -5 -6 -8 -12 -15 -16 -18 -22 -32 -33 -35 -23 -39 -40 -42 -26 -47 -52 -57 -28 -49 -54 -61 -29 -50 -55 -62 -30 -51 -56 -63 0
-1 -5 -6 -8 -12 -24 -25 -27 -13 -32 -33 -35 -14 -39 -40 -42 -17 -47 -52 -57 -19 -49 -54 -61 -20 -50 -55 -62 -21 -51 -56 -63 0
-5 -6 -8 -15 -16 -18 -24 -25 -27 -32 -33 -35 -39 -40 -42 -47 -52 -57 -49 -54 -61 -50 -55 -62 -51 -56 -63 0
-1 -2 -3 -4 -6 -8 -15 -24 -32 -39 -46 -48 -17 -26 -34 -41 -52 -57 -19 -28 -36 -43 -54 -61 -20 -29 -37 -44 -55 -62 -21 -30 -38 -45 -56 -63 0
-2 -3 -4 -6 -8 -12 -13 -14 -16 -18 -24 -32 -39 -46 -48 -26 -34 -41 -52 -57 -28 -36 -43 -54 -61 -29 -37 -44 -55 -62 -30 -38 -45 -56 -63 0
-1 -3 -4 -6 -8 -12 -22 -23 -25 -27 -15 -32 -39 -46 -48 -17 -34 -41 -52 -57 -19 -36 -43 -54 -61 -20 -37 -44 -55 -62 -21 -38 -45 -56 -63 0
-3 -4 -6 -8 -13 -14 -16 -18 -22 -23 -25 -27 -32 -39 -46 -48 -34 -41 -52 -57 -36 -43 -54 -61 -37 -44 -55 -62 -38 -45 -56 -63 0
-1 -2 -4 -6 -8 -13 -22 -31 -33 -35 -15 -24 -39 -46 -48 -17 -26 -41 -52 -57 -19 -28 -43 -54 -61 -20 -29 -44 -55 -62 -21 -30 -45 -56 -63 0
-2 -4 -6 -8 -12 -14 -16 -18 -22 -31 -33 -35 -24 -39 -46 -48 -26 -41 -52 -57 -28 -43 -54 -61 -29 -44 -55 -62 -30 -45 -56 -63 0
-1 -4 -6 -8 -12 -23 -25 -27 -13 -31 -33 -35 -15 -39 -46 -48 -17 -41 -52 -57 -19 -43 -54 -61 -20 -44 -55 -62 -21 -45 -56 -63 0
-4 -6 -8 -14 -16 -18 -23 -25 -27 -31 -33 -35 -39 -46 -48 -41 -52 -57 -43 -54 -61 -44 -55 -62 -45 -56 -63 0
-1 -2 -3 -6 -8 -14 -23 -31 -40 -42 -15 -24 -32 -46 -48 -17 -26 -34 -52 -57 -19 -28 -36 -54 -61 -20 -29 -37 -55 -62 -21 -30 -38 -56 -63 0
-2 -3 -6 -8 -12 -13 -16 -18 -23 -31 -40 -42 -24 -32 -46 -48 -26 -34 -52 -57 -28 -36 -54 -61 -29 -37 -55 -62 -30 -38 -56 -63 0
-1 -3 -6 -8 -12 -22 -25 -27 -14 -31 -40 -42 -15 -32 -46 -48 -17 -34 -52 -57 -19 -36 -54 -61 -20 -37 -55 -62 -21 -38 -56 -63 0
-3 -6 -8 -13 -16 -18 -22 -25 -27 -31 -40 -42 -32 -46 -48 -34 -52 -57 -36 -54 -61 -37 -55 -62 -38 -56 -63 0
-1 -2 -6 -8 -13 -22 -33 -35 -14 -23 -40 -42 -15 -24 -46 -48 -17 -26 -52 -57 -19 -28 -54 -61 -20 -29 -55 -62 -21 -30 -56 -63 0
-2 -6 -8 -12 -16 -18 -22 -33 -35 -23 -40 -42 -24 -46 -48 -26 -52 -57 -28 -54 -61 -29 -55 -62 -30 -56 -63 0
-1 -6 -8 -12 -25 -27 -13 -33 -35 -14 -40 -42 -15 -46 -48 -17 -52 -57 -19 -54 -61 -20 -55 -62 -21 -56 -63 0
-6 -8 -16 -18 -25 -27 -33 -35 -40 -42 -46 -48 -52 -57 -54 -61 -55 -62 -56 -63 0
-1 -2 -3 -4 -5 -8 -16 -25 -33 -40 -46 -53 -17 -26 -34 -41 -47 -57 -19 -28 -36 -43 -49 -61 -20 -29 -37 -44 -50 -62 -21 -30 -38 -45 -51 -63 0
-2 -3 -4 -5 -8 -12 -13 -14 -15 -18 -25 -33 -40 -46 -53 -26 -34 -41 -47 -57 -28 -36 -43 -49 -61 -29 -37 -44 -50 -62 -30 -38 -45 -51 -63 0
-1 -3 -4 -5 -8 -12 -22 -23 -24 -27 -16 -33 -40 -46 -53 -17 -34 -41 -47 -57 -19 -36 -43 -49 -61 -20 -37 -44 -50 -62 -21 -38 -45 -51 -63 0
-3 -4 -5 -8 -13 -14 -15 -18 -22 -23 -24 -27 -33 -40 -46 -53 -34 -41 -47 -57 -36 -43 -49 -61 -37 -44 -50 -62 -38 -45 -51 -63 0
-1 -2 -4 -5 -8 -13 -22 -31 -32 -35 -16 -25 -40 -46 -53 -17 -26 -41 -47 -57 -19 -28 -43 -49 -61 -20 -29 -44 -50 -62 -21 -30 -45 -51 -63 0
-2 -4 -5 -8 -12 -14 -15 -18 -22 -31 -32 -35 -25 -40 -46 -53 -26 -41 -47 -57 -28 -43 -49 -61 -29 -44 -50 -62 -30 -45 -51 -63 0
-1 -4 -5 -8 -12 -23 -24 -27 -13 -31 -32 -35 -16 -40 -46 -53 -17 -41 -47 -57 -19 -43 -49 -61 -20 -44 -50 -62 -21 -45 -51 -63 0
-4 -5 -8 -14 -15 -18 -23 -24 -27 -31 -32 -35 -40 -46 -53 -41 -47 -57 -43 -49 -61 -44 -50 -62 -45 -51 -63 0
-1 -2 -3 -5 -8 -14 -23 -31 -39 -42 -16 -25 -33 -46 -53 -17 -26 -34 -47 -57 -19 -28 -36 -49 -61 -20 -29 -37 -50 -62 -21 -30 -38 -51 -63 0
-2 -3 -5 -8 -12 -13 -15 -18 -23 -31 -39 -42 -25 -33 -46 -53 -26 -34 -47 -57 -28 -36 -49 -61 -29 -37 -50 -62 -30 -38 -51 -63 0
-1 -3 -5 -8 -12 -22 -24 -27 -14 -31 -39 -42 -16 -33 -46 -53 -17 -34 -47 -57 -19 -36 -49 -61 -20 -37 -50 -62 -21 -38 -51 -63 0
-3 -5 -8 -13 -15 -18 -22 -24 -27 -31 -39 -42 -33 -46 -53 -34 -47 -57 -36 -49 -61 -37 -50 -62 -38 -51 -63 0
-1 -2 -5 -8 -13 -22 -32 -35 -14 -23 -39 -42 -16 -25 -46 -53 -17 -26 -47 -57 -19 -28 -49 -61 -20 -29 -50 -62 -21 -30 -51 -63 0
-2 -5 -8 -12 -15 -18 -22 -32 -35 -23 -39 -42 -25 -46 -53 -26 -47 -57 -28 -49 -61 -29 -50 -62 -30 -51 -63 0
-1 -5 -8 -12 -24 -27 -13 -32 -35 -14 -39 -42 -16 -46 -53 -17 -47 -57 -19 -49 -61 -20 -50 -62 -21 -51 -63 0
-5 -8 -15 -18 -24 -27 -32 -35 -39 -42 -46 -53 -47 -57 -49 -61 -50 -62 -51 -63 0
-1 -2 -3 -4 -8 -15 -24 -32 -39 -48 -16 -25 -33 -40 -53 -17 -26 -34 -41 -57 -19 -28 -36 -43 -61 -20 -29 -37 -44 -62 -21 -30 -38 -45 -63 0
-2 -3 -4 -8 -12 -13 -14 -18 -24 -32 -39 -48 -25 -33 -40 -53 -26 -34 -41 -57 -28 -36 -43 -61 -29 -37 -44 -62 -30 -38 -45 -63 0
-1 -3 -4 -8 -12 -22 -23 -27 -15 -32 -39 -48 -16 -33 -40 -53 -17 -34 -41 -57 -19 -36 -43 -61 -20 -37 -44 -62 -21 -38 -45 -63 0
-3 -4 -8 -13 -14 -18 -22 -23 -27 -32 -39 -48 -33 -40 -53 -34 -41 -57 -36 -43 -61 -37 -44 -62 -38 -45 -63 0
-1 -2 -4 -8 -13 -22 -31 -35 -15 -24 -39 -48 -16 -25 -40 -53 -17 -26 -41 -57 -19 -28 -43 -61 -20 -29 -44 -62 -21 -30 -45 -63 0
-2 -4 -8 -12 -14 -18 -22 -31 -35 -24 -39 -48 -25 -40 -53 -26 -41 -57 -28 -43 -61 -29 -44 -62 -30 -45 -63 0
-1 -4 -8 -12 -23 -27 -13 -31 -35 -15 -39 -48 -16 -40 -53 -17 -41 -57 -19 -43 -61 -20 -44 -62 -21 -45 -63 0
-4 -8 -14 -18 -23 -27 -31 -35 -39 -48 -40 -53 -41 -57 -43 -61 -44 -62 -45 -63 0
-1 -2 -3 -8 -14 -23 -31 -42 -15 -24 -32 -48 -16 -25 -33 -53 -17 -26 -34 -57 -19 -28 -36 -61 -20 -29 -37 -62 -21 -30 -38 -63 0
-2 -3 -8 -12 -13 -18 -23 -31 -42 -24 -32 -48 -25 -33 -53 -26 -34 -57 -28 -36 -61 -29 -37 -62 -30 -38 -63 0
-1 -3 -8 -12 -22 -27 -14 -31 -42 -15 -32 -48 -16 -33 -53 -17 -34 -57 -19 -36 -61 -20 -37 -62 -21 -38 -63 0
-3 -8 -13 -18 -22 -27 -31 -42 -32 -48 -33 -53 -34 -57 -36 -61 -37 -62 -38 -63 0
-1 -2 -8 -13 -22 -35 -14 -23 -42 -15 -24 -48 -16 -25 -53 -17 -26 -57 -19 -28 -61 -20 -29 -62 -21 -30 -63 0
-2 -8 -12 -18 -22 -35 -23 -42 -24 -48 -25 -53 -26 -57 -28 -61 -29 -62 -30 -63 0
-1 -8 -12 -27 -13 -35 -14 -42 -15 -48 -16 -53 -17 -57 -19 -61 -20 -62 -21 -63 0
-8 -18 -27 -35 -42 -48 -53 -57 -61 -62 -63 0
-1 -2 -3 -4 -5 -6 -7 -18 -27 -35 -42 -48 -53 -57 -19 -28 -36 -43 -49 -54 -58 -20 -29 -37 -44 -50 -55 -59 -21 -30 -38 -45 -51 -56 -60 0
-2 -3 -4 -5 -6 -7 -12 -13 -14 -15 -16 -17 -27 -35 -42 -48 -53 -57 -28 -36 -43 -49 -54 -58 -29 -37 -44 -50 -55 -59 -30 -38 -45 -51 -56 -60 0
-1 -3 -4 -5 -6 -7 -12 -22 -23 -24 -25 -26 -18 -35 -42 -48 -53 -57 -19 -36 -43 -49 -54 -58 -20 -37 -44 -50 -55 -59 -21 -38 -45 -51 -56 -60 0
-3 -4 -5 -6 -7 -13 -14 -15 -16 -17 -22 -23 -24 -25 -26 -35 -42 -48 -53 -57 -36 -43 -49 -54 -58 -37 -44 -50 -55 -59 -38 -45 -51 -56 -60 0
-1 -2 -4 -5 -6 -7 -13 -22 -31 -32 -33 -34 -18 -27 -42 -48 -53 -57 -19 -28 -43 -49 -54 -58 -20 -29 -44 -50 -55 -59 -21 -30 -45 -51 -56 -60 0
-2 -4 -5 -6 -7 -12 -14 -15 -16 -17 -22 -31 -32 -33 -34 -27 -42 -48 -53 -57 -28 -43 -49 -54 -58 -29 -44 -50 -55 -59 -30 -45 -51 -56 -60 0
-1 -4 -5 -6 -7 -12 -23 -24 -25 -26 -13 -31 -32 -33 -34 -18 -42 -48 -53 -57 -19 -43 -49 -54 -58 -20 -44 -50 -55 -59 -21 -45 -51 -56 -60 0
-4 -5 -6 -7 -14 -15 -16 -17 -23 -24 -25 -26 -31 -32 -33 -34 -42 -48 -53 -57 -43 -49 -54 -58 -44 -50 -55 -59 -45 -51 -56 -60 0
-1 -2 -3 -5 -6 -7 -14 -23 -31 -39 -40 -41 -18 -27 -35 -48 -53 -57 -19 -28 -36 -49 -54 -58 -20 -29 -37 -50 -55 -59 -21 -30 -38 -51 -56 -60 0
-2 -3 -5 -6 -7 -12 -13 -15 -16 -17 -23 -31 -39 -40 -41 -27 -35 -48 -53 -57 -28 -36 -49 -54 -58 -29 -37 -50 -55 -59 -30 -38 -51 -56 -60 0
-1 -3 -5 -6 -7 -12 -22 -24 -25 -26 -14 -31 -39 -40 -41 -18 -35 -48 -53 -57 -19 -36 -49 -54 -58 -20 -37 -50 -55 -59 -21 -38 -51 -56 -60 0
-3 -5 -6 -7 -13 -15 -16 -17 -22 -24 -25 -26 -31 -39 -40 -41 -35 -48 -53 -57 -36 -49 -54 -58 -37 -50 -55 -59 -38 -51 -56 -60 0
-1 -2 -5 -6 -7 -13 -22 -32 -33 -34 -14 -23 -39 -40 -41 -18 -27 -48 -53 -57 -19 -28 -49 -54 -58 -20 -29 -50 -55 -59 -21 -30 -51 -56 -60 0
-2 -5 -6 -7 -12 -15 -16 -17 -22 -32 -33 -34 -23 -39 -40 -41 -27 -48 -53 -57 -28 -49 -54 -58 -29 -50 -55 -59 -30 -51 -56 -60 0
-1 -5 -6 -7 -12 -24 -25 -26 -13 -32 -33 -34 -14 -39 -40 -41 -18 -48 -53 -57 -19 -49 -54 -58 -20 -50 -55 -59 -21 -51 -56 -60 0
-5 -6 -7 -15 -16 -17 -24 -25 -26 -32 -33 -34 -39 -40 -41 -48 -53 -57 -49 -54 -58 -50 -55 -59 -51 -56 -60 0
-1 -2 -3 -4 -6 -7 -15 -24 -32 -39 -46 -47 -18 -27 -35 -42 -53 -57 -19 -28 -36 -43 -54 -58 -20 -29 -37 -44 -55 -59 -21 -30 -38 -45 -56 -60 0
-2 -3 -4 -6 -7 -12 -13 -14 -16 -17 -24 -32 -39 -46 -47 -27 -35 -42 -53 -57 -28 -36 -43 -54 -58 -29 -37 -44 -55 -59 -30 -38 -45 -56 -60 0
-1 -3 -4 -6 -7 -12 -22 -23 -25 -26 -15 -32 -39 -46 -47 -18 -35 -42 -53 -57 -19 -36 -43 -54 -58 -20 -37 -44 -55 -59 -21 -38 -45 -56 -60 0
-3 -4 -6 -7 -13 -14 -16 -17 -22 -23 -25 -26 -32 -39 -46 -47 -35 -42 -53 -57 -36 -43 -54 -58 -37 -44 -55 -59 -38 -45 -56 -60 0
-1 -2 -4 -6 -7 -13 -22 -31 -33 -34 -15 -24 -39 -46 -47 -18 -27 -42 -53 -57 -19 -28 -43 -54 -58 -20 -29 -44 -55 -59 -21 -30 -45 -56 -60 0
-2 -4 -6 -7 -12 -14 -16 -17 -22 -31 -33 -34 -24 -39 -46 -47 -27 -42 -53 -57 -28 -43 -54 -58 -29 -44 -55 -59 -30 -45 -56 -60 0
-1 -4 -6 -7 -12 -23 -25 -26 -13 -31 -33 -34 -15 -39 -46 -47 -18 -42 -53 -57 -19 -43 -54 -58 -20 -44 -55 -59 -21 -45 -56 -60 0
-4 -6 -7 -14 -16 -17 -23 -25 -26 -31 -33 -34 -39 -46 -47 -42 -53 -57 -43 -54 -58 -44 -55 -59 -45 -56 -60 0
-1 -2 -3 -6 -7 -14 -23 -31 -40 -41 -15 -24 -32 -46 -47 -18 -27 -35 -53 -57 -19 -28 -36 -54 -58 -20 -29 -37 -55 -59 -21 -30 -38 -56 -60 0
-2 -3 -6 -7 -12 -13 -16 -17 -23 -31 -40 -41 -24 -32 -46 -47 -27 -35 -53 -57 -28 -36 -54 -58 -29 -37 -55 -59 -30 -38 -56 -60 0
-1 -3 -6 -7 -12 -22 -25 -26 -14 -31 -40 -41 -15 -32 -46 -47 -18 -35 -53 -57 -19 -36 -54 -58 -20 -37 -55 -59 -21 -38 -56 -60 0
-3 -6 -7 -13 -16 -17 -22 -25 -26 -31 -40 -41 -32 -46 -47 -35 -53 -57 -36 -54 -58 -37 -55 -59 -38 -56 -60 0
-1 -2 -6 -7 -13 -22 -33 -34 -14 -23 -40 -41 -15 -24 -46 -47 -18 -27 -53 -57 -19 -28 -54 -58 -20 -29 -55 -59 -21 -30 -56 -60 0
-2 -6 -7 -12 -16 -17 -22 -33 -34 -23 -40 -41 -24 -46 -47 -27 -53 -57 -28 -54 -58 -29 -55 -59 -30 -56 -60 0
-1 -6 -7 -12 -25 -26 -13 -33 -34 -14 -40 -41 -15 -46 -47 -18 -53 -57 -19 -54 -58 -20 -55 -59 -21 -56 -60 0
-6 -7 -16 -17 -25 -26 -33 -34 -40 -41 -46 -47 -53 -57 -54 -58 -55 -59 -56 -60 0
-1 -2 -3 -4 -5 -7 -16 -25 -33 -40 -46 -52 -18 -27 -35 -42 -48 -57 -19 -28 -36 -43 -49 -58 -20 -29 -37 -44 -50 -59 -21 -30 -38 -45 -51 -60 0
-2 -3 -4 -5 -7 -12 -13 -14 -15 -17 -25 -33 -40 -46 -52 -27 -35 -42 -48 -57 -28 -36 -43 -49 -58 -29 -37 -44 -50 -59 -30 -38 -45 -51 -60 0
-1 -3 -4 -5 -7 -12 -22 -23 -24 -26 -16 -33 -40 -46 -52 -18 -35 -42 -48 -57 -19 -36 -43 -49 -58 -20 -37 -44 -50 -59 -21 -38 -45 -51 -60 0
-3 -4 -5 -7 -13 -14 -15 -17 -22 -23 -24 -26 -33 -40 -46 -52 -35 -42 -48 -57 -36 -43 -49 -58 -37 -44 -50 -59 -38 -45 -51 -60 0
-1 -2 -4 -5 -7 -13 -22 -31 -32 -34 -16 -25 -40 -46 -52 -18 -27 -42 -48 -57 -19 -28 -43 -49 -58 -20 -29 -44 -50 -59 -21 -30 -45 -51 -60 0
-2 -4 -5 -7 -12 -14 -15 -17 -22 -31 -32 -34 -25 -40 -46 -52 -27 -42 -48 -57 -28 -43 -49 -58 -29 -44 -50 -59 -30 -45 -51 -60 0
-1 -4 -5 -7 -12 -23 -24 -26 -13 -31 -32 -34 -16 -40 -46 -52 -18 -42 -48 -57 -19 -43 -49 -58 -20 -44 -50 -59 -21 -45 -51 -60 0
-4 -5 -7 -14 -15 -17 -23 -24 -26 -31 -32 -34 -40 -46 -52 -42 -48 -57 -43 -49 -58 -44 -50 -59 -45 -51 -60 0
-1 -2 -3 -5 -7 -14 -23 -31 -39 -41 -16 -25 -33 -46 -52 -18 -27 -35 -48 -57 -19 -28 -36 -49 -58 -20 -29 -37 -50 -59 -21 -30 -38 -51 -60 0
-2 -3 -5 -7 -12 -13 -15 -17 -23 -31 -39 -41 -25 -33 -46 -52 -27 -35 -48 -57 -28 -36 -49 -58 -29 -37 -50 -59 -30 -38 -51 -60 0
-1 -3 -5 -7 -12 -22 -24 -26 -14 -31 -39 -41 -16 -33 -46 -52 -18 -35 -48 -57 -19 -36 -49 -58 -20 -37 -50 -59 -21 -38 -51 -60 0
-3 -5 -7 -13 -15 -17 -22 -24 -26 -31 -39 -41 -33 -46 -52 -35 -48 -57 -36 -49 -58 -37 -50 -59 -38 -51 -60 0
-1 -2 -5 -7 -13 -22 -32 -34 -14 -23 -39 -41 -16 -25 -46 -52 -18 -27 -48 -57 -19 -28 -49 -58 -20 -29 -50 -59 -21 -30 -51 -60 0
-2 -5 -7 -12 -15 -17 -22 -32 -34 -23 -39 -41 -25 -46 -52 -27 -48 -57 -28 -49 -58 -29 -50 -59 -30 -51 -60 0
-1 -5 -7 -12 -24 -26 -13 -32 -34 -14 -39 -41 -16 -46 -52 -18 -48 -57 -19 -49 -58 -20 -50 -59 -21 -51 -60 0
-5 -7 -15 -17 -24 -26 -32 -34 -39 -41 -46 -52 -48 -57 -49 -58 -50 -59 -51 -60 0
-1 -2 -3 -4 -7 -15 -24 -32 -39 -47 -16 -25 -33 -40 -52 -18 -27 -35 -42 -57 -19 -28 -36 -43 -58 -20 -29 -37 -44 -59 -21 -30 -38 -45 -60 0
-2 -3 -4 -7 -12 -13 -14 -17 -24 -32 -39 -47 -25 -33 -40 -52 -27 -35 -42 -57 -28 -36 -43 -58 -29 -37 -44 -59 -30 -38 -45 -60 0
-1 -3 -4 -7 -12 -22 -23 -26 -15 -32 -39 -47 -16 -33 -40 -52 -18 -35 -42 -57 -19 -36 -43 -58 -20 -37 -44 -59 -21 -38 -45 -60 0
-3 -4 -7 -13 -14 -17 -22 -23 -26 -32 -39 -47 -33 -40 -52 -35 -42 -57 -36 -43 -58 -37 -44 -59 -38 -45 -60 0
-1 -2 -4 -7 -13 -22 -31 -34 -15 -24 -39 -47 -16 -25 -40 -52 -18 -27 -42 -57 -19 -28 -43 -58 -20 -29 -44 -59 -21 -30 -45 -60 0
-2 -4 -7 -12 -14 -17 -22 -31 -34 -24 -39 -47 -25 -40 -52 -27 -42 -57 -28 -43 -58 -29 -44 -59 -30 -45 -60 0
-1 -4 -7 -12 -23 -26 -13 -31 -34 -15 -39 -47 -16 -40 -52 -18 -42 -57 -19 -43 -58 -20 -44 -59 -21 -45 -60 0
-4 -7 -14 -17 -23 -26 -31 -34 -39 -47 -40 -52 -42 -57 -43 -58 -44 -59 -45 -60 0
-1 -2 -3 -7 -14 -23 -31 -41 -15 -24 -32 -47 -16 -25 -33 -52 -18 -27 -35 -57 -19 -28 -36 -58 -20 -29 -37 -59 -21 -30 -38 -60 0
-2 -3 -7 -12 -13 -17 -23 -31 -41 -24 -32 -47 -25 -33 -52 -27 -35 -57 -28 -36 -58 -29 -37 -59 -30 -38 -60 0
-1 -3 -7 -12 -22 -26 -14 -31 -41 -15 -32 -47 -16 -33 -52 -18 -35 -57 -19 -36 -58 -20 -37 -59 -21 -38 -60 0
-3 -7 -13 -17 -22 -26 -31 -41 -32 -47 -33 -52 -35 -57 -36 -58 -37 -59 -38 -60 0
-1 -2 -7 -13 -22 -34 -14 -23 -41 -15 -24 -47 -16 -25 -52 -18 -27 -57 -19 -28 -58 -20 -29 -59 -21 -30 -60 0
-2 -7 -12 -17 -22 -34 -23 -41 -24 -47 -25 -52 -27 -57 -28 -58 -29 -59 -30 -60 0
-1 -7 -12 -26 -13 -34 -14 -41 -15 -47 -16 -52 -18 -57 -19 -58 -20 -59 -21 -60 0
-7 -17 -26 -34 -41 -47 -52 -57 -58 -59 -60 0
-1 -2 -3 -4 -5 -6 -17 -26 -34 -41 -47 -52 -18 -27 -35 -42 -48 -53 -19 -28 -36 -43 -49 -54 -20 -29 -37 -44 -50 -55 -21 -30 -38 -45 -51 -56 0
-2 -3 -4 -5 -6 -12 -13 -14 -15 -16 -26 -34 -41 -47 -52 -27 -35 -42 -48 -53 -28 -36 -43 -49 -54 -29 -37 -44 -50 -55 -30 -38 -45 -51 -56 0
-1 -3 -4 -5 -6 -12 -22 -23 -24 -25 -17 -34 -41 -47 -52 -18 -35 -42 -48 -53 -19 -36 -43 -49 -54 -20 -37 -44 -50 -55 -21 -38 -45 -51 -56 0
-3 -4 -5 -6 -13 -14 -15 -16 -22 -23 -24 -25 -34 -41 -47 -52 -35 -42 -48 -53 -36 -43 -49 -54 -37 -44 -50 -55 -38 -45 -51 -56 0
-1 -2 -4 -5 -6 -13 -22 -31 -32 -33 -17 -26 -41 -47 -52 -18 -27 -42 -48 -53 -19 -28 -43 -49 -54 -20 -29 -44 -50 -55 -21 -30 -45 -51 -56 0
-2 -4 -5 -6 -12 -14 -15 -16 -22 -31 -32 -33 -26 -41 -47 -52 -27 -42 -48 -53 -28 -43 -49 -54 -29 -44 -50 -55 -30 -45 -51 -56 0
-1 -4 -5 -6 -12 -23 -24 -25 -13 -31 -32 -33 -17 -41 -47 -52 -18 -42 -48 -53 -19 -43 -49 -54 -20 -44 -50 -55 -21 -45 -51 -56 0
-4 -5 -6 -14 -15 -16 -23 -24 -25 -31 -32 -33 -41 -47 -52 -42 -48 -53 -43 -49 -54 -44 -50 -55 -45 -51 -56 0
-1 -2 -3 -5 -6 -14 -23 -31 -39 -40 -17 -26 -34 -47 -52 -18 -27 -35 -48 -53 -19 -28 -36 -49 -54 -20 -29 -37 -50 -55 -21 -30 -38 -51 -56 0
-2 -3 -5 -6 -12 -13 -15 -16 -23 -31 -39 -40 -26 -34 -47 -52 -27 -35 -48 -53 -28 -36 -49 -54 -29 -37 -50 -55 -30 -38 -51 -56 0
-1 -3 -5 -6 -12 -22 -24 -25 -14 -31 -39 -40 -17 -34 -47 -52 -18 -35 -48 -53 -19 -36 -49 -54 -20 -37 -50 -55 -21 -38 -51 -56 0
-3 -5 -6 -13 -15 -16 -22 -24 -25 -31 -39 -40 -34 -47 -52 -35 -48 -53 -36 -49 -54 -37 -50 -55 -38 -51 -56 0
-1 -2 -5 -6 -13 -22 -32 -33 -14 -23 -39 -40 -17 -26 -47 -52 -18 -27 -48 -53 -19 -28 -49 -54 -20 -29 -50 -55 -21 -30 -51 -56 0
-2 -5 -6 -12 -15 -16 -22 -32 -33 -23 -39 -40 -26 -47 -52 -27 -48 -53 -28 -49 -54 -29 -50 -55 -30 -51 -56 0
-1 -5 -6 -12 -24 -25 -13 -32 -33 -14 -39 -40 -17 -47 -52 -18 -48 -53 -19 -49 -54 -20 -50 -55 -21 -51 -56 0
-5 -6 -15 -16 -24 -25 -32 -33 -39 -40 -47 -52 -48 -53 -49 -54 -50 -55 -51 -56 0
-1 -2 -3 -4 -6 -15 -24 -32 -39 -46 -17 -26 -34 -41 -52 -18 -27 -35 -42 -53 -19 -28 -36 -43 -54 -20 -29 -37 -44 -55 -21 -30 -38 -45 -56 0
-2 -3 -4 -6 -12 -13 -14 -16 -24 -32 -39 -46 -26 -34 -41 -52 -27 -35 -42 -53 -28 -36 -43 -54 -29 -37 -44 -55 -30 -38 -45 -56 0
-1 -3 -4 -6 -12 -22 -23 -25 -15 -32 -39 -46 -17 -34 -41 -52 -18 -35 -42 -53 -19 -36 -43 -54 -20 -37 -44 -55 -21 -38 -45 -56 0
-3 -4 -6 -13 -14 -16 -22 -23 -25 -32 -39 -46 -34 -41 -52 -35 -42 -53 -36 -43 -54 -37 -44 -55 -38 -45 -56 0
-1 -2 -4 -6 -13 -22 -31 -33 -15 -24 -39 -46 -17 -26 -41 -52 -18 -27 -42 -53 -19 -28 -43 -54 -20 -29 -44 -55 -21 -30 -45 -56 0
-2 -4 -6 -12 -14 -16 -22 -31 -33 -24 -39 -46 -26 -41 -52 -27 -42 -53 -28 -43 -54 -29 -44 -55 -30 -45 -56 0
-1 -4 -6 -12 -23 -25 -13 -31 -33 -15 -39 -46 -17 -41 -52 -18 -42 -53 -19 -43 -54 -20 -44 -55 -21 -45 -56 0
-4 -6 -14 -16 -23 -25 -31 -33 -39 -46 -41 -52 -42 -53 -43 -54 -44 -55 -45 -56 0
-1 -2 -3 -6 -14 -23 -31 -40 -15 -24 -32 -46 -17 -26 -34 -52 -18 -27 -35 -53 -19 -28 -36 -54 -20 -29 -37 -55 -21 -30 -38 -56 0
-2 -3 -6 -12 -13 -16 -23 -31 -40 -24 -32 -46 -26 -34 -52 -27 -35 -53 -28 -36 -54 -29 -37 -55 -30 -38 -56 0
-1 -3 -6 -12 -22 -25 -14 -31 -40 -15 -32 -46 -17 -34 -52 -18 -35 -53 -19 -36 -54 -20 -37 -55 -21 -38 -56 0
-3 -6 -13 -16 -22 -25 -31 -40 -32 -46 -34 -52 -35 -53 -36 -54 -37 -55 -38 -56 0
-1 -2 -6 -13 -22 -33 -14 -23 -40 -15 -24 -46 -17 -26 -52 -18 -27 -53 -19 -28 -54 -20 -29 -55 -21 -30 -56 0
-2 -6 -12 -16 -22 -33 -23 -40 -24 -46 -26 -52 -27 -53 -28 -54 -29 -55 -30 -56 0
-1 -6 -12 -25 -13 -33 -14 -40 -15 -46 -17 -52 -18 -53 -19 -54 -20 -55 -21 -56 0
-6 -16 -25 -33 -40 -46 -52 -53 -54 -55 -56 0
-1 -2 -3 -4 -5 -16 -25 -33 -40 -46 -17 -26 -34 -41 -47 -18 -27 -35 -42 -48 -19 -28 -36 -43 -49 -20 -29 -37 -44 -50 -21 -30 -38 -45 -51 0
-2 -3 -4 -5 -12 -13 -14 -15 -25 -33 -40 -46 -26 -34 -41 -47 -27 -35 -42 -48 -28 -36 -43 -49 -29 -37 -44 -50 -30 -38 -45 -51 0
-1 -3 -4 -5 -12 -22 -23 -24 -16 -33 -40 -46 -17 -34 -41 -47 -18 -35 -42 -48 -19 -36 -43 -49 -20 -37 -44 -50 -21 -38 -45 -51 0
-3 -4 -5 -13 -14 -15 -22 -23 -24 -33 -40 -46 -34 -41 -47 -35 -42 -48 -36 -43 -49 -37 -44 -50 -38 -45 -51 0
-1 -2 -4 -5 -13 -22 -31 -32 -16 -25 -40 -46 -17 -26 -41 -47 -18 -27 -42 -48 -19 -28 -43 -49 -20 -29 -44 -50 -21 -30 -45 -51 0
-2 -4 -5 -12 -14 -15 -22 -31 -32 -25 -40 -46 -26 -41 -47 -27 -42 -48 -28 -43 -49 -29 -44 -50 -30 -45 -51 0
-1 -4 -5 -12 -23 -24 -13 -31 -32 -16 -40 -46 -17 -41 -47 -18 -42 -48 -19 -43 -49 -20 -44 -50 -21 -45 -51 0
-4 -5 -14 -15 -23 -24 -31 -32 -40 -46 -41 -47 -42 -48 -43 -49 -44 -50 -45 -51 0
-1 -2 -3 -5 -14 -23 -31 -39 -16 -25 -33 -46 -17 -26 -34 -47 -18 -27 -35 -48 -19 -28 -36 -49 -20 -29 -37 -50 -21 -30 -38 -51 0
-2 -3 -5 -12 -13 -15 -23 -31 -39 -25 -33 -46 -26 -34 -47 -27 -35 -48 -28 -36 -49 -29 -37 -50 -30 -38 -51 0
-1 -3 -5 -12 -22 -24 -14 -31 -39 -16 -33 -46 -17 -34 -47 -18 -35 -48 -19 -36 -49 -20 -37 -50 -21 -38 -51 0
-3 -5 -13 -15 -22 -24 -31 -39 -33 -46 -34 -47 -35 -48 -36 -49 -37 -50 -38 -51 0
-1 -2 -5 -13 -22 -32 -14 -23 -39 -16 -25 -46 -17 -26 -47 -18 -27 -48 -19 -28 -49 -20 -29 -50 -21 -30 -51 0
-2 -5 -12 -15 -22 -32 -23 -39 -25 -46 -26 -47 -27 -48 -28 -49 -29 -50 -30 -51 0
-1 -5 -12 -24 -13 -32 -14 -39 -16 -46 -17 -47 -18 -48 -19 -49 -20 -50 -21 -51 0
-5 -15 -24 -32 -39 -46 -47 -48 -49 -50 -51 0
-1 -2 -3 -4 -15 -24 -32 -39 -16 -25 -33 -40 -17 -26 -34 -41 -18 -27 -35 -42 -19 -28 -36 -43 -20 -29 -37 -44 -21 -30 -38 -45 0
-2 -3 -4 -12 -13 -14 -24 -32 -39 -25 -33 -40 -26 -34 -41 -27 -35 -42 -28 -36 -43 -29 -37 -44 -30 -38 -45 0
-1 -3 -4 -12 -22 -23 -15 -32 -39 -16 -33 -40 -17 -34 -41 -18 -35 -42 -19 -36 -43 -20 -37 -44 -21 -38 -45 0
-3 -4 -13 -14 -22 -23 -32 -39 -33 -40 -34 -41 -35 -42 -36 -43 -37 -44 -38 -45 0
-1 -2 -4 -13 -22 -31 -15 -24 -39 -16 -25 -40 -17 -26 -41 -18 -27 -42 -19 -28 -43 -20 -29 -44 -21 -30 -45 0
-2 -4 -12 -14 -22 -31 -24 -39 -25 -40 -26 -41 -27 -42 -28 -43 -29 -44 -30 -45 0
-1 -4 -12 -23 -13 -31 -15 -39 -16 -40 -17 -41 -18 -42 -19 -43 -20 -44 -21 -45 0
-4 -14 -23 -31 -39 -40 -41 -42 -43 -44 -45 0
-1 -2 -3 -14 -23 -31 -15 -24 -32 -16 -25 -33 -17 -26 -34 -18 -27 -35 -19 -28 -36 -20 -29 -37 -21 -30 -38 0
-2 -3 -12 -13 -23 -31 -24 -32 -25 -33 -26 -34 -27 -35 -28 -36 -29 -37 -30 -38 0
-1 -3 -12 -22 -14 -31 -15 -32 -16 -33 -17 -34 -18 -35 -19 -36 -20 -37 -21 -38 0
-3 -13 -22 -31 -32 -33 -34 -35 -36 -37 -38 0
-1 -2 -13 -22 -14 -23 -15 -24 -16 -25 -17 -26 -18 -27 -19 -28 -20 -29 -21 -30 0
-2 -12 -22 -23 -24 -25 -26 -27 -28 -29 -30 0
-1 -12 -13 -14 -15 -16 -17 -18 -19 -20 -21 0
-727 -3 -13 -22 0
-727 -4 -14 -23 0
-727 -5 -15 -24 0
-727 -6 -16 -25 0
-727 -7 -17 -26 0
-727 -8 -18 -27 0
-727 -9 -19 -28 0
-727 -10 -20 -29 0
-727 -11 -21 -30 0
-728 -2 -12 -22 0
-728 -4 -14 -31 0
-728 -5 -15 -32 0
-728 -6 -16 -33 0
-728 -7 -17 -34 0
-728 -8 -18 -35 0
-728 -9 -19 -36 0
-728 -10 -20 -37 0
-728 -11 -21 -38 0
-729 -2 -12 -23 0
-729 -3 -13 -31 0
-729 -5 -15 -39 0
-729 -6 -16 -40 0
-729 -7 -17 -41 0
-729 -8 -18 -42 0
-729 -9 -19 -43 0
-729 -10 -20 -44 0
-729 -11 -21 -45 0
-730 -2 -12 -24 0
-730 -3 -13 -32 0
-730 -4 -14 -39 0
-730 -6 -16 -46 0
-730 -7 -17 -47 0
-730 -8 -18 -48 0
-730 -9 -19 -49 0
-730 -10 -20 -50 0
-730 -11 -21 -51 0
-731 -2 -12 -25 0
-731 -3 -13 -33 0
-731 -4 -14 -40 0
-731 -5 -15 -46 0
-731 -7 -17 -52 0
-731 -8 -18 -53 0
-731 -9 -19 -54 0
-731 -10 -20 -55 0
-731 -11 -21 -56 0
-732 -2 -12 -26 0
-732 -3 -13 -34 0
-732 -4 -14 -41 0
-732 -5 -15 -47 0
-732 -6 -16 -52 0
-732 -8 -18 -57 0
-732 -9 -19 -58 0
-732 -10 -20 -59 0
-732 -11 -21 -60 0
-733 -2 -12 -27 0
-733 -3 -13 -35 0
-733 -4 -14 -42 0
-733 -5 -15 -48 0
-733 -6 -16 -53 0
-733 -7 -17 -57 0
-733 -9 -19 -61 0
-733 -10 -20 -62 0
-733 -11 -21 -63 0
-734 -2 -12 -28 0
-734 -3 -13 -36 0
-734 -4 -14 -43 0
-734 -5 -15 -49 0
-734 -6 -16 -54 0
-734 -7 -17 -58 0
-734 -8 -18 -61 0
-734 -10 -20 -64 0
-734 -11 -21 -65 0
-735 -2 -12 -29 0
-735 -3 -13 -37 0
-735 -4 -14 -44 0
-735 -5 -15 -50 0
-735 -6 -16 -55 0
-735 -7 -17 -59 0
-735 -8 -18 -62 0
-735 -9 -19 -64 0
-735 -11 -21 -66 0
-736 -2 -12 -30 0
-736 -3 -13 -38 0
-736 -4 -14 -45 0
-736 -5 -15 -51 0
-736 -6 -16 -56 0
-736 -7 -17 -60 0
-736 -8 -18 -63 0
-736 -9 -19 -65 0
-736 -10 -20 -66 0
-737 -1 -12 -13 0
-737 -4 -23 -31 0
-737 -5 -24 -32 0
-737 -6 -25 -33 0
-737 -7 -26 -34 0
-737 -8 -27 -35 0
-737 -9 -28 -36 0
-737 -10 -29 -37 0
-737 -11 -30 -38 0
-738 -1 -12 -14 0
-738 -3 -22 -31 0
-738 -5 -24 -39 0
-738 -6 -25 -40 0
-738 -7 -26 -41 0
-738 -8 -27 -42 0
-738 -9 -28 -43 0
-738 -10 -29 -44 0
-738 -11 -30 -45 0
-739 -1 -12 -15 0
-739 -3 -22 -32 0
-739 -4 -23 -39 0
-739 -6 -25 -46 0
-739 -7 -26 -47 0
-739 -8 -27 -48 0
-739 -9 -28 -49 0
-739 -10 -29 -50 0
-739 -11 -30 -51 0
-740 -1 -12 -16 0
-740 -3 -22 -33 0
-740 -4 -23 -40 0
-740 -5 -24 -46 0
-740 -7 -26 -52 0
-740 -8 -27 -53 0
-740 -9 -28 -54 0
-740 -10 -29 -55 0
-740 -11 -30 -56 0
-741 -1 -12 -17 0
-741 -3 -22 -34 0
-741 -4 -23 -41 0
-741 -5 -24 -47 0
-741 -6 -25 -52 0
-741 -8 -27 -57 0
-741 -9 -28 -58 0
-741 -10 -29 -59 0
-741 -11 -30 -60 0
-742 -1 -12 -18 0
-742 -3 -22 -35 0
-742 -4 -23 -42 0
-742 -5 -24 -48 0
-742 -6 -25 -53 0
-742 -7 -26 -57 0
-742 -9 -28 -61 0
-742 -10 -29 -62 0
-742 -11 -30 -63 0
-743 -1 -12 -19 0
-743 -3 -22 -36 0
-743 -4 -23 -43 0
-743 -5 -24 -49 0
-743 -6 -25 -54 0
-743 -7 -26 -58 0
-743 -8 -27 -61 0
-743 -10 -29 -64 0
-743 -11 -30 -65 0
-744 -1 -12 -20 0
-744 -3 -22 -37 0
-744 -4 -23 -44 0
-744 -5 -24 -50 0
-744 -6 -25 -55 0
-744 -7 -26 -59 0
-744 -8 -27 -62 0
-744 -9 -28 -64 0
-744 -11 -30 -66 0
-745 -1 -12 -21 0
-745 -3 -22 -38 0
-745 -4 -23 -45 0
-745 -5 -24 -51 0
-745 -6 -25 -56 0
-745 -7 -26 -60 0
-745 -8 -27 -63 0
-745 -9 -28 -65 0
-745 -10 -29 -66 0
-746 -1 -13 -14 0
-746 -2 -22 -23 0
-746 -5 -32 -39 0
-746 -6 -33 -40 0
-746 -7 -34 -41 0
-746 -8 -35 -42 0
-746 -9 -36 -43 0
-746 -10 -37 -44 0
-746 -11 -38 -45 0
-747 -1 -13 -15 0
-747 -2 -22 -24 0
-747 -4 -31 -39 0
-747 -6 -33 -46 0
-747 -7 -34 -47 0
-747 -8 -35 -48 0
-747 -9 -36 -49 0
-747 -10 -37 -50 0
-747 -11 -38 -51 0
-748 -1 -13 -16 0
-748 -2 -22 -25 0
-748 -4 -31 -40 0
-748 -5 -32 -46 0
-748 -7 -34 -52 0
-748 -8 -35 -53 0
-748 -9 -36 -54 0
-748 -10 -37 -55 0
-748 -11 -38 -56 0
-749 -1 -13 -17 0
-749 -2 -22 -26 0
-749 -4 -31 -41 0
-749 -5 -32 -47 0
-749 -6 -33 -52 0
-749 -8 -35 -57 0
-749 -9 -36 -58 0
-749 -10 -37 -59 0
-749 -11 -38 -60 0
-750 -1 -13 -18 0
-750 -2 -22 -27 0
-750 -4 -31 -42 0
-750 -5 -32 -48 0
-750 -6 -33 -53 0
-750 -7 -34 -57 0
-750 -9 -36 -61 0
-750 -10 -37 -62 0
-750 -11 -38 -63 0
-751 -1 -13 -19 0
-751 -2 -22 -28 0
-751 -4 -31 -43 0
-751 -5 -32 -49 0
-751 -6 -33 -54 0
-751 -7 -34 -58 0
-751 -8 -35 -61 0
-751 -10 -37 -64 0
-751 -11 -38 -65 0
-752 -1 -13 -20 0
-752 -2 -22 -29 0
-752 -4 -31 -44 0
-752 -5 -32 -50 0
-752 -6 -33 -55 0
-752 -7 -34 -59 0
-752 -8 -35 -62 0
-752 -9 -36 -64 0
-752 -11 -38 -66 0
-753 -1 -13 -21 0
-753 -2 -22 -30 0
-753 -4 -31 -45 0
-753 -5 -32 -51 0
-753 -6 -33 -56 0
-753 -7 -34 -60 0
-753 -8 -35 -63 0
-753 -9 -36 -65 0
-753 -10 -37 -66 0
-754 -1 -14 -15 0
-754 -2 -23 -24 0
-754 -3 -31 -32 0
-754 -6 -40 -46 0
-754 -7 -41 -47 0
-754 -8 -42 -48 0
-754 -9 -43 -49 0
-754 -10 -44 -50 0
-754 -11 -45 -51 0
-755 -1 -14 -16 0
-755 -2 -23 -25 0
-755 -3 -31 -33 0
-755 -5 -39 -46 0
-755 -7 -41 -52 0
-755 -8 -42 -53 0
-755 -9 -43 -54 0
-755 -10 -44 -55 0
-755 -11 -45 -56 0
-756 -1 -14 -17 0
-756 -2 -23 -26 0
-756 -3 -31 -34 0
-756 -5 -39 -47 0
-756 -6 -40 -52 0
-756 -8 -42 -57 0
-756 -9 -43 -58 0
-756 -10 -44 -59 0
-756 -11 -45 -60 0
-757 -1 -14 -18 0
-757 -2 -23 -27 0
-757 -3 -31 -35 0
-757 -5 -39 -48 0
-757 -6 -40 -53 0
-757 -7 -41 -57 0
-757 -9 -43 -61 0
-757 -10 -44 -62 0
-757 -11 -45 -63 0
-758 -1 -14 -19 0
-758 -2 -23 -28 0
-758 -3 -31 -36 0
-758 -5 -39 -49 0
-758 -6 -40 -54 0
-758 -7 -41 -58 0
-758 -8 -42 -61 0
-758 -10 -44 -64 0
-758 -11 -45 -65 0
-759 -1 -14 -20 0
-759 -2 -23 -29 0
-759 -3 -31 -37 0
-759 -5 -39 -50 0
-759 -6 -40 -55 0
-759 -7 -41 -59 0
-759 -8 -42 -62 0
-759 -9 -43 -64 0
-759 -11 -45 -66 0
-760 -1 -14 -21 0
-760 -2 -23 -30 0
-760 -3 -31 -38 0
-760 -5 -39 -51 0
-760 -6 -40 -56 0
-760 -7 -41 -60 0
-760 -8 -42 -63 0
-760 -9 -43 -65 0
-760 -10 -44 -66 0
-761 -1 -15 -16 0
-761 -2 -24 -25 0
-761 -3 -32 -33 0
-761 -4 -39 -40 0
-761 -7 -47 -52 0
-761 -8 -48 -53 0
-761 -9 -49 -54 0
-761 -10 -50 -55 0
-761 -11 -51 -56 0
-762 -1 -15 -17 0
-762 -2 -24 -26 0
-762 -3 -32 -34 0
-762 -4 -39 -41 0
-762 -6 -46 -52 0
-762 -8 -48 -57 0
-762 -9 -49 -58 0
-762 -10 -50 -59 0
-762 -11 -51 -60 0
-763 -1 -15 -18 0
-763 -2 -24 -27 0
-763 -3 -32 -35 0
-763 -4 -39 -42 0
-763 -6 -46 -53 0
-763 -7 -47 -57 0
-763 -9 -49 -61 0
-763 -10 -50 -62 0
-763 -11 -51 -63 0
-764 -1 -15 -19 0
-764 -2 -24 -28 0
-764 -3 -32 -36 0
-764 -4 -39 -43 0
-764 -6 -46 -54 0
-764 -7 -47 -58 0
-764 -8 -48 -61 0
-764 -10 -50 -64 0
-764 -11 -51 -65 0
-765 -1 -15 -20 0
-765 -2 -24 -29 0
-765 -3 -32 -37 0
-765 -4 -39 -44 0
-765 -6 -46 -55 0
-765 -7 -47 -59 0
-765 -8 -48 -62 0
-765 -9 -49 -64 0
-765 -11 -51 -66 0
-766 -1 -15 -21 0
-766 -2 -24 -30 0
-766 -3 -32 -38 0
-766 -4 -39 -45 0
-766 -6 -46 -56 0
-766 -7 -47 -60 0
-766 -8 -48 -63 0
-766 -9 -49 -65 0
-766 -10 -50 -66 0
-767 -1 -16 -17 0
-767 -2 -25 -26 0
-767 -3 -33 -34 0
-767 -4 -40 -41 0
-767 -5 -46 -47 0
-767 -8 -53 -57 0
-767 -9 -54 -58 0
-767 -10 -55 -59 0
-767 -11 -56 -60 0
-768 -1 -16 -18 0
-768 -2 -25 -27 0
-768 -3 -33 -35 0
-768 -4 -40 -42 0
-768 -5 -46 -48 0
-768 -7 -52 -57 0
-768 -9 -54 -61 0
-768 -10 -55 -62 0
-768 -11 -56 -63 0
-769 -1 -16 -19 0
-769 -2 -25 -28 0
-769 -3 -33 -36 0
-769 -4 -40 -43 0
-769 -5 -46 -49 0
-769 -7 -52 -58 0
-769 -8 -53 -61 0
-769 -10 -55 -64 0
-769 -11 -56 -65 0
-770 -1 -16 -20 0
-770 -2 -25 -29 0
-770 -3 -33 -37 0
-770 -4 -40 -44 0
-770 -5 -46 -50 0
-770 -7 -52 -59 0
-770 -8 -53 -62 0
-770 -9 -54 -64 0
-770 -11 -56 -66 0
-771 -1 -16 -21 0
-771 -2 -25 -30 0
-771 -3 -33 -38 0
-771 -4 -40 -45 0
-771 -5 -46 -51 0
-771 -7 -52 -60 0
-771 -8 -53 -63 0
-771 -9 -54 -65 0
-771 -10 -55 -66 0
-772 -1 -17 -18 0
-772 -2 -26 -27 0
-772 -3 -34 -35 0
-772 -4 -41 -42 0
-772 -5 -47 -48 0
-772 -6 -52 -53 0
-772 -9 -58 -61 0
-772 -10 -59 -62 0
-772 -11 -60 -63 0
-773 -1 -17 -19 0
-773 -2 -26 -28 0
-773 -3 -34 -36 0
-773 -4 -41 -43 0
-773 -5 -47 -49 0
-773 -6 -52 -54 0
-773 -8 -57 -61 0
-773 -10 -59 -64 0
-773 -11 -60 -65 0
-774 -1 -17 -20 0
-774 -2 -26 -29 0
-774 -3 -34 -37 0
-774 -4 -41 -44 0
-774 -5 -47 -50 0
-774 -6 -52 -55 0
-774 -8 -57 -62 0
-774 -9 -58 -64 0
-774 -11 -60 -66 0
-775 -1 -17 -21 0
-775 -2 -26 -30 0
-775 -3 -34 -38 0
-775 -4 -41 -45 0
-775 -5 -47 -51 0
-775 -6 -52 -56 0
-775 -8 -57 -63 0
-775 -9 -58 -65 0
-775 -10 -59 -66 0
-776 -1 -18 -19 0
-776 -2 -27 -28 0
-776 -3 -35 -36 0
-776 -4 -42 -43 0
-776 -5 -48 -49 0
-776 -6 -53 -54 0
-776 -7 -57 -58 0
-776 -10 -62 -64 0
-776 -11 -63 -65 0
-777 -1 -18 -20 0
-777 -2 -27 -29 0
-777 -3 -35 -37 0
-777 -4 -42 -44 0
-777 -5 -48 -50 0
-777 -6 -53 -55 0
-777 -7 -57 -59 0
-777 -9 -61 -64 0
-777 -11 -63 -66 0
-778 -1 -18 -21 0
-778 -2 -27 -30 0
-778 -3 -35 -38 0
-778 -4 -42 -45 0
-778 -5 -48 -51 0
-778 -6 -53 -56 0
-778 -7 -57 -60 0
-778 -9 -61 -65 0
-778 -10 -62 -66 0
-779 -1 -19 -20 0
-779 -2 -28 -29 0
-779 -3 -36 -37 0
-779 -4 -43 -44 0
-779 -5 -49 -50 0
-779 -6 -54 -55 0
-779 -7 -58 -59 0
-779 -8 -61 -62 0
-779 -11 -65 -66 0
-780 -1 -19 -21 0
-780 -2 -28 -30 0
-780 -3 -36 -38 0
-780 -4 -43 -45 0
-780 -5 -49 -51 0
-780 -6 -54 -56 0
-780 -7 -58 -60 0
-780 -8 -61 -63 0
-780 -10 -64 -66 0
-781 -1 -20 -21 0
-781 -2 -29 -30 0
-781 -3 -37 -38 0
-781 -4 -44 -45 0
-781 -5 -50 -51 0
-781 -6 -55 -56 0
-781 -7 -59 -60 0
-781 -8 -62 -63 0
-781 -9 -64 -65 0
-782 -1 -2 -3 0
-782 -14 -23 -31 0
-782 -15 -24 -32 0
-782 -16 -25 -33 0
-782 -17 -26 -34 0
-782 -18 -27 -35 0
-782 -19 -28 -36 0
-782 -20 -29 -37 0
-782 -21 -30 -38 0
-783 -1 -2 -4 0
-783 -13 -22 -31 0
-783 -15 -24 -39 0
-783 -16 -25 -40 0
-783 -17 -26 -41 0
-783 -18 -27 -42 0
-783 -19 -28 -43 0
-783 -20 -29 -44 0
-783 -21 -30 -45 0
-784 -1 -2 -5 0
-784 -13 -22 -32 0
-784 -14 -23 -39 0
-784 -16 -25 -46 0
-784 -17 -26 -47 0
-784 -18 -27 -48 0
-784 -19 -28 -49 0
-784 -20 -29 -50 0
-784 -21 -30 -51 0
-785 -1 -2 -6 0
-785 -13 -22 -33 0
-785 -14 -23 -40 0
-785 -15 -24 -46 0
-785 -17 -26 -52 0
-785 -18 -27 -53 0
-785 -19 -28 -54 0
-785 -20 -29 -55 0
-785 -21 -30 -56 0
-786 -1 -2 -7 0
-786 -13 -22 -34 0
-786 -14 -23 -41 0
-786 -15 -24 -47 0
-786 -16 -25 -52 0
-786 -18 -27 -57 0
-786 -19 -28 -58 0
-786 -20 -29 -59 0
-786 -21 -30 -60 0
-787 -1 -2 -8 0
-787 -13 -22 -35 0
-787 -14 -23 -42 0
-787 -15 -24 -48 0
-787 -16 -25 -53 0
-787 -17 -26 -57 0
-787 -19 -28 -61 0
-787 -20 -29 -62 0
-787 -21 -30 -63 0
-788 -1 -2 -9 0
-788 -13 -22 -36 0
-788 -14 -23 -43 0
-788 -15 -24 -49 0
-788 -16 -25 -54 0
-788 -17 -26 -58 0
-788 -18 -27 -61 0
-788 -20 -29 -64 0
-788 -21 -30 -65 0
-789 -1 -2 -10 0
-789 -13 -22 -37 0
-789 -14 -23 -44 0
-789 -15 -24 -50 0
-789 -16 -25 -55 0
-789 -17 -26 -59 0
-789 -18 -27 -62 0
-789 -19 -28 -64 0
-789 -21 -30 -66 0
-790 -1 -2 -11 0
-790 -13 -22 -38 0
-790 -14 -23 -45 0
-790 -15 -24 -51 0
-790 -16 -25 -56 0
-790 -17 -26 -60 0
-790 -18 -27 -63 0
-790 -19 -28 -65 0
-790 -20 -29 -66 0
-791 -1 -3 -4 0
-791 -12 -22 -23 0
-791 -15 -32 -39 0
-791 -16 -33 -40 0
-791 -17 -34 -41 0
-791 -18 -35 -42 0
-791 -19 -36 -43 0
-791 -20 -37 -44 0
-791 -21 -38 -45 0
-792 -1 -3 -5 0
-792 -12 -22 -24 0
-792 -14 -31 -39 0
-792 -16 -33 -46 0
-792 -17 -34 -47 0
-792 -18 -35 -48 0
-792 -19 -36 -49 0
-792 -20 -37 -50 0
-792 -21 -38 -51 0
-793 -1 -3 -6 0
-793 -12 -22 -25 0
-793 -14 -31 -40 0
-793 -15 -32 -46 0
-793 -17 -34 -52 0
-793 -18 -35 -53 0
-793 -19 -36 -54 0
-793 -20 -37 -55 0
-793 -21 -38 -56 0
-794 -1 -3 -7 0
-794 -12 -22 -26 0
-794 -14 -31 -41 0
-794 -15 -32 -47 0
-794 -16 -33 -52 0
-794 -18 -35 -57 0
-794 -19 -36 -58 0
-794 -20 -37 -59 0
-794 -21 -38 -60 0
-795 -1 -3 -8 0
-795 -12 -22 -27 0
-795 -14 -31 -42 0
-795 -15 -32 -48 0
-795 -16 -33 -53 0
-795 -17 -34 -57 0
-795 -19 -36 -61 0
-795 -20 -37 -62 0
-795 -21 -38 -63 0
-796 -1 -3 -9 0
-796 -12 -22 -28 0
-796 -14 -31 -43 0
-796 -15 -32 -49 0
-796 -16 -33 -54 0
-796 -17 -34 -58 0
-796 -18 -35 -61 0
-796 -20 -37 -64 0
-796 -21 -38 -65 0
-797 -1 -3 -10 0
-797 -12 -22 -29 0
-797 -14 -31 -44 0
-797 -15 -32 -50 0
-797 -16 -33 -55 0
-797 -17 -34 -59 0
-797 -18 -35 -62 0
-797 -19 -36 -64 0
-797 -21 -38 -66 0
-798 -1 -3 -11 0
-798 -12 -22 -30 0
-798 -14 -31 -45 0
-798 -15 -32 -51 0
-798 -16 -33 -56 0
-798 -17 -34 -60 0
-798 -18 -35 -63 0
-798 -19 -36 -65 0
-798 -20 -37 -66 0
-799 -1 -4 -5 0
-799 -12 -23 -24 0
-799 -13 -31 -32 0
-799 -16 -40 -46 0
-799 -17 -41 -47 0
-799 -18 -42 -48 0
-799 -19 -43 -49 0
-799 -20 -44 -50 0
-799 -21 -45 -51 0
-800 -1 -4 -6 0
-800 -12 -23 -25 0
-800 -13 -31 -33 0
-800 -15 -39 -46 0
-800 -17 -41 -52 0
-800 -18 -42 -53 0
-800 -19 -43 -54 0
-800 -20 -44 -55 0
-800 -21 -45 -56 0
-801 -1 -4 -7 0
-801 -12 -23 -26 0
-801 -13 -31 -34 0
-801 -15 -39 -47 0
-801 -16 -40 -52 0
-801 -18 -42 -57 0
-801 -19 -43 -58 0
-801 -20 -44 -59 0
-801 -21 -45 -60 0
-802 -1 -4 -8 0
-802 -12 -23 -27 0
-802 -13 -31 -35 0
-802 -15 -39 -48 0
-802 -16 -40 -53 0
-802 -17 -41 -57 0
-802 -19 -43 -61 0
-802 -20 -44 -62 0
-802 -21 -45 -63 0
-803 -1 -4 -9 0
-803 -12 -23 -28 0
-803 -13 -31 -36 0
-803 -15 -39 -49 0
-803 -16 -40 -54 0
-803 -17 -41 -58 0
-803 -18 -42 -61 0
-803 -20 -44 -64 0
-803 -21 -45 -65 0
-804 -1 -4 -10 0
-804 -12 -23 -29 0
-804 -13 -31 -37 0
-804 -15 -39 -50 0
-804 -16 -40 -55 0
-804 -17 -41 -59 0
-804 -18 -42 -62 0
-804 -19 -43 -64 0
-804 -21 -45 -66 0
-805 -1 -4 -11 0
-805 -12 -23 -30 0
-805 -13 -31 -38 0
-805 -15 -39 -51 0
-805 -16 -40 -56 0
-805 -17 -41 -60 0
-805 -18 -42 -63 0
-805 -19 -43 -65 0
-805 -20 -44 -66 0
-806 -1 -5 -6 0
-806 -12 -24 -25 0
-806 -13 -32 -33 0
-806 -14 -39 -40 0
-806 -17 -47 -52 0
-806 -18 -48 -53 0
-806 -19 -49 -54 0
-806 -20 -50 -55 0
-806 -21 -51 -56 0
-807 -1 -5 -7 0
-807 -12 -24 -26 0
-807 -13 -32 -34 0
-807 -14 -39 -41 0
-807 -16 -46 -52 0
-807 -18 -48 -57 0
-807 -19 -49 -58 0
-807 -20 -50 -59 0
-807 -21 -51 -60 0
-808 -1 -5 -8 0
-808 -12 -24 -27 0
-808 -13 -32 -35 0
-808 -14 -39 -42 0
-808 -16 -46 -53 0
-808 -17 -47 -57 0
-808 -19 -49 -61 0
-808 -20 -50 -62 0
-808 -21 -51 -63 0
-809 -1 -5 -9 0
-809 -12 -24 -28 0
-809 -13 -32 -36 0
-809 -14 -39 -43 0
-809 -16 -46 -54 0
-809 -17 -47 -58 0
-809 -18 -48 -61 0
-809 -20 -50 -64 0
-809 -21 -51 -65 0
-810 -1 -5 -10 0
-810 -12 -24 -29 0
-810 -13 -32 -37 0
-810 -14 -39 -44 0
-810 -16 -46 -55 0
-810 -17 -47 -59 0
-810 -18 -48 -62 0
-810 -19 -49 -64 0
-810 -21 -51 -66 0
-811 -1 -5 -11 0
-811 -12 -24 -30 0
-811 -13 -32 -38 0
-811 -14 -39 -45 0
-811 -16 -46 -56 0
-811 -17 -47 -60 0
-811 -18 -48 -63 0
-811 -19 -49 -65 0
-811 -20 -50 -66 0
-812 -1 -6 -7 0
-812 -12 -25 -26 0
-812 -13 -33 -34 0
-812 -14 -40 -41 0
-812 -15 -46 -47 0
-812 -18 -53 -57 0
-812 -19 -54 -58 0
-812 -20 -55 -59 0
-812 -21 -56 -60 0
-813 -1 -6 -8 0
-813 -12 -25 -27 0
-813 -13 -33 -35 0
-813 -14 -40 -42 0
-813 -15 -46 -48 0
-813 -17 -52 -57 0
-813 -19 -54 -61 0
-813 -20 -55 -62 0
-813 -21 -56 -63 0
-814 -1 -6 -9 0
-814 -12 -25 -28 0
-814 -13 -33 -36 0
-814 -14 -40 -43 0
-814 -15 -46 -49 0
-814 -17 -52 -58 0
-814 -18 -53 -61 0
-814 -20 -55 -64 0
-814 -21 -56 -65 0
-815 -1 -6 -10 0
-815 -12 -25 -29 0
-815 -13 -33 -37 0
-815 -14 -40 -44 0
-815 -15 -46 -50 0
-815 -17 -52 -59 0
-815 -18 -53 -62 0
-815 -19 -54 -64 0
-815 -21 -56 -66 0
-816 -1 -6 -11 0
-816 -12 -25 -30 0
-816 -13 -33 -38 0
-816 -14 -40 -45 0
-816 -15 -46 -51 0
-816 -17 -52 -60 0
-816 -18 -53 -63 0
-816 -19 -54 -65 0
-816 -20 -55 -66 0
-817 -1 -7 -8 0
-817 -12 -26 -27 0
-817 -13 -34 -35 0
-817 -14 -41 -42 0
-817 -15 -47 -48 0
-817 -16 -52 -53 0
-817 -19 -58 -61 0
-817 -20 -59 -62 0
-817 -21 -60 -63 0
-818 -1 -7 -9 0
-818 -12 -26 -28 0
-818 -13 -34 -36 0
-818 -14 -41 -43 0
-818 -15 -47 -49 0
-818 -16 -52 -54 0
-818 -18 -57 -61 0
-818 -20 -59 -64 0
-818 -21 -60 -65 0
-819 -1 -7 -10 0
-819 -12 -26 -29 0
-819 -13 -34 -37 0
-819 -14 -41 -44 0
-819 -15 -47 -50 0
-819 -16 -52 -55 0
-819 -18 -57 -62 0
-819 -19 -58 -64 0
-819 -21 -60 -66 0
-820 -1 -7 -11 0
-820 -12 -26 -30 0
-820 -13 -34 -38 0
-820 -14 -41 -45 0
-820 -15 -47 -51 0
-820 -16 -52 -56 0
-820 -18 -57 -63 0
-820 -19 -58 -65 0
-820 -20 -59 -66 0
-821 -1 -8 -9 0
-821 -12 -27 -28 0
-821 -13 -35 -36 0
-821 -14 -42 -43 0
-821 -15 -48 -49 0
-821 -16 -53 -54 0
-821 -17 -57 -58 0
-821 -20 -62 -64 0
-821 -21 -63 -65 0
-822 -1 -8 -10 0
-822 -12 -27 -29 0
-822 -13 -35 -37 0
-822 -14 -42 -44 0
-822 -15 -48 -50 0
-822 -16 -53 -55 0
-822 -17 -57 -59 0
-822 -19 -61 -64 0
-822 -21 -63 -66 0
-823 -1 -8 -11 0
-823 -12 -27 -30 0
-823 -13 -35 -38 0
-823 -14 -42 -45 0
-823 -15 -48 -51 0
-823 -16 -53 -56 0
-823 -17 -57 -60 0
-823 -19 -61 -65 0
-823 -20 -62 -66 0
-824 -1 -9 -10 0
-824 -12 -28 -29 0
-824 -13 -36 -37 0
-824 -14 -43 -44 0
-824 -15 -49 -50 0
-824 -16 -54 -55 0
-824 -17 -58 -59 0
-824 -18 -61 -62 0
-824 -21 -65 -66 0
-825 -1 -9 -11 0
-825 -12 -28 -30 0
-825 -13 -36 -38 0
-825 -14 -43 -45 0
-825 -15 -49 -51 0
-825 -16 -54 -56 0
-825 -17 -58 -60 0
-825 -18 -61 -63 0
-825 -20 -64 -66 0
-826 -1 -10 -11 0
-826 -12 -29 -30 0
-826 -13 -37 -38 0
-826 -14 -44 -45 0
-826 -15 -50 -51 0
-826 -16 -55 -56 0
-826 -17 -59 -60 0
-826 -18 -62 -63 0
-826 -19 -64 -65 0
-827 -2 -3 -4 0
-827 -12 -13 -14 0
-827 -24 -32 -39 0
-827 -25 -33 -40 0
-827 -26 -34 -41 0
-827 -27 -35 -42 0
-827 -28 -36 -43 0
-827 -29 -37 -44 0
-827 -30 -38 -45 0
-828 -2 -3 -5 0
-828 -12 -13 -15 0
-828 -23 -31 -39 0
-828 -25 -33 -46 0
-828 -26 -34 -47 0
-828 -27 -35 -48 0
-828 -28 -36 -49 0
-828 -29 -37 -50 0
-828 -30 -38 -51 0
-829 -2 -3 -6 0
-829 -12 -13 -16 0
-829 -23 -31 -40 0
-829 -24 -32 -46 0
-829 -26 -34 -52 0
-829 -27 -35 -53 0
-829 -28 -36 -54 0
-829 -29 -37 -55 0
-829 -30 -38 -56 0
-830 -2 -3 -7 0
-830 -12 -13 -17 0
-830 -23 -31 -41 0
-830 -24 -32 -47 0
-830 -25 -33 -52 0
-830 -27 -35 -57 0
-830 -28 -36 -58 0
-830 -29 -37 -59 0
-830 -30 -38 -60 0
-831 -2 -3 -8 0
-831 -12 -13 -18 0
-831 -23 -31 -42 0
-831 -24 -32 -48 0
-831 -25 -33 -53 0
-831 -26 -34 -57 0
-831 -28 -36 -61 0
-831 -29 -37 -62 0
-831 -30 -38 -63 0
-832 -2 -3 -9 0
-832 -12 -13 -19 0
-832 -23 -31 -43 0
-832 -24 -32 -49 0
-832 -25 -33 -54 0
-832 -26 -34 -58 0
-832 -27 -35 -61 0
-832 -29 -37 -64 0
-832 -30 -38 -65 0
-833 -2 -3 -10 0
-833 -12 -13 -20 0
-833 -23 -31 -44 0
-833 -24 -32 -50 0
-833 -25 -33 -55 0
-833 -26 -34 -59 0
-833 -27 -35 -62 0
-833 -28 -36 -64 0
-833 -30 -38 -66 0
-834 -2 -3 -11 0
-834 -12 -13 -21 0
-834 -23 -31 -45 0
-834 -24 -32 -51 0
-834 -25 -33 -56 0
-834 -26 -34 -60 0
-834 -27 -35 -63 0
-834 -28 -36 -65 0
-834 -29 -37 -66 0
-835 -2 -4 -5 0
-835 -12 -14 -15 0
-835 -22 -31 -32 0
-835 -25 -40 -46 0
-835 -26 -41 -47 0
-835 -27 -42 -48 0
-835 -28 -43 -49 0
-835 -29 -44 -50 0
-835 -30 -45 -51 0
-836 -2 -4 -6 0
-836 -12 -14 -16 0
-836 -22 -31 -33 0
-836 -24 -39 -46 0
-836 -26 -41 -52 0
-836 -27 -42 -53 0
-836 -28 -43 -54 0
-836 -29 -44 -55 0
-836 -30 -45 -56 0
-837 -2 -4 -7 0
-837 -12 -14 -17 0
-837 -22 -31 -34 0
-837 -24 -39 -47 0
-837 -25 -40 -52 0
-837 -27 -42 -57 0
-837 -28 -43 -58 0
-837 -29 -44 -59 0
-837 -30 -45 -60 0
-838 -2 -4 -8 0
-838 -12 -14 -18 0
-838 -22 -31 -35 0
-838 -24 -39 -48 0
-838 -25 -40 -53 0
-838 -26 -41 -57 0
-838 -28 -43 -61 0
-838 -29 -44 -62 0
-838 -30 -45 -63 0
-839 -2 -4 -9 0
-839 -12 -14 -19 0
-839 -22 -31 -36 0
-839 -24 -39 -49 0
-839 -25 -40 -54 0
-839 -26 -41 -58 0
-839 -27 -42 -61 0
-839 -29 -44 -64 0
-839 -30 -45 -65 0
-840 -2 -4 -10 0
-840 -12 -14 -20 0
-840 -22 -31 -37 0
-840 -24 -39 -50 0
-840 -25 -40 -55 0
-840 -26 -41 -59 0
-840 -27 -42 -62 0
-840 -28 -43 -64 0
-840 -30 -45 -66 0
-841 -2 -4 -11 0
-841 -12 -14 -21 0
-841 -22 -31 -38 0
-841 -24 -39 -51 0
-841 -25 -40 -56 0
-841 -26 -41 -60 0
-841 -27 -42 -63 0
-841 -28 -43 -65 0
-841 -29 -44 -66 0
-842 -2 -5 -6 0
-842 -12 -15 -16 0
-842 -22 -32 -33 0
-842 -23 -39 -40 0
-842 -26 -47 -52 0
-842 -27 -48 -53 0
-842 -28 -49 -54 0
-842 -29 -50 -55 0
-842 -30 -51 -56 0
-843 -2 -5 -7 0
-843 -12 -15 -17 0
-843 -22 -32 -34 0
-843 -23 -39 -41 0
-843 -25 -46 -52 0
-843 -27 -48 -57 0
-843 -28 -49 -58 0
-843 -29 -50 -59 0
-843 -30 -51 -60 0
-844 -2 -5 -8 0
-844 -12 -15 -18 0
-844 -22 -32 -35 0
-844 -23 -39 -42 0
-844 -25 -46 -53 0
-844 -26 -47 -57 0
-844 -28 -49 -61 0
-844 -29 -50 -62 0
-844 -30 -51 -63 0
-845 -2 -5 -9 0
-845 -12 -15 -19 0
-845 -22 -32 -36 0
-845 -23 -39 -43 0
-845 -25 -46 -54 0
-845 -26 -47 -58 0
-845 -27 -48 -61 0
-845 -29 -50 -64 0
-845 -30 -51 -65 0
-846 -2 -5 -10 0
-846 -12 -15 -20 0
-846 -22 -32 -37 0
-846 -23 -39 -44 0
-846 -25 -46 -55 0
-846 -26 -47 -59 0
-846 -27 -48 -62 0
-846 -28 -49 -64 0
-846 -30 -51 -66 0
-847 -2 -5 -11 0
-847 -12 -15 -21 0
-847 -22 -32 -38 0
-847 -23 -39 -45 0
-847 -25 -46 -56 0
-847 -26 -47 -60 0
-847 -27 -48 -63 0
-847 -28 -49 -65 0
-847 -29 -50 -66 0
-848 -2 -6 -7 0
-848 -12 -16 -17 0
-848 -22 -33 -34 0
-848 -23 -40 -41 0
-848 -24 -46 -47 0
-848 -27 -53 -57 0
-848 -28 -54 -58 0
-848 -29 -55 -59 0
-848 -30 -56 -60 0
-849 -2 -6 -8 0
-849 -12 -16 -18 0
-849 -22 -33 -35 0
-849 -23 -40 -42 0
-849 -24 -46 -48 0
-849 -26 -52 -57 0
-849 -28 -54 -61 0
-849 -29 -55 -62 0
-849 -30 -56 -63 0
-850 -2 -6 -9 0
-850 -12 -16 -19 0
-850 -22 -33 -36 0
-850 -23 -40 -43 0
-850 -24 -46 -49 0
-850 -26 -52 -58 0
-850 -27 -53 -61 0
-850 -29 -55 -64 0
-850 -30 -56 -65 0
-851 -2 -6 -10 0
-851 -12 -16 -20 0
-851 -22 -33 -37 0
-851 -23 -40 -44 0
-851 -24 -46 -50 0
-851 -26 -52 -59 0
-851 -27 -53 -62 0
-851 -28 -54 -64 0
-851 -30 -56 -66 0
-852 -2 -6 -11 0
-852 -12 -16 -21 0
-852 -22 -33 -38 0
-852 -23 -40 -45 0
-852 -24 -46 -51 0
-852 -26 -52 -60 0
-852 -27 -53 -63 0
-852 -28 -54 -65 0
-852 -29 -55 -66 0
-853 -2 -7 -8 0
-853 -12 -17 -18 0
-853 -22 -34 -35 0
-853 -23 -41 -42 0
-853 -24 -47 -48 0
-853 -25 -52 -53 0
-853 -28 -58 -61 0
-853 -29 -59 -62 0
-853 -30 -60 -63 0
-854 -2 -7 -9 0
-854 -12 -17 -19 0
-854 -22 -34 -36 0
-854 -23 -41 -43 0
-854 -24 -47 -49 0
-854 -25 -52 -54 0
-854 -27 -57 -61 0
-854 -29 -59 -64 0
-854 -30 -60 -65 0
-855 -2 -7 -10 0
-855 -12 -17 -20 0
-855 -22 -34 -37 0
-855 -23 -41 -44 0
-855 -24 -47 -50 0
-855 -25 -52 -55 0
-855 -27 -57 -62 0
-855 -28 -58 -64 0
-855 -30 -60 -66 0
-856 -2 -7 -11 0
-856 -12 -17 -21 0
-856 -22 -34 -38 0
-856 -23 -41 -45 0
-856 -24 -47 -51 0
-856 -25 -52 -56 0
-856 -27 -57 -63 0
-856 -28 -58 -65 0
-856 -29 -59 -66 0
-857 -2 -8 -9 0
-857 -12 -18 -19 0
-857 -22 -35 -36 0
-857 -23 -42 -43 0
-857 -24 -48 -49 0
-857 -25 -53 -54 0
-857 -26 -57 -58 0
-857 -29 -62 -64 0
-857 -30 -63 -65 0
-858 -2 -8 -10 0
-858 -12 -18 -20 0
-858 -22 -35 -37 0
-858 -23 -42 -44 0
-858 -24 -48 -50 0
-858 -25 -53 -55 0
-858 -26 -57 -59 0
-858 -28 -61 -64 0
-858 -30 -63 -66 0
-859 -2 -8 -11 0
-859 -12 -18 -21 0
-859 -22 -35 -38 0
-859 -23 -42 -45 0
-859 -24 -48 -51 0
-859 -25 -53 -56 0
-859 -26 -57 -60 0
-859 -28 -61 -65 0
-859 -29 -62 -66 0
-860 -2 -9 -10 0
-860 -12 -19 -20 0
-860 -22 -36 -37 0
-860 -23 -43 -44 0
-860 -24 -49 -50 0
-860 -25 -54 -55 0
-860 -26 -58 -59 0
-860 -27 -61 -62 0
-860 -30 -65 -66 0
-861 -2 -9 -11 0
-861 -12 -19 -21 0
-861 -22 -36 -38 0
-861 -23 -43 -45 0
-861 -24 -49 -51 0
-861 -25 -54 -56 0
-861 -26 -58 -60 0
-861 -27 -61 -63 0
-861 -29 -64 -66 0
-862 -2 -10 -11 0
-862 -12 -20 -21 0
-862 -22 -37 -38 0
-862 -23 -44 -45 0
-862 -24 -50 -51 0
-862 -25 -55 -56 0
-862 -26 -59 -60 0
-862 -27 -62 -63 0
-862 -28 -64 -65 0
-863 -3 -4 -5 0
-863 -13 -14 -15 0
-863 -22 -23 -24 0
-863 -33 -40 -46 0
-863 -34 -41 -47 0
-863 -35 -42 -48 0
-863 -36 -43 -49 0
-863 -37 -44 -50 0
-863 -38 -45 -51 0
-864 -3 -4 -6 0
-864 -13 -14 -16 0
-864 -22 -23 -25 0
-864 -32 -39 -46 0
-864 -34 -41 -52 0
-864 -35 -42 -53 0
-864 -36 -43 -54 0
-864 -37 -44 -55 0
-864 -38 -45 -56 0
-865 -3 -4 -7 0
-865 -13 -14 -17 0
-865 -22 -23 -26 0
-865 -32 -39 -47 0
-865 -33 -40 -52 0
-865 -35 -42 -57 0
-865 -36 -43 -58 0
-865 -37 -44 -59 0
-865 -38 -45 -60 0
-866 -3 -4 -8 0
-866 -13 -14 -18 0
-866 -22 -23 -27 0
-866 -32 -39 -48 0
-866 -33 -40 -53 0
-866 -34 -41 -57 0
-866 -36 -43 -61 0
-866 -37 -44 -62 0
-866 -38 -45 -63 0
-867 -3 -4 -9 0
-867 -13 -14 -19 0
-867 -22 -23 -28 0
-867 -32 -39 -49 0
-867 -33 -40 -54 0
-867 -34 -41 -58 0
-867 -35 -42 -61 0
-867 -37 -44 -64 0
-867 -38 -45 -65 0
-868 -3 -4 -10 0
-868 -13 -14 -20 0
-868 -22 -23 -29 0
-868 -32 -39 -50 0
-868 -33 -40 -55 0
-868 -34 -41 -59 0
-868 -35 -42 -62 0
-868 -36 -43 -64 0
-868 -38 -45 -66 0
-869 -3 -4 -11 0
-869 -13 -14 -21 0
-869 -22 -23 -30 0
-869 -32 -39 -51 0
-869 -33 -40 -56 0
-869 -34 -41 -60 0
-869 -35 -42 -63 0
-869 -36 -43 -65 0
-869 -37 -44 -66 0
-870 -3 -5 -6 0
-870 -13 -15 -16 0
-870 -22 -24 -25 0
-870 -31 -39 -40 0
-870 -34 -47 -52 0
-870 -35 -48 -53 0
-870 -36 -49 -54 0
-870 -37 -50 -55 0
-870 -38 -51 -56 0
-871 -3 -5 -7 0
-871 -13 -15 -17 0
-871 -22 -24 -26 0
-871 -31 -39 -41 0
-871 -33 -46 -52 0
-871 -35 -48 -57 0
-871 -36 -49 -58 0
-871 -37 -50 -59 0
-871 -38 -51 -60 0
-872 -3 -5 -8 0
-872 -13 -15 -18 0
-872 -22 -24 -27 0
-872 -31 -39 -42 0
-872 -33 -46 -53 0
-872 -34 -47 -57 0
-872 -36 -49 -61 0
-872 -37 -50 -62 0
-872 -38 -51 -63 0
-873 -3 -5 -9 0
-873 -13 -15 -19 0
-873 -22 -24 -28 0
-873 -31 -39 -43 0
-873 -33 -46 -54 0
-873 -34 -47 -58 0
-873 -35 -48 -61 0
-873 -37 -50 -64 0
-873 -38 -51 -65 0
-874 -3 -5 -10 0
-874 -13 -15 -20 0
-874 -22 -24 -29 0
-874 -31 -39 -44 0
-874 -33 -46 -55 0
-874 -34 -47 -59 0
-874 -35 -48 -62 0
-874 -36 -49 -64 0
-874 -38 -51 -66 0
-875 -3 -5 -11 0
-875 -13 -15 -21 0
-875 -22 -24 -30 0
-875 -31 -39 -45 0
-875 -33 -46 -56 0
-875 -34 -47 -60 0
-875 -35 -48 -63 0
-875 -36 -49 -65 0
-875 -37 -50 -66 0
-876 -3 -6 -7 0
-876 -13 -16 -17 0
-876 -22 -25 -26 0
-876 -31 -40 -41 0
-876 -32 -46 -47 0
-876 -35 -53 -57 0
-876 -36 -54 -58 0
-876 -37 -55 -59 0
-876 -38 -56 -60 0
-877 -3 -6 -8 0
-877 -13 -16 -18 0
-877 -22 -25 -27 0
-877 -31 -40 -42 0
-877 -32 -46 -48 0
-877 -34 -52 -57 0
-877 -36 -54 -61 0
-877 -37 -55 -62 0
-877 -38 -56 -63 0
-878 -3 -6 -9 0
-878 -13 -16 -19 0
-878 -22 -25 -28 0
-878 -31 -40 -43 0
-878 -32 -46 -49 0
-878 -34 -52 -58 0
-878 -35 -53 -61 0
-878 -37 -55 -64 0
-878 -38 -56 -65 0
-879 -3 -6 -10 0
-879 -13 -16 -20 0
-879 -22 -25 -29 0
-879 -31 -40 -44 0
-879 -32 -46 -50 0
-879 -34 -52 -59 0
-879 -35 -53 -62 0
-879 -36 -54 -64 0
-879 -38 -56 -66 0
-880 -3 -6 -11 0
-880 -13 -16 -21 0
-880 -22 -25 -30 0
-880 -31 -40 -45 0
-880 -32 -46 -51 0
-880 -34 -52 -60 0
-880 -35 -53 -63 0
-880 -36 -54 -65 0
-880 -37 -55 -66 0
-881 -3 -7 -8 0
-881 -13 -17 -18 0
-881 -22 -26 -27 0
-881 -31 -41 -42 0
-881 -32 -47 -48 0
-881 -33 -52 -53 0
-881 -36 -58 -61 0
-881 -37 -59 -62 0
-881 -38 -60 -63 0
-882 -3 -7 -9 0
-882 -13 -17 -19 0
-882 -22 -26 -28 0
-882 -31 -41 -43 0
-882 -32 -47 -49 0
-882 -33 -52 -54 0
-882 -35 -57 -61 0
-882 -37 -59 -64 0
-882 -38 -60 -65 0
-883 -3 -7 -10 0
-883 -13 -17 -20 0
-883 -22 -26 -29 0
-883 -31 -41 -44 0
-883 -32 -47 -50 0
-883 -33 -52 -55 0
-883 -35 -57 -62 0
-883 -36 -58 -64 0
-883 -38 -60 -66 0
-884 -3 -7 -11 0
-884 -13 -17 -21 0
-884 -22 -26 -30 0
-884 -31 -41 -45 0
-884 -32 -47 -51 0
-884 -33 -52 -56 0
-884 -35 -57 -63 0
-884 -36 -58 -65 0
-884 -37 -59 -66 0
-885 -3 -8 -9 0
-885 -13 -18 -19 0
-885 -22 -27 -28 0
-885 -31 -42 -43 0
-885 -32 -48 -49 0
-885 -33 -53 -54 0
-885 -34 -57 -58 0
-885 -37 -62 -64 0
-885 -38 -63 -65 0
-886 -3 -8 -10 0
-886 -13 -18 -20 0
-886 -22 -27 -29 0
-886 -31 -42 -44 0
-886 -32 -48 -50 0
-886 -33 -53 -55 0
-886 -34 -57 -59 0
-886 -36 -61 -64 0
-886 -38 -63 -66 0
-887 -3 -8 -11 0
-887 -13 -18 -21 0
-887 -22 -27 -30 0
-887 -31 -42 -45 0
-887 -32 -48 -51 0
-887 -33 -53 -56 0
-887 -34 -57 -60 0
-887 -36 -61 -65 0
-887 -37 -62 -66 0
-888 -3 -9 -10 0
-888 -13 -19 -20 0
-888 -22 -28 -29 0
-888 -31 -43 -44 0
-888 -32 -49 -50 0
-888 -33 -54 -55 0
-888 -34 -58 -59 0
-888 -35 -61 -62 0
-888 -38 -65 -66 0
-889 -3 -9 -11 0
-889 -13 -19 -21 0
-889 -22 -28 -30 0
-889 -31 -43 -45 0
-889 -32 -49 -51 0
-889 -33 -54 -56 0
-889 -34 -58 -60 0
-889 -35 -61 -63 0
-889 -37 -64 -66 0
-890 -3 -10 -11 0
-890 -13 -20 -21 0
-890 -22 -29 -30 0
-890 -31 -44 -45 0
-890 -32 -50 -51 0
-890 -33 -55 -56 0
-890 -34 -59 -60 0
-890 -35 -62 -63 0
-890 -36 -64 -65 0
-891 -4 -5 -6 0
-891 -14 -15 -16 0
-891 -23 -24 -25 0
-891 -31 -32 -33 0
-891 -41 -47 -52 0
-891 -42 -48 -53 0
-891 -43 -49 -54 0
-891 -44 -50 -55 0
-891 -45 -51 -56 0
-892 -4 -5 -7 0
-892 -14 -15 -17 0
-892 -23 -24 -26 0
-892 -31 -32 -34 0
-892 -40 -46 -52 0
-892 -42 -48 -57 0
-892 -43 -49 -58 0
-892 -44 -50 -59 0
-892 -45 -51 -60 0
-893 -4 -5 -8 0
-893 -14 -15 -18 0
-893 -23 -24 -27 0
-893 -31 -32 -35 0
-893 -40 -46 -53 0
-893 -41 -47 -57 0
-893 -43 -49 -61 0
-893 -44 -50 -62 0
-893 -45 -51 -63 0
-894 -4 -5 -9 0
-894 -14 -15 -19 0
-894 -23 -24 -28 0
-894 -31 -32 -36 0
-894 -40 -46 -54 0
-894 -41 -47 -58 0
-894 -42 -48 -61 0
-894 -44 -50 -64 0
-894 -45 -51 -65 0
-895 -4 -5 -10 0
-895 -14 -15 -20 0
-895 -23 -24 -29 0
-895 -31 -32 -37 0
-895 -40 -46 -55 0
-895 -41 -47 -59 0
-895 -42 -48 -62 0
-895 -43 -49 -64 0
-895 -45 -51 -66 0
-896 -4 -5 -11 0
-896 -14 -15 -21 0
-896 -23 -24 -30 0
-896 -31 -32 -38 0
-896 -40 -46 -56 0
-896 -41 -47 -60 0
-896 -42 -48 -63 0
-896 -43 -49 -65 0
-896 -44 -50 -66 0
-897 -4 -6 -7 0
-897 -14 -16 -17 0
-897 -23 -25 -26 0
-897 -31 -33 -34 0
-897 -39 -46 -47 0
-897 -42 -53 -57 0
-897 -43 -54 -58 0
-897 -44 -55 -59 0
-897 -45 -56 -60 0
-898 -4 -6 -8 0
-898 -14 -16 -18 0
-898 -23 -25 -27 0
-898 -31 -33 -35 0
-898 -39 -46 -48 0
-898 -41 -52 -57 0
-898 -43 -54 -61 0
-898 -44 -55 -62 0
-898 -45 -56 -63 0
-899 -4 -6 -9 0
-899 -14 -16 -19 0
-899 -23 -25 -28 0
-899 -31 -33 -36 0
-899 -39 -46 -49 0
-899 -41 -52 -58 0
-899 -42 -53 -61 0
-899 -44 -55 -64 0
-899 -45 -56 -65 0
-900 -4 -6 -10 0
-900 -14 -16 -20 0
-900 -23 -25 -29 0
-900 -31 -33 -37 0
-900 -39 -46 -50 0
-900 -41 -52 -59 0
-900 -42 -53 -62 0
-900 -43 -54 -64 0
-900 -45 -56 -66 0
-901 -4 -6 -11 0
-901 -14 -16 -21 0
-901 -23 -25 -30 0
-901 -31 -33 -38 0
-901 -39 -46 -51 0
-901 -41 -52 -60 0
-901 -42 -53 -63 0
-901 -43 -54 -65 0
-901 -44 -55 -66 0
-902 -4 -7 -8 0
-902 -14 -17 -18 0
-902 -23 -26 -27 0
-902 -31 -34 -35 0
-902 -39 -47 -48 0
-902 -40 -52 -53 0
-902 -43 -58 -61 0
-902 -44 -59 -62 0
-902 -45 -60 -63 0
-903 -4 -7 -9 0
-903 -14 -17 -19 0
-903 -23 -26 -28 0
-903 -31 -34 -36 0
-903 -39 -47 -49 0
-903 -40 -52 -54 0
-903 -42 -57 -61 0
-903 -44 -59 -64 0
-903 -45 -60 -65 0
-904 -4 -7 -10 0
-904 -14 -17 -20 0
-904 -23 -26 -29 0
-904 -31 -34 -37 0
-904 -39 -47 -50 0
-904 -40 -52 -55 0
-904 -42 -57 -62 0
-904 -43 -58 -64 0
-904 -45 -60 -66 0
-905 -4 -7 -11 0
-905 -14 -17 -21 0
-905 -23 -26 -30 0
-905 -31 -34 -38 0
-905 -39 -47 -51 0
-905 -40 -52 -56 0
-905 -42 -57 -63 0
-905 -43 -58 -65 0
-905 -44 -59 -66 0
-906 -4 -8 -9 0
-906 -14 -18 -19 0
-906 -23 -27 -28 0
-906 -31 -35 -36 0
-906 -39 -48 -49 0
-906 -40 -53 -54 0
-906 -41 -57 -58 0
-906 -44 -62 -64 0
-906 -45 -63 -65 0
-907 -4 -8 -10 0
-907 -14 -18 -20 0
-907 -23 -27 -29 0
-907 -31 -35 -37 0
-907 -39 -48 -50 0
-907 -40 -53 -55 0
-907 -41 -57 -59 0
-907 -43 -61 -64 0
-907 -45 -63 -66 0
-908 -4 -8 -11 0
-908 -14 -18 -21 0
-908 -23 -27 -30 0
-908 -31 -35 -38 0
-908 -39 -48 -51 0
-908 -40 -53 -56 0
-908 -41 -57 -60 0
-908 -43 -61 -65 0
-908 -44 -62 -66 0
-909 -4 -9 -10 0
-909 -14 -19 -20 0
-909 -23 -28 -29 0
-909 -31 -36 -37 0
-909 -39 -49 -50 0
-909 -40 -54 -55 0
-909 -41 -58 -59 0
-909 -42 -61 -62 0
-909 -45 -65 -66 0
-910 -4 -9 -11 0
-910 -14 -19 -21 0
-910 -23 -28 -30 0
-910 -31 -36 -38 0
-910 -39 -49 -51 0
-910 -40 -54 -56 0
-910 -41 -58 -60 0
-910 -42 -61 -63 0
-910 -44 -64 -66 0
-911 -4 -10 -11 0
-911 -14 -20 -21 0
-911 -23 -29 -30 0
-911 -31 -37 -38 0
-911 -39 -50 -51 0
-911 -40 -55 -56 0
-911 -41 -59 -60 0
-911 -42 -62 -63 0
-911 -43 -64 -65 0
-912 -5 -6 -7 0
-912 -15 -16 -17 0
-912 -24 -25 -26 0
-912 -32 -33 -34 0
-912 -39 -40 -41 0
-912 -48 -53 -57 0
-912 -49 -54 -58 0
-912 -50 -55 -59 0
-912 -51 -56 -60 0
-913 -5 -6 -8 0
-913 -15 -16 -18 0
-913 -24 -25 -27 0
-913 -32 -33 -35 0
-913 -39 -40 -42 0
-913 -47 -52 -57 0
-913 -49 -54 -61 0
-913 -50 -55 -62 0
-913 -51 -56 -63 0
-914 -5 -6 -9 0
-914 -15 -16 -19 0
-914 -24 -25 -28 0
-914 -32 -33 -36 0
-914 -39 -40 -43 0
-914 -47 -52 -58 0
-914 -48 -53 -61 0
-914 -50 -55 -64 0
-914 -51 -56 -65 0
-915 -5 -6 -10 0
-915 -15 -16 -20 0
-915 -24 -25 -29 0
-915 -32 -33 -37 0
-915 -39 -40 -44 0
-915 -47 -52 -59 0
-915 -48 -53 -62 0
-915 -49 -54 -64 0
-915 -51 -56 -66 0
-916 -5 -6 -11 0
-916 -15 -16 -21 0
-916 -24 -25 -30 0
-916 -32 -33 -38 0
-916 -39 -40 -45 0
-916 -47 -52 -60 0
-916 -48 -53 -63 0
-916 -49 -54 -65 0
-916 -50 -55 -66 0
-917 -5 -7 -8 0
-917 -15 -17 -18 0
-917 -24 -26 -27 0
-917 -32 -34 -35 0
-917 -39 -41 -42 0
-917 -46 -52 -53 0
-917 -49 -58 -61 0
-917 -50 -59 -62 0
-917 -51 -60 -63 0
-918 -5 -7 -9 0
-918 -15 -17 -19 0
-918 -24 -26 -28 0
-918 -32 -34 -36 0
-918 -39 -41 -43 0
-918 -46 -52 -54 0
-918 -48 -57 -61 0
-918 -50 -59 -64 0
-918 -51 -60 -65 0
-919 -5 -7 -10 0
-919 -15 -17 -20 0
-919 -24 -26 -29 0
-919 -32 -34 -37 0
-919 -39 -41 -44 0
-919 -46 -52 -55 0
-919 -48 -57 -62 0
-919 -49 -58 -64 0
-919 -51 -60 -66 0
-920 -5 -7 -11 0
-920 -15 -17 -21 0
-920 -24 -26 -30 0
-920 -32 -34 -38 0
-920 -39 -41 -45 0
-920 -46 -52 -56 0
-920 -48 -57 -63 0
-920 -49 -58 -65 0
-920 -50 -59 -66 0
-921 -5 -8 -9 0
-921 -15 -18 -19 0
-921 -24 -27 -28 0
-921 -32 -35 -36 0
-921 -39 -42 -43 0
-921 -46 -53 -54 0
-921 -47 -57 -58 0
-921 -50 -62 -64 0
-921 -51 -63 -65 0
-922 -5 -8 -10 0
-922 -15 -18 -20 0
-922 -24 -27 -29 0
-922 -32 -35 -37 0
-922 -39 -42 -44 0
-922 -46 -53 -55 0
-922 -47 -57 -59 0
-922 -49 -61 -64 0
-922 -51 -63 -66 0
-923 -5 -8 -11 0
-923 -15 -18 -21 0
-923 -24 -27 -30 0
-923 -32 -35 -38 0
-923 -39 -42 -45 0
-923 -46 -53 -56 0
-923 -47 -57 -60 0
-923 -49 -61 -65 0
-923 -50 -62 -66 0
-924 -5 -9 -10 0
-924 -15 -19 -20 0
-924 -24 -28 -29 0
-924 -32 -36 -37 0
-924 -39 -43 -44 0
-924 -46 -54 -55 0
-924 -47 -58 -59 0
-924 -48 -61 -62 0
-924 -51 -65 -66 0
-925 -5 -9 -11 0
-925 -15 -19 -21 0
-925 -24 -28 -30 0
-925 -32 -36 -38 0
-925 -39 -43 -45 0
-925 -46 -54 -56 0
-925 -47 -58 -60 0
-925 -48 -61 -63 0
-925 -50 -64 -66 0
-926 -5 -10 -11 0
-926 -15 -20 -21 0
-926 -24 -29 -30 0
-926 -32 -37 -38 0
-926 -39 -44 -45 0
-926 -46 -55 -56 0
-926 -47 -59 -60 0
-926 -48 -62 -63 0
-926 -49 -64 -65 0
-927 -6 -7 -8 0
-927 -16 -17 -18 0
-927 -25 -26 -27 0
-927 -33 -34 -35 0
-927 -40 -41 -42 0
-927 -46 -47 -48 0
-927 -54 -58 -61 0
-927 -55 -59 -62 0
-927 -56 -60 -63 0
-928 -6 -7 -9 0
-928 -16 -17 -19 0
-928 -25 -26 -28 0
-928 -33 -34 -36 0
-928 -40 -41 -43 0
-928 -46 -47 -49 0
-928 -53 -57 -61 0
-928 -55 -59 -64 0
-928 -56 -60 -65 0
-929 -6 -7 -10 0
-929 -16 -17 -20 0
-929 -25 -26 -29 0
-929 -33 -34 -37 0
-929 -40 -41 -44 0
-929 -46 -47 -50 0
-929 -53 -57 -62 0
-929 -54 -58 -64 0
-929 -56 -60 -66 0
-930 -6 -7 -11 0
-930 -16 -17 -21 0
-930 -25 -26 -30 0
-930 -33 -34 -38 0
-930 -40 -41 -45 0
-930 -46 -47 -51 0
-930 -53 -57 -63 0
-930 -54 -58 -65 0
-930 -55 -59 -66 0
-931 -6 -8 -9 0
-931 -16 -18 -19 0
-931 -25 -27 -28 0
-931 -33 -35 -36 0
-931 -40 -42 -43 0
-931 -46 -48 -49 0
-931 -52 -57 -58 0
-931 -55 -62 -64 0
-931 -56 -63 -65 0
-932 -6 -8 -10 0
-932 -16 -18 -20 0
-932 -25 -27 -29 0
-932 -33 -35 -37 0
-932 -40 -42 -44 0
-932 -46 -48 -50 0
-932 -52 -57 -59 0
-932 -54 -61 -64 0
-932 -56 -63 -66 0
-933 -6 -8 -11 0
-933 -16 -18 -21 0
-933 -25 -27 -30 0
-933 -33 -35 -38 0
-933 -40 -42 -45 0
-933 -46 -48 -51 0
-933 -52 -57 -60 0
-933 -54 -61 -65 0
-933 -55 -62 -66 0
-934 -6 -9 -10 0
-934 -16 -19 -20 0
-934 -25 -28 -29 0
-934 -33 -36 -37 0
-934 -40 -43 -44 0
-934 -46 -49 -50 0
-934 -52 -58 -59 0
-934 -53 -61 -62 0
-934 -56 -65 -66 0
-935 -6 -9 -11 0
-935 -16 -19 -21 0
-935 -25 -28 -30 0
-935 -33 -36 -38 0
-935 -40 -43 -45 0
-935 -46 -49 -51 0
-935 -52 -58 -60 0
-935 -53 -61 -63 0
-935 -55 -64 -66 0
-936 -6 -10 -11 0
-936 -16 -20 -21 0
-936 -25 -29 -30 0
-936 -33 -37 -38 0
-936 -40 -44 -45 0
-936 -46 -50 -51 0
-936 -52 -59 -60 0
-936 -53 -62 -63 0
-936 -54 -64 -65 0
-937 -7 -8 -9 0
-937 -17 -18 -19 0
-937 -26 -27 -28 0
-937 -34 -35 -36 0
-937 -41 -42 -43 0
-937 -47 -48 -49 0
-937 -52 -53 -54 0
-937 -59 -62 -64 0
-937 -60 -63 -65 0
-938 -7 -8 -10 0
-938 -17 -18 -20 0
-938 -26 -27 -29 0
-938 -34 -35 -37 0
-938 -41 -42 -44 0
-938 -47 -48 -50 0
-938 -52 -53 -55 0
-938 -58 -61 -64 0
-938 -60 -63 -66 0
-939 -7 -8 -11 0
-939 -17 -18 -21 0
-939 -26 -27 -30 0
-939 -34 -35 -38 0
-939 -41 -42 -45 0
-939 -47 -48 -51 0
-939 -52 -53 -56 0
-939 -58 -61 -65 0
-939 -59 -62 -66 0
-940 -7 -9 -10 0
-940 -17 -19 -20 0
-940 -26 -28 -29 0
-940 -34 -36 -37 0
-940 -41 -43 -44 0
-940 -47 -49 -50 0
-940 -52 -54 -55 0
-940 -57 -61 -62 0
-940 -60 -65 -66 0
-941 -7 -9 -11 0
-941 -17 -19 -21 0
-941 -26 -28 -30 0
-941 -34 -36 -38 0
-941 -41 -43 -45 0
-941 -47 -49 -51 0
-941 -52 -54 -56 0
-941 -57 -61 -63 0
-941 -59 -64 -66 0
-942 -7 -10 -11 0
-942 -17 -20 -21 0
-942 -26 -29 -30 0
-942 -34 -37 -38 0
-942 -41 -44 -45 0
-942 -47 -50 -51 0
-942 -52 -55 -56 0
-942 -57 -62 -63 0
-942 -58 -64 -65 0
-943 -8 -9 -10 0
-943 -18 -19 -20 0
-943 -27 -28 -29 0
-943 -35 -36 -37 0
-943 -42 -43 -44 0
-943 -48 -49 -50 0
-943 -53 -54 -55 0
-943 -57 -58 -59 0
-943 -63 -65 -66 0
-944 -8 -9 -11 0
-944 -18 -19 -21 0
-944 -27 -28 -30 0
-944 -35 -36 -38 0
-944 -42 -43 -45 0
-944 -48 -49 -51 0
-944 -53 -54 -56 0
-944 -57 -58 -60 0
-944 -62 -64 -66 0
-945 -8 -10 -11 0
-945 -18 -20 -21 0
-945 -27 -29 -30 0
-945 -35 -37 -38 0
-945 -42 -44 -45 0
-945 -48 -50 -51 0
-945 -53 -55 -56 0
-945 -57 -59 -60 0
-945 -61 -64 -65 0
-946 -9 -10 -11 0
-946 -19 -20 -21 0
-946 -28 -29 -30 0
-946 -36 -37 -38 0
-946 -43 -44 -45 0
-946 -49 -50 -51 0
-946 -54 -55 -56 0
-946 -58 -59 -60 0
-946 -61 -62 -63 0
727 728 729 730 731 732 733 734 735 736 737 738 739 740 741 742 743 744 745 746 747 748 749 750 751 752 753 754 755 756 757 758 759 760 761 762 763 764 765 766 767 768 769 770 771 772 773 774 775 776 777 778 779 780 781 782 783 784 785 786 787 788 789 790 791 792 793 794 795 796 797 798 799 800 801 802 803 804 805 806 807 808 809 810 811 812 813 814 815 816 817 818 819 820 821 822 823 824 825 826 827 828 829 830 831 832 833 834 835 836 837 838 839 840 841 842 843 844 845 846 847 848 849 850 851 852 853 854 855 856 857 858 859 860 861 862 863 864 865 866 867 868 869 870 871 872 873 874 875 876 877 878 879 880 881 882 883 884 885 886 887 888 889 890 891 892 893 894 895 896 897 898 899 900 901 902 903 904 905 906 907 908 909 910 911 912 913 914 915 916 917 918 919 920 921 922 923 924 925 926 927 928 929 930 931 932 933 934 935 936 937 938 939 940 941 942 943 944 945 946 0
-947 -3 0
-947 782 0
-948 -13 0
-948 737 0
-949 -22 0
-949 728 0
-727 947 948 949 0
-950 -4 0
-950 783 0
-951 -14 0
-951 738 0
-952 -23 0
-952 729 0
-727 950 951 952 0
-953 -5 0
-953 784 0
-954 -15 0
-954 739 0
-955 -24 0
-955 730 0
-727 953 954 955 0
-956 -6 0
-956 785 0
-957 -16 0
-957 740 0
-958 -25 0
-958 731 0
-727 956 957 958 0
-959 -7 0
-959 786 0
-960 -17 0
-960 741 0
-961 -26 0
-961 732 0
-727 959 960 961 0
-962 -8 0
-962 787 0
-963 -18 0
-963 742 0
-964 -27 0
-964 733 0
-727 962 963 964 0
-965 -9 0
-965 788 0
-966 -19 0
-966 743 0
-967 -28 0
-967 734 0
-727 965 966 967 0
-968 -10 0
-968 789 0
-969 -20 0
-969 744 0
-970 -29 0
-970 735 0
-727 968 969 970 0
-971 -11 0
-971 790 0
-972 -21 0
-972 745 0
-973 -30 0
-973 736 0
-727 971 972 973 0
-974 -2 0
-974 782 0
-975 -12 0
-975 737 0
-976 -22 0
-976 727 0
-728 974 975 976 0
-977 -4 0
-977 791 0
-978 -14 0
-978 746 0
-979 -31 0
-979 729 0
-728 977 978 979 0
-980 -5 0
-980 792 0
-981 -15 0
-981 747 0
-982 -32 0
-982 730 0
-728 980 981 982 0
-983 -6 0
-983 793 0
-984 -16 0
-984 748 0
-985 -33 0
-985 731 0
-728 983 984 985 0
-986 -7 0
-986 794 0
-987 -17 0
-987 749 0
-988 -34 0
-988 732 0
-728 986 987 988 0
-989 -8 0
-989 795 0
-990 -18 0
-990 750 0
-991 -35 0
-991 733 0
-728 989 990 991 0
-992 -9 0
-992 796 0
-993 -19 0
-993 751 0
-994 -36 0
-994 734 0
-728 992 993 994 0
-995 -10 0
-995 797 0
-996 -20 0
-996 752 0
-997 -37 0
-997 735 0
-728 995 996 997 0
-998 -11 0
-998 798 0
-999 -21 0
-999 753 0
-1000 -38 0
-1000 736 0
-728 998 999 1000 0
-1001 -2 0
-1001 783 0
-1002 -12 0
-1002 738 0
-1003 -23 0
-1003 727 0
-729 1001 1002 1003 0
-1004 -3 0
-1004 791 0
-1005 -13 0
-1005 746 0
-1006 -31 0
-1006 728 0
-729 1004 1005 1006 0
-1007 -5 0
-1007 799 0
-1008 -15 0
-1008 754 0
-1009 -39 0
-1009 730 0
-729 1007 1008 1009 0
-1010 -6 0
-1010 800 0
-1011 -16 0
-1011 755 0
-1012 -40 0
-1012 731 0
-729 1010 1011 1012 0
-1013 -7 0
-1013 801 0
-1014 -17 0
-1014 756 0
-1015 -41 0
-1015 732 0
-729 1013 1014 1015 0
-1016 -8 0
-1016 802 0
-1017 -18 0
-1017 757 0
-1018 -42 0
-1018 733 0
-729 1016 1017 1018 0
-1019 -9 0
-1019 803 0
-1020 -19 0
-1020 758 0
-1021 -43 0
-1021 734 0
-729 1019 1020 1021 0
-1022 -10 0
-1022 804 0
-1023 -20 0
-1023 759 0
-1024 -44 0
-1024 735 0
-729 1022 1023 1024 0
-1025 -11 0
-1025 805 0
-1026 -21 0
-1026 760 0
-1027 -45 0
-1027 736 0
-729 1025 1026 1027 0
-1028 -2 0
-1028 784 0
-1029 -12 0
-1029 739 0
-1030 -24 0
-1030 727 0
-730 1028 1029 1030 0
-1031 -3 0
-1031 792 0
-1032 -13 0
-1032 747 0
-1033 -32 0
-1033 728 0
-730 1031 1032 1033 0
-1034 -4 0
-1034 799 0
-1035 -14 0
-1035 754 0
-1036 -39 0
-1036 729 0
-730 1034 1035 1036 0
-1037 -6 0
-1037 806 0
-1038 -16 0
-1038 761 0
-1039 -46 0
-1039 731 0
-730 1037 1038 1039 0
-1040 -7 0
-1040 807 0
-1041 -17 0
-1041 762 0
-1042 -47 0
-1042 732 0
-730 1040 1041 1042 0
-1043 -8 0
-1043 808 0
-1044 -18 0
-1044 763 0
-1045 -48 0
-1045 733 0
-730 1043 1044 1045 0
-1046 -9 0
-1046 809 0
-1047 -19 0
-1047 764 0
-1048 -49 0
-1048 734 0
-730 1046 1047 1048 0
-1049 -10 0
-1049 810 0
-1050 -20 0
-1050 765 0
-1051 -50 0
-1051 735 0
-730 1049 1050 1051 0
-1052 -11 0
-1052 811 0
-1053 -21 0
-1053 766 0
-1054 -51 0
-1054 736 0
-730 1052 1053 1054 0
-1055 -2 0
-1055 785 0
-1056 -12 0
-1056 740 0
-1057 -25 0
-1057 727 0
-731 1055 1056 1057 0
-1058 -3 0
-1058 793 0
-1059 -13 0
-1059 748 0
-1060 -33 0
-1060 728 0
-731 1058 1059 1060 0
-1061 -4 0
-1061 800 0
-1062 -14 0
-1062 755 0
-1063 -40 0
-1063 729 0
-731 1061 1062 1063 0
-1064 -5 0
-1064 806 0
-1065 -15 0
-1065 761 0
-1066 -46 0
-1066 730 0
-731 1064 1065 1066 0
-1067 -7 0
-1067 812 0
-1068 -17 0
-1068 767 0
-1069 -52 0
-1069 732 0
-731 1067 1068 1069 0
-1070 -8 0
-1070 813 0
-1071 -18 0
-1071 768 0
-1072 -53 0
-1072 733 0
-731 1070 1071 1072 0
-1073 -9 0
-1073 814 0
-1074 -19 0
-1074 769 0
-1075 -54 0
-1075 734 0
-731 1073 1074 1075 0
-1076 -10 0
-1076 815 0
-1077 -20 0
-1077 770 0
-1078 -55 0
-1078 735 0
-731 1076 1077 1078 0
-1079 -11 0
-1079 816 0
-1080 -21 0
-1080 771 0
-1081 -56 0
-1081 736 0
-731 1079 1080 1081 0
-1082 -2 0
-1082 786 0
-1083 -12 0
-1083 741 0
-1084 -26 0
-1084 727 0
-732 1082 1083 1084 0
-1085 -3 0
-1085 794 0
-1086 -13 0
-1086 749 0
-1087 -34 0
-1087 728 0
-732 1085 1086 1087 0
-1088 -4 0
-1088 801 0
-1089 -14 0
-1089 756 0
-1090 -41 0
-1090 729 0
-732 1088 1089 1090 0
-1091 -5 0
-1091 807 0
-1092 -15 0
-1092 762 0
-1093 -47 0
-1093 730 0
-732 1091 1092 1093 0
-1094 -6 0
-1094 812 0
-1095 -16 0
-1095 767 0
-1096 -52 0
-1096 731 0
-732 1094 1095 1096 0
-1097 -8 0
-1097 817 0
-1098 -18 0
-1098 772 0
-1099 -57 0
-1099 733 0
-732 1097 1098 1099 0
-1100 -9 0
-1100 818 0
-1101 -19 0
-1101 773 0
-1102 -58 0
-1102 734 0
-732 1100 1101 1102 0
-1103 -10 0
-1103 819 0
-1104 -20 0
-1104 774 0
-1105 -59 0
-1105 735 0
-732 1103 1104 1105 0
-1106 -11 0
-1106 820 0
-1107 -21 0
-1107 775 0
-1108 -60 0
-1108 736 0
-732 1106 1107 1108 0
-1109 -2 0
-1109 787 0
-1110 -12 0
-1110 742 0
-1111 -27 0
-1111 727 0
-733 1109 1110 1111 0
-1112 -3 0
-1112 795 0
-1113 -13 0
-1113 750 0
-1114 -35 0
-1114 728 0
-733 1112 1113 1114 0
-1115 -4 0
-1115 802 0
-1116 -14 0
-1116 757 0
-1117 -42 0
-1117 729 0
-733 1115 1116 1117 0
-1118 -5 0
-1118 808 0
-1119 -15 0
-1119 763 0
-1120 -48 0
-1120 730 0
-733 1118 1119 1120 0
-1121 -6 0
-1121 813 0
-1122 -16 0
-1122 768 0
-1123 -53 0
-1123 731 0
-733 1121 1122 1123 0
-1124 -7 0
-1124 817 0
-1125 -17 0
-1125 772 0
-1126 -57 0
-1126 732 0
-733 1124 1125 1126 0
-1127 -9 0
-1127 821 0
-1128 -19 0
-1128 776 0
-1129 -61 0
-1129 734 0
-733 1127 1128 1129 0
-1130 -10 0
-1130 822 0
-1131 -20 0
-1131 777 0
-1132 -62 0
-1132 735 0
-733 1130 1131 1132 0
-1133 -11 0
-1133 823 0
-1134 -21 0
-1134 778 0
-1135 -63 0
-1135 736 0
-733 1133 1134 1135 0
-1136 -2 0
-1136 788 0
-1137 -12 0
-1137 743 0
-1138 -28 0
-1138 727 0
-734 1136 1137 1138 0
-1139 -3 0
-1139 796 0
-1140 -13 0
-1140 751 0
-1141 -36 0
-1141 728 0
-734 1139 1140 1141 0
-1142 -4 0
-1142 803 0
-1143 -14 0
-1143 758 0
-1144 -43 0
-1144 729 0
-734 1142 1143 1144 0
-1145 -5 0
-1145 809 0
-1146 -15 0
-1146 764 0
-1147 -49 0
-1147 730 0
-734 1145 1146 1147 0
-1148 -6 0
-1148 814 0
-1149 -16 0
-1149 769 0
-1150 -54 0
-1150 731 0
-734 1148 1149 1150 0
-1151 -7 0
-1151 818 0
-1152 -17 0
-1152 773 0
-1153 -58 0
-1153 732 0
-734 1151 1152 1153 0
-1154 -8 0
-1154 821 0
-1155 -18 0
-1155 776 0
-1156 -61 0
-1156 733 0
-734 1154 1155 1156 0
-1157 -10 0
-1157 824 0
-1158 -20 0
-1158 779 0
-1159 -64 0
-1159 735 0
-734 1157 1158 1159 0
-1160 -11 0
-1160 825 0
-1161 -21 0
-1161 780 0
-1162 -65 0
-1162 736 0
-734 1160 1161 1162 0
-1163 -2 0
-1163 789 0
-1164 -12 0
-1164 744 0
-1165 -29 0
-1165 727 0
-735 1163 1164 1165 0
-1166 -3 0
-1166 797 0
-1167 -13 0
-1167 752 0
-1168 -37 0
-1168 728 0
-735 1166 1167 1168 0
-1169 -4 0
-1169 804 0
-1170 -14 0
-1170 759 0
-1171 -44 0
-1171 729 0
-735 1169 1170 1171 0
-1172 -5 0
-1172 810 0
-1173 -15 0
-1173 765 0
-1174 -50 0
-1174 730 0
-735 1172 1173 1174 0
-1175 -6 0
-1175 815 0
-1176 -16 0
-1176 770 0
-1177 -55 0
-1177 731 0
-735 1175 1176 1177 0
-1178 -7 0
-1178 819 0
-1179 -17 0
-1179 774 0
-1180 -59 0
-1180 732 0
-735 1178 1179 1180 0
-1181 -8 0
-1181 822 0
-1182 -18 0
-1182 777 0
-1183 -62 0
-1183 733 0
-735 1181 1182 1183 0
-1184 -9 0
-1184 824 0
-1185 -19 0
-1185 779 0
-1186 -64 0
-1186 734 0
-735 1184 1185 1186 0
-1187 -11 0
-1187 826 0
-1188 -21 0
-1188 781 0
-1189 -66 0
-1189 736 0
-735 1187 1188 1189 0
-1190 -2 0
-1190 790 0
-1191 -12 0
-1191 745 0
-1192 -30 0
-1192 727 0
-736 1190 1191 1192 0
-1193 -3 0
-1193 798 0
-1194 -13 0
-1194 753 0
-1195 -38 0
-1195 728 0
-736 1193 1194 1195 0
-1196 -4 0
-1196 805 0
-1197 -14 0
-1197 760 0
-1198 -45 0
-1198 729 0
-736 1196 1197 1198 0
-1199 -5 0
-1199 811 0
-1200 -15 0
-1200 766 0
-1201 -51 0
-1201 730 0
-736 1199 1200 1201 0
-1202 -6 0
-1202 816 0
-1203 -16 0
-1203 771 0
-1204 -56 0
-1204 731 0
-736 1202 1203 1204 0
-1205 -7 0
-1205 820 0
-1206 -17 0
-1206 775 0
-1207 -60 0
-1207 732 0
-736 1205 1206 1207 0
-1208 -8 0
-1208 823 0
-1209 -18 0
-1209 778 0
-1210 -63 0
-1210 733 0
-736 1208 1209 1210 0
-1211 -9 0
-1211 825 0
-1212 -19 0
-1212 780 0
-1213 -65 0
-1213 734 0
-736 1211 1212 1213 0
-1214 -10 0
-1214 826 0
-1215 -20 0
-1215 781 0
-1216 -66 0
-1216 735 0
-736 1214 1215 1216 0
-1217 -1 0
-1217 782 0
-1218 -12 0
-1218 728 0
-1219 -13 0
-1219 727 0
-737 1217 1218 1219 0
-1220 -4 0
-1220 827 0
-1221 -23 0
-1221 746 0
-1222 -31 0
-1222 738 0
-737 1220 1221 1222 0
-1223 -5 0
-1223 828 0
-1224 -24 0
-1224 747 0
-1225 -32 0
-1225 739 0
-737 1223 1224 1225 0
-1226 -6 0
-1226 829 0
-1227 -25 0
-1227 748 0
-1228 -33 0
-1228 740 0
-737 1226 1227 1228 0
-1229 -7 0
-1229 830 0
-1230 -26 0
-1230 749 0
-1231 -34 0
-1231 741 0
-737 1229 1230 1231 0
-1232 -8 0
-1232 831 0
-1233 -27 0
-1233 750 0
-1234 -35 0
-1234 742 0
-737 1232 1233 1234 0
-1235 -9 0
-1235 832 0
-1236 -28 0
-1236 751 0
-1237 -36 0
-1237 743 0
-737 1235 1236 1237 0
-1238 -10 0
-1238 833 0
-1239 -29 0
-1239 752 0
-1240 -37 0
-1240 744 0
-737 1238 1239 1240 0
-1241 -11 0
-1241 834 0
-1242 -30 0
-1242 753 0
-1243 -38 0
-1243 745 0
-737 1241 1242 1243 0
-1244 -1 0
-1244 783 0
-1245 -12 0
-1245 729 0
-1246 -14 0
-1246 727 0
-738 1244 1245 1246 0
-1247 -3 0
-1247 827 0
-1248 -22 0
-1248 746 0
-1249 -31 0
-1249 737 0
-738 1247 1248 1249 0
-1250 -5 0
-1250 835 0
-1251 -24 0
-1251 754 0
-1252 -39 0
-1252 739 0
-738 1250 1251 1252 0
-1253 -6 0
-1253 836 0
-1254 -25 0
-1254 755 0
-1255 -40 0
-1255 740 0
-738 1253 1254 1255 0
-1256 -7 0
-1256 837 0
-1257 -26 0
-1257 756 0
-1258 -41 0
-1258 741 0
-738 1256 1257 1258 0
-1259 -8 0
-1259 838 0
-1260 -27 0
-1260 757 0
-1261 -42 0
-1261 742 0
-738 1259 1260 1261 0
-1262 -9 0
-1262 839 0
-1263 -28 0
-1263 758 0
-1264 -43 0
-1264 743 0
-738 1262 1263 1264 0
-1265 -10 0
-1265 840 0
-1266 -29 0
-1266 759 0
-1267 -44 0
-1267 744 0
-738 1265 1266 1267 0
-1268 -11 0
-1268 841 0
-1269 -30 0
-1269 760 0
-1270 -45 0
-1270 745 0
-738 1268 1269 1270 0
-1271 -1 0
-1271 784 0
-1272 -12 0
-1272 730 0
-1273 -15 0
-1273 727 0
-739 1271 1272 1273 0
-1274 -3 0
-1274 828 0
-1275 -22 0
-1275 747 0
-1276 -32 0
-1276 737 0
-739 1274 1275 1276 0
-1277 -4 0
-1277 835 0
-1278 -23 0
-1278 754 0
-1279 -39 0
-1279 738 0
-739 1277 1278 1279 0
-1280 -6 0
-1280 842 0
-1281 -25 0
-1281 761 0
-1282 -46 0
-1282 740 0
-739 1280 1281 1282 0
-1283 -7 0
-1283 843 0
-1284 -26 0
-1284 762 0
-1285 -47 0
-1285 741 0
-739 1283 1284 1285 0
-1286 -8 0
-1286 844 0
-1287 -27 0
-1287 763 0
-1288 -48 0
-1288 742 0
-739 1286 1287 1288 0
-1289 -9 0
-1289 845 0
-1290 -28 0
-1290 764 0
-1291 -49 0
-1291 743 0
-739 1289 1290 1291 0
-1292 -10 0
-1292 846 0
-1293 -29 0
-1293 765 0
-1294 -50 0
-1294 744 0
-739 1292 1293 1294 0
-1295 -11 0
-1295 847 0
-1296 -30 0
-1296 766 0
-1297 -51 0
-1297 745 0
-739 1295 1296 1297 0
-1298 -1 0
-1298 785 0
-1299 -12 0
-1299 731 0
-1300 -16 0
-1300 727 0
-740 1298 1299 1300 0
-1301 -3 0
-1301 829 0
-1302 -22 0
-1302 748 0
-1303 -33 0
-1303 737 0
-740 1301 1302 1303 0
-1304 -4 0
-1304 836 0
-1305 -23 0
-1305 755 0
-1306 -40 0
-1306 738 0
-740 1304 1305 1306 0
-1307 -5 0
-1307 842 0
-1308 -24 0
-1308 761 0
-1309 -46 0
-1309 739 0
-740 1307 1308 1309 0
-1310 -7 0
-1310 848 0
-1311 -26 0
-1311 767 0
-1312 -52 0
-1312 741 0
-740 1310 1311 1312 0
-1313 -8 0
-1313 849 0
-1314 -27 0
-1314 768 0
-1315 -53 0
-1315 742 0
-740 1313 1314 1315 0
-1316 -9 0
-1316 850 0
-1317 -28 0
-1317 769 0
-1318 -54 0
-1318 743 0
-740 1316 1317 1318 0
-1319 -10 0
-1319 851 0
-1320 -29 0
-1320 770 0
-1321 -55 0
-1321 744 0
-740 1319 1320 1321 0
-1322 -11 0
-1322 852 0
-1323 -30 0
-1323 771 0
-1324 -56 0
-1324 745 0
-740 1322 1323 1324 0
-1325 -1 0
-1325 786 0
-1326 -12 0
-1326 732 0
-1327 -17 0
-1327 727 0
-741 1325 1326 1327 0
-1328 -3 0
-1328 830 0
-1329 -22 0
-1329 749 0
-1330 -34 0
-1330 737 0
-741 1328 1329 1330 0
-1331 -4 0
-1331 837 0
-1332 -23 0
-1332 756 0
-1333 -41 0
-1333 738 0
-741 1331 1332 1333 0
-1334 -5 0
-1334 843 0
-1335 -24 0
-1335 762 0
-1336 -47 0
-1336 739 0
-741 1334 1335 1336 0
-1337 -6 0
-1337 848 0
-1338 -25 0
-1338 767 0
-1339 -52 0
-1339 740 0
-741 1337 1338 1339 0
-1340 -8 0
-1340 853 0
-1341 -27 0
-1341 772 0
-1342 -57 0
-1342 742 0
-741 1340 1341 1342 0
-1343 -9 0
-1343 854 0
-1344 -28 0
-1344 773 0
-1345 -58 0
-1345 743 0
-741 1343 1344 1345 0
-1346 -10 0
-1346 855 0
-1347 -29 0
-1347 774 0
-1348 -59 0
-1348 744 0
-741 1346 1347 1348 0
-1349 -11 0
-1349 856 0
-1350 -30 0
-1350 775 0
-1351 -60 0
-1351 745 0
-741 1349 1350 1351 0
-1352 -1 0
-1352 787 0
-1353 -12 0
-1353 733 0
-1354 -18 0
-1354 727 0
-742 1352 1353 1354 0
-1355 -3 0
-1355 831 0
-1356 -22 0
-1356 750 0
-1357 -35 0
-1357 737 0
-742 1355 1356 1357 0
-1358 -4 0
-1358 838 0
-1359 -23 0
-1359 757 0
-1360 -42 0
-1360 738 0
-742 1358 1359 1360 0
-1361 -5 0
-1361 844 0
-1362 -24 0
-1362 763 0
-1363 -48 0
-1363 739 0
-742 1361 1362 1363 0
-1364 -6 0
-1364 849 0
-1365 -25 0
-1365 768 0
-1366 -53 0
-1366 740 0
-742 1364 1365 1366 0
-1367 -7 0
-1367 853 0
-1368 -26 0
-1368 772 0
-1369 -57 0
-1369 741 0
-742 1367 1368 1369 0
-1370 -9 0
-1370 857 0
-1371 -28 0
-1371 776 0
-1372 -61 0
-1372 743 0
-742 1370 1371 1372 0
-1373 -10 0
-1373 858 0
-1374 -29 0
-1374 777 0
-1375 -62 0
-1375 744 0
-742 1373 1374 1375 0
-1376 -11 0
-1376 859 0
-1377 -30 0
-1377 778 0
-1378 -63 0
-1378 745 0
-742 1376 1377 1378 0
-1379 -1 0
-1379 788 0
-1380 -12 0
-1380 734 0
-1381 -19 0
-1381 727 0
-743 1379 1380 1381 0
-1382 -3 0
-1382 832 0
-1383 -22 0
-1383 751 0
-1384 -36 0
-1384 737 0
-743 1382 1383 1384 0
-1385 -4 0
-1385 839 0
-1386 -23 0
-1386 758 0
-1387 -43 0
-1387 738 0
-743 1385 1386 1387 0
-1388 -5 0
-1388 845 0
-1389 -24 0
-1389 764 0
-1390 -49 0
-1390 739 0
-743 1388 1389 1390 0
-1391 -6 0
-1391 850 0
-1392 -25 0
-1392 769 0
-1393 -54 0
-1393 740 0
-743 1391 1392 1393 0
-1394 -7 0
-1394 854 0
-1395 -26 0
-1395 773 0
-1396 -58 0
-1396 741 0
-743 1394 1395 1396 0
-1397 -8 0
-1397 857 0
-1398 -27 0
-1398 776 0
-1399 -61 0
-1399 742 0
-743 1397 1398 1399 0
-1400 -10 0
-1400 860 0
-1401 -29 0
-1401 779 0
-1402 -64 0
-1402 744 0
-743 1400 1401 1402 0
-1403 -11 0
-1403 861 0
-1404 -30 0
-1404 780 0
-1405 -65 0
-1405 745 0
-743 1403 1404 1405 0
-1406 -1 0
-1406 789 0
-1407 -12 0
-1407 735 0
-1408 -20 0
-1408 727 0
-744 1406 1407 1408 0
-1409 -3 0
-1409 833 0
-1410 -22 0
-1410 752 0
-1411 -37 0
-1411 737 0
-744 1409 1410 1411 0
-1412 -4 0
-1412 840 0
-1413 -23 0
-1413 759 0
-1414 -44 0
-1414 738 0
-744 1412 1413 1414 0
-1415 -5 0
-1415 846 0
-1416 -24 0
-1416 765 0
-1417 -50 0
-1417 739 0
-744 1415 1416 1417 0
-1418 -6 0
-1418 851 0
-1419 -25 0
-1419 770 0
-1420 -55 0
-1420 740 0
-744 1418 1419 1420 0
-1421 -7 0
-1421 855 0
-1422 -26 0
-1422 774 0
-1423 -59 0
-1423 741 0
-744 1421 1422 1423 0
-1424 -8 0
-1424 858 0
-1425 -27 0
-1425 777 0
-1426 -62 0
-1426 742 0
-744 1424 1425 1426 0
-1427 -9 0
-1427 860 0
-1428 -28 0
-1428 779 0
-1429 -64 0
-1429 743 0
-744 1427 1428 1429 0
-1430 -11 0
-1430 862 0
-1431 -30 0
-1431 781 0
-1432 -66 0
-1432 745 0
-744 1430 1431 1432 0
-1433 -1 0
-1433 790 0
-1434 -12 0
-1434 736 0
-1435 -21 0
-1435 727 0
-745 1433 1434 1435 0
-1436 -3 0
-1436 834 0
-1437 -22 0
-1437 753 0
-1438 -38 0
-1438 737 0
-745 1436 1437 1438 0
-1439 -4 0
-1439 841 0
-1440 -23 0
-1440 760 0
-1441 -45 0
-1441 738 0
-745 1439 1440 1441 0
-1442 -5 0
-1442 847 0
-1443 -24 0
-1443 766 0
-1444 -51 0
-1444 739 0
-745 1442 1443 1444 0
-1445 -6 0
-1445 852 0
-1446 -25 0
-1446 771 0
-1447 -56 0
-1447 740 0
-745 1445 1446 1447 0
-1448 -7 0
-1448 856 0
-1449 -26 0
-1449 775 0
-1450 -60 0
-1450 741 0
-745 1448 1449 1450 0
-1451 -8 0
-1451 859 0
-1452 -27 0
-1452 778 0
-1453 -63 0
-1453 742 0
-745 1451 1452 1453 0
-1454 -9 0
-1454 861 0
-1455 -28 0
-1455 780 0
-1456 -65 0
-1456 743 0
-745 1454 1455 1456 0
-1457 -10 0
-1457 862 0
-1458 -29 0
-1458 781 0
-1459 -66 0
-1459 744 0
-745 1457 1458 1459 0
-1460 -1 0
-1460 791 0
-1461 -13 0
-1461 729 0
-1462 -14 0
-1462 728 0
-746 1460 1461 1462 0
-1463 -2 0
-1463 827 0
-1464 -22 0
-1464 738 0
-1465 -23 0
-1465 737 0
-746 1463 1464 1465 0
-1466 -5 0
-1466 863 0
-1467 -32 0
-1467 754 0
-1468 -39 0
-1468 747 0
-746 1466 1467 1468 0
-1469 -6 0
-1469 864 0
-1470 -33 0
-1470 755 0
-1471 -40 0
-1471 748 0
-746 1469 1470 1471 0
-1472 -7 0
-1472 865 0
-1473 -34 0
-1473 756 0
-1474 -41 0
-1474 749 0
-746 1472 1473 1474 0
-1475 -8 0
-1475 866 0
-1476 -35 0
-1476 757 0
-1477 -42 0
-1477 750 0
-746 1475 1476 1477 0
-1478 -9 0
-1478 867 0
-1479 -36 0
-1479 758 0
-1480 -43 0
-1480 751 0
-746 1478 1479 1480 0
-1481 -10 0
-1481 868 0
-1482 -37 0
-1482 759 0
-1483 -44 0
-1483 752 0
-746 1481 1482 1483 0
-1484 -11 0
-1484 869 0
-1485 -38 0
-1485 760 0
-1486 -45 0
-1486 753 0
-746 1484 1485 1486 0
-1487 -1 0
-1487 792 0
-1488 -13 0
-1488 730 0
-1489 -15 0
-1489 728 0
-747 1487 1488 1489 0
-1490 -2 0
-1490 828 0
-1491 -22 0
-1491 739 0
-1492 -24 0
-1492 737 0
-747 1490 1491 1492 0
-1493 -4 0
-1493 863 0
-1494 -31 0
-1494 754 0
-1495 -39 0
-1495 746 0
-747 1493 1494 1495 0
-1496 -6 0
-1496 870 0
-1497 -33 0
-1497 761 0
-1498 -46 0
-1498 748 0
-747 1496 1497 1498 0
-1499 -7 0
-1499 871 0
-1500 -34 0
-1500 762 0
-1501 -47 0
-1501 749 0
-747 1499 1500 1501 0
-1502 -8 0
-1502 872 0
-1503 -35 0
-1503 763 0
-1504 -48 0
-1504 750 0
-747 1502 1503 1504 0
-1505 -9 0
-1505 873 0
-1506 -36 0
-1506 764 0
-1507 -49 0
-1507 751 0
-747 1505 1506 1507 0
-1508 -10 0
-1508 874 0
-1509 -37 0
-1509 765 0
-1510 -50 0
-1510 752 0
-747 1508 1509 1510 0
-1511 -11 0
-1511 875 0
-1512 -38 0
-1512 766 0
-1513 -51 0
-1513 753 0
-747 1511 1512 1513 0
-1514 -1 0
-1514 793 0
-1515 -13 0
-1515 731 0
-1516 -16 0
-1516 728 0
-748 1514 1515 1516 0
-1517 -2 0
-1517 829 0
-1518 -22 0
-1518 740 0
-1519 -25 0
-1519 737 0
-748 1517 1518 1519 0
-1520 -4 0
-1520 864 0
-1521 -31 0
-1521 755 0
-1522 -40 0
-1522 746 0
-748 1520 1521 1522 0
-1523 -5 0
-1523 870 0
-1524 -32 0
-1524 761 0
-1525 -46 0
-1525 747 0
-748 1523 1524 1525 0
-1526 -7 0
-1526 876 0
-1527 -34 0
-1527 767 0
-1528 -52 0
-1528 749 0
-748 1526 1527 1528 0
-1529 -8 0
-1529 877 0
-1530 -35 0
-1530 768 0
-1531 -53 0
-1531 750 0
-748 1529 1530 1531 0
-1532 -9 0
-1532 878 0
-1533 -36 0
-1533 769 0
-1534 -54 0
-1534 751 0
-748 1532 1533 1534 0
-1535 -10 0
-1535 879 0
-1536 -37 0
-1536 770 0
-1537 -55 0
-1537 752 0
-748 1535 1536 1537 0
-1538 -11 0
-1538 880 0
-1539 -38 0
-1539 771 0
-1540 -56 0
-1540 753 0
-748 1538 1539 1540 0
-1541 -1 0
-1541 794 0
-1542 -13 0
-1542 732 0
-1543 -17 0
-1543 728 0
-749 1541 1542 1543 0
-1544 -2 0
-1544 830 0
-1545 -22 0
-1545 741 0
-1546 -26 0
-1546 737 0
-749 1544 1545 1546 0
-1547 -4 0
-1547 865 0
-1548 -31 0
-1548 756 0
-1549 -41 0
-1549 746 0
-749 1547 1548 1549 0
-1550 -5 0
-1550 871 0
-1551 -32 0
-1551 762 0
-1552 -47 0
-1552 747 0
-749 1550 1551 1552 0
-1553 -6 0
-1553 876 0
-1554 -33 0
-1554 767 0
-1555 -52 0
-1555 748 0
-749 1553 1554 1555 0
-1556 -8 0
-1556 881 0
-1557 -35 0
-1557 772 0
-1558 -57 0
-1558 750 0
-749 1556 1557 1558 0
-1559 -9 0
-1559 882 0
-1560 -36 0
-1560 773 0
-1561 -58 0
-1561 751 0
-749 1559 1560 1561 0
-1562 -10 0
-1562 883 0
-1563 -37 0
-1563 774 0
-1564 -59 0
-1564 752 0
-749 1562 1563 1564 0
-1565 -11 0
-1565 884 0
-1566 -38 0
-1566 775 0
-1567 -60 0
-1567 753 0
-749 1565 1566 1567 0
-1568 -1 0
-1568 795 0
-1569 -13 0
-1569 733 0
-1570 -18 0
-1570 728 0
-750 1568 1569 1570 0
-1571 -2 0
-1571 831 0
-1572 -22 0
-1572 742 0
-1573 -27 0
-1573 737 0
-750 1571 1572 1573 0
-1574 -4 0
-1574 866 0
-1575 -31 0
-1575 757 0
-1576 -42 0
-1576 746 0
-750 1574 1575 1576 0
-1577 -5 0
-1577 872 0
-1578 -32 0
-1578 763 0
-1579 -48 0
-1579 747 0
-750 1577 1578 1579 0
-1580 -6 0
-1580 877 0
-1581 -33 0
-1581 768 0
-1582 -53 0
-1582 748 0
-750 1580 1581 1582 0
-1583 -7 0
-1583 881 0
-1584 -34 0
-1584 772 0
-1585 -57 0
-1585 749 0
-750 1583 1584 1585 0
-1586 -9 0
-1586 885 0
-1587 -36 0
-1587 776 0
-1588 -61 0
-1588 751 0
-750 1586 1587 1588 0
-1589 -10 0
-1589 886 0
-1590 -37 0
-1590 777 0
-1591 -62 0
-1591 752 0
-750 1589 1590 1591 0
-1592 -11 0
-1592 887 0
-1593 -38 0
-1593 778 0
-1594 -63 0
-1594 753 0
-750 1592 1593 1594 0
-1595 -1 0
-1595 796 0
-1596 -13 0
-1596 734 0
-1597 -19 0
-1597 728 0
-751 1595 1596 1597 0
-1598 -2 0
-1598 832 0
-1599 -22 0
-1599 743 0
-1600 -28 0
-1600 737 0
-751 1598 1599 1600 0
-1601 -4 0
-1601 867 0
-1602 -31 0
-1602 758 0
-1603 -43 0
-1603 746 0
-751 1601 1602 1603 0
-1604 -5 0
-1604 873 0
-1605 -32 0
-1605 764 0
-1606 -49 0
-1606 747 0
-751 1604 1605 1606 0
-1607 -6 0
-1607 878 0
-1608 -33 0
-1608 769 0
-1609 -54 0
-1609 748 0
-751 1607 1608 1609 0
-1610 -7 0
-1610 882 0
-1611 -34 0
-1611 773 0
-1612 -58 0
-1612 749 0
-751 1610 1611 1612 0
-1613 -8 0
-1613 885 0
-1614 -35 0
-1614 776 0
-1615 -61 0
-1615 750 0
-751 1613 1614 1615 0
-1616 -10 0
-1616 888 0
-1617 -37 0
-1617 779 0
-1618 -64 0
-1618 752 0
-751 1616 1617 1618 0
-1619 -11 0
-1619 889 0
-1620 -38 0
-1620 780 0
-1621 -65 0
-1621 753 0
-751 1619 1620 1621 0
-1622 -1 0
-1622 797 0
-1623 -13 0
-1623 735 0
-1624 -20 0
-1624 728 0
-752 1622 1623 1624 0
-1625 -2 0
-1625 833 0
-1626 -22 0
-1626 744 0
-1627 -29 0
-1627 737 0
-752 1625 1626 1627 0
-1628 -4 0
-1628 868 0
-1629 -31 0
-1629 759 0
-1630 -44 0
-1630 746 0
-752 1628 1629 1630 0
-1631 -5 0
-1631 874 0
-1632 -32 0
-1632 765 0
-1633 -50 0
-1633 747 0
-752 1631 1632 1633 0
-1634 -6 0
-1634 879 0
-1635 -33 0
-1635 770 0
-1636 -55 0
-1636 748 0
-752 1634 1635 1636 0
-1637 -7 0
-1637 883 0
-1638 -34 0
-1638 774 0
-1639 -59 0
-1639 749 0
-752 1637 1638 1639 0
-1640 -8 0
-1640 886 0
-1641 -35 0
-1641 777 0
-1642 -62 0
-1642 750 0
-752 1640 1641 1642 0
-1643 -9 0
-1643 888 0
-1644 -36 0
-1644 779 0
-1645 -64 0
-1645 751 0
-752 1643 1644 1645 0
-1646 -11 0
-1646 890 0
-1647 -38 0
-1647 781 0
-1648 -66 0
-1648 753 0
-752 1646 1647 1648 0
-1649 -1 0
-1649 798 0
-1650 -13 0
-1650 736 0
-1651 -21 0
-1651 728 0
-753 1649 1650 1651 0
-1652 -2 0
-1652 834 0
-1653 -22 0
-1653 745 0
-1654 -30 0
-1654 737 0
-753 1652 1653 1654 0
-1655 -4 0
-1655 869 0
-1656 -31 0
-1656 760 0
-1657 -45 0
-1657 746 0
-753 1655 1656 1657 0
-1658 -5 0
-1658 875 0
-1659 -32 0
-1659 766 0
-1660 -51 0
-1660 747 0
-753 1658 1659 1660 0
-1661 -6 0
-1661 880 0
-1662 -33 0
-1662 771 0
-1663 -56 0
-1663 748 0
-753 1661 1662 1663 0
-1664 -7 0
-1664 884 0
-1665 -34 0
-1665 775 0
-1666 -60 0
-1666 749 0
-753 1664 1665 1666 0
-1667 -8 0
-1667 887 0
-1668 -35 0
-1668 778 0
-1669 -63 0
-1669 750 0
-753 1667 1668 1669 0
-1670 -9 0
-1670 889 0
-1671 -36 0
-1671 780 0
-1672 -65 0
-1672 751 0
-753 1670 1671 1672 0
-1673 -10 0
-1673 890 0
-1674 -37 0
-1674 781 0
-1675 -66 0
-1675 752 0
-753 1673 1674 1675 0
-1676 -1 0
-1676 799 0
-1677 -14 0
-1677 730 0
-1678 -15 0
-1678 729 0
-754 1676 1677 1678 0
-1679 -2 0
-1679 835 0
-1680 -23 0
-1680 739 0
-1681 -24 0
-1681 738 0
-754 1679 1680 1681 0
-1682 -3 0
-1682 863 0
-1683 -31 0
-1683 747 0
-1684 -32 0
-1684 746 0
-754 1682 1683 1684 0
-1685 -6 0
-1685 891 0
-1686 -40 0
-1686 761 0
-1687 -46 0
-1687 755 0
-754 1685 1686 1687 0
-1688 -7 0
-1688 892 0
-1689 -41 0
-1689 762 0
-1690 -47 0
-1690 756 0
-754 1688 1689 1690 0
-1691 -8 0
-1691 893 0
-1692 -42 0
-1692 763 0
-1693 -48 0
-1693 757 0
-754 1691 1692 1693 0
-1694 -9 0
-1694 894 0
-1695 -43 0
-1695 764 0
-1696 -49 0
-1696 758 0
-754 1694 1695 1696 0
-1697 -10 0
-1697 895 0
-1698 -44 0
-1698 765 0
-1699 -50 0
-1699 759 0
-754 1697 1698 1699 0
-1700 -11 0
-1700 896 0
-1701 -45 0
-1701 766 0
-1702 -51 0
-1702 760 0
-754 1700 1701 1702 0
-1703 -1 0
-1703 800 0
-1704 -14 0
-1704 731 0
-1705 -16 0
-1705 729 0
-755 1703 1704 1705 0
-1706 -2 0
-1706 836 0
-1707 -23 0
-1707 740 0
-1708 -25 0
-1708 738 0
-755 1706 1707 1708 0
-1709 -3 0
-1709 864 0
-1710 -31 0
-1710 748 0
-1711 -33 0
-1711 746 0
-755 1709 1710 1711 0
-1712 -5 0
-1712 891 0
-1713 -39 0
-1713 761 0
-1714 -46 0
-1714 754 0
-755 1712 1713 1714 0
-1715 -7 0
-1715 897 0
-1716 -41 0
-1716 767 0
-1717 -52 0
-1717 756 0
-755 1715 1716 1717 0
-1718 -8 0
-1718 898 0
-1719 -42 0
-1719 768 0
-1720 -53 0
-1720 757 0
-755 1718 1719 1720 0
-1721 -9 0
-1721 899 0
-1722 -43 0
-1722 769 0
-1723 -54 0
-1723 758 0
-755 1721 1722 1723 0
-1724 -10 0
-1724 900 0
-1725 -44 0
-1725 770 0
-1726 -55 0
-1726 759 0
-755 1724 1725 1726 0
-1727 -11 0
-1727 901 0
-1728 -45 0
-1728 771 0
-1729 -56 0
-1729 760 0
-755 1727 1728 1729 0
-1730 -1 0
-1730 801 0
-1731 -14 0
-1731 732 0
-1732 -17 0
-1732 729 0
-756 1730 1731 1732 0
-1733 -2 0
-1733 837 0
-1734 -23 0
-1734 741 0
-1735 -26 0
-1735 738 0
-756 1733 1734 1735 0
-1736 -3 0
-1736 865 0
-1737 -31 0
-1737 749 0
-1738 -34 0
-1738 746 0
-756 1736 1737 1738 0
-1739 -5 0
-1739 892 0
-1740 -39 0
-1740 762 0
-1741 -47 0
-1741 754 0
-756 1739 1740 1741 0
-1742 -6 0
-1742 897 0
-1743 -40 0
-1743 767 0
-1744 -52 0
-1744 755 0
-756 1742 1743 1744 0
-1745 -8 0
-1745 902 0
-1746 -42 0
-1746 772 0
-1747 -57 0
-1747 757 0
-756 1745 1746 1747 0
-1748 -9 0
-1748 903 0
-1749 -43 0
-1749 773 0
-1750 -58 0
-1750 758 0
-756 1748 1749 1750 0
-1751 -10 0
-1751 904 0
-1752 -44 0
-1752 774 0
-1753 -59 0
-1753 759 0
-756 1751 1752 1753 0
-1754 -11 0
-1754 905 0
-1755 -45 0
-1755 775 0
-1756 -60 0
-1756 760 0
-756 1754 1755 1756 0
-1757 -1 0
-1757 802 0
-1758 -14 0
-1758 733 0
-1759 -18 0
-1759 729 0
-757 1757 1758 1759 0
-1760 -2 0
-1760 838 0
-1761 -23 0
-1761 742 0
-1762 -27 0
-1762 738 0
-757 1760 1761 1762 0
-1763 -3 0
-1763 866 0
-1764 -31 0
-1764 750 0
-1765 -35 0
-1765 746 0
-757 1763 1764 1765 0
-1766 -5 0
-1766 893 0
-1767 -39 0
-1767 763 0
-1768 -48 0
-1768 754 0
-757 1766 1767 1768 0
-1769 -6 0
-1769 898 0
-1770 -40 0
-1770 768 0
-1771 -53 0
-1771 755 0
-757 1769 1770 1771 0
-1772 -7 0
-1772 902 0
-1773 -41 0
-1773 772 0
-1774 -57 0
-1774 756 0
-757 1772 1773 1774 0
-1775 -9 0
-1775 906 0
-1776 -43 0
-1776 776 0
-1777 -61 0
-1777 758 0
-757 1775 1776 1777 0
-1778 -10 0
-1778 907 0
-1779 -44 0
-1779 777 0
-1780 -62 0
-1780 759 0
-757 1778 1779 1780 0
-1781 -11 0
-1781 908 0
-1782 -45 0
-1782 778 0
-1783 -63 0
-1783 760 0
-757 1781 1782 1783 0
-1784 -1 0
-1784 803 0
-1785 -14 0
-1785 734 0
-1786 -19 0
-1786 729 0
-758 1784 1785 1786 0
-1787 -2 0
-1787 839 0
-1788 -23 0
-1788 743 0
-1789 -28 0
-1789 738 0
-758 1787 1788 1789 0
-1790 -3 0
-1790 867 0
-1791 -31 0
-1791 751 0
-1792 -36 0
-1792 746 0
-758 1790 1791 1792 0
-1793 -5 0
-1793 894 0
-1794 -39 0
-1794 764 0
-1795 -49 0
-1795 754 0
-758 1793 1794 1795 0
-1796 -6 0
-1796 899 0
-1797 -40 0
-1797 769 0
-1798 -54 0
-1798 755 0
-758 1796 1797 1798 0
-1799 -7 0
-1799 903 0
-1800 -41 0
-1800 773 0
-1801 -58 0
-1801 756 0
-758 1799 1800 1801 0
-1802 -8 0
-1802 906 0
-1803 -42 0
-1803 776 0
-1804 -61 0
-1804 757 0
-758 1802 1803 1804 0
-1805 -10 0
-1805 909 0
-1806 -44 0
-1806 779 0
-1807 -64 0
-1807 759 0
-758 1805 1806 1807 0
-1808 -11 0
-1808 910 0
-1809 -45 0
-1809 780 0
-1810 -65 0
-1810 760 0
-758 1808 1809 1810 0
-1811 -1 0
-1811 804 0
-1812 -14 0
-1812 735 0
-1813 -20 0
-1813 729 0
-759 1811 1812 1813 0
-1814 -2 0
-1814 840 0
-1815 -23 0
-1815 744 0
-1816 -29 0
-1816 738 0
-759 1814 1815 1816 0
-1817 -3 0
-1817 868 0
-1818 -31 0
-1818 752 0
-1819 -37 0
-1819 746 0
-759 1817 1818 1819 0
-1820 -5 0
-1820 895 0
-1821 -39 0
-1821 765 0
-1822 -50 0
-1822 754 0
-759 1820 1821 1822 0
-1823 -6 0
-1823 900 0
-1824 -40 0
-1824 770 0
-1825 -55 0
-1825 755 0
-759 1823 1824 1825 0
-1826 -7 0
-1826 904 0
-1827 -41 0
-1827 774 0
-1828 -59 0
-1828 756 0
-759 1826 1827 1828 0
-1829 -8 0
-1829 907 0
-1830 -42 0
-1830 777 0
-1831 -62 0
-1831 757 0
-759 1829 1830 1831 0
-1832 -9 0
-1832 909 0
-1833 -43 0
-1833 779 0
-1834 -64 0
-1834 758 0
-759 1832 1833 1834 0
-1835 -11 0
-1835 911 0
-1836 -45 0
-1836 781 0
-1837 -66 0
-1837 760 0
-759 1835 1836 1837 0
-1838 -1 0
-1838 805 0
-1839 -14 0
-1839 736 0
-1840 -21 0
-1840 729 0
-760 1838 1839 1840 0
-1841 -2 0
-1841 841 0
-1842 -23 0
-1842 745 0
-1843 -30 0
-1843 738 0
-760 1841 1842 1843 0
-1844 -3 0
-1844 869 0
-1845 -31 0
-1845 753 0
-1846 -38 0
-1846 746 0
-760 1844 1845 1846 0
-1847 -5 0
-1847 896 0
-1848 -39 0
-1848 766 0
-1849 -51 0
-1849 754 0
-760 1847 1848 1849 0
-1850 -6 0
-1850 901 0
-1851 -40 0
-1851 771 0
-1852 -56 0
-1852 755 0
-760 1850 1851 1852 0
-1853 -7 0
-1853 905 0
-1854 -41 0
-1854 775 0
-1855 -60 0
-1855 756 0
-760 1853 1854 1855 0
-1856 -8 0
-1856 908 0
-1857 -42 0
-1857 778 0
-1858 -63 0
-1858 757 0
-760 1856 1857 1858 0
-1859 -9 0
-1859 910 0
-1860 -43 0
-1860 780 0
-1861 -65 0
-1861 758 0
-760 1859 1860 1861 0
-1862 -10 0
-1862 911 0
-1863 -44 0
-1863 781 0
-1864 -66 0
-1864 759 0
-760 1862 1863 1864 0
-1865 -1 0
-1865 806 0
-1866 -15 0
-1866 731 0
-1867 -16 0
-1867 730 0
-761 1865 1866 1867 0
-1868 -2 0
-1868 842 0
-1869 -24 0
-1869 740 0
-1870 -25 0
-1870 739 0
-761 1868 1869 1870 0
-1871 -3 0
-1871 870 0
-1872 -32 0
-1872 748 0
-1873 -33 0
-1873 747 0
-761 1871 1872 1873 0
-1874 -4 0
-1874 891 0
-1875 -39 0
-1875 755 0
-1876 -40 0
-1876 754 0
-761 1874 1875 1876 0
-1877 -7 0
-1877 912 0
-1878 -47 0
-1878 767 0
-1879 -52 0
-1879 762 0
-761 1877 1878 1879 0
-1880 -8 0
-1880 913 0
-1881 -48 0
-1881 768 0
-1882 -53 0
-1882 763 0
-761 1880 1881 1882 0
-1883 -9 0
-1883 914 0
-1884 -49 0
-1884 769 0
-1885 -54 0
-1885 764 0
-761 1883 1884 1885 0
-1886 -10 0
-1886 915 0
-1887 -50 0
-1887 770 0
-1888 -55 0
-1888 765 0
-761 1886 1887 1888 0
-1889 -11 0
-1889 916 0
-1890 -51 0
-1890 771 0
-1891 -56 0
-1891 766 0
-761 1889 1890 1891 0
-1892 -1 0
-1892 807 0
-1893 -15 0
-1893 732 0
-1894 -17 0
-1894 730 0
-762 1892 1893 1894 0
-1895 -2 0
-1895 843 0
-1896 -24 0
-1896 741 0
-1897 -26 0
-1897 739 0
-762 1895 1896 1897 0
-1898 -3 0
-1898 871 0
-1899 -32 0
-1899 749 0
-1900 -34 0
-1900 747 0
-762 1898 1899 1900 0
-1901 -4 0
-1901 892 0
-1902 -39 0
-1902 756 0
-1903 -41 0
-1903 754 0
-762 1901 1902 1903 0
-1904 -6 0
-1904 912 0
-1905 -46 0
-1905 767 0
-1906 -52 0
-1906 761 0
-762 1904 1905 1906 0
-1907 -8 0
-1907 917 0
-1908 -48 0
-1908 772 0
-1909 -57 0
-1909 763 0
-762 1907 1908 1909 0
-1910 -9 0
-1910 918 0
-1911 -49 0
-1911 773 0
-1912 -58 0
-1912 764 0
-762 1910 1911 1912 0
-1913 -10 0
-1913 919 0
-1914 -50 0
-1914 774 0
-1915 -59 0
-1915 765 0
-762 1913 1914 1915 0
-1916 -11 0
-1916 920 0
-1917 -51 0
-1917 775 0
-1918 -60 0
-1918 766 0
-762 1916 1917 1918 0
-1919 -1 0
-1919 808 0
-1920 -15 0
-1920 733 0
-1921 -18 0
-1921 730 0
-763 1919 1920 1921 0
-1922 -2 0
-1922 844 0
-1923 -24 0
-1923 742 0
-1924 -27 0
-1924 739 0
-763 1922 1923 1924 0
-1925 -3 0
-1925 872 0
-1926 -32 0
-1926 750 0
-1927 -35 0
-1927 747 0
-763 1925 1926 1927 0
-1928 -4 0
-1928 893 0
-1929 -39 0
-1929 757 0
-1930 -42 0
-1930 754 0
-763 1928 1929 1930 0
-1931 -6 0
-1931 913 0
-1932 -46 0
-1932 768 0
-1933 -53 0
-1933 761 0
-763 1931 1932 1933 0
-1934 -7 0
-1934 917 0
-1935 -47 0
-1935 772 0
-1936 -57 0
-1936 762 0
-763 1934 1935 1936 0
-1937 -9 0
-1937 921 0
-1938 -49 0
-1938 776 0
-1939 -61 0
-1939 764 0
-763 1937 1938 1939 0
-1940 -10 0
-1940 922 0
-1941 -50 0
-1941 777 0
-1942 -62 0
-1942 765 0
-763 1940 1941 1942 0
-1943 -11 0
-1943 923 0
-1944 -51 0
-1944 778 0
-1945 -63 0
-1945 766 0
-763 1943 1944 1945 0
-1946 -1 0
-1946 809 0
-1947 -15 0
-1947 734 0
-1948 -19 0
-1948 730 0
-764 1946 1947 1948 0
-1949 -2 0
-1949 845 0
-1950 -24 0
-1950 743 0
-1951 -28 0
-1951 739 0
-764 1949 1950 1951 0
-1952 -3 0
-1952 873 0
-1953 -32 0
-1953 751 0
-1954 -36 0
-1954 747 0
-764 1952 1953 1954 0
-1955 -4 0
-1955 894 0
-1956 -39 0
-1956 758 0
-1957 -43 0
-1957 754 0
-764 1955 1956 1957 0
-1958 -6 0
-1958 914 0
-1959 -46 0
-1959 769 0
-1960 -54 0
-1960 761 0
-764 1958 1959 1960 0
-1961 -7 0
-1961 918 0
-1962 -47 0
-1962 773 0
-1963 -58 0
-1963 762 0
-764 1961 1962 1963 0
-1964 -8 0
-1964 921 0
-1965 -48 0
-1965 776 0
-1966 -61 0
-1966 763 0
-764 1964 1965 1966 0
-1967 -10 0
-1967 924 0
-1968 -50 0
-1968 779 0
-1969 -64 0
-1969 765 0
-764 1967 1968 1969 0
-1970 -11 0
-1970 925 0
-1971 -51 0
-1971 780 0
-1972 -65 0
-1972 766 0
-764 1970 1971 1972 0
-1973 -1 0
-1973 810 0
-1974 -15 0
-1974 735 0
-1975 -20 0
-1975 730 0
-765 1973 1974 1975 0
-1976 -2 0
-1976 846 0
-1977 -24 0
-1977 744 0
-1978 -29 0
-1978 739 0
-765 1976 1977 1978 0
-1979 -3 0
-1979 874 0
-1980 -32 0
-1980 752 0
-1981 -37 0
-1981 747 0
-765 1979 1980 1981 0
-1982 -4 0
-1982 895 0
-1983 -39 0
-1983 759 0
-1984 -44 0
-1984 754 0
-765 1982 1983 1984 0
-1985 -6 0
-1985 915 0
-1986 -46 0
-1986 770 0
-1987 -55 0
-1987 761 0
-765 1985 1986 1987 0
-1988 -7 0
-1988 919 0
-1989 -47 0
-1989 774 0
-1990 -59 0
-1990 762 0
-765 1988 1989 1990 0
-1991 -8 0
-1991 922 0
-1992 -48 0
-1992 777 0
-1993 -62 0
-1993 763 0
-765 1991 1992 1993 0
-1994 -9 0
-1994 924 0
-1995 -49 0
-1995 779 0
-1996 -64 0
-1996 764 0
-765 1994 1995 1996 0
-1997 -11 0
-1997 926 0
-1998 -51 0
-1998 781 0
-1999 -66 0
-1999 766 0
-765 1997 1998 1999 0
-2000 -1 0
-2000 811 0
-2001 -15 0
-2001 736 0
-2002 -21 0
-2002 730 0
-766 2000 2001 2002 0
-2003 -2 0
-2003 847 0
-2004 -24 0
-2004 745 0
-2005 -30 0
-2005 739 0
-766 2003 2004 2005 0
-2006 -3 0
-2006 875 0
-2007 -32 0
-2007 753 0
-2008 -38 0
-2008 747 0
-766 2006 2007 2008 0
-2009 -4 0
-2009 896 0
-2010 -39 0
-2010 760 0
-2011 -45 0
-2011 754 0
-766 2009 2010 2011 0
-2012 -6 0
-2012 916 0
-2013 -46 0
-2013 771 0
-2014 -56 0
-2014 761 0
-766 2012 2013 2014 0
-2015 -7 0
-2015 920 0
-2016 -47 0
-2016 775 0
-2017 -60 0
-2017 762 0
-766 2015 2016 2017 0
-2018 -8 0
-2018 923 0
-2019 -48 0
-2019 778 0
-2020 -63 0
-2020 763 0
-766 2018 2019 2020 0
-2021 -9 0
-2021 925 0
-2022 -49 0
-2022 780 0
-2023 -65 0
-2023 764 0
-766 2021 2022 2023 0
-2024 -10 0
-2024 926 0
-2025 -50 0
-2025 781 0
-2026 -66 0
-2026 765 0
-766 2024 2025 2026 0
-2027 -1 0
-2027 812 0
-2028 -16 0
-2028 732 0
-2029 -17 0
-2029 731 0
-767 2027 2028 2029 0
-2030 -2 0
-2030 848 0
-2031 -25 0
-2031 741 0
-2032 -26 0
-2032 740 0
-767 2030 2031 2032 0
-2033 -3 0
-2033 876 0
-2034 -33 0
-2034 749 0
-2035 -34 0
-2035 748 0
-767 2033 2034 2035 0
-2036 -4 0
-2036 897 0
-2037 -40 0
-2037 756 0
-2038 -41 0
-2038 755 0
-767 2036 2037 2038 0
-2039 -5 0
-2039 912 0
-2040 -46 0
-2040 762 0
-2041 -47 0
-2041 761 0
-767 2039 2040 2041 0
-2042 -8 0
-2042 927 0
-2043 -53 0
-2043 772 0
-2044 -57 0
-2044 768 0
-767 2042 2043 2044 0
-2045 -9 0
-2045 928 0
-2046 -54 0
-2046 773 0
-2047 -58 0
-2047 769 0
-767 2045 2046 2047 0
-2048 -10 0
-2048 929 0
-2049 -55 0
-2049 774 0
-2050 -59 0
-2050 770 0
-767 2048 2049 2050 0
-2051 -11 0
-2051 930 0
-2052 -56 0
-2052 775 0
-2053 -60 0
-2053 771 0
-767 2051 2052 2053 0
-2054 -1 0
-2054 813 0
-2055 -16 0
-2055 733 0
-2056 -18 0
-2056 731 0
-768 2054 2055 2056 0
-2057 -2 0
-2057 849 0
-2058 -25 0
-2058 742 0
-2059 -27 0
-2059 740 0
-768 2057 2058 2059 0
-2060 -3 0
-2060 877 0
-2061 -33 0
-2061 750 0
-2062 -35 0
-2062 748 0
-768 2060 2061 2062 0
-2063 -4 0
-2063 898 0
-2064 -40 0
-2064 757 0
-2065 -42 0
-2065 755 0
-768 2063 2064 2065 0
-2066 -5 0
-2066 913 0
-2067 -46 0
-2067 763 0
-2068 -48 0
-2068 761 0
-768 2066 2067 2068 0
-2069 -7 0
-2069 927 0
-2070 -52 0
-2070 772 0
-2071 -57 0
-2071 767 0
-768 2069 2070 2071 0
-2072 -9 0
-2072 931 0
-2073 -54 0
-2073 776 0
-2074 -61 0
-2074 769 0
-768 2072 2073 2074 0
-2075 -10 0
-2075 932 0
-2076 -55 0
-2076 777 0
-2077 -62 0
-2077 770 0
-768 2075 2076 2077 0
-2078 -11 0
-2078 933 0
-2079 -56 0
-2079 778 0
-2080 -63 0
-2080 771 0
-768 2078 2079 2080 0
-2081 -1 0
-2081 814 0
-2082 -16 0
-2082 734 0
-2083 -19 0
-2083 731 0
-769 2081 2082 2083 0
-2084 -2 0
-2084 850 0
-2085 -25 0
-2085 743 0
-2086 -28 0
-2086 740 0
-769 2084 2085 2086 0
-2087 -3 0
-2087 878 0
-2088 -33 0
-2088 751 0
-2089 -36 0
-2089 748 0
-769 2087 2088 2089 0
-2090 -4 0
-2090 899 0
-2091 -40 0
-2091 758 0
-2092 -43 0
-2092 755 0
-769 2090 2091 2092 0
-2093 -5 0
-2093 914 0
-2094 -46 0
-2094 764 0
-2095 -49 0
-2095 761 0
-769 2093 2094 2095 0
-2096 -7 0
-2096 928 0
-2097 -52 0
-2097 773 0
-2098 -58 0
-2098 767 0
-769 2096 2097 2098 0
-2099 -8 0
-2099 931 0
-2100 -53 0
-2100 776 0
-2101 -61 0
-2101 768 0
-769 2099 2100 2101 0
-2102 -10 0
-2102 934 0
-2103 -55 0
-2103 779 0
-2104 -64 0
-2104 770 0
-769 2102 2103 2104 0
-2105 -11 0
-2105 935 0
-2106 -56 0
-2106 780 0
-2107 -65 0
-2107 771 0
-769 2105 2106 2107 0
-2108 -1 0
-2108 815 0
-2109 -16 0
-2109 735 0
-2110 -20 0
-2110 731 0
-770 2108 2109 2110 0
-2111 -2 0
-2111 851 0
-2112 -25 0
-2112 744 0
-2113 -29 0
-2113 740 0
-770 2111 2112 2113 0
-2114 -3 0
-2114 879 0
-2115 -33 0
-2115 752 0
-2116 -37 0
-2116 748 0
-770 2114 2115 2116 0
-2117 -4 0
-2117 900 0
-2118 -40 0
-2118 759 0
-2119 -44 0
-2119 755 0
-770 2117 2118 2119 0
-2120 -5 0
-2120 915 0
-2121 -46 0
-2121 765 0
-2122 -50 0
-2122 761 0
-770 2120 2121 2122 0
-2123 -7 0
-2123 929 0
-2124 -52 0
-2124 774 0
-2125 -59 0
-2125 767 0
-770 2123 2124 2125 0
-2126 -8 0
-2126 932 0
-2127 -53 0
-2127 777 0
-2128 -62 0
-2128 768 0
-770 2126 2127 2128 0
-2129 -9 0
-2129 934 0
-2130 -54 0
-2130 779 0
-2131 -64 0
-2131 769 0
-770 2129 2130 2131 0
-2132 -11 0
-2132 936 0
-2133 -56 0
-2133 781 0
-2134 -66 0
-2134 771 0
-770 2132 2133 2134 0
-2135 -1 0
-2135 816 0
-2136 -16 0
-2136 736 0
-2137 -21 0
-2137 731 0
-771 2135 2136 2137 0
-2138 -2 0
-2138 852 0
-2139 -25 0
-2139 745 0
-2140 -30 0
-2140 740 0
-771 2138 2139 2140 0
-2141 -3 0
-2141 880 0
-2142 -33 0
-2142 753 0
-2143 -38 0
-2143 748 0
-771 2141 2142 2143 0
-2144 -4 0
-2144 901 0
-2145 -40 0
-2145 760 0
-2146 -45 0
-2146 755 0
-771 2144 2145 2146 0
-2147 -5 0
-2147 916 0
-2148 -46 0
-2148 766 0
-2149 -51 0
-2149 761 0
-771 2147 2148 2149 0
-2150 -7 0
-2150 930 0
-2151 -52 0
-2151 775 0
-2152 -60 0
-2152 767 0
-771 2150 2151 2152 0
-2153 -8 0
-2153 933 0
-2154 -53 0
-2154 778 0
-2155 -63 0
-2155 768 0
-771 2153 2154 2155 0
-2156 -9 0
-2156 935 0
-2157 -54 0
-2157 780 0
-2158 -65 0
-2158 769 0
-771 2156 2157 2158 0
-2159 -10 0
-2159 936 0
-2160 -55 0
-2160 781 0
-2161 -66 0
-2161 770 0
-771 2159 2160 2161 0
-2162 -1 0
-2162 817 0
-2163 -17 0
-2163 733 0
-2164 -18 0
-2164 732 0
-772 2162 2163 2164 0
-2165 -2 0
-2165 853 0
-2166 -26 0
-2166 742 0
-2167 -27 0
-2167 741 0
-772 2165 2166 2167 0
-2168 -3 0
-2168 881 0
-2169 -34 0
-2169 750 0
-2170 -35 0
-2170 749 0
-772 2168 2169 2170 0
-2171 -4 0
-2171 902 0
-2172 -41 0
-2172 757 0
-2173 -42 0
-2173 756 0
-772 2171 2172 2173 0
-2174 -5 0
-2174 917 0
-2175 -47 0
-2175 763 0
-2176 -48 0
-2176 762 0
-772 2174 2175 2176 0
-2177 -6 0
-2177 927 0
-2178 -52 0
-2178 768 0
-2179 -53 0
-2179 767 0
-772 2177 2178 2179 0
-2180 -9 0
-2180 937 0
-2181 -58 0
-2181 776 0
-2182 -61 0
-2182 773 0
-772 2180 2181 2182 0
-2183 -10 0
-2183 938 0
-2184 -59 0
-2184 777 0
-2185 -62 0
-2185 774 0
-772 2183 2184 2185 0
-2186 -11 0
-2186 939 0
-2187 -60 0
-2187 778 0
-2188 -63 0
-2188 775 0
-772 2186 2187 2188 0
-2189 -1 0
-2189 818 0
-2190 -17 0
-2190 734 0
-2191 -19 0
-2191 732 0
-773 2189 2190 2191 0
-2192 -2 0
-2192 854 0
-2193 -26 0
-2193 743 0
-2194 -28 0
-2194 741 0
-773 2192 2193 2194 0
-2195 -3 0
-2195 882 0
-2196 -34 0
-2196 751 0
-2197 -36 0
-2197 749 0
-773 2195 2196 2197 0
-2198 -4 0
-2198 903 0
-2199 -41 0
-2199 758 0
-2200 -43 0
-2200 756 0
-773 2198 2199 2200 0
-2201 -5 0
-2201 918 0
-2202 -47 0
-2202 764 0
-2203 -49 0
-2203 762 0
-773 2201 2202 2203 0
-2204 -6 0
-2204 928 0
-2205 -52 0
-2205 769 0
-2206 -54 0
-2206 767 0
-773 2204 2205 2206 0
-2207 -8 0
-2207 937 0
-2208 -57 0
-2208 776 0
-2209 -61 0
-2209 772 0
-773 2207 2208 2209 0
-2210 -10 0
-2210 940 0
-2211 -59 0
-2211 779 0
-2212 -64 0
-2212 774 0
-773 2210 2211 2212 0
-2213 -11 0
-2213 941 0
-2214 -60 0
-2214 780 0
-2215 -65 0
-2215 775 0
-773 2213 2214 2215 0
-2216 -1 0
-2216 819 0
-2217 -17 0
-2217 735 0
-2218 -20 0
-2218 732 0
-774 2216 2217 2218 0
-2219 -2 0
-2219 855 0
-2220 -26 0
-2220 744 0
-2221 -29 0
-2221 741 0
-774 2219 2220 2221 0
-2222 -3 0
-2222 883 0
-2223 -34 0
-2223 752 0
-2224 -37 0
-2224 749 0
-774 2222 2223 2224 0
-2225 -4 0
-2225 904 0
-2226 -41 0
-2226 759 0
-2227 -44 0
-2227 756 0
-774 2225 2226 2227 0
-2228 -5 0
-2228 919 0
-2229 -47 0
-2229 765 0
-2230 -50 0
-2230 762 0
-774 2228 2229 2230 0
-2231 -6 0
-2231 929 0
-2232 -52 0
-2232 770 0
-2233 -55 0
-2233 767 0
-774 2231 2232 2233 0
-2234 -8 0
-2234 938 0
-2235 -57 0
-2235 777 0
-2236 -62 0
-2236 772 0
-774 2234 2235 2236 0
-2237 -9 0
-2237 940 0
-2238 -58 0
-2238 779 0
-2239 -64 0
-2239 773 0
-774 2237 2238 2239 0
-2240 -11 0
-2240 942 0
-2241 -60 0
-2241 781 0
-2242 -66 0
-2242 775 0
-774 2240 2241 2242 0
-2243 -1 0
-2243 820 0
-2244 -17 0
-2244 736 0
-2245 -21 0
-2245 732 0
-775 2243 2244 2245 0
-2246 -2 0
-2246 856 0
-2247 -26 0
-2247 745 0
-2248 -30 0
-2248 741 0
-775 2246 2247 2248 0
-2249 -3 0
-2249 884 0
-2250 -34 0
-2250 753 0
-2251 -38 0
-2251 749 0
-775 2249 2250 2251 0
-2252 -4 0
-2252 905 0
-2253 -41 0
-2253 760 0
-2254 -45 0
-2254 756 0
-775 2252 2253 2254 0
-2255 -5 0
-2255 920 0
-2256 -47 0
-2256 766 0
-2257 -51 0
-2257 762 0
-775 2255 2256 2257 0
-2258 -6 0
-2258 930 0
-2259 -52 0
-2259 771 0
-2260 -56 0
-2260 767 0
-775 2258 2259 2260 0
-2261 -8 0
-2261 939 0
-2262 -57 0
-2262 778 0
-2263 -63 0
-2263 772 0
-775 2261 2262 2263 0
-2264 -9 0
-2264 941 0
-2265 -58 0
-2265 780 0
-2266 -65 0
-2266 773 0
-775 2264 2265 2266 0
-2267 -10 0
-2267 942 0
-2268 -59 0
-2268 781 0
-2269 -66 0
-2269 774 0
-775 2267 2268 2269 0
-2270 -1 0
-2270 821 0
-2271 -18 0
-2271 734 0
-2272 -19 0
-2272 733 0
-776 2270 2271 2272 0
-2273 -2 0
-2273 857 0
-2274 -27 0
-2274 743 0
-2275 -28 0
-2275 742 0
-776 2273 2274 2275 0
-2276 -3 0
-2276 885 0
-2277 -35 0
-2277 751 0
-2278 -36 0
-2278 750 0
-776 2276 2277 2278 0
-2279 -4 0
-2279 906 0
-2280 -42 0
-2280 758 0
-2281 -43 0
-2281 757 0
-776 2279 2280 2281 0
-2282 -5 0
-2282 921 0
-2283 -48 0
-2283 764 0
-2284 -49 0
-2284 763 0
-776 2282 2283 2284 0
-2285 -6 0
-2285 931 0
-2286 -53 0
-2286 769 0
-2287 -54 0
-2287 768 0
-776 2285 2286 2287 0
-2288 -7 0
-2288 937 0
-2289 -57 0
-2289 773 0
-2290 -58 0
-2290 772 0
-776 2288 2289 2290 0
-2291 -10 0
-2291 943 0
-2292 -62 0
-2292 779 0
-2293 -64 0
-2293 777 0
-776 2291 2292 2293 0
-2294 -11 0
-2294 944 0
-2295 -63 0
-2295 780 0
-2296 -65 0
-2296 778 0
-776 2294 2295 2296 0
-2297 -1 0
-2297 822 0
-2298 -18 0
-2298 735 0
-2299 -20 0
-2299 733 0
-777 2297 2298 2299 0
-2300 -2 0
-2300 858 0
-2301 -27 0
-2301 744 0
-2302 -29 0
-2302 742 0
-777 2300 2301 2302 0
-2303 -3 0
-2303 886 0
-2304 -35 0
-2304 752 0
-2305 -37 0
-2305 750 0
-777 2303 2304 2305 0
-2306 -4 0
-2306 907 0
-2307 -42 0
-2307 759 0
-2308 -44 0
-2308 757 0
-777 2306 2307 2308 0
-2309 -5 0
-2309 922 0
-2310 -48 0
-2310 765 0
-2311 -50 0
-2311 763 0
-777 2309 2310 2311 0
-2312 -6 0
-2312 932 0
-2313 -53 0
-2313 770 0
-2314 -55 0
-2314 768 0
-777 2312 2313 2314 0
-2315 -7 0
-2315 938 0
-2316 -57 0
-2316 774 0
-2317 -59 0
-2317 772 0
-777 2315 2316 2317 0
-2318 -9 0
-2318 943 0
-2319 -61 0
-2319 779 0
-2320 -64 0
-2320 776 0
-777 2318 2319 2320 0
-2321 -11 0
-2321 945 0
-2322 -63 0
-2322 781 0
-2323 -66 0
-2323 778 0
-777 2321 2322 2323 0
-2324 -1 0
-2324 823 0
-2325 -18 0
-2325 736 0
-2326 -21 0
-2326 733 0
-778 2324 2325 2326 0
-2327 -2 0
-2327 859 0
-2328 -27 0
-2328 745 0
-2329 -30 0
-2329 742 0
-778 2327 2328 2329 0
-2330 -3 0
-2330 887 0
-2331 -35 0
-2331 753 0
-2332 -38 0
-2332 750 0
-778 2330 2331 2332 0
-2333 -4 0
-2333 908 0
-2334 -42 0
-2334 760 0
-2335 -45 0
-2335 757 0
-778 2333 2334 2335 0
-2336 -5 0
-2336 923 0
-2337 -48 0
-2337 766 0
-2338 -51 0
-2338 763 0
-778 2336 2337 2338 0
-2339 -6 0
-2339 933 0
-2340 -53 0
-2340 771 0
-2341 -56 0
-2341 768 0
-778 2339 2340 2341 0
-2342 -7 0
-2342 939 0
-2343 -57 0
-2343 775 0
-2344 -60 0
-2344 772 0
-778 2342 2343 2344 0
-2345 -9 0
-2345 944 0
-2346 -61 0
-2346 780 0
-2347 -65 0
-2347 776 0
-778 2345 2346 2347 0
-2348 -10 0
-2348 945 0
-2349 -62 0
-2349 781 0
-2350 -66 0
-2350 777 0
-778 2348 2349 2350 0
-2351 -1 0
-2351 824 0
-2352 -19 0
-2352 735 0
-2353 -20 0
-2353 734 0
-779 2351 2352 2353 0
-2354 -2 0
-2354 860 0
-2355 -28 0
-2355 744 0
-2356 -29 0
-2356 743 0
-779 2354 2355 2356 0
-2357 -3 0
-2357 888 0
-2358 -36 0
-2358 752 0
-2359 -37 0
-2359 751 0
-779 2357 2358 2359 0
-2360 -4 0
-2360 909 0
-2361 -43 0
-2361 759 0
-2362 -44 0
-2362 758 0
-779 2360 2361 2362 0
-2363 -5 0
-2363 924 0
-2364 -49 0
-2364 765 0
-2365 -50 0
-2365 764 0
-779 2363 2364 2365 0
-2366 -6 0
-2366 934 0
-2367 -54 0
-2367 770 0
-2368 -55 0
-2368 769 0
-779 2366 2367 2368 0
-2369 -7 0
-2369 940 0
-2370 -58 0
-2370 774 0
-2371 -59 0
-2371 773 0
-779 2369 2370 2371 0
-2372 -8 0
-2372 943 0
-2373 -61 0
-2373 777 0
-2374 -62 0
-2374 776 0
-779 2372 2373 2374 0
-2375 -11 0
-2375 946 0
-2376 -65 0
-2376 781 0
-2377 -66 0
-2377 780 0
-779 2375 2376 2377 0
-2378 -1 0
-2378 825 0
-2379 -19 0
-2379 736 0
-2380 -21 0
-2380 734 0
-780 2378 2379 2380 0
-2381 -2 0
-2381 861 0
-2382 -28 0
-2382 745 0
-2383 -30 0
-2383 743 0
-780 2381 2382 2383 0
-2384 -3 0
-2384 889 0
-2385 -36 0
-2385 753 0
-2386 -38 0
-2386 751 0
-780 2384 2385 2386 0
-2387 -4 0
-2387 910 0
-2388 -43 0
-2388 760 0
-2389 -45 0
-2389 758 0
-780 2387 2388 2389 0
-2390 -5 0
-2390 925 0
-2391 -49 0
-2391 766 0
-2392 -51 0
-2392 764 0
-780 2390 2391 2392 0
-2393 -6 0
-2393 935 0
-2394 -54 0
-2394 771 0
-2395 -56 0
-2395 769 0
-780 2393 2394 2395 0
-2396 -7 0
-2396 941 0
-2397 -58 0
-2397 775 0
-2398 -60 0
-2398 773 0
-780 2396 2397 2398 0
-2399 -8 0
-2399 944 0
-2400 -61 0
-2400 778 0
-2401 -63 0
-2401 776 0
-780 2399 2400 2401 0
-2402 -10 0
-2402 946 0
-2403 -64 0
-2403 781 0
-2404 -66 0
-2404 779 0
-780 2402 2403 2404 0
-2405 -1 0
-2405 826 0
-2406 -20 0
-2406 736 0
-2407 -21 0
-2407 735 0
-781 2405 2406 2407 0
-2408 -2 0
-2408 862 0
-2409 -29 0
-2409 745 0
-2410 -30 0
-2410 744 0
-781 2408 2409 2410 0
-2411 -3 0
-2411 890 0
-2412 -37 0
-2412 753 0
-2413 -38 0
-2413 752 0
-781 2411 2412 2413 0
-2414 -4 0
-2414 911 0
-2415 -44 0
-2415 760 0
-2416 -45 0
-2416 759 0
-781 2414 2415 2416 0
-2417 -5 0
-2417 926 0
-2418 -50 0
-2418 766 0
-2419 -51 0
-2419 765 0
-781 2417 2418 2419 0
-2420 -6 0
-2420 936 0
-2421 -55 0
-2421 771 0
-2422 -56 0
-2422 770 0
-781 2420 2421 2422 0
-2423 -7 0
-2423 942 0
-2424 -59 0
-2424 775 0
-2425 -60 0
-2425 774 0
-781 2423 2424 2425 0
-2426 -8 0
-2426 945 0
-2427 -62 0
-2427 778 0
-2428 -63 0
-2428 777 0
-781 2426 2427 2428 0
-2429 -9 0
-2429 946 0
-2430 -64 0
-2430 780 0
-2431 -65 0
-2431 779 0
-781 2429 2430 2431 0
-2432 -1 0
-2432 737 0
-2433 -2 0
-2433 728 0
-2434 -3 0
-2434 727 0
-782 2432 2433 2434 0
-2435 -14 0
-2435 827 0
-2436 -23 0
-2436 791 0
-2437 -31 0
-2437 783 0
-782 2435 2436 2437 0
-2438 -15 0
-2438 828 0
-2439 -24 0
-2439 792 0
-2440 -32 0
-2440 784 0
-782 2438 2439 2440 0
-2441 -16 0
-2441 829 0
-2442 -25 0
-2442 793 0
-2443 -33 0
-2443 785 0
-782 2441 2442 2443 0
-2444 -17 0
-2444 830 0
-2445 -26 0
-2445 794 0
-2446 -34 0
-2446 786 0
-782 2444 2445 2446 0
-2447 -18 0
-2447 831 0
-2448 -27 0
-2448 795 0
-2449 -35 0
-2449 787 0
-782 2447 2448 2449 0
-2450 -19 0
-2450 832 0
-2451 -28 0
-2451 796 0
-2452 -36 0
-2452 788 0
-782 2450 2451 2452 0
-2453 -20 0
-2453 833 0
-2454 -29 0
-2454 797 0
-2455 -37 0
-2455 789 0
-782 2453 2454 2455 0
-2456 -21 0
-2456 834 0
-2457 -30 0
-2457 798 0
-2458 -38 0
-2458 790 0
-782 2456 2457 2458 0
-2459 -1 0
-2459 738 0
-2460 -2 0
-2460 729 0
-2461 -4 0
-2461 727 0
-783 2459 2460 2461 0
-2462 -13 0
-2462 827 0
-2463 -22 0
-2463 791 0
-2464 -31 0
-2464 782 0
-783 2462 2463 2464 0
-2465 -15 0
-2465 835 0
-2466 -24 0
-2466 799 0
-2467 -39 0
-2467 784 0
-783 2465 2466 2467 0
-2468 -16 0
-2468 836 0
-2469 -25 0
-2469 800 0
-2470 -40 0
-2470 785 0
-783 2468 2469 2470 0
-2471 -17 0
-2471 837 0
-2472 -26 0
-2472 801 0
-2473 -41 0
-2473 786 0
-783 2471 2472 2473 0
-2474 -18 0
-2474 838 0
-2475 -27 0
-2475 802 0
-2476 -42 0
-2476 787 0
-783 2474 2475 2476 0
-2477 -19 0
-2477 839 0
-2478 -28 0
-2478 803 0
-2479 -43 0
-2479 788 0
-783 2477 2478 2479 0
-2480 -20 0
-2480 840 0
-2481 -29 0
-2481 804 0
-2482 -44 0
-2482 789 0
-783 2480 2481 2482 0
-2483 -21 0
-2483 841 0
-2484 -30 0
-2484 805 0
-2485 -45 0
-2485 790 0
-783 2483 2484 2485 0
-2486 -1 0
-2486 739 0
-2487 -2 0
-2487 730 0
-2488 -5 0
-2488 727 0
-784 2486 2487 2488 0
-2489 -13 0
-2489 828 0
-2490 -22 0
-2490 792 0
-2491 -32 0
-2491 782 0
-784 2489 2490 2491 0
-2492 -14 0
-2492 835 0
-2493 -23 0
-2493 799 0
-2494 -39 0
-2494 783 0
-784 2492 2493 2494 0
-2495 -16 0
-2495 842 0
-2496 -25 0
-2496 806 0
-2497 -46 0
-2497 785 0
-784 2495 2496 2497 0
-2498 -17 0
-2498 843 0
-2499 -26 0
-2499 807 0
-2500 -47 0
-2500 786 0
-784 2498 2499 2500 0
-2501 -18 0
-2501 844 0
-2502 -27 0
-2502 808 0
-2503 -48 0
-2503 787 0
-784 2501 2502 2503 0
-2504 -19 0
-2504 845 0
-2505 -28 0
-2505 809 0
-2506 -49 0
-2506 788 0
-784 2504 2505 2506 0
-2507 -20 0
-2507 846 0
-2508 -29 0
-2508 810 0
-2509 -50 0
-2509 789 0
-784 2507 2508 2509 0
-2510 -21 0
-2510 847 0
-2511 -30 0
-2511 811 0
-2512 -51 0
-2512 790 0
-784 2510 2511 2512 0
-2513 -1 0
-2513 740 0
-2514 -2 0
-2514 731 0
-2515 -6 0
-2515 727 0
-785 2513 2514 2515 0
-2516 -13 0
-2516 829 0
-2517 -22 0
-2517 793 0
-2518 -33 0
-2518 782 0
-785 2516 2517 2518 0
-2519 -14 0
-2519 836 0
-2520 -23 0
-2520 800 0
-2521 -40 0
-2521 783 0
-785 2519 2520 2521 0
-2522 -15 0
-2522 842 0
-2523 -24 0
-2523 806 0
-2524 -46 0
-2524 784 0
-785 2522 2523 2524 0
-2525 -17 0
-2525 848 0
-2526 -26 0
-2526 812 0
-2527 -52 0
-2527 786 0
-785 2525 2526 2527 0
-2528 -18 0
-2528 849 0
-2529 -27 0
-2529 813 0
-2530 -53 0
-2530 787 0
-785 2528 2529 2530 0
-2531 -19 0
-2531 850 0
-2532 -28 0
-2532 814 0
-2533 -54 0
-2533 788 0
-785 2531 2532 2533 0
-2534 -20 0
-2534 851 0
-2535 -29 0
-2535 815 0
-2536 -55 0
-2536 789 0
-785 2534 2535 2536 0
-2537 -21 0
-2537 852 0
-2538 -30 0
-2538 816 0
-2539 -56 0
-2539 790 0
-785 2537 2538 2539 0
-2540 -1 0
-2540 741 0
-2541 -2 0
-2541 732 0
-2542 -7 0
-2542 727 0
-786 2540 2541 2542 0
-2543 -13 0
-2543 830 0
-2544 -22 0
-2544 794 0
-2545 -34 0
-2545 782 0
-786 2543 2544 2545 0
-2546 -14 0
-2546 837 0
-2547 -23 0
-2547 801 0
-2548 -41 0
-2548 783 0
-786 2546 2547 2548 0
-2549 -15 0
-2549 843 0
-2550 -24 0
-2550 807 0
-2551 -47 0
-2551 784 0
-786 2549 2550 2551 0
-2552 -16 0
-2552 848 0
-2553 -25 0
-2553 812 0
-2554 -52 0
-2554 785 0
-786 2552 2553 2554 0
-2555 -18 0
-2555 853 0
-2556 -27 0
-2556 817 0
-2557 -57 0
-2557 787 0
-786 2555 2556 2557 0
-2558 -19 0
-2558 854 0
-2559 -28 0
-2559 818 0
-2560 -58 0
-2560 788 0
-786 2558 2559 2560 0
-2561 -20 0
-2561 855 0
-2562 -29 0
-2562 819 0
-2563 -59 0
-2563 789 0
-786 2561 2562 2563 0
-2564 -21 0
-2564 856 0
-2565 -30 0
-2565 820 0
-2566 -60 0
-2566 790 0
-786 2564 2565 2566 0
-2567 -1 0
-2567 742 0
-2568 -2 0
-2568 733 0
-2569 -8 0
-2569 727 0
-787 2567 2568 2569 0
-2570 -13 0
-2570 831 0
-2571 -22 0
-2571 795 0
-2572 -35 0
-2572 782 0
-787 2570 2571 2572 0
-2573 -14 0
-2573 838 0
-2574 -23 0
-2574 802 0
-2575 -42 0
-2575 783 0
-787 2573 2574 2575 0
-2576 -15 0
-2576 844 0
-2577 -24 0
-2577 808 0
-2578 -48 0
-2578 784 0
-787 2576 2577 2578 0
-2579 -16 0
-2579 849 0
-2580 -25 0
-2580 813 0
-2581 -53 0
-2581 785 0
-787 2579 2580 2581 0
-2582 -17 0
-2582 853 0
-2583 -26 0
-2583 817 0
-2584 -57 0
-2584 786 0
-787 2582 2583 2584 0
-2585 -19 0
-2585 857 0
-2586 -28 0
-2586 821 0
-2587 -61 0
-2587 788 0
-787 2585 2586 2587 0
-2588 -20 0
-2588 858 0
-2589 -29 0
-2589 822 0
-2590 -62 0
-2590 789 0
-787 2588 2589 2590 0
-2591 -21 0
-2591 859 0
-2592 -30 0
-2592 823 0
-2593 -63 0
-2593 790 0
-787 2591 2592 2593 0
-2594 -1 0
-2594 743 0
-2595 -2 0
-2595 734 0
-2596 -9 0
-2596 727 0
-788 2594 2595 2596 0
-2597 -13 0
-2597 832 0
-2598 -22 0
-2598 796 0
-2599 -36 0
-2599 782 0
-788 2597 2598 2599 0
-2600 -14 0
-2600 839 0
-2601 -23 0
-2601 803 0
-2602 -43 0
-2602 783 0
-788 2600 2601 2602 0
-2603 -15 0
-2603 845 0
-2604 -24 0
-2604 809 0
-2605 -49 0
-2605 784 0
-788 2603 2604 2605 0
-2606 -16 0
-2606 850 0
-2607 -25 0
-2607 814 0
-2608 -54 0
-2608 785 0
-788 2606 2607 2608 0
-2609 -17 0
-2609 854 0
-2610 -26 0
-2610 818 0
-2611 -58 0
-2611 786 0
-788 2609 2610 2611 0
-2612 -18 0
-2612 857 0
-2613 -27 0
-2613 821 0
-2614 -61 0
-2614 787 0
-788 2612 2613 2614 0
-2615 -20 0
-2615 860 0
-2616 -29 0
-2616 824 0
-2617 -64 0
-2617 789 0
-788 2615 2616 2617 0
-2618 -21 0
-2618 861 0
-2619 -30 0
-2619 825 0
-2620 -65 0
-2620 790 0
-788 2618 2619 2620 0
-2621 -1 0
-2621 744 0
-2622 -2 0
-2622 735 0
-2623 -10 0
-2623 727 0
-789 2621 2622 2623 0
-2624 -13 0
-2624 833 0
-2625 -22 0
-2625 797 0
-2626 -37 0
-2626 782 0
-789 2624 2625 2626 0
-2627 -14 0
-2627 840 0
-2628 -23 0
-2628 804 0
-2629 -44 0
-2629 783 0
-789 2627 2628 2629 0
-2630 -15 0
-2630 846 0
-2631 -24 0
-2631 810 0
-2632 -50 0
-2632 784 0
-789 2630 2631 2632 0
-2633 -16 0
-2633 851 0
-2634 -25 0
-2634 815 0
-2635 -55 0
-2635 785 0
-789 2633 2634 2635 0
-2636 -17 0
-2636 855 0
-2637 -26 0
-2637 819 0
-2638 -59 0
-2638 786 0
-789 2636 2637 2638 0
-2639 -18 0
-2639 858 0
-2640 -27 0
-2640 822 0
-2641 -62 0
-2641 787 0
-789 2639 2640 2641 0
-2642 -19 0
-2642 860 0
-2643 -28 0
-2643 824 0
-2644 -64 0
-2644 788 0
-789 2642 2643 2644 0
-2645 -21 0
-2645 862 0
-2646 -30 0
-2646 826 0
-2647 -66 0
-2647 790 0
-789 2645 2646 2647 0
-2648 -1 0
-2648 745 0
-2649 -2 0
-2649 736 0
-2650 -11 0
-2650 727 0
-790 2648 2649 2650 0
-2651 -13 0
-2651 834 0
-2652 -22 0
-2652 798 0
-2653 -38 0
-2653 782 0
-790 2651 2652 2653 0
-2654 -14 0
-2654 841 0
-2655 -23 0
-2655 805 0
-2656 -45 0
-2656 783 0
-790 2654 2655 2656 0
-2657 -15 0
-2657 847 0
-2658 -24 0
-2658 811 0
-2659 -51 0
-2659 784 0
-790 2657 2658 2659 0
-2660 -16 0
-2660 852 0
-2661 -25 0
-2661 816 0
-2662 -56 0
-2662 785 0
-790 2660 2661 2662 0
-2663 -17 0
-2663 856 0
-2664 -26 0
-2664 820 0
-2665 -60 0
-2665 786 0
-790 2663 2664 2665 0
-2666 -18 0
-2666 859 0
-2667 -27 0
-2667 823 0
-2668 -63 0
-2668 787 0
-790 2666 2667 2668 0
-2669 -19 0
-2669 861 0
-2670 -28 0
-2670 825 0
-2671 -65 0
-2671 788 0
-790 2669 2670 2671 0
-2672 -20 0
-2672 862 0
-2673 -29 0
-2673 826 0
-2674 -66 0
-2674 789 0
-790 2672 2673 2674 0
-2675 -1 0
-2675 746 0
-2676 -3 0
-2676 729 0
-2677 -4 0
-2677 728 0
-791 2675 2676 2677 0
-2678 -12 0
-2678 827 0
-2679 -22 0
-2679 783 0
-2680 -23 0
-2680 782 0
-791 2678 2679 2680 0
-2681 -15 0
-2681 863 0
-2682 -32 0
-2682 799 0
-2683 -39 0
-2683 792 0
-791 2681 2682 2683 0
-2684 -16 0
-2684 864 0
-2685 -33 0
-2685 800 0
-2686 -40 0
-2686 793 0
-791 2684 2685 2686 0
-2687 -17 0
-2687 865 0
-2688 -34 0
-2688 801 0
-2689 -41 0
-2689 794 0
-791 2687 2688 2689 0
-2690 -18 0
-2690 866 0
-2691 -35 0
-2691 802 0
-2692 -42 0
-2692 795 0
-791 2690 2691 2692 0
-2693 -19 0
-2693 867 0
-2694 -36 0
-2694 803 0
-2695 -43 0
-2695 796 0
-791 2693 2694 2695 0
-2696 -20 0
-2696 868 0
-2697 -37 0
-2697 804 0
-2698 -44 0
-2698 797 0
-791 2696 2697 2698 0
-2699 -21 0
-2699 869 0
-2700 -38 0
-2700 805 0
-2701 -45 0
-2701 798 0
-791 2699 2700 2701 0
-2702 -1 0
-2702 747 0
-2703 -3 0
-2703 730 0
-2704 -5 0
-2704 728 0
-792 2702 2703 2704 0
-2705 -12 0
-2705 828 0
-2706 -22 0
-2706 784 0
-2707 -24 0
-2707 782 0
-792 2705 2706 2707 0
-2708 -14 0
-2708 863 0
-2709 -31 0
-2709 799 0
-2710 -39 0
-2710 791 0
-792 2708 2709 2710 0
-2711 -16 0
-2711 870 0
-2712 -33 0
-2712 806 0
-2713 -46 0
-2713 793 0
-792 2711 2712 2713 0
-2714 -17 0
-2714 871 0
-2715 -34 0
-2715 807 0
-2716 -47 0
-2716 794 0
-792 2714 2715 2716 0
-2717 -18 0
-2717 872 0
-2718 -35 0
-2718 808 0
-2719 -48 0
-2719 795 0
-792 2717 2718 2719 0
-2720 -19 0
-2720 873 0
-2721 -36 0
-2721 809 0
-2722 -49 0
-2722 796 0
-792 2720 2721 2722 0
-2723 -20 0
-2723 874 0
-2724 -37 0
-2724 810 0
-2725 -50 0
-2725 797 0
-792 2723 2724 2725 0
-2726 -21 0
-2726 875 0
-2727 -38 0
-2727 811 0
-2728 -51 0
-2728 798 0
-792 2726 2727 2728 0
-2729 -1 0
-2729 748 0
-2730 -3 0
-2730 731 0
-2731 -6 0
-2731 728 0
-793 2729 2730 2731 0
-2732 -12 0
-2732 829 0
-2733 -22 0
-2733 785 0
-2734 -25 0
-2734 782 0
-793 2732 2733 2734 0
-2735 -14 0
-2735 864 0
-2736 -31 0
-2736 800 0
-2737 -40 0
-2737 791 0
-793 2735 2736 2737 0
-2738 -15 0
-2738 870 0
-2739 -32 0
-2739 806 0
-2740 -46 0
-2740 792 0
-793 2738 2739 2740 0
-2741 -17 0
-2741 876 0
-2742 -34 0
-2742 812 0
-2743 -52 0
-2743 794 0
-793 2741 2742 2743 0
-2744 -18 0
-2744 877 0
-2745 -35 0
-2745 813 0
-2746 -53 0
-2746 795 0
-793 2744 2745 2746 0
-2747 -19 0
-2747 878 0
-2748 -36 0
-2748 814 0
-2749 -54 0
-2749 796 0
-793 2747 2748 2749 0
-2750 -20 0
-2750 879 0
-2751 -37 0
-2751 815 0
-2752 -55 0
-2752 797 0
-793 2750 2751 2752 0
-2753 -21 0
-2753 880 0
-2754 -38 0
-2754 816 0
-2755 -56 0
-2755 798 0
-793 2753 2754 2755 0
-2756 -1 0
-2756 749 0
-2757 -3 0
-2757 732 0
-2758 -7 0
-2758 728 0
-794 2756 2757 2758 0
-2759 -12 0
-2759 830 0
-2760 -22 0
-2760 786 0
-2761 -26 0
-2761 782 0
-794 2759 2760 2761 0
-2762 -14 0
-2762 865 0
-2763 -31 0
-2763 801 0
-2764 -41 0
-2764 791 0
-794 2762 2763 2764 0
-2765 -15 0
-2765 871 0
-2766 -32 0
-2766 807 0
-2767 -47 0
-2767 792 0
-794 2765 2766 2767 0
-2768 -16 0
-2768 876 0
-2769 -33 0
-2769 812 0
-2770 -52 0
-2770 793 0
-794 2768 2769 2770 0
-2771 -18 0
-2771 881 0
-2772 -35 0
-2772 817 0
-2773 -57 0
-2773 795 0
-794 2771 2772 2773 0
-2774 -19 0
-2774 882 0
-2775 -36 0
-2775 818 0
-2776 -58 0
-2776 796 0
-794 2774 2775 2776 0
-2777 -20 0
-2777 883 0
-2778 -37 0
-2778 819 0
-2779 -59 0
-2779 797 0
-794 2777 2778 2779 0
-2780 -21 0
-2780 884 0
-2781 -38 0
-2781 820 0
-2782 -60 0
-2782 798 0
-794 2780 2781 2782 0
-2783 -1 0
-2783 750 0
-2784 -3 0
-2784 733 0
-2785 -8 0
-2785 728 0
-795 2783 2784 2785 0
-2786 -12 0
-2786 831 0
-2787 -22 0
-2787 787 0
-2788 -27 0
-2788 782 0
-795 2786 2787 2788 0
-2789 -14 0
-2789 866 0
-2790 -31 0
-2790 802 0
-2791 -42 0
-2791 791 0
-795 2789 2790 2791 0
-2792 -15 0
-2792 872 0
-2793 -32 0
-2793 808 0
-2794 -48 0
-2794 792 0
-795 2792 2793 2794 0
-2795 -16 0
-2795 877 0
-2796 -33 0
-2796 813 0
-2797 -53 0
-2797 793 0
-795 2795 2796 2797 0
-2798 -17 0
-2798 881 0
-2799 -34 0
-2799 817 0
-2800 -57 0
-2800 794 0
-795 2798 2799 2800 0
-2801 -19 0
-2801 885 0
-2802 -36 0
-2802 821 0
-2803 -61 0
-2803 796 0
-795 2801 2802 2803 0
-2804 -20 0
-2804 886 0
-2805 -37 0
-2805 822 0
-2806 -62 0
-2806 797 0
-795 2804 2805 2806 0
-2807 -21 0
-2807 887 0
-2808 -38 0
-2808 823 0
-2809 -63 0
-2809 798 0
-795 2807 2808 2809 0
-2810 -1 0
-2810 751 0
-2811 -3 0
-2811 734 0
-2812 -9 0
-2812 728 0
-796 2810 2811 2812 0
-2813 -12 0
-2813 832 0
-2814 -22 0
-2814 788 0
-2815 -28 0
-2815 782 0
-796 2813 2814 2815 0
-2816 -14 0
-2816 867 0
-2817 -31 0
-2817 803 0
-2818 -43 0
-2818 791 0
-796 2816 2817 2818 0
-2819 -15 0
-2819 873 0
-2820 -32 0
-2820 809 0
-2821 -49 0
-2821 792 0
-796 2819 2820 2821 0
-2822 -16 0
-2822 878 0
-2823 -33 0
-2823 814 0
-2824 -54 0
-2824 793 0
-796 2822 2823 2824 0
-2825 -17 0
-2825 882 0
-2826 -34 0
-2826 818 0
-2827 -58 0
-2827 794 0
-796 2825 2826 2827 0
-2828 -18 0
-2828 885 0
-2829 -35 0
-2829 821 0
-2830 -61 0
-2830 795 0
-796 2828 2829 2830 0
-2831 -20 0
-2831 888 0
-2832 -37 0
-2832 824 0
-2833 -64 0
-2833 797 0
-796 2831 2832 2833 0
-2834 -21 0
-2834 889 0
-2835 -38 0
-2835 825 0
-2836 -65 0
-2836 798 0
-796 2834 2835 2836 0
-2837 -1 0
-2837 752 0
-2838 -3 0
-2838 735 0
-2839 -10 0
-2839 728 0
-797 2837 2838 2839 0
-2840 -12 0
-2840 833 0
-2841 -22 0
-2841 789 0
-2842 -29 0
-2842 782 0
-797 2840 2841 2842 0
-2843 -14 0
-2843 868 0
-2844 -31 0
-2844 804 0
-2845 -44 0
-2845 791 0
-797 2843 2844 2845 0
-2846 -15 0
-2846 874 0
-2847 -32 0
-2847 810 0
-2848 -50 0
-2848 792 0
-797 2846 2847 2848 0
-2849 -16 0
-2849 879 0
-2850 -33 0
-2850 815 0
-2851 -55 0
-2851 793 0
-797 2849 2850 2851 0
-2852 -17 0
-2852 883 0
-2853 -34 0
-2853 819 0
-2854 -59 0
-2854 794 0
-797 2852 2853 2854 0
-2855 -18 0
-2855 886 0
-2856 -35 0
-2856 822 0
-2857 -62 0
-2857 795 0
-797 2855 2856 2857 0
-2858 -19 0
-2858 888 0
-2859 -36 0
-2859 824 0
-2860 -64 0
-2860 796 0
-797 2858 2859 2860 0
-2861 -21 0
-2861 890 0
-2862 -38 0
-2862 826 0
-2863 -66 0
-2863 798 0
-797 2861 2862 2863 0
-2864 -1 0
-2864 753 0
-2865 -3 0
-2865 736 0
-2866 -11 0
-2866 728 0
-798 2864 2865 2866 0
-2867 -12 0
-2867 834 0
-2868 -22 0
-2868 790 0
-2869 -30 0
-2869 782 0
-798 2867 2868 2869 0
-2870 -14 0
-2870 869 0
-2871 -31 0
-2871 805 0
-2872 -45 0
-2872 791 0
-798 2870 2871 2872 0
-2873 -15 0
-2873 875 0
-2874 -32 0
-2874 811 0
-2875 -51 0
-2875 792 0
-798 2873 2874 2875 0
-2876 -16 0
-2876 880 0
-2877 -33 0
-2877 816 0
-2878 -56 0
-2878 793 0
-798 2876 2877 2878 0
-2879 -17 0
-2879 884 0
-2880 -34 0
-2880 820 0
-2881 -60 0
-2881 794 0
-798 2879 2880 2881 0
-2882 -18 0
-2882 887 0
-2883 -35 0
-2883 823 0
-2884 -63 0
-2884 795 0
-798 2882 2883 2884 0
-2885 -19 0
-2885 889 0
-2886 -36 0
-2886 825 0
-2887 -65 0
-2887 796 0
-798 2885 2886 2887 0
-2888 -20 0
-2888 890 0
-2889 -37 0
-2889 826 0
-2890 -66 0
-2890 797 0
-798 2888 2889 2890 0
-2891 -1 0
-2891 754 0
-2892 -4 0
-2892 730 0
-2893 -5 0
-2893 729 0
-799 2891 2892 2893 0
-2894 -12 0
-2894 835 0
-2895 -23 0
-2895 784 0
-2896 -24 0
-2896 783 0
-799 2894 2895 2896 0
-2897 -13 0
-2897 863 0
-2898 -31 0
-2898 792 0
-2899 -32 0
-2899 791 0
-799 2897 2898 2899 0
-2900 -16 0
-2900 891 0
-2901 -40 0
-2901 806 0
-2902 -46 0
-2902 800 0
-799 2900 2901 2902 0
-2903 -17 0
-2903 892 0
-2904 -41 0
-2904 807 0
-2905 -47 0
-2905 801 0
-799 2903 2904 2905 0
-2906 -18 0
-2906 893 0
-2907 -42 0
-2907 808 0
-2908 -48 0
-2908 802 0
-799 2906 2907 2908 0
-2909 -19 0
-2909 894 0
-2910 -43 0
-2910 809 0
-2911 -49 0
-2911 803 0
-799 2909 2910 2911 0
-2912 -20 0
-2912 895 0
-2913 -44 0
-2913 810 0
-2914 -50 0
-2914 804 0
-799 2912 2913 2914 0
-2915 -21 0
-2915 896 0
-2916 -45 0
-2916 811 0
-2917 -51 0
-2917 805 0
-799 2915 2916 2917 0
-2918 -1 0
-2918 755 0
-2919 -4 0
-2919 731 0
-2920 -6 0
-2920 729 0
-800 2918 2919 2920 0
-2921 -12 0
-2921 836 0
-2922 -23 0
-2922 785 0
-2923 -25 0
-2923 783 0
-800 2921 2922 2923 0
-2924 -13 0
-2924 864 0
-2925 -31 0
-2925 793 0
-2926 -33 0
-2926 791 0
-800 2924 2925 2926 0
-2927 -15 0
-2927 891 0
-2928 -39 0
-2928 806 0
-2929 -46 0
-2929 799 0
-800 2927 2928 2929 0
-2930 -17 0
-2930 897 0
-2931 -41 0
-2931 812 0
-2932 -52 0
-2932 801 0
-800 2930 2931 2932 0
-2933 -18 0
-2933 898 0
-2934 -42 0
-2934 813 0
-2935 -53 0
-2935 802 0
-800 2933 2934 2935 0
-2936 -19 0
-2936 899 0
-2937 -43 0
-2937 814 0
-2938 -54 0
-2938 803 0
-800 2936 2937 2938 0
-2939 -20 0
-2939 900 0
-2940 -44 0
-2940 815 0
-2941 -55 0
-2941 804 0
-800 2939 2940 2941 0
-2942 -21 0
-2942 901 0
-2943 -45 0
-2943 816 0
-2944 -56 0
-2944 805 0
-800 2942 2943 2944 0
-2945 -1 0
-2945 756 0
-2946 -4 0
-2946 732 0
-2947 -7 0
-2947 729 0
-801 2945 2946 2947 0
-2948 -12 0
-2948 837 0
-2949 -23 0
-2949 786 0
-2950 -26 0
-2950 783 0
-801 2948 2949 2950 0
-2951 -13 0
-2951 865 0
-2952 -31 0
-2952 794 0
-2953 -34 0
-2953 791 0
-801 2951 2952 2953 0
-2954 -15 0
-2954 892 0
-2955 -39 0
-2955 807 0
-2956 -47 0
-2956 799 0
-801 2954 2955 2956 0
-2957 -16 0
-2957 897 0
-2958 -40 0
-2958 812 0
-2959 -52 0
-2959 800 0
-801 2957 2958 2959 0
-2960 -18 0
-2960 902 0
-2961 -42 0
-2961 817 0
-2962 -57 0
-2962 802 0
-801 2960 2961 2962 0
-2963 -19 0
-2963 903 0
-2964 -43 0
-2964 818 0
-2965 -58 0
-2965 803 0
-801 2963 2964 2965 0
-2966 -20 0
-2966 904 0
-2967 -44 0
-2967 819 0
-2968 -59 0
-2968 804 0
-801 2966 2967 2968 0
-2969 -21 0
-2969 905 0
-2970 -45 0
-2970 820 0
-2971 -60 0
-2971 805 0
-801 2969 2970 2971 0
-2972 -1 0
-2972 757 0
-2973 -4 0
-2973 733 0
-2974 -8 0
-2974 729 0
-802 2972 2973 2974 0
-2975 -12 0
-2975 838 0
-2976 -23 0
-2976 787 0
-2977 -27 0
-2977 783 0
-802 2975 2976 2977 0
-2978 -13 0
-2978 866 0
-2979 -31 0
-2979 795 0
-2980 -35 0
-2980 791 0
-802 2978 2979 2980 0
-2981 -15 0
-2981 893 0
-2982 -39 0
-2982 808 0
-2983 -48 0
-2983 799 0
-802 2981 2982 2983 0
-2984 -16 0
-2984 898 0
-2985 -40 0
-2985 813 0
-2986 -53 0
-2986 800 0
-802 2984 2985 2986 0
-2987 -17 0
-2987 902 0
-2988 -41 0
-2988 817 0
-2989 -57 0
-2989 801 0
-802 2987 2988 2989 0
-2990 -19 0
-2990 906 0
-2991 -43 0
-2991 821 0
-2992 -61 0
-2992 803 0
-802 2990 2991 2992 0
-2993 -20 0
-2993 907 0
-2994 -44 0
-2994 822 0
-2995 -62 0
-2995 804 0
-802 2993 2994 2995 0
-2996 -21 0
-2996 908 0
-2997 -45 0
-2997 823 0
-2998 -63 0
-2998 805 0
-802 2996 2997 2998 0
-2999 -1 0
-2999 758 0
-3000 -4 0
-3000 734 0
-3001 -9 0
-3001 729 0
-803 2999 3000 3001 0
-3002 -12 0
-3002 839 0
-3003 -23 0
-3003 788 0
-3004 -28 0
-3004 783 0
-803 3002 3003 3004 0
-3005 -13 0
-3005 867 0
-3006 -31 0
-3006 796 0
-3007 -36 0
-3007 791 0
-803 3005 3006 3007 0
-3008 -15 0
-3008 894 0
-3009 -39 0
-3009 809 0
-3010 -49 0
-3010 799 0
-803 3008 3009 3010 0
-3011 -16 0
-3011 899 0
-3012 -40 0
-3012 814 0
-3013 -54 0
-3013 800 0
-803 3011 3012 3013 0
-3014 -17 0
-3014 903 0
-3015 -41 0
-3015 818 0
-3016 -58 0
-3016 801 0
-803 3014 3015 3016 0
-3017 -18 0
-3017 906 0
-3018 -42 0
-3018 821 0
-3019 -61 0
-3019 802 0
-803 3017 3018 3019 0
-3020 -20 0
-3020 909 0
-3021 -44 0
-3021 824 0
-3022 -64 0
-3022 804 0
-803 3020 3021 3022 0
-3023 -21 0
-3023 910 0
-3024 -45 0
-3024 825 0
-3025 -65 0
-3025 805 0
-803 3023 3024 3025 0
-3026 -1 0
-3026 759 0
-3027 -4 0
-3027 735 0
-3028 -10 0
-3028 729 0
-804 3026 3027 3028 0
-3029 -12 0
-3029 840 0
-3030 -23 0
-3030 789 0
-3031 -29 0
-3031 783 0
-804 3029 3030 3031 0
-3032 -13 0
-3032 868 0
-3033 -31 0
-3033 797 0
-3034 -37 0
-3034 791 0
-804 3032 3033 3034 0
-3035 -15 0
-3035 895 0
-3036 -39 0
-3036 810 0
-3037 -50 0
-3037 799 0
-804 3035 3036 3037 0
-3038 -16 0
-3038 900 0
-3039 -40 0
-3039 815 0
-3040 -55 0
-3040 800 0
-804 3038 3039 3040 0
-3041 -17 0
-3041 904 0
-3042 -41 0
-3042 819 0
-3043 -59 0
-3043 801 0
-804 3041 3042 3043 0
-3044 -18 0
-3044 907 0
-3045 -42 0
-3045 822 0
-3046 -62 0
-3046 802 0
-804 3044 3045 3046 0
-3047 -19 0
-3047 909 0
-3048 -43 0
-3048 824 0
-3049 -64 0
-3049 803 0
-804 3047 3048 3049 0
-3050 -21 0
-3050 911 0
-3051 -45 0
-3051 826 0
-3052 -66 0
-3052 805 0
-804 3050 3051 3052 0
-3053 -1 0
-3053 760 0
-3054 -4 0
-3054 736 0
-3055 -11 0
-3055 729 0
-805 3053 3054 3055 0
-3056 -12 0
-3056 841 0
-3057 -23 0
-3057 790 0
-3058 -30 0
-3058 783 0
-805 3056 3057 3058 0
-3059 -13 0
-3059 869 0
-3060 -31 0
-3060 798 0
-3061 -38 0
-3061 791 0
-805 3059 3060 3061 0
-3062 -15 0
-3062 896 0
-3063 -39 0
-3063 811 0
-3064 -51 0
-3064 799 0
-805 3062 3063 3064 0
-3065 -16 0
-3065 901 0
-3066 -40 0
-3066 816 0
-3067 -56 0
-3067 800 0
-805 3065 3066 3067 0
-3068 -17 0
-3068 905 0
-3069 -41 0
-3069 820 0
-3070 -60 0
-3070 801 0
-805 3068 3069 3070 0
-3071 -18 0
-3071 908 0
-3072 -42 0
-3072 823 0
-3073 -63 0
-3073 802 0
-805 3071 3072 3073 0
-3074 -19 0
-3074 910 0
-3075 -43 0
-3075 825 0
-3076 -65 0
-3076 803 0
-805 3074 3075 3076 0
-3077 -20 0
-3077 911 0
-3078 -44 0
-3078 826 0
-3079 -66 0
-3079 804 0
-805 3077 3078 3079 0
-3080 -1 0
-3080 761 0
-3081 -5 0
-3081 731 0
-3082 -6 0
-3082 730 0
-806 3080 3081 3082 0
-3083 -12 0
-3083 842 0
-3084 -24 0
-3084 785 0
-3085 -25 0
-3085 784 0
-806 3083 3084 3085 0
-3086 -13 0
-3086 870 0
-3087 -32 0
-3087 793 0
-3088 -33 0
-3088 792 0
-806 3086 3087 3088 0
-3089 -14 0
-3089 891 0
-3090 -39 0
-3090 800 0
-3091 -40 0
-3091 799 0
-806 3089 3090 3091 0
-3092 -17 0
-3092 912 0
-3093 -47 0
-3093 812 0
-3094 -52 0
-3094 807 0
-806 3092 3093 3094 0
-3095 -18 0
-3095 913 0
-3096 -48 0
-3096 813 0
-3097 -53 0
-3097 808 0
-806 3095 3096 3097 0
-3098 -19 0
-3098 914 0
-3099 -49 0
-3099 814 0
-3100 -54 0
-3100 809 0
-806 3098 3099 3100 0
-3101 -20 0
-3101 915 0
-3102 -50 0
-3102 815 0
-3103 -55 0
-3103 810 0
-806 3101 3102 3103 0
-3104 -21 0
-3104 916 0
-3105 -51 0
-3105 816 0
-3106 -56 0
-3106 811 0
-806 3104 3105 3106 0
-3107 -1 0
-3107 762 0
-3108 -5 0
-3108 732 0
-3109 -7 0
-3109 730 0
-807 3107 3108 3109 0
-3110 -12 0
-3110 843 0
-3111 -24 0
-3111 786 0
-3112 -26 0
-3112 784 0
-807 3110 3111 3112 0
-3113 -13 0
-3113 871 0
-3114 -32 0
-3114 794 0
-3115 -34 0
-3115 792 0
-807 3113 3114 3115 0
-3116 -14 0
-3116 892 0
-3117 -39 0
-3117 801 0
-3118 -41 0
-3118 799 0
-807 3116 3117 3118 0
-3119 -16 0
-3119 912 0
-3120 -46 0
-3120 812 0
-3121 -52 0
-3121 806 0
-807 3119 3120 3121 0
-3122 -18 0
-3122 917 0
-3123 -48 0
-3123 817 0
-3124 -57 0
-3124 808 0
-807 3122 3123 3124 0
-3125 -19 0
-3125 918 0
-3126 -49 0
-3126 818 0
-3127 -58 0
-3127 809 0
-807 3125 3126 3127 0
-3128 -20 0
-3128 919 0
-3129 -50 0
-3129 819 0
-3130 -59 0
-3130 810 0
-807 3128 3129 3130 0
-3131 -21 0
-3131 920 0
-3132 -51 0
-3132 820 0
-3133 -60 0
-3133 811 0
-807 3131 3132 3133 0
-3134 -1 0
-3134 763 0
-3135 -5 0
-3135 733 0
-3136 -8 0
-3136 730 0
-808 3134 3135 3136 0
-3137 -12 0
-3137 844 0
-3138 -24 0
-3138 787 0
-3139 -27 0
-3139 784 0
-808 3137 3138 3139 0
-3140 -13 0
-3140 872 0
-3141 -32 0
-3141 795 0
-3142 -35 0
-3142 792 0
-808 3140 3141 3142 0
-3143 -14 0
-3143 893 0
-3144 -39 0
-3144 802 0
-3145 -42 0
-3145 799 0
-808 3143 3144 3145 0
-3146 -16 0
-3146 913 0
-3147 -46 0
-3147 813 0
-3148 -53 0
-3148 806 0
-808 3146 3147 3148 0
-3149 -17 0
-3149 917 0
-3150 -47 0
-3150 817 0
-3151 -57 0
-3151 807 0
-808 3149 3150 3151 0
-3152 -19 0
-3152 921 0
-3153 -49 0
-3153 821 0
-3154 -61 0
-3154 809 0
-808 3152 3153 3154 0
-3155 -20 0
-3155 922 0
-3156 -50 0
-3156 822 0
-3157 -62 0
-3157 810 0
-808 3155 3156 3157 0
-3158 -21 0
-3158 923 0
-3159 -51 0
-3159 823 0
-3160 -63 0
-3160 811 0
-808 3158 3159 3160 0
-3161 -1 0
-3161 764 0
-3162 -5 0
-3162 734 0
-3163 -9 0
-3163 730 0
-809 3161 3162 3163 0
-3164 -12 0
-3164 845 0
-3165 -24 0
-3165 788 0
-3166 -28 0
-3166 784 0
-809 3164 3165 3166 0
-3167 -13 0
-3167 873 0
-3168 -32 0
-3168 796 0
-3169 -36 0
-3169 792 0
-809 3167 3168 3169 0
-3170 -14 0
-3170 894 0
-3171 -39 0
-3171 803 0
-3172 -43 0
-3172 799 0
-809 3170 3171 3172 0
-3173 -16 0
-3173 914 0
-3174 -46 0
-3174 814 0
-3175 -54 0
-3175 806 0
-809 3173 3174 3175 0
-3176 -17 0
-3176 918 0
-3177 -47 0
-3177 818 0
-3178 -58 0
-3178 807 0
-809 3176 3177 3178 0
-3179 -18 0
-3179 921 0
-3180 -48 0
-3180 821 0
-3181 -61 0
-3181 808 0
-809 3179 3180 3181 0
-3182 -20 0
-3182 924 0
-3183 -50 0
-3183 824 0
-3184 -64 0
-3184 810 0
-809 3182 3183 3184 0
-3185 -21 0
-3185 925 0
-3186 -51 0
-3186 825 0
-3187 -65 0
-3187 811 0
-809 3185 3186 3187 0
-3188 -1 0
-3188 765 0
-3189 -5 0
-3189 735 0
-3190 -10 0
-3190 730 0
-810 3188 3189 3190 0
-3191 -12 0
-3191 846 0
-3192 -24 0
-3192 789 0
-3193 -29 0
-3193 784 0
-810 3191 3192 3193 0
-3194 -13 0
-3194 874 0
-3195 -32 0
-3195 797 0
-3196 -37 0
-3196 792 0
-810 3194 3195 3196 0
-3197 -14 0
-3197 895 0
-3198 -39 0
-3198 804 0
-3199 -44 0
-3199 799 0
-810 3197 3198 3199 0
-3200 -16 0
-3200 915 0
-3201 -46 0
-3201 815 0
-3202 -55 0
-3202 806 0
-810 3200 3201 3202 0
-3203 -17 0
-3203 919 0
-3204 -47 0
-3204 819 0
-3205 -59 0
-3205 807 0
-810 3203 3204 3205 0
-3206 -18 0
-3206 922 0
-3207 -48 0
-3207 822 0
-3208 -62 0
-3208 808 0
-810 3206 3207 3208 0
-3209 -19 0
-3209 924 0
-3210 -49 0
-3210 824 0
-3211 -64 0
-3211 809 0
-810 3209 3210 3211 0
-3212 -21 0
-3212 926 0
-3213 -51 0
-3213 826 0
-3214 -66 0
-3214 811 0
-810 3212 3213 3214 0
-3215 -1 0
-3215 766 0
-3216 -5 0
-3216 736 0
-3217 -11 0
-3217 730 0
-811 3215 3216 3217 0
-3218 -12 0
-3218 847 0
-3219 -24 0
-3219 790 0
-3220 -30 0
-3220 784 0
-811 3218 3219 3220 0
-3221 -13 0
-3221 875 0
-3222 -32 0
-3222 798 0
-3223 -38 0
-3223 792 0
-811 3221 3222 3223 0
-3224 -14 0
-3224 896 0
-3225 -39 0
-3225 805 0
-3226 -45 0
-3226 799 0
-811 3224 3225 3226 0
-3227 -16 0
-3227 916 0
-3228 -46 0
-3228 816 0
-3229 -56 0
-3229 806 0
-811 3227 3228 3229 0
-3230 -17 0
-3230 920 0
-3231 -47 0
-3231 820 0
-3232 -60 0
-3232 807 0
-811 3230 3231 3232 0
-3233 -18 0
-3233 923 0
-3234 -48 0
-3234 823 0
-3235 -63 0
-3235 808 0
-811 3233 3234 3235 0
-3236 -19 0
-3236 925 0
-3237 -49 0
-3237 825 0
-3238 -65 0
-3238 809 0
-811 3236 3237 3238 0
-3239 -20 0
-3239 926 0
-3240 -50 0
-3240 826 0
-3241 -66 0
-3241 810 0
-811 3239 3240 3241 0
-3242 -1 0
-3242 767 0
-3243 -6 0
-3243 732 0
-3244 -7 0
-3244 731 0
-812 3242 3243 3244 0
-3245 -12 0
-3245 848 0
-3246 -25 0
-3246 786 0
-3247 -26 0
-3247 785 0
-812 3245 3246 3247 0
-3248 -13 0
-3248 876 0
-3249 -33 0
-3249 794 0
-3250 -34 0
-3250 793 0
-812 3248 3249 3250 0
-3251 -14 0
-3251 897 0
-3252 -40 0
-3252 801 0
-3253 -41 0
-3253 800 0
-812 3251 3252 3253 0
-3254 -15 0
-3254 912 0
-3255 -46 0
-3255 807 0
-3256 -47 0
-3256 806 0
-812 3254 3255 3256 0
-3257 -18 0
-3257 927 0
-3258 -53 0
-3258 817 0
-3259 -57 0
-3259 813 0
-812 3257 3258 3259 0
-3260 -19 0
-3260 928 0
-3261 -54 0
-3261 818 0
-3262 -58 0
-3262 814 0
-812 3260 3261 3262 0
-3263 -20 0
-3263 929 0
-3264 -55 0
-3264 819 0
-3265 -59 0
-3265 815 0
-812 3263 3264 3265 0
-3266 -21 0
-3266 930 0
-3267 -56 0
-3267 820 0
-3268 -60 0
-3268 816 0
-812 3266 3267 3268 0
-3269 -1 0
-3269 768 0
-3270 -6 0
-3270 733 0
-3271 -8 0
-3271 731 0
-813 3269 3270 3271 0
-3272 -12 0
-3272 849 0
-3273 -25 0
-3273 787 0
-3274 -27 0
-3274 785 0
-813 3272 3273 3274 0
-3275 -13 0
-3275 877 0
-3276 -33 0
-3276 795 0
-3277 -35 0
-3277 793 0
-813 3275 3276 3277 0
-3278 -14 0
-3278 898 0
-3279 -40 0
-3279 802 0
-3280 -42 0
-3280 800 0
-813 3278 3279 3280 0
-3281 -15 0
-3281 913 0
-3282 -46 0
-3282 808 0
-3283 -48 0
-3283 806 0
-813 3281 3282 3283 0
-3284 -17 0
-3284 927 0
-3285 -52 0
-3285 817 0
-3286 -57 0
-3286 812 0
-813 3284 3285 3286 0
-3287 -19 0
-3287 931 0
-3288 -54 0
-3288 821 0
-3289 -61 0
-3289 814 0
-813 3287 3288 3289 0
-3290 -20 0
-3290 932 0
-3291 -55 0
-3291 822 0
-3292 -62 0
-3292 815 0
-813 3290 3291 3292 0
-3293 -21 0
-3293 933 0
-3294 -56 0
-3294 823 0
-3295 -63 0
-3295 816 0
-813 3293 3294 3295 0
-3296 -1 0
-3296 769 0
-3297 -6 0
-3297 734 0
-3298 -9 0
-3298 731 0
-814 3296 3297 3298 0
-3299 -12 0
-3299 850 0
-3300 -25 0
-3300 788 0
-3301 -28 0
-3301 785 0
-814 3299 3300 3301 0
-3302 -13 0
-3302 878 0
-3303 -33 0
-3303 796 0
-3304 -36 0
-3304 793 0
-814 3302 3303 3304 0
-3305 -14 0
-3305 899 0
-3306 -40 0
-3306 803 0
-3307 -43 0
-3307 800 0
-814 3305 3306 3307 0
-3308 -15 0
-3308 914 0
-3309 -46 0
-3309 809 0
-3310 -49 0
-3310 806 0
-814 3308 3309 3310 0
-3311 -17 0
-3311 928 0
-3312 -52 0
-3312 818 0
-3313 -58 0
-3313 812 0
-814 3311 3312 3313 0
-3314 -18 0
-3314 931 0
-3315 -53 0
-3315 821 0
-3316 -61 0
-3316 813 0
-814 3314 3315 3316 0
-3317 -20 0
-3317 934 0
-3318 -55 0
-3318 824 0
-3319 -64 0
-3319 815 0
-814 3317 3318 3319 0
-3320 -21 0
-3320 935 0
-3321 -56 0
-3321 825 0
-3322 -65 0
-3322 816 0
-814 3320 3321 3322 0
-3323 -1 0
-3323 770 0
-3324 -6 0
-3324 735 0
-3325 -10 0
-3325 731 0
-815 3323 3324 3325 0
-3326 -12 0
-3326 851 0
-3327 -25 0
-3327 789 0
-3328 -29 0
-3328 785 0
-815 3326 3327 3328 0
-3329 -13 0
-3329 879 0
-3330 -33 0
-3330 797 0
-3331 -37 0
-3331 793 0
-815 3329 3330 3331 0
-3332 -14 0
-3332 900 0
-3333 -40 0
-3333 804 0
-3334 -44 0
-3334 800 0
-815 3332 3333 3334 0
-3335 -15 0
-3335 915 0
-3336 -46 0
-3336 810 0
-3337 -50 0
-3337 806 0
-815 3335 3336 3337 0
-3338 -17 0
-3338 929 0
-3339 -52 0
-3339 819 0
-3340 -59 0
-3340 812 0
-815 3338 3339 3340 0
-3341 -18 0
-3341 932 0
-3342 -53 0
-3342 822 0
-3343 -62 0
-3343 813 0
-815 3341 3342 3343 0
-3344 -19 0
-3344 934 0
-3345 -54 0
-3345 824 0
-3346 -64 0
-3346 814 0
-815 3344 3345 3346 0
-3347 -21 0
-3347 936 0
-3348 -56 0
-3348 826 0
-3349 -66 0
-3349 816 0
-815 3347 3348 3349 0
-3350 -1 0
-3350 771 0
-3351 -6 0
-3351 736 0
-3352 -11 0
-3352 731 0
-816 3350 3351 3352 0
-3353 -12 0
-3353 852 0
-3354 -25 0
-3354 790 0
-3355 -30 0
-3355 785 0
-816 3353 3354 3355 0
-3356 -13 0
-3356 880 0
-3357 -33 0
-3357 798 0
-3358 -38 0
-3358 793 0
-816 3356 3357 3358 0
-3359 -14 0
-3359 901 0
-3360 -40 0
-3360 805 0
-3361 -45 0
-3361 800 0
-816 3359 3360 3361 0
-3362 -15 0
-3362 916 0
-3363 -46 0
-3363 811 0
-3364 -51 0
-3364 806 0
-816 3362 3363 3364 0
-3365 -17 0
-3365 930 0
-3366 -52 0
-3366 820 0
-3367 -60 0
-3367 812 0
-816 3365 3366 3367 0
-3368 -18 0
-3368 933 0
-3369 -53 0
-3369 823 0
-3370 -63 0
-3370 813 0
-816 3368 3369 3370 0
-3371 -19 0
-3371 935 0
-3372 -54 0
-3372 825 0
-3373 -65 0
-3373 814 0
-816 3371 3372 3373 0
-3374 -20 0
-3374 936 0
-3375 -55 0
-3375 826 0
-3376 -66 0
-3376 815 0
-816 3374 3375 3376 0
-3377 -1 0
-3377 772 0
-3378 -7 0
-3378 733 0
-3379 -8 0
-3379 732 0
-817 3377 3378 3379 0
-3380 -12 0
-3380 853 0
-3381 -26 0
-3381 787 0
-3382 -27 0
-3382 786 0
-817 3380 3381 3382 0
-3383 -13 0
-3383 881 0
-3384 -34 0
-3384 795 0
-3385 -35 0
-3385 794 0
-817 3383 3384 3385 0
-3386 -14 0
-3386 902 0
-3387 -41 0
-3387 802 0
-3388 -42 0
-3388 801 0
-817 3386 3387 3388 0
-3389 -15 0
-3389 917 0
-3390 -47 0
-3390 808 0
-3391 -48 0
-3391 807 0
-817 3389 3390 3391 0
-3392 -16 0
-3392 927 0
-3393 -52 0
-3393 813 0
-3394 -53 0
-3394 812 0
-817 3392 3393 3394 0
-3395 -19 0
-3395 937 0
-3396 -58 0
-3396 821 0
-3397 -61 0
-3397 818 0
-817 3395 3396 3397 0
-3398 -20 0
-3398 938 0
-3399 -59 0
-3399 822 0
-3400 -62 0
-3400 819 0
-817 3398 3399 3400 0
-3401 -21 0
-3401 939 0
-3402 -60 0
-3402 823 0
-3403 -63 0
-3403 820 0
-817 3401 3402 3403 0
-3404 -1 0
-3404 773 0
-3405 -7 0
-3405 734 0
-3406 -9 0
-3406 732 0
-818 3404 3405 3406 0
-3407 -12 0
-3407 854 0
-3408 -26 0
-3408 788 0
-3409 -28 0
-3409 786 0
-818 3407 3408 3409 0
-3410 -13 0
-3410 882 0
-3411 -34 0
-3411 796 0
-3412 -36 0
-3412 794 0
-818 3410 3411 3412 0
-3413 -14 0
-3413 903 0
-3414 -41 0
-3414 803 0
-3415 -43 0
-3415 801 0
-818 3413 3414 3415 0
-3416 -15 0
-3416 918 0
-3417 -47 0
-3417 809 0
-3418 -49 0
-3418 807 0
-818 3416 3417 3418 0
-3419 -16 0
-3419 928 0
-3420 -52 0
-3420 814 0
-3421 -54 0
-3421 812 0
-818 3419 3420 3421 0
-3422 -18 0
-3422 937 0
-3423 -57 0
-3423 821 0
-3424 -61 0
-3424 817 0
-818 3422 3423 3424 0
-3425 -20 0
-3425 940 0
-3426 -59 0
-3426 824 0
-3427 -64 0
-3427 819 0
-818 3425 3426 3427 0
-3428 -21 0
-3428 941 0
-3429 -60 0
-3429 825 0
-3430 -65 0
-3430 820 0
-818 3428 3429 3430 0
-3431 -1 0
-3431 774 0
-3432 -7 0
-3432 735 0
-3433 -10 0
-3433 732 0
-819 3431 3432 3433 0
-3434 -12 0
-3434 855 0
-3435 -26 0
-3435 789 0
-3436 -29 0
-3436 786 0
-819 3434 3435 3436 0
-3437 -13 0
-3437 883 0
-3438 -34 0
-3438 797 0
-3439 -37 0
-3439 794 0
-819 3437 3438 3439 0
-3440 -14 0
-3440 904 0
-3441 -41 0
-3441 804 0
-3442 -44 0
-3442 801 0
-819 3440 3441 3442 0
-3443 -15 0
-3443 919 0
-3444 -47 0
-3444 810 0
-3445 -50 0
-3445 807 0
-819 3443 3444 3445 0
-3446 -16 0
-3446 929 0
-3447 -52 0
-3447 815 0
-3448 -55 0
-3448 812 0
-819 3446 3447 3448 0
-3449 -18 0
-3449 938 0
-3450 -57 0
-3450 822 0
-3451 -62 0
-3451 817 0
-819 3449 3450 3451 0
-3452 -19 0
-3452 940 0
-3453 -58 0
-3453 824 0
-3454 -64 0
-3454 818 0
-819 3452 3453 3454 0
-3455 -21 0
-3455 942 0
-3456 -60 0
-3456 826 0
-3457 -66 0
-3457 820 0
-819 3455 3456 3457 0
-3458 -1 0
-3458 775 0
-3459 -7 0
-3459 736 0
-3460 -11 0
-3460 732 0
-820 3458 3459 3460 0
-3461 -12 0
-3461 856 0
-3462 -26 0
-3462 790 0
-3463 -30 0
-3463 786 0
-820 3461 3462 3463 0
-3464 -13 0
-3464 884 0
-3465 -34 0
-3465 798 0
-3466 -38 0
-3466 794 0
-820 3464 3465 3466 0
-3467 -14 0
-3467 905 0
-3468 -41 0
-3468 805 0
-3469 -45 0
-3469 801 0
-820 3467 3468 3469 0
-3470 -15 0
-3470 920 0
-3471 -47 0
-3471 811 0
-3472 -51 0
-3472 807 0
-820 3470 3471 3472 0
-3473 -16 0
-3473 930 0
-3474 -52 0
-3474 816 0
-3475 -56 0
-3475 812 0
-820 3473 3474 3475 0
-3476 -18 0
-3476 939 0
-3477 -57 0
-3477 823 0
-3478 -63 0
-3478 817 0
-820 3476 3477 3478 0
-3479 -19 0
-3479 941 0
-3480 -58 0
-3480 825 0
-3481 -65 0
-3481 818 0
-820 3479 3480 3481 0
-3482 -20 0
-3482 942 0
-3483 -59 0
-3483 826 0
-3484 -66 0
-3484 819 0
-820 3482 3483 3484 0
-3485 -1 0
-3485 776 0
-3486 -8 0
-3486 734 0
-3487 -9 0
-3487 733 0
-821 3485 3486 3487 0
-3488 -12 0
-3488 857 0
-3489 -27 0
-3489 788 0
-3490 -28 0
-3490 787 0
-821 3488 3489 3490 0
-3491 -13 0
-3491 885 0
-3492 -35 0
-3492 796 0
-3493 -36 0
-3493 795 0
-821 3491 3492 3493 0
-3494 -14 0
-3494 906 0
-3495 -42 0
-3495 803 0
-3496 -43 0
-3496 802 0
-821 3494 3495 3496 0
-3497 -15 0
-3497 921 0
-3498 -48 0
-3498 809 0
-3499 -49 0
-3499 808 0
-821 3497 3498 3499 0
-3500 -16 0
-3500 931 0
-3501 -53 0
-3501 814 0
-3502 -54 0
-3502 813 0
-821 3500 3501 3502 0
-3503 -17 0
-3503 937 0
-3504 -57 0
-3504 818 0
-3505 -58 0
-3505 817 0
-821 3503 3504 3505 0
-3506 -20 0
-3506 943 0
-3507 -62 0
-3507 824 0
-3508 -64 0
-3508 822 0
-821 3506 3507 3508 0
-3509 -21 0
-3509 944 0
-3510 -63 0
-3510 825 0
-3511 -65 0
-3511 823 0
-821 3509 3510 3511 0
-3512 -1 0
-3512 777 0
-3513 -8 0
-3513 735 0
-3514 -10 0
-3514 733 0
-822 3512 3513 3514 0
-3515 -12 0
-3515 858 0
-3516 -27 0
-3516 789 0
-3517 -29 0
-3517 787 0
-822 3515 3516 3517 0
-3518 -13 0
-3518 886 0
-3519 -35 0
-3519 797 0
-3520 -37 0
-3520 795 0
-822 3518 3519 3520 0
-3521 -14 0
-3521 907 0
-3522 -42 0
-3522 804 0
-3523 -44 0
-3523 802 0
-822 3521 3522 3523 0
-3524 -15 0
-3524 922 0
-3525 -48 0
-3525 810 0
-3526 -50 0
-3526 808 0
-822 3524 3525 3526 0
-3527 -16 0
-3527 932 0
-3528 -53 0
-3528 815 0
-3529 -55 0
-3529 813 0
-822 3527 3528 3529 0
-3530 -17 0
-3530 938 0
-3531 -57 0
-3531 819 0
-3532 -59 0
-3532 817 0
-822 3530 3531 3532 0
-3533 -19 0
-3533 943 0
-3534 -61 0
-3534 824 0
-3535 -64 0
-3535 821 0
-822 3533 3534 3535 0
-3536 -21 0
-3536 945 0
-3537 -63 0
-3537 826 0
-3538 -66 0
-3538 823 0
-822 3536 3537 3538 0
-3539 -1 0
-3539 778 0
-3540 -8 0
-3540 736 0
-3541 -11 0
-3541 733 0
-823 3539 3540 3541 0
-3542 -12 0
-3542 859 0
-3543 -27 0
-3543 790 0
-3544 -30 0
-3544 787 0
-823 3542 3543 3544 0
-3545 -13 0
-3545 887 0
-3546 -35 0
-3546 798 0
-3547 -38 0
-3547 795 0
-823 3545 3546 3547 0
-3548 -14 0
-3548 908 0
-3549 -42 0
-3549 805 0
-3550 -45 0
-3550 802 0
-823 3548 3549 3550 0
-3551 -15 0
-3551 923 0
-3552 -48 0
-3552 811 0
-3553 -51 0
-3553 808 0
-823 3551 3552 3553 0
-3554 -16 0
-3554 933 0
-3555 -53 0
-3555 816 0
-3556 -56 0
-3556 813 0
-823 3554 3555 3556 0
-3557 -17 0
-3557 939 0
-3558 -57 0
-3558 820 0
-3559 -60 0
-3559 817 0
-823 3557 3558 3559 0
-3560 -19 0
-3560 944 0
-3561 -61 0
-3561 825 0
-3562 -65 0
-3562 821 0
-823 3560 3561 3562 0
-3563 -20 0
-3563 945 0
-3564 -62 0
-3564 826 0
-3565 -66 0
-3565 822 0
-823 3563 3564 3565 0
-3566 -1 0
-3566 779 0
-3567 -9 0
-3567 735 0
-3568 -10 0
-3568 734 0
-824 3566 3567 3568 0
-3569 -12 0
-3569 860 0
-3570 -28 0
-3570 789 0
-3571 -29 0
-3571 788 0
-824 3569 3570 3571 0
-3572 -13 0
-3572 888 0
-3573 -36 0
-3573 797 0
-3574 -37 0
-3574 796 0
-824 3572 3573 3574 0
-3575 -14 0
-3575 909 0
-3576 -43 0
-3576 804 0
-3577 -44 0
-3577 803 0
-824 3575 3576 3577 0
-3578 -15 0
-3578 924 0
-3579 -49 0
-3579 810 0
-3580 -50 0
-3580 809 0
-824 3578 3579 3580 0
-3581 -16 0
-3581 934 0
-3582 -54 0
-3582 815 0
-3583 -55 0
-3583 814 0
-824 3581 3582 3583 0
-3584 -17 0
-3584 940 0
-3585 -58 0
-3585 819 0
-3586 -59 0
-3586 818 0
-824 3584 3585 3586 0
-3587 -18 0
-3587 943 0
-3588 -61 0
-3588 822 0
-3589 -62 0
-3589 821 0
-824 3587 3588 3589 0
-3590 -21 0
-3590 946 0
-3591 -65 0
-3591 826 0
-3592 -66 0
-3592 825 0
-824 3590 3591 3592 0
-3593 -1 0
-3593 780 0
-3594 -9 0
-3594 736 0
-3595 -11 0
-3595 734 0
-825 3593 3594 3595 0
-3596 -12 0
-3596 861 0
-3597 -28 0
-3597 790 0
-3598 -30 0
-3598 788 0
-825 3596 3597 3598 0
-3599 -13 0
-3599 889 0
-3600 -36 0
-3600 798 0
-3601 -38 0
-3601 796 0
-825 3599 3600 3601 0
-3602 -14 0
-3602 910 0
-3603 -43 0
-3603 805 0
-3604 -45 0
-3604 803 0
-825 3602 3603 3604 0
-3605 -15 0
-3605 925 0
-3606 -49 0
-3606 811 0
-3607 -51 0
-3607 809 0
-825 3605 3606 3607 0
-3608 -16 0
-3608 935 0
-3609 -54 0
-3609 816 0
-3610 -56 0
-3610 814 0
-825 3608 3609 3610 0
-3611 -17 0
-3611 941 0
-3612 -58 0
-3612 820 0
-3613 -60 0
-3613 818 0
-825 3611 3612 3613 0
-3614 -18 0
-3614 944 0
-3615 -61 0
-3615 823 0
-3616 -63 0
-3616 821 0
-825 3614 3615 3616 0
-3617 -20 0
-3617 946 0
-3618 -64 0
-3618 826 0
-3619 -66 0
-3619 824 0
-825 3617 3618 3619 0
-3620 -1 0
-3620 781 0
-3621 -10 0
-3621 736 0
-3622 -11 0
-3622 735 0
-826 3620 3621 3622 0
-3623 -12 0
-3623 862 0
-3624 -29 0
-3624 790 0
-3625 -30 0
-3625 789 0
-826 3623 3624 3625 0
-3626 -13 0
-3626 890 0
-3627 -37 0
-3627 798 0
-3628 -38 0
-3628 797 0
-826 3626 3627 3628 0
-3629 -14 0
-3629 911 0
-3630 -44 0
-3630 805 0
-3631 -45 0
-3631 804 0
-826 3629 3630 3631 0
-3632 -15 0
-3632 926 0
-3633 -50 0
-3633 811 0
-3634 -51 0
-3634 810 0
-826 3632 3633 3634 0
-3635 -16 0
-3635 936 0
-3636 -55 0
-3636 816 0
-3637 -56 0
-3637 815 0
-826 3635 3636 3637 0
-3638 -17 0
-3638 942 0
-3639 -59 0
-3639 820 0
-3640 -60 0
-3640 819 0
-826 3638 3639 3640 0
-3641 -18 0
-3641 945 0
-3642 -62 0
-3642 823 0
-3643 -63 0
-3643 822 0
-826 3641 3642 3643 0
-3644 -19 0
-3644 946 0
-3645 -64 0
-3645 825 0
-3646 -65 0
-3646 824 0
-826 3644 3645 3646 0
-3647 -2 0
-3647 746 0
-3648 -3 0
-3648 738 0
-3649 -4 0
-3649 737 0
-827 3647 3648 3649 0
-3650 -12 0
-3650 791 0
-3651 -13 0
-3651 783 0
-3652 -14 0
-3652 782 0
-827 3650 3651 3652 0
-3653 -24 0
-3653 863 0
-3654 -32 0
-3654 835 0
-3655 -39 0
-3655 828 0
-827 3653 3654 3655 0
-3656 -25 0
-3656 864 0
-3657 -33 0
-3657 836 0
-3658 -40 0
-3658 829 0
-827 3656 3657 3658 0
-3659 -26 0
-3659 865 0
-3660 -34 0
-3660 837 0
-3661 -41 0
-3661 830 0
-827 3659 3660 3661 0
-3662 -27 0
-3662 866 0
-3663 -35 0
-3663 838 0
-3664 -42 0
-3664 831 0
-827 3662 3663 3664 0
-3665 -28 0
-3665 867 0
-3666 -36 0
-3666 839 0
-3667 -43 0
-3667 832 0
-827 3665 3666 3667 0
-3668 -29 0
-3668 868 0
-3669 -37 0
-3669 840 0
-3670 -44 0
-3670 833 0
-827 3668 3669 3670 0
-3671 -30 0
-3671 869 0
-3672 -38 0
-3672 841 0
-3673 -45 0
-3673 834 0
-827 3671 3672 3673 0
-3674 -2 0
-3674 747 0
-3675 -3 0
-3675 739 0
-3676 -5 0
-3676 737 0
-828 3674 3675 3676 0
-3677 -12 0
-3677 792 0
-3678 -13 0
-3678 784 0
-3679 -15 0
-3679 782 0
-828 3677 3678 3679 0
-3680 -23 0
-3680 863 0
-3681 -31 0
-3681 835 0
-3682 -39 0
-3682 827 0
-828 3680 3681 3682 0
-3683 -25 0
-3683 870 0
-3684 -33 0
-3684 842 0
-3685 -46 0
-3685 829 0
-828 3683 3684 3685 0
-3686 -26 0
-3686 871 0
-3687 -34 0
-3687 843 0
-3688 -47 0
-3688 830 0
-828 3686 3687 3688 0
-3689 -27 0
-3689 872 0
-3690 -35 0
-3690 844 0
-3691 -48 0
-3691 831 0
-828 3689 3690 3691 0
-3692 -28 0
-3692 873 0
-3693 -36 0
-3693 845 0
-3694 -49 0
-3694 832 0
-828 3692 3693 3694 0
-3695 -29 0
-3695 874 0
-3696 -37 0
-3696 846 0
-3697 -50 0
-3697 833 0
-828 3695 3696 3697 0
-3698 -30 0
-3698 875 0
-3699 -38 0
-3699 847 0
-3700 -51 0
-3700 834 0
-828 3698 3699 3700 0
-3701 -2 0
-3701 748 0
-3702 -3 0
-3702 740 0
-3703 -6 0
-3703 737 0
-829 3701 3702 3703 0
-3704 -12 0
-3704 793 0
-3705 -13 0
-3705 785 0
-3706 -16 0
-3706 782 0
-829 3704 3705 3706 0
-3707 -23 0
-3707 864 0
-3708 -31 0
-3708 836 0
-3709 -40 0
-3709 827 0
-829 3707 3708 3709 0
-3710 -24 0
-3710 870 0
-3711 -32 0
-3711 842 0
-3712 -46 0
-3712 828 0
-829 3710 3711 3712 0
-3713 -26 0
-3713 876 0
-3714 -34 0
-3714 848 0
-3715 -52 0
-3715 830 0
-829 3713 3714 3715 0
-3716 -27 0
-3716 877 0
-3717 -35 0
-3717 849 0
-3718 -53 0
-3718 831 0
-829 3716 3717 3718 0
-3719 -28 0
-3719 878 0
-3720 -36 0
-3720 850 0
-3721 -54 0
-3721 832 0
-829 3719 3720 3721 0
-3722 -29 0
-3722 879 0
-3723 -37 0
-3723 851 0
-3724 -55 0
-3724 833 0
-829 3722 3723 3724 0
-3725 -30 0
-3725 880 0
-3726 -38 0
-3726 852 0
-3727 -56 0
-3727 834 0
-829 3725 3726 3727 0
-3728 -2 0
-3728 749 0
-3729 -3 0
-3729 741 0
-3730 -7 0
-3730 737 0
-830 3728 3729 3730 0
-3731 -12 0
-3731 794 0
-3732 -13 0
-3732 786 0
-3733 -17 0
-3733 782 0
-830 3731 3732 3733 0
-3734 -23 0
-3734 865 0
-3735 -31 0
-3735 837 0
-3736 -41 0
-3736 827 0
-830 3734 3735 3736 0
-3737 -24 0
-3737 871 0
-3738 -32 0
-3738 843 0
-3739 -47 0
-3739 828 0
-830 3737 3738 3739 0
-3740 -25 0
-3740 876 0
-3741 -33 0
-3741 848 0
-3742 -52 0
-3742 829 0
-830 3740 3741 3742 0
-3743 -27 0
-3743 881 0
-3744 -35 0
-3744 853 0
-3745 -57 0
-3745 831 0
-830 3743 3744 3745 0
-3746 -28 0
-3746 882 0
-3747 -36 0
-3747 854 0
-3748 -58 0
-3748 832 0
-830 3746 3747 3748 0
-3749 -29 0
-3749 883 0
-3750 -37 0
-3750 855 0
-3751 -59 0
-3751 833 0
-830 3749 3750 3751 0
-3752 -30 0
-3752 884 0
-3753 -38 0
-3753 856 0
-3754 -60 0
-3754 834 0
-830 3752 3753 3754 0
-3755 -2 0
-3755 750 0
-3756 -3 0
-3756 742 0
-3757 -8 0
-3757 737 0
-831 3755 3756 3757 0
-3758 -12 0
-3758 795 0
-3759 -13 0
-3759 787 0
-3760 -18 0
-3760 782 0
-831 3758 3759 3760 0
-3761 -23 0
-3761 866 0
-3762 -31 0
-3762 838 0
-3763 -42 0
-3763 827 0
-831 3761 3762 3763 0
-3764 -24 0
-3764 872 0
-3765 -32 0
-3765 844 0
-3766 -48 0
-3766 828 0
-831 3764 3765 3766 0
-3767 -25 0
-3767 877 0
-3768 -33 0
-3768 849 0
-3769 -53 0
-3769 829 0
-831 3767 3768 3769 0
-3770 -26 0
-3770 881 0
-3771 -34 0
-3771 853 0
-3772 -57 0
-3772 830 0
-831 3770 3771 3772 0
-3773 -28 0
-3773 885 0
-3774 -36 0
-3774 857 0
-3775 -61 0
-3775 832 0
-831 3773 3774 3775 0
-3776 -29 0
-3776 886 0
-3777 -37 0
-3777 858 0
-3778 -62 0
-3778 833 0
-831 3776 3777 3778 0
-3779 -30 0
-3779 887 0
-3780 -38 0
-3780 859 0
-3781 -63 0
-3781 834 0
-831 3779 3780 3781 0
-3782 -2 0
-3782 751 0
-3783 -3 0
-3783 743 0
-3784 -9 0
-3784 737 0
-832 3782 3783 3784 0
-3785 -12 0
-3785 796 0
-3786 -13 0
-3786 788 0
-3787 -19 0
-3787 782 0
-832 3785 3786 3787 0
-3788 -23 0
-3788 867 0
-3789 -31 0
-3789 839 0
-3790 -43 0
-3790 827 0
-832 3788 3789 3790 0
-3791 -24 0
-3791 873 0
-3792 -32 0
-3792 845 0
-3793 -49 0
-3793 828 0
-832 3791 3792 3793 0
-3794 -25 0
-3794 878 0
-3795 -33 0
-3795 850 0
-3796 -54 0
-3796 829 0
-832 3794 3795 3796 0
-3797 -26 0
-3797 882 0
-3798 -34 0
-3798 854 0
-3799 -58 0
-3799 830 0
-832 3797 3798 3799 0
-3800 -27 0
-3800 885 0
-3801 -35 0
-3801 857 0
-3802 -61 0
-3802 831 0
-832 3800 3801 3802 0
-3803 -29 0
-3803 888 0
-3804 -37 0
-3804 860 0
-3805 -64 0
-3805 833 0
-832 3803 3804 3805 0
-3806 -30 0
-3806 889 0
-3807 -38 0
-3807 861 0
-3808 -65 0
-3808 834 0
-832 3806 3807 3808 0
-3809 -2 0
-3809 752 0
-3810 -3 0
-3810 744 0
-3811 -10 0
-3811 737 0
-833 3809 3810 3811 0
-3812 -12 0
-3812 797 0
-3813 -13 0
-3813 789 0
-3814 -20 0
-3814 782 0
-833 3812 3813 3814 0
-3815 -23 0
-3815 868 0
-3816 -31 0
-3816 840 0
-3817 -44 0
-3817 827 0
-833 3815 3816 3817 0
-3818 -24 0
-3818 874 0
-3819 -32 0
-3819 846 0
-3820 -50 0
-3820 828 0
-833 3818 3819 3820 0
-3821 -25 0
-3821 879 0
-3822 -33 0
-3822 851 0
-3823 -55 0
-3823 829 0
-833 3821 3822 3823 0
-3824 -26 0
-3824 883 0
-3825 -34 0
-3825 855 0
-3826 -59 0
-3826 830 0
-833 3824 3825 3826 0
-3827 -27 0
-3827 886 0
-3828 -35 0
-3828 858 0
-3829 -62 0
-3829 831 0
-833 3827 3828 3829 0
-3830 -28 0
-3830 888 0
-3831 -36 0
-3831 860 0
-3832 -64 0
-3832 832 0
-833 3830 3831 3832 0
-3833 -30 0
-3833 890 0
-3834 -38 0
-3834 862 0
-3835 -66 0
-3835 834 0
-833 3833 3834 3835 0
-3836 -2 0
-3836 753 0
-3837 -3 0
-3837 745 0
-3838 -11 0
-3838 737 0
-834 3836 3837 3838 0
-3839 -12 0
-3839 798 0
-3840 -13 0
-3840 790 0
-3841 -21 0
-3841 782 0
-834 3839 3840 3841 0
-3842 -23 0
-3842 869 0
-3843 -31 0
-3843 841 0
-3844 -45 0
-3844 827 0
-834 3842 3843 3844 0
-3845 -24 0
-3845 875 0
-3846 -32 0
-3846 847 0
-3847 -51 0
-3847 828 0
-834 3845 3846 3847 0
-3848 -25 0
-3848 880 0
-3849 -33 0
-3849 852 0
-3850 -56 0
-3850 829 0
-834 3848 3849 3850 0
-3851 -26 0
-3851 884 0
-3852 -34 0
-3852 856 0
-3853 -60 0
-3853 830 0
-834 3851 3852 3853 0
-3854 -27 0
-3854 887 0
-3855 -35 0
-3855 859 0
-3856 -63 0
-3856 831 0
-834 3854 3855 3856 0
-3857 -28 0
-3857 889 0
-3858 -36 0
-3858 861 0
-3859 -65 0
-3859 832 0
-834 3857 3858 3859 0
-3860 -29 0
-3860 890 0
-3861 -37 0
-3861 862 0
-3862 -66 0
-3862 833 0
-834 3860 3861 3862 0
-3863 -2 0
-3863 754 0
-3864 -4 0
-3864 739 0
-3865 -5 0
-3865 738 0
-835 3863 3864 3865 0
-3866 -12 0
-3866 799 0
-3867 -14 0
-3867 784 0
-3868 -15 0
-3868 783 0
-835 3866 3867 3868 0
-3869 -22 0
-3869 863 0
-3870 -31 0
-3870 828 0
-3871 -32 0
-3871 827 0
-835 3869 3870 3871 0
-3872 -25 0
-3872 891 0
-3873 -40 0
-3873 842 0
-3874 -46 0
-3874 836 0
-835 3872 3873 3874 0
-3875 -26 0
-3875 892 0
-3876 -41 0
-3876 843 0
-3877 -47 0
-3877 837 0
-835 3875 3876 3877 0
-3878 -27 0
-3878 893 0
-3879 -42 0
-3879 844 0
-3880 -48 0
-3880 838 0
-835 3878 3879 3880 0
-3881 -28 0
-3881 894 0
-3882 -43 0
-3882 845 0
-3883 -49 0
-3883 839 0
-835 3881 3882 3883 0
-3884 -29 0
-3884 895 0
-3885 -44 0
-3885 846 0
-3886 -50 0
-3886 840 0
-835 3884 3885 3886 0
-3887 -30 0
-3887 896 0
-3888 -45 0
-3888 847 0
-3889 -51 0
-3889 841 0
-835 3887 3888 3889 0
-3890 -2 0
-3890 755 0
-3891 -4 0
-3891 740 0
-3892 -6 0
-3892 738 0
-836 3890 3891 3892 0
-3893 -12 0
-3893 800 0
-3894 -14 0
-3894 785 0
-3895 -16 0
-3895 783 0
-836 3893 3894 3895 0
-3896 -22 0
-3896 864 0
-3897 -31 0
-3897 829 0
-3898 -33 0
-3898 827 0
-836 3896 3897 3898 0
-3899 -24 0
-3899 891 0
-3900 -39 0
-3900 842 0
-3901 -46 0
-3901 835 0
-836 3899 3900 3901 0
-3902 -26 0
-3902 897 0
-3903 -41 0
-3903 848 0
-3904 -52 0
-3904 837 0
-836 3902 3903 3904 0
-3905 -27 0
-3905 898 0
-3906 -42 0
-3906 849 0
-3907 -53 0
-3907 838 0
-836 3905 3906 3907 0
-3908 -28 0
-3908 899 0
-3909 -43 0
-3909 850 0
-3910 -54 0
-3910 839 0
-836 3908 3909 3910 0
-3911 -29 0
-3911 900 0
-3912 -44 0
-3912 851 0
-3913 -55 0
-3913 840 0
-836 3911 3912 3913 0
-3914 -30 0
-3914 901 0
-3915 -45 0
-3915 852 0
-3916 -56 0
-3916 841 0
-836 3914 3915 3916 0
-3917 -2 0
-3917 756 0
-3918 -4 0
-3918 741 0
-3919 -7 0
-3919 738 0
-837 3917 3918 3919 0
-3920 -12 0
-3920 801 0
-3921 -14 0
-3921 786 0
-3922 -17 0
-3922 783 0
-837 3920 3921 3922 0
-3923 -22 0
-3923 865 0
-3924 -31 0
-3924 830 0
-3925 -34 0
-3925 827 0
-837 3923 3924 3925 0
-3926 -24 0
-3926 892 0
-3927 -39 0
-3927 843 0
-3928 -47 0
-3928 835 0
-837 3926 3927 3928 0
-3929 -25 0
-3929 897 0
-3930 -40 0
-3930 848 0
-3931 -52 0
-3931 836 0
-837 3929 3930 3931 0
-3932 -27 0
-3932 902 0
-3933 -42 0
-3933 853 0
-3934 -57 0
-3934 838 0
-837 3932 3933 3934 0
-3935 -28 0
-3935 903 0
-3936 -43 0
-3936 854 0
-3937 -58 0
-3937 839 0
-837 3935 3936 3937 0
-3938 -29 0
-3938 904 0
-3939 -44 0
-3939 855 0
-3940 -59 0
-3940 840 0
-837 3938 3939 3940 0
-3941 -30 0
-3941 905 0
-3942 -45 0
-3942 856 0
-3943 -60 0
-3943 841 0
-837 3941 3942 3943 0
-3944 -2 0
-3944 757 0
-3945 -4 0
-3945 742 0
-3946 -8 0
-3946 738 0
-838 3944 3945 3946 0
-3947 -12 0
-3947 802 0
-3948 -14 0
-3948 787 0
-3949 -18 0
-3949 783 0
-838 3947 3948 3949 0
-3950 -22 0
-3950 866 0
-3951 -31 0
-3951 831 0
-3952 -35 0
-3952 827 0
-838 3950 3951 3952 0
-3953 -24 0
-3953 893 0
-3954 -39 0
-3954 844 0
-3955 -48 0
-3955 835 0
-838 3953 3954 3955 0
-3956 -25 0
-3956 898 0
-3957 -40 0
-3957 849 0
-3958 -53 0
-3958 836 0
-838 3956 3957 3958 0
-3959 -26 0
-3959 902 0
-3960 -41 0
-3960 853 0
-3961 -57 0
-3961 837 0
-838 3959 3960 3961 0
-3962 -28 0
-3962 906 0
-3963 -43 0
-3963 857 0
-3964 -61 0
-3964 839 0
-838 3962 3963 3964 0
-3965 -29 0
-3965 907 0
-3966 -44 0
-3966 858 0
-3967 -62 0
-3967 840 0
-838 3965 3966 3967 0
-3968 -30 0
-3968 908 0
-3969 -45 0
-3969 859 0
-3970 -63 0
-3970 841 0
-838 3968 3969 3970 0
-3971 -2 0
-3971 758 0
-3972 -4 0
-3972 743 0
-3973 -9 0
-3973 738 0
-839 3971 3972 3973 0
-3974 -12 0
-3974 803 0
-3975 -14 0
-3975 788 0
-3976 -19 0
-3976 783 0
-839 3974 3975 3976 0
-3977 -22 0
-3977 867 0
-3978 -31 0
-3978 832 0
-3979 -36 0
-3979 827 0
-839 3977 3978 3979 0
-3980 -24 0
-3980 894 0
-3981 -39 0
-3981 845 0
-3982 -49 0
-3982 835 0
-839 3980 3981 3982 0
-3983 -25 0
-3983 899 0
-3984 -40 0
-3984 850 0
-3985 -54 0
-3985 836 0
-839 3983 3984 3985 0
-3986 -26 0
-3986 903 0
-3987 -41 0
-3987 854 0
-3988 -58 0
-3988 837 0
-839 3986 3987 3988 0
-3989 -27 0
-3989 906 0
-3990 -42 0
-3990 857 0
-3991 -61 0
-3991 838 0
-839 3989 3990 3991 0
-3992 -29 0
-3992 909 0
-3993 -44 0
-3993 860 0
-3994 -64 0
-3994 840 0
-839 3992 3993 3994 0
-3995 -30 0
-3995 910 0
-3996 -45 0
-3996 861 0
-3997 -65 0
-3997 841 0
-839 3995 3996 3997 0
-3998 -2 0
-3998 759 0
-3999 -4 0
-3999 744 0
-4000 -10 0
-4000 738 0
-840 3998 3999 4000 0
-4001 -12 0
-4001 804 0
-4002 -14 0
-4002 789 0
-4003 -20 0
-4003 783 0
-840 4001 4002 4003 0
-4004 -22 0
-4004 868 0
-4005 -31 0
-4005 833 0
-4006 -37 0
-4006 827 0
-840 4004 4005 4006 0
-4007 -24 0
-4007 895 0
-4008 -39 0
-4008 846 0
-4009 -50 0
-4009 835 0
-840 4007 4008 4009 0
-4010 -25 0
-4010 900 0
-4011 -40 0
-4011 851 0
-4012 -55 0
-4012 836 0
-840 4010 4011 4012 0
-4013 -26 0
-4013 904 0
-4014 -41 0
-4014 855 0
-4015 -59 0
-4015 837 0
-840 4013 4014 4015 0
-4016 -27 0
-4016 907 0
-4017 -42 0
-4017 858 0
-4018 -62 0
-4018 838 0
-840 4016 4017 4018 0
-4019 -28 0
-4019 909 0
-4020 -43 0
-4020 860 0
-4021 -64 0
-4021 839 0
-840 4019 4020 4021 0
-4022 -30 0
-4022 911 0
-4023 -45 0
-4023 862 0
-4024 -66 0
-4024 841 0
-840 4022 4023 4024 0
-4025 -2 0
-4025 760 0
-4026 -4 0
-4026 745 0
-4027 -11 0
-4027 738 0
-841 4025 4026 4027 0
-4028 -12 0
-4028 805 0
-4029 -14 0
-4029 790 0
-4030 -21 0
-4030 783 0
-841 4028 4029 4030 0
-4031 -22 0
-4031 869 0
-4032 -31 0
-4032 834 0
-4033 -38 0
-4033 827 0
-841 4031 4032 4033 0
-4034 -24 0
-4034 896 0
-4035 -39 0
-4035 847 0
-4036 -51 0
-4036 835 0
-841 4034 4035 4036 0
-4037 -25 0
-4037 901 0
-4038 -40 0
-4038 852 0
-4039 -56 0
-4039 836 0
-841 4037 4038 4039 0
-4040 -26 0
-4040 905 0
-4041 -41 0
-4041 856 0
-4042 -60 0
-4042 837 0
-841 4040 4041 4042 0
-4043 -27 0
-4043 908 0
-4044 -42 0
-4044 859 0
-4045 -63 0
-4045 838 0
-841 4043 4044 4045 0
-4046 -28 0
-4046 910 0
-4047 -43 0
-4047 861 0
-4048 -65 0
-4048 839 0
-841 4046 4047 4048 0
-4049 -29 0
-4049 911 0
-4050 -44 0
-4050 862 0
-4051 -66 0
-4051 840 0
-841 4049 4050 4051 0
-4052 -2 0
-4052 761 0
-4053 -5 0
-4053 740 0
-4054 -6 0
-4054 739 0
-842 4052 4053 4054 0
-4055 -12 0
-4055 806 0
-4056 -15 0
-4056 785 0
-4057 -16 0
-4057 784 0
-842 4055 4056 4057 0
-4058 -22 0
-4058 870 0
-4059 -32 0
-4059 829 0
-4060 -33 0
-4060 828 0
-842 4058 4059 4060 0
-4061 -23 0
-4061 891 0
-4062 -39 0
-4062 836 0
-4063 -40 0
-4063 835 0
-842 4061 4062 4063 0
-4064 -26 0
-4064 912 0
-4065 -47 0
-4065 848 0
-4066 -52 0
-4066 843 0
-842 4064 4065 4066 0
-4067 -27 0
-4067 913 0
-4068 -48 0
-4068 849 0
-4069 -53 0
-4069 844 0
-842 4067 4068 4069 0
-4070 -28 0
-4070 914 0
-4071 -49 0
-4071 850 0
-4072 -54 0
-4072 845 0
-842 4070 4071 4072 0
-4073 -29 0
-4073 915 0
-4074 -50 0
-4074 851 0
-4075 -55 0
-4075 846 0
-842 4073 4074 4075 0
-4076 -30 0
-4076 916 0
-4077 -51 0
-4077 852 0
-4078 -56 0
-4078 847 0
-842 4076 4077 4078 0
-4079 -2 0
-4079 762 0
-4080 -5 0
-4080 741 0
-4081 -7 0
-4081 739 0
-843 4079 4080 4081 0
-4082 -12 0
-4082 807 0
-4083 -15 0
-4083 786 0
-4084 -17 0
-4084 784 0
-843 4082 4083 4084 0
-4085 -22 0
-4085 871 0
-4086 -32 0
-4086 830 0
-4087 -34 0
-4087 828 0
-843 4085 4086 4087 0
-4088 -23 0
-4088 892 0
-4089 -39 0
-4089 837 0
-4090 -41 0
-4090 835 0
-843 4088 4089 4090 0
-4091 -25 0
-4091 912 0
-4092 -46 0
-4092 848 0
-4093 -52 0
-4093 842 0
-843 4091 4092 4093 0
-4094 -27 0
-4094 917 0
-4095 -48 0
-4095 853 0
-4096 -57 0
-4096 844 0
-843 4094 4095 4096 0
-4097 -28 0
-4097 918 0
-4098 -49 0
-4098 854 0
-4099 -58 0
-4099 845 0
-843 4097 4098 4099 0
-4100 -29 0
-4100 919 0
-4101 -50 0
-4101 855 0
-4102 -59 0
-4102 846 0
-843 4100 4101 4102 0
-4103 -30 0
-4103 920 0
-4104 -51 0
-4104 856 0
-4105 -60 0
-4105 847 0
-843 4103 4104 4105 0
-4106 -2 0
-4106 763 0
-4107 -5 0
-4107 742 0
-4108 -8 0
-4108 739 0
-844 4106 4107 4108 0
-4109 -12 0
-4109 808 0
-4110 -15 0
-4110 787 0
-4111 -18 0
-4111 784 0
-844 4109 4110 4111 0
-4112 -22 0
-4112 872 0
-4113 -32 0
-4113 831 0
-4114 -35 0
-4114 828 0
-844 4112 4113 4114 0
-4115 -23 0
-4115 893 0
-4116 -39 0
-4116 838 0
-4117 -42 0
-4117 835 0
-844 4115 4116 4117 0
-4118 -25 0
-4118 913 0
-4119 -46 0
-4119 849 0
-4120 -53 0
-4120 842 0
-844 4118 4119 4120 0
-4121 -26 0
-4121 917 0
-4122 -47 0
-4122 853 0
-4123 -57 0
-4123 843 0
-844 4121 4122 4123 0
-4124 -28 0
-4124 921 0
-4125 -49 0
-4125 857 0
-4126 -61 0
-4126 845 0
-844 4124 4125 4126 0
-4127 -29 0
-4127 922 0
-4128 -50 0
-4128 858 0
-4129 -62 0
-4129 846 0
-844 4127 4128 4129 0
-4130 -30 0
-4130 923 0
-4131 -51 0
-4131 859 0
-4132 -63 0
-4132 847 0
-844 4130 4131 4132 0
-4133 -2 0
-4133 764 0
-4134 -5 0
-4134 743 0
-4135 -9 0
-4135 739 0
-845 4133 4134 4135 0
-4136 -12 0
-4136 809 0
-4137 -15 0
-4137 788 0
-4138 -19 0
-4138 784 0
-845 4136 4137 4138 0
-4139 -22 0
-4139 873 0
-4140 -32 0
-4140 832 0
-4141 -36 0
-4141 828 0
-845 4139 4140 4141 0
-4142 -23 0
-4142 894 0
-4143 -39 0
-4143 839 0
-4144 -43 0
-4144 835 0
-845 4142 4143 4144 0
-4145 -25 0
-4145 914 0
-4146 -46 0
-4146 850 0
-4147 -54 0
-4147 842 0
-845 4145 4146 4147 0
-4148 -26 0
-4148 918 0
-4149 -47 0
-4149 854 0
-4150 -58 0
-4150 843 0
-845 4148 4149 4150 0
-4151 -27 0
-4151 921 0
-4152 -48 0
-4152 857 0
-4153 -61 0
-4153 844 0
-845 4151 4152 4153 0
-4154 -29 0
-4154 924 0
-4155 -50 0
-4155 860 0
-4156 -64 0
-4156 846 0
-845 4154 4155 4156 0
-4157 -30 0
-4157 925 0
-4158 -51 0
-4158 861 0
-4159 -65 0
-4159 847 0
-845 4157 4158 4159 0
-4160 -2 0
-4160 765 0
-4161 -5 0
-4161 744 0
-4162 -10 0
-4162 739 0
-846 4160 4161 4162 0
-4163 -12 0
-4163 810 0
-4164 -15 0
-4164 789 0
-4165 -20 0
-4165 784 0
-846 4163 4164 4165 0
-4166 -22 0
-4166 874 0
-4167 -32 0
-4167 833 0
-4168 -37 0
-4168 828 0
-846 4166 4167 4168 0
-4169 -23 0
-4169 895 0
-4170 -39 0
-4170 840 0
-4171 -44 0
-4171 835 0
-846 4169 4170 4171 0
-4172 -25 0
-4172 915 0
-4173 -46 0
-4173 851 0
-4174 -55 0
-4174 842 0
-846 4172 4173 4174 0
-4175 -26 0
-4175 919 0
-4176 -47 0
-4176 855 0
-4177 -59 0
-4177 843 0
-846 4175 4176 4177 0
-4178 -27 0
-4178 922 0
-4179 -48 0
-4179 858 0
-4180 -62 0
-4180 844 0
-846 4178 4179 4180 0
-4181 -28 0
-4181 924 0
-4182 -49 0
-4182 860 0
-4183 -64 0
-4183 845 0
-846 4181 4182 4183 0
-4184 -30 0
-4184 926 0
-4185 -51 0
-4185 862 0
-4186 -66 0
-4186 847 0
-846 4184 4185 4186 0
-4187 -2 0
-4187 766 0
-4188 -5 0
-4188 745 0
-4189 -11 0
-4189 739 0
-847 4187 4188 4189 0
-4190 -12 0
-4190 811 0
-4191 -15 0
-4191 790 0
-4192 -21 0
-4192 784 0
-847 4190 4191 4192 0
-4193 -22 0
-4193 875 0
-4194 -32 0
-4194 834 0
-4195 -38 0
-4195 828 0
-847 4193 4194 4195 0
-4196 -23 0
-4196 896 0
-4197 -39 0
-4197 841 0
-4198 -45 0
-4198 835 0
-847 4196 4197 4198 0
-4199 -25 0
-4199 916 0
-4200 -46 0
-4200 852 0
-4201 -56 0
-4201 842 0
-847 4199 4200 4201 0
-4202 -26 0
-4202 920 0
-4203 -47 0
-4203 856 0
-4204 -60 0
-4204 843 0
-847 4202 4203 4204 0
-4205 -27 0
-4205 923 0
-4206 -48 0
-4206 859 0
-4207 -63 0
-4207 844 0
-847 4205 4206 4207 0
-4208 -28 0
-4208 925 0
-4209 -49 0
-4209 861 0
-4210 -65 0
-4210 845 0
-847 4208 4209 4210 0
-4211 -29 0
-4211 926 0
-4212 -50 0
-4212 862 0
-4213 -66 0
-4213 846 0
-847 4211 4212 4213 0
-4214 -2 0
-4214 767 0
-4215 -6 0
-4215 741 0
-4216 -7 0
-4216 740 0
-848 4214 4215 4216 0
-4217 -12 0
-4217 812 0
-4218 -16 0
-4218 786 0
-4219 -17 0
-4219 785 0
-848 4217 4218 4219 0
-4220 -22 0
-4220 876 0
-4221 -33 0
-4221 830 0
-4222 -34 0
-4222 829 0
-848 4220 4221 4222 0
-4223 -23 0
-4223 897 0
-4224 -40 0
-4224 837 0
-4225 -41 0
-4225 836 0
-848 4223 4224 4225 0
-4226 -24 0
-4226 912 0
-4227 -46 0
-4227 843 0
-4228 -47 0
-4228 842 0
-848 4226 4227 4228 0
-4229 -27 0
-4229 927 0
-4230 -53 0
-4230 853 0
-4231 -57 0
-4231 849 0
-848 4229 4230 4231 0
-4232 -28 0
-4232 928 0
-4233 -54 0
-4233 854 0
-4234 -58 0
-4234 850 0
-848 4232 4233 4234 0
-4235 -29 0
-4235 929 0
-4236 -55 0
-4236 855 0
-4237 -59 0
-4237 851 0
-848 4235 4236 4237 0
-4238 -30 0
-4238 930 0
-4239 -56 0
-4239 856 0
-4240 -60 0
-4240 852 0
-848 4238 4239 4240 0
-4241 -2 0
-4241 768 0
-4242 -6 0
-4242 742 0
-4243 -8 0
-4243 740 0
-849 4241 4242 4243 0
-4244 -12 0
-4244 813 0
-4245 -16 0
-4245 787 0
-4246 -18 0
-4246 785 0
-849 4244 4245 4246 0
-4247 -22 0
-4247 877 0
-4248 -33 0
-4248 831 0
-4249 -35 0
-4249 829 0
-849 4247 4248 4249 0
-4250 -23 0
-4250 898 0
-4251 -40 0
-4251 838 0
-4252 -42 0
-4252 836 0
-849 4250 4251 4252 0
-4253 -24 0
-4253 913 0
-4254 -46 0
-4254 844 0
-4255 -48 0
-4255 842 0
-849 4253 4254 4255 0
-4256 -26 0
-4256 927 0
-4257 -52 0
-4257 853 0
-4258 -57 0
-4258 848 0
-849 4256 4257 4258 0
-4259 -28 0
-4259 931 0
-4260 -54 0
-4260 857 0
-4261 -61 0
-4261 850 0
-849 4259 4260 4261 0
-4262 -29 0
-4262 932 0
-4263 -55 0
-4263 858 0
-4264 -62 0
-4264 851 0
-849 4262 4263 4264 0
-4265 -30 0
-4265 933 0
-4266 -56 0
-4266 859 0
-4267 -63 0
-4267 852 0
-849 4265 4266 4267 0
-4268 -2 0
-4268 769 0
-4269 -6 0
-4269 743 0
-4270 -9 0
-4270 740 0
-850 4268 4269 4270 0
-4271 -12 0
-4271 814 0
-4272 -16 0
-4272 788 0
-4273 -19 0
-4273 785 0
-850 4271 4272 4273 0
-4274 -22 0
-4274 878 0
-4275 -33 0
-4275 832 0
-4276 -36 0
-4276 829 0
-850 4274 4275 4276 0
-4277 -23 0
-4277 899 0
-4278 -40 0
-4278 839 0
-4279 -43 0
-4279 836 0
-850 4277 4278 4279 0
-4280 -24 0
-4280 914 0
-4281 -46 0
-4281 845 0
-4282 -49 0
-4282 842 0
-850 4280 4281 4282 0
-4283 -26 0
-4283 928 0
-4284 -52 0
-4284 854 0
-4285 -58 0
-4285 848 0
-850 4283 4284 4285 0
-4286 -27 0
-4286 931 0
-4287 -53 0
-4287 857 0
-4288 -61 0
-4288 849 0
-850 4286 4287 4288 0
-4289 -29 0
-4289 934 0
-4290 -55 0
-4290 860 0
-4291 -64 0
-4291 851 0
-850 4289 4290 4291 0
-4292 -30 0
-4292 935 0
-4293 -56 0
-4293 861 0
-4294 -65 0
-4294 852 0
-850 4292 4293 4294 0
-4295 -2 0
-4295 770 0
-4296 -6 0
-4296 744 0
-4297 -10 0
-4297 740 0
-851 4295 4296 4297 0
-4298 -12 0
-4298 815 0
-4299 -16 0
-4299 789 0
-4300 -20 0
-4300 785 0
-851 4298 4299 4300 0
-4301 -22 0
-4301 879 0
-4302 -33 0
-4302 833 0
-4303 -37 0
-4303 829 0
-851 4301 4302 4303 0
-4304 -23 0
-4304 900 0
-4305 -40 0
-4305 840 0
-4306 -44 0
-4306 836 0
-851 4304 4305 4306 0
-4307 -24 0
-4307 915 0
-4308 -46 0
-4308 846 0
-4309 -50 0
-4309 842 0
-851 4307 4308 4309 0
-4310 -26 0
-4310 929 0
-4311 -52 0
-4311 855 0
-4312 -59 0
-4312 848 0
-851 4310 4311 4312 0
-4313 -27 0
-4313 932 0
-4314 -53 0
-4314 858 0
-4315 -62 0
-4315 849 0
-851 4313 4314 4315 0
-4316 -28 0
-4316 934 0
-4317 -54 0
-4317 860 0
-4318 -64 0
-4318 850 0
-851 4316 4317 4318 0
-4319 -30 0
-4319 936 0
-4320 -56 0
-4320 862 0
-4321 -66 0
-4321 852 0
-851 4319 4320 4321 0
-4322 -2 0
-4322 771 0
-4323 -6 0
-4323 745 0
-4324 -11 0
-4324 740 0
-852 4322 4323 4324 0
-4325 -12 0
-4325 816 0
-4326 -16 0
-4326 790 0
-4327 -21 0
-4327 785 0
-852 4325 4326 4327 0
-4328 -22 0
-4328 880 0
-4329 -33 0
-4329 834 0
-4330 -38 0
-4330 829 0
-852 4328 4329 4330 0
-4331 -23 0
-4331 901 0
-4332 -40 0
-4332 841 0
-4333 -45 0
-4333 836 0
-852 4331 4332 4333 0
-4334 -24 0
-4334 916 0
-4335 -46 0
-4335 847 0
-4336 -51 0
-4336 842 0
-852 4334 4335 4336 0
-4337 -26 0
-4337 930 0
-4338 -52 0
-4338 856 0
-4339 -60 0
-4339 848 0
-852 4337 4338 4339 0
-4340 -27 0
-4340 933 0
-4341 -53 0
-4341 859 0
-4342 -63 0
-4342 849 0
-852 4340 4341 4342 0
-4343 -28 0
-4343 935 0
-4344 -54 0
-4344 861 0
-4345 -65 0
-4345 850 0
-852 4343 4344 4345 0
-4346 -29 0
-4346 936 0
-4347 -55 0
-4347 862 0
-4348 -66 0
-4348 851 0
-852 4346 4347 4348 0
-4349 -2 0
-4349 772 0
-4350 -7 0
-4350 742 0
-4351 -8 0
-4351 741 0
-853 4349 4350 4351 0
-4352 -12 0
-4352 817 0
-4353 -17 0
-4353 787 0
-4354 -18 0
-4354 786 0
-853 4352 4353 4354 0
-4355 -22 0
-4355 881 0
-4356 -34 0
-4356 831 0
-4357 -35 0
-4357 830 0
-853 4355 4356 4357 0
-4358 -23 0
-4358 902 0
-4359 -41 0
-4359 838 0
-4360 -42 0
-4360 837 0
-853 4358 4359 4360 0
-4361 -24 0
-4361 917 0
-4362 -47 0
-4362 844 0
-4363 -48 0
-4363 843 0
-853 4361 4362 4363 0
-4364 -25 0
-4364 927 0
-4365 -52 0
-4365 849 0
-4366 -53 0
-4366 848 0
-853 4364 4365 4366 0
-4367 -28 0
-4367 937 0
-4368 -58 0
-4368 857 0
-4369 -61 0
-4369 854 0
-853 4367 4368 4369 0
-4370 -29 0
-4370 938 0
-4371 -59 0
-4371 858 0
-4372 -62 0
-4372 855 0
-853 4370 4371 4372 0
-4373 -30 0
-4373 939 0
-4374 -60 0
-4374 859 0
-4375 -63 0
-4375 856 0
-853 4373 4374 4375 0
-4376 -2 0
-4376 773 0
-4377 -7 0
-4377 743 0
-4378 -9 0
-4378 741 0
-854 4376 4377 4378 0
-4379 -12 0
-4379 818 0
-4380 -17 0
-4380 788 0
-4381 -19 0
-4381 786 0
-854 4379 4380 4381 0
-4382 -22 0
-4382 882 0
-4383 -34 0
-4383 832 0
-4384 -36 0
-4384 830 0
-854 4382 4383 4384 0
-4385 -23 0
-4385 903 0
-4386 -41 0
-4386 839 0
-4387 -43 0
-4387 837 0
-854 4385 4386 4387 0
-4388 -24 0
-4388 918 0
-4389 -47 0
-4389 845 0
-4390 -49 0
-4390 843 0
-854 4388 4389 4390 0
-4391 -25 0
-4391 928 0
-4392 -52 0
-4392 850 0
-4393 -54 0
-4393 848 0
-854 4391 4392 4393 0
-4394 -27 0
-4394 937 0
-4395 -57 0
-4395 857 0
-4396 -61 0
-4396 853 0
-854 4394 4395 4396 0
-4397 -29 0
-4397 940 0
-4398 -59 0
-4398 860 0
-4399 -64 0
-4399 855 0
-854 4397 4398 4399 0
-4400 -30 0
-4400 941 0
-4401 -60 0
-4401 861 0
-4402 -65 0
-4402 856 0
-854 4400 4401 4402 0
-4403 -2 0
-4403 774 0
-4404 -7 0
-4404 744 0
-4405 -10 0
-4405 741 0
-855 4403 4404 4405 0
-4406 -12 0
-4406 819 0
-4407 -17 0
-4407 789 0
-4408 -20 0
-4408 786 0
-855 4406 4407 4408 0
-4409 -22 0
-4409 883 0
-4410 -34 0
-4410 833 0
-4411 -37 0
-4411 830 0
-855 4409 4410 4411 0
-4412 -23 0
-4412 904 0
-4413 -41 0
-4413 840 0
-4414 -44 0
-4414 837 0
-855 4412 4413 4414 0
-4415 -24 0
-4415 919 0
-4416 -47 0
-4416 846 0
-4417 -50 0
-4417 843 0
-855 4415 4416 4417 0
-4418 -25 0
-4418 929 0
-4419 -52 0
-4419 851 0
-4420 -55 0
-4420 848 0
-855 4418 4419 4420 0
-4421 -27 0
-4421 938 0
-4422 -57 0
-4422 858 0
-4423 -62 0
-4423 853 0
-855 4421 4422 4423 0
-4424 -28 0
-4424 940 0
-4425 -58 0
-4425 860 0
-4426 -64 0
-4426 854 0
-855 4424 4425 4426 0
-4427 -30 0
-4427 942 0
-4428 -60 0
-4428 862 0
-4429 -66 0
-4429 856 0
-855 4427 4428 4429 0
-4430 -2 0
-4430 775 0
-4431 -7 0
-4431 745 0
-4432 -11 0
-4432 741 0
-856 4430 4431 4432 0
-4433 -12 0
-4433 820 0
-4434 -17 0
-4434 790 0
-4435 -21 0
-4435 786 0
-856 4433 4434 4435 0
-4436 -22 0
-4436 884 0
-4437 -34 0
-4437 834 0
-4438 -38 0
-4438 830 0
-856 4436 4437 4438 0
-4439 -23 0
-4439 905 0
-4440 -41 0
-4440 841 0
-4441 -45 0
-4441 837 0
-856 4439 4440 4441 0
-4442 -24 0
-4442 920 0
-4443 -47 0
-4443 847 0
-4444 -51 0
-4444 843 0
-856 4442 4443 4444 0
-4445 -25 0
-4445 930 0
-4446 -52 0
-4446 852 0
-4447 -56 0
-4447 848 0
-856 4445 4446 4447 0
-4448 -27 0
-4448 939 0
-4449 -57 0
-4449 859 0
-4450 -63 0
-4450 853 0
-856 4448 4449 4450 0
-4451 -28 0
-4451 941 0
-4452 -58 0
-4452 861 0
-4453 -65 0
-4453 854 0
-856 4451 4452 4453 0
-4454 -29 0
-4454 942 0
-4455 -59 0
-4455 862 0
-4456 -66 0
-4456 855 0
-856 4454 4455 4456 0
-4457 -2 0
-4457 776 0
-4458 -8 0
-4458 743 0
-4459 -9 0
-4459 742 0
-857 4457 4458 4459 0
-4460 -12 0
-4460 821 0
-4461 -18 0
-4461 788 0
-4462 -19 0
-4462 787 0
-857 4460 4461 4462 0
-4463 -22 0
-4463 885 0
-4464 -35 0
-4464 832 0
-4465 -36 0
-4465 831 0
-857 4463 4464 4465 0
-4466 -23 0
-4466 906 0
-4467 -42 0
-4467 839 0
-4468 -43 0
-4468 838 0
-857 4466 4467 4468 0
-4469 -24 0
-4469 921 0
-4470 -48 0
-4470 845 0
-4471 -49 0
-4471 844 0
-857 4469 4470 4471 0
-4472 -25 0
-4472 931 0
-4473 -53 0
-4473 850 0
-4474 -54 0
-4474 849 0
-857 4472 4473 4474 0
-4475 -26 0
-4475 937 0
-4476 -57 0
-4476 854 0
-4477 -58 0
-4477 853 0
-857 4475 4476 4477 0
-4478 -29 0
-4478 943 0
-4479 -62 0
-4479 860 0
-4480 -64 0
-4480 858 0
-857 4478 4479 4480 0
-4481 -30 0
-4481 944 0
-4482 -63 0
-4482 861 0
-4483 -65 0
-4483 859 0
-857 4481 4482 4483 0
-4484 -2 0
-4484 777 0
-4485 -8 0
-4485 744 0
-4486 -10 0
-4486 742 0
-858 4484 4485 4486 0
-4487 -12 0
-4487 822 0
-4488 -18 0
-4488 789 0
-4489 -20 0
-4489 787 0
-858 4487 4488 4489 0
-4490 -22 0
-4490 886 0
-4491 -35 0
-4491 833 0
-4492 -37 0
-4492 831 0
-858 4490 4491 4492 0
-4493 -23 0
-4493 907 0
-4494 -42 0
-4494 840 0
-4495 -44 0
-4495 838 0
-858 4493 4494 4495 0
-4496 -24 0
-4496 922 0
-4497 -48 0
-4497 846 0
-4498 -50 0
-4498 844 0
-858 4496 4497 4498 0
-4499 -25 0
-4499 932 0
-4500 -53 0
-4500 851 0
-4501 -55 0
-4501 849 0
-858 4499 4500 4501 0
-4502 -26 0
-4502 938 0
-4503 -57 0
-4503 855 0
-4504 -59 0
-4504 853 0
-858 4502 4503 4504 0
-4505 -28 0
-4505 943 0
-4506 -61 0
-4506 860 0
-4507 -64 0
-4507 857 0
-858 4505 4506 4507 0
-4508 -30 0
-4508 945 0
-4509 -63 0
-4509 862 0
-4510 -66 0
-4510 859 0
-858 4508 4509 4510 0
-4511 -2 0
-4511 778 0
-4512 -8 0
-4512 745 0
-4513 -11 0
-4513 742 0
-859 4511 4512 4513 0
-4514 -12 0
-4514 823 0
-4515 -18 0
-4515 790 0
-4516 -21 0
-4516 787 0
-859 4514 4515 4516 0
-4517 -22 0
-4517 887 0
-4518 -35 0
-4518 834 0
-4519 -38 0
-4519 831 0
-859 4517 4518 4519 0
-4520 -23 0
-4520 908 0
-4521 -42 0
-4521 841 0
-4522 -45 0
-4522 838 0
-859 4520 4521 4522 0
-4523 -24 0
-4523 923 0
-4524 -48 0
-4524 847 0
-4525 -51 0
-4525 844 0
-859 4523 4524 4525 0
-4526 -25 0
-4526 933 0
-4527 -53 0
-4527 852 0
-4528 -56 0
-4528 849 0
-859 4526 4527 4528 0
-4529 -26 0
-4529 939 0
-4530 -57 0
-4530 856 0
-4531 -60 0
-4531 853 0
-859 4529 4530 4531 0
-4532 -28 0
-4532 944 0
-4533 -61 0
-4533 861 0
-4534 -65 0
-4534 857 0
-859 4532 4533 4534 0
-4535 -29 0
-4535 945 0
-4536 -62 0
-4536 862 0
-4537 -66 0
-4537 858 0
-859 4535 4536 4537 0
-4538 -2 0
-4538 779 0
-4539 -9 0
-4539 744 0
-4540 -10 0
-4540 743 0
-860 4538 4539 4540 0
-4541 -12 0
-4541 824 0
-4542 -19 0
-4542 789 0
-4543 -20 0
-4543 788 0
-860 4541 4542 4543 0
-4544 -22 0
-4544 888 0
-4545 -36 0
-4545 833 0
-4546 -37 0
-4546 832 0
-860 4544 4545 4546 0
-4547 -23 0
-4547 909 0
-4548 -43 0
-4548 840 0
-4549 -44 0
-4549 839 0
-860 4547 4548 4549 0
-4550 -24 0
-4550 924 0
-4551 -49 0
-4551 846 0
-4552 -50 0
-4552 845 0
-860 4550 4551 4552 0
-4553 -25 0
-4553 934 0
-4554 -54 0
-4554 851 0
-4555 -55 0
-4555 850 0
-860 4553 4554 4555 0
-4556 -26 0
-4556 940 0
-4557 -58 0
-4557 855 0
-4558 -59 0
-4558 854 0
-860 4556 4557 4558 0
-4559 -27 0
-4559 943 0
-4560 -61 0
-4560 858 0
-4561 -62 0
-4561 857 0
-860 4559 4560 4561 0
-4562 -30 0
-4562 946 0
-4563 -65 0
-4563 862 0
-4564 -66 0
-4564 861 0
-860 4562 4563 4564 0
-4565 -2 0
-4565 780 0
-4566 -9 0
-4566 745 0
-4567 -11 0
-4567 743 0
-861 4565 4566 4567 0
-4568 -12 0
-4568 825 0
-4569 -19 0
-4569 790 0
-4570 -21 0
-4570 788 0
-861 4568 4569 4570 0
-4571 -22 0
-4571 889 0
-4572 -36 0
-4572 834 0
-4573 -38 0
-4573 832 0
-861 4571 4572 4573 0
-4574 -23 0
-4574 910 0
-4575 -43 0
-4575 841 0
-4576 -45 0
-4576 839 0
-861 4574 4575 4576 0
-4577 -24 0
-4577 925 0
-4578 -49 0
-4578 847 0
-4579 -51 0
-4579 845 0
-861 4577 4578 4579 0
-4580 -25 0
-4580 935 0
-4581 -54 0
-4581 852 0
-4582 -56 0
-4582 850 0
-861 4580 4581 4582 0
-4583 -26 0
-4583 941 0
-4584 -58 0
-4584 856 0
-4585 -60 0
-4585 854 0
-861 4583 4584 4585 0
-4586 -27 0
-4586 944 0
-4587 -61 0
-4587 859 0
-4588 -63 0
-4588 857 0
-861 4586 4587 4588 0
-4589 -29 0
-4589 946 0
-4590 -64 0
-4590 862 0
-4591 -66 0
-4591 860 0
-861 4589 4590 4591 0
-4592 -2 0
-4592 781 0
-4593 -10 0
-4593 745 0
-4594 -11 0
-4594 744 0
-862 4592 4593 4594 0
-4595 -12 0
-4595 826 0
-4596 -20 0
-4596 790 0
-4597 -21 0
-4597 789 0
-862 4595 4596 4597 0
-4598 -22 0
-4598 890 0
-4599 -37 0
-4599 834 0
-4600 -38 0
-4600 833 0
-862 4598 4599 4600 0
-4601 -23 0
-4601 911 0
-4602 -44 0
-4602 841 0
-4603 -45 0
-4603 840 0
-862 4601 4602 4603 0
-4604 -24 0
-4604 926 0
-4605 -50 0
-4605 847 0
-4606 -51 0
-4606 846 0
-862 4604 4605 4606 0
-4607 -25 0
-4607 936 0
-4608 -55 0
-4608 852 0
-4609 -56 0
-4609 851 0
-862 4607 4608 4609 0
-4610 -26 0
-4610 942 0
-4611 -59 0
-4611 856 0
-4612 -60 0
-4612 855 0
-862 4610 4611 4612 0
-4613 -27 0
-4613 945 0
-4614 -62 0
-4614 859 0
-4615 -63 0
-4615 858 0
-862 4613 4614 4615 0
-4616 -28 0
-4616 946 0
-4617 -64 0
-4617 861 0
-4618 -65 0
-4618 860 0
-862 4616 4617 4618 0
-4619 -3 0
-4619 754 0
-4620 -4 0
-4620 747 0
-4621 -5 0
-4621 746 0
-863 4619 4620 4621 0
-4622 -13 0
-4622 799 0
-4623 -14 0
-4623 792 0
-4624 -15 0
-4624 791 0
-863 4622 4623 4624 0
-4625 -22 0
-4625 835 0
-4626 -23 0
-4626 828 0
-4627 -24 0
-4627 827 0
-863 4625 4626 4627 0
-4628 -33 0
-4628 891 0
-4629 -40 0
-4629 870 0
-4630 -46 0
-4630 864 0
-863 4628 4629 4630 0
-4631 -34 0
-4631 892 0
-4632 -41 0
-4632 871 0
-4633 -47 0
-4633 865 0
-863 4631 4632 4633 0
-4634 -35 0
-4634 893 0
-4635 -42 0
-4635 872 0
-4636 -48 0
-4636 866 0
-863 4634 4635 4636 0
-4637 -36 0
-4637 894 0
-4638 -43 0
-4638 873 0
-4639 -49 0
-4639 867 0
-863 4637 4638 4639 0
-4640 -37 0
-4640 895 0
-4641 -44 0
-4641 874 0
-4642 -50 0
-4642 868 0
-863 4640 4641 4642 0
-4643 -38 0
-4643 896 0
-4644 -45 0
-4644 875 0
-4645 -51 0
-4645 869 0
-863 4643 4644 4645 0
-4646 -3 0
-4646 755 0
-4647 -4 0
-4647 748 0
-4648 -6 0
-4648 746 0
-864 4646 4647 4648 0
-4649 -13 0
-4649 800 0
-4650 -14 0
-4650 793 0
-4651 -16 0
-4651 791 0
-864 4649 4650 4651 0
-4652 -22 0
-4652 836 0
-4653 -23 0
-4653 829 0
-4654 -25 0
-4654 827 0
-864 4652 4653 4654 0
-4655 -32 0
-4655 891 0
-4656 -39 0
-4656 870 0
-4657 -46 0
-4657 863 0
-864 4655 4656 4657 0
-4658 -34 0
-4658 897 0
-4659 -41 0
-4659 876 0
-4660 -52 0
-4660 865 0
-864 4658 4659 4660 0
-4661 -35 0
-4661 898 0
-4662 -42 0
-4662 877 0
-4663 -53 0
-4663 866 0
-864 4661 4662 4663 0
-4664 -36 0
-4664 899 0
-4665 -43 0
-4665 878 0
-4666 -54 0
-4666 867 0
-864 4664 4665 4666 0
-4667 -37 0
-4667 900 0
-4668 -44 0
-4668 879 0
-4669 -55 0
-4669 868 0
-864 4667 4668 4669 0
-4670 -38 0
-4670 901 0
-4671 -45 0
-4671 880 0
-4672 -56 0
-4672 869 0
-864 4670 4671 4672 0
-4673 -3 0
-4673 756 0
-4674 -4 0
-4674 749 0
-4675 -7 0
-4675 746 0
-865 4673 4674 4675 0
-4676 -13 0
-4676 801 0
-4677 -14 0
-4677 794 0
-4678 -17 0
-4678 791 0
-865 4676 4677 4678 0
-4679 -22 0
-4679 837 0
-4680 -23 0
-4680 830 0
-4681 -26 0
-4681 827 0
-865 4679 4680 4681 0
-4682 -32 0
-4682 892 0
-4683 -39 0
-4683 871 0
-4684 -47 0
-4684 863 0
-865 4682 4683 4684 0
-4685 -33 0
-4685 897 0
-4686 -40 0
-4686 876 0
-4687 -52 0
-4687 864 0
-865 4685 4686 4687 0
-4688 -35 0
-4688 902 0
-4689 -42 0
-4689 881 0
-4690 -57 0
-4690 866 0
-865 4688 4689 4690 0
-4691 -36 0
-4691 903 0
-4692 -43 0
-4692 882 0
-4693 -58 0
-4693 867 0
-865 4691 4692 4693 0
-4694 -37 0
-4694 904 0
-4695 -44 0
-4695 883 0
-4696 -59 0
-4696 868 0
-865 4694 4695 4696 0
-4697 -38 0
-4697 905 0
-4698 -45 0
-4698 884 0
-4699 -60 0
-4699 869 0
-865 4697 4698 4699 0
-4700 -3 0
-4700 757 0
-4701 -4 0
-4701 750 0
-4702 -8 0
-4702 746 0
-866 4700 4701 4702 0
-4703 -13 0
-4703 802 0
-4704 -14 0
-4704 795 0
-4705 -18 0
-4705 791 0
-866 4703 4704 4705 0
-4706 -22 0
-4706 838 0
-4707 -23 0
-4707 831 0
-4708 -27 0
-4708 827 0
-866 4706 4707 4708 0
-4709 -32 0
-4709 893 0
-4710 -39 0
-4710 872 0
-4711 -48 0
-4711 863 0
-866 4709 4710 4711 0
-4712 -33 0
-4712 898 0
-4713 -40 0
-4713 877 0
-4714 -53 0
-4714 864 0
-866 4712 4713 4714 0
-4715 -34 0
-4715 902 0
-4716 -41 0
-4716 881 0
-4717 -57 0
-4717 865 0
-866 4715 4716 4717 0
-4718 -36 0
-4718 906 0
-4719 -43 0
-4719 885 0
-4720 -61 0
-4720 867 0
-866 4718 4719 4720 0
-4721 -37 0
-4721 907 0
-4722 -44 0
-4722 886 0
-4723 -62 0
-4723 868 0
-866 4721 4722 4723 0
-4724 -38 0
-4724 908 0
-4725 -45 0
-4725 887 0
-4726 -63 0
-4726 869 0
-866 4724 4725 4726 0
-4727 -3 0
-4727 758 0
-4728 -4 0
-4728 751 0
-4729 -9 0
-4729 746 0
-867 4727 4728 4729 0
-4730 -13 0
-4730 803 0
-4731 -14 0
-4731 796 0
-4732 -19 0
-4732 791 0
-867 4730 4731 4732 0
-4733 -22 0
-4733 839 0
-4734 -23 0
-4734 832 0
-4735 -28 0
-4735 827 0
-867 4733 4734 4735 0
-4736 -32 0
-4736 894 0
-4737 -39 0
-4737 873 0
-4738 -49 0
-4738 863 0
-867 4736 4737 4738 0
-4739 -33 0
-4739 899 0
-4740 -40 0
-4740 878 0
-4741 -54 0
-4741 864 0
-867 4739 4740 4741 0
-4742 -34 0
-4742 903 0
-4743 -41 0
-4743 882 0
-4744 -58 0
-4744 865 0
-867 4742 4743 4744 0
-4745 -35 0
-4745 906 0
-4746 -42 0
-4746 885 0
-4747 -61 0
-4747 866 0
-867 4745 4746 4747 0
-4748 -37 0
-4748 909 0
-4749 -44 0
-4749 888 0
-4750 -64 0
-4750 868 0
-867 4748 4749 4750 0
-4751 -38 0
-4751 910 0
-4752 -45 0
-4752 889 0
-4753 -65 0
-4753 869 0
-867 4751 4752 4753 0
-4754 -3 0
-4754 759 0
-4755 -4 0
-4755 752 0
-4756 -10 0
-4756 746 0
-868 4754 4755 4756 0
-4757 -13 0
-4757 804 0
-4758 -14 0
-4758 797 0
-4759 -20 0
-4759 791 0
-868 4757 4758 4759 0
-4760 -22 0
-4760 840 0
-4761 -23 0
-4761 833 0
-4762 -29 0
-4762 827 0
-868 4760 4761 4762 0
-4763 -32 0
-4763 895 0
-4764 -39 0
-4764 874 0
-4765 -50 0
-4765 863 0
-868 4763 4764 4765 0
-4766 -33 0
-4766 900 0
-4767 -40 0
-4767 879 0
-4768 -55 0
-4768 864 0
-868 4766 4767 4768 0
-4769 -34 0
-4769 904 0
-4770 -41 0
-4770 883 0
-4771 -59 0
-4771 865 0
-868 4769 4770 4771 0
-4772 -35 0
-4772 907 0
-4773 -42 0
-4773 886 0
-4774 -62 0
-4774 866 0
-868 4772 4773 4774 0
-4775 -36 0
-4775 909 0
-4776 -43 0
-4776 888 0
-4777 -64 0
-4777 867 0
-868 4775 4776 4777 0
-4778 -38 0
-4778 911 0
-4779 -45 0
-4779 890 0
-4780 -66 0
-4780 869 0
-868 4778 4779 4780 0
-4781 -3 0
-4781 760 0
-4782 -4 0
-4782 753 0
-4783 -11 0
-4783 746 0
-869 4781 4782 4783 0
-4784 -13 0
-4784 805 0
-4785 -14 0
-4785 798 0
-4786 -21 0
-4786 791 0
-869 4784 4785 4786 0
-4787 -22 0
-4787 841 0
-4788 -23 0
-4788 834 0
-4789 -30 0
-4789 827 0
-869 4787 4788 4789 0
-4790 -32 0
-4790 896 0
-4791 -39 0
-4791 875 0
-4792 -51 0
-4792 863 0
-869 4790 4791 4792 0
-4793 -33 0
-4793 901 0
-4794 -40 0
-4794 880 0
-4795 -56 0
-4795 864 0
-869 4793 4794 4795 0
-4796 -34 0
-4796 905 0
-4797 -41 0
-4797 884 0
-4798 -60 0
-4798 865 0
-869 4796 4797 4798 0
-4799 -35 0
-4799 908 0
-4800 -42 0
-4800 887 0
-4801 -63 0
-4801 866 0
-869 4799 4800 4801 0
-4802 -36 0
-4802 910 0
-4803 -43 0
-4803 889 0
-4804 -65 0
-4804 867 0
-869 4802 4803 4804 0
-4805 -37 0
-4805 911 0
-4806 -44 0
-4806 890 0
-4807 -66 0
-4807 868 0
-869 4805 4806 4807 0
-4808 -3 0
-4808 761 0
-4809 -5 0
-4809 748 0
-4810 -6 0
-4810 747 0
-870 4808 4809 4810 0
-4811 -13 0
-4811 806 0
-4812 -15 0
-4812 793 0
-4813 -16 0
-4813 792 0
-870 4811 4812 4813 0
-4814 -22 0
-4814 842 0
-4815 -24 0
-4815 829 0
-4816 -25 0
-4816 828 0
-870 4814 4815 4816 0
-4817 -31 0
-4817 891 0
-4818 -39 0
-4818 864 0
-4819 -40 0
-4819 863 0
-870 4817 4818 4819 0
-4820 -34 0
-4820 912 0
-4821 -47 0
-4821 876 0
-4822 -52 0
-4822 871 0
-870 4820 4821 4822 0
-4823 -35 0
-4823 913 0
-4824 -48 0
-4824 877 0
-4825 -53 0
-4825 872 0
-870 4823 4824 4825 0
-4826 -36 0
-4826 914 0
-4827 -49 0
-4827 878 0
-4828 -54 0
-4828 873 0
-870 4826 4827 4828 0
-4829 -37 0
-4829 915 0
-4830 -50 0
-4830 879 0
-4831 -55 0
-4831 874 0
-870 4829 4830 4831 0
-4832 -38 0
-4832 916 0
-4833 -51 0
-4833 880 0
-4834 -56 0
-4834 875 0
-870 4832 4833 4834 0
-4835 -3 0
-4835 762 0
-4836 -5 0
-4836 749 0
-4837 -7 0
-4837 747 0
-871 4835 4836 4837 0
-4838 -13 0
-4838 807 0
-4839 -15 0
-4839 794 0
-4840 -17 0
-4840 792 0
-871 4838 4839 4840 0
-4841 -22 0
-4841 843 0
-4842 -24 0
-4842 830 0
-4843 -26 0
-4843 828 0
-871 4841 4842 4843 0
-4844 -31 0
-4844 892 0
-4845 -39 0
-4845 865 0
-4846 -41 0
-4846 863 0
-871 4844 4845 4846 0
-4847 -33 0
-4847 912 0
-4848 -46 0
-4848 876 0
-4849 -52 0
-4849 870 0
-871 4847 4848 4849 0
-4850 -35 0
-4850 917 0
-4851 -48 0
-4851 881 0
-4852 -57 0
-4852 872 0
-871 4850 4851 4852 0
-4853 -36 0
-4853 918 0
-4854 -49 0
-4854 882 0
-4855 -58 0
-4855 873 0
-871 4853 4854 4855 0
-4856 -37 0
-4856 919 0
-4857 -50 0
-4857 883 0
-4858 -59 0
-4858 874 0
-871 4856 4857 4858 0
-4859 -38 0
-4859 920 0
-4860 -51 0
-4860 884 0
-4861 -60 0
-4861 875 0
-871 4859 4860 4861 0
-4862 -3 0
-4862 763 0
-4863 -5 0
-4863 750 0
-4864 -8 0
-4864 747 0
-872 4862 4863 4864 0
-4865 -13 0
-4865 808 0
-4866 -15 0
-4866 795 0
-4867 -18 0
-4867 792 0
-872 4865 4866 4867 0
-4868 -22 0
-4868 844 0
-4869 -24 0
-4869 831 0
-4870 -27 0
-4870 828 0
-872 4868 4869 4870 0
-4871 -31 0
-4871 893 0
-4872 -39 0
-4872 866 0
-4873 -42 0
-4873 863 0
-872 4871 4872 4873 0
-4874 -33 0
-4874 913 0
-4875 -46 0
-4875 877 0
-4876 -53 0
-4876 870 0
-872 4874 4875 4876 0
-4877 -34 0
-4877 917 0
-4878 -47 0
-4878 881 0
-4879 -57 0
-4879 871 0
-872 4877 4878 4879 0
-4880 -36 0
-4880 921 0
-4881 -49 0
-4881 885 0
-4882 -61 0
-4882 873 0
-872 4880 4881 4882 0
-4883 -37 0
-4883 922 0
-4884 -50 0
-4884 886 0
-4885 -62 0
-4885 874 0
-872 4883 4884 4885 0
-4886 -38 0
-4886 923 0
-4887 -51 0
-4887 887 0
-4888 -63 0
-4888 875 0
-872 4886 4887 4888 0
-4889 -3 0
-4889 764 0
-4890 -5 0
-4890 751 0
-4891 -9 0
-4891 747 0
-873 4889 4890 4891 0
-4892 -13 0
-4892 809 0
-4893 -15 0
-4893 796 0
-4894 -19 0
-4894 792 0
-873 4892 4893 4894 0
-4895 -22 0
-4895 845 0
-4896 -24 0
-4896 832 0
-4897 -28 0
-4897 828 0
-873 4895 4896 4897 0
-4898 -31 0
-4898 894 0
-4899 -39 0
-4899 867 0
-4900 -43 0
-4900 863 0
-873 4898 4899 4900 0
-4901 -33 0
-4901 914 0
-4902 -46 0
-4902 878 0
-4903 -54 0
-4903 870 0
-873 4901 4902 4903 0
-4904 -34 0
-4904 918 0
-4905 -47 0
-4905 882 0
-4906 -58 0
-4906 871 0
-873 4904 4905 4906 0
-4907 -35 0
-4907 921 0
-4908 -48 0
-4908 885 0
-4909 -61 0
-4909 872 0
-873 4907 4908 4909 0
-4910 -37 0
-4910 924 0
-4911 -50 0
-4911 888 0
-4912 -64 0
-4912 874 0
-873 4910 4911 4912 0
-4913 -38 0
-4913 925 0
-4914 -51 0
-4914 889 0
-4915 -65 0
-4915 875 0
-873 4913 4914 4915 0
-4916 -3 0
-4916 765 0
-4917 -5 0
-4917 752 0
-4918 -10 0
-4918 747 0
-874 4916 4917 4918 0
-4919 -13 0
-4919 810 0
-4920 -15 0
-4920 797 0
-4921 -20 0
-4921 792 0
-874 4919 4920 4921 0
-4922 -22 0
-4922 846 0
-4923 -24 0
-4923 833 0
-4924 -29 0
-4924 828 0
-874 4922 4923 4924 0
-4925 -31 0
-4925 895 0
-4926 -39 0
-4926 868 0
-4927 -44 0
-4927 863 0
-874 4925 4926 4927 0
-4928 -33 0
-4928 915 0
-4929 -46 0
-4929 879 0
-4930 -55 0
-4930 870 0
-874 4928 4929 4930 0
-4931 -34 0
-4931 919 0
-4932 -47 0
-4932 883 0
-4933 -59 0
-4933 871 0
-874 4931 4932 4933 0
-4934 -35 0
-4934 922 0
-4935 -48 0
-4935 886 0
-4936 -62 0
-4936 872 0
-874 4934 4935 4936 0
-4937 -36 0
-4937 924 0
-4938 -49 0
-4938 888 0
-4939 -64 0
-4939 873 0
-874 4937 4938 4939 0
-4940 -38 0
-4940 926 0
-4941 -51 0
-4941 890 0
-4942 -66 0
-4942 875 0
-874 4940 4941 4942 0
-4943 -3 0
-4943 766 0
-4944 -5 0
-4944 753 0
-4945 -11 0
-4945 747 0
-875 4943 4944 4945 0
-4946 -13 0
-4946 811 0
-4947 -15 0
-4947 798 0
-4948 -21 0
-4948 792 0
-875 4946 4947 4948 0
-4949 -22 0
-4949 847 0
-4950 -24 0
-4950 834 0
-4951 -30 0
-4951 828 0
-875 4949 4950 4951 0
-4952 -31 0
-4952 896 0
-4953 -39 0
-4953 869 0
-4954 -45 0
-4954 863 0
-875 4952 4953 4954 0
-4955 -33 0
-4955 916 0
-4956 -46 0
-4956 880 0
-4957 -56 0
-4957 870 0
-875 4955 4956 4957 0
-4958 -34 0
-4958 920 0
-4959 -47 0
-4959 884 0
-4960 -60 0
-4960 871 0
-875 4958 4959 4960 0
-4961 -35 0
-4961 923 0
-4962 -48 0
-4962 887 0
-4963 -63 0
-4963 872 0
-875 4961 4962 4963 0
-4964 -36 0
-4964 925 0
-4965 -49 0
-4965 889 0
-4966 -65 0
-4966 873 0
-875 4964 4965 4966 0
-4967 -37 0
-4967 926 0
-4968 -50 0
-4968 890 0
-4969 -66 0
-4969 874 0
-875 4967 4968 4969 0
-4970 -3 0
-4970 767 0
-4971 -6 0
-4971 749 0
-4972 -7 0
-4972 748 0
-876 4970 4971 4972 0
-4973 -13 0
-4973 812 0
-4974 -16 0
-4974 794 0
-4975 -17 0
-4975 793 0
-876 4973 4974 4975 0
-4976 -22 0
-4976 848 0
-4977 -25 0
-4977 830 0
-4978 -26 0
-4978 829 0
-876 4976 4977 4978 0
-4979 -31 0
-4979 897 0
-4980 -40 0
-4980 865 0
-4981 -41 0
-4981 864 0
-876 4979 4980 4981 0
-4982 -32 0
-4982 912 0
-4983 -46 0
-4983 871 0
-4984 -47 0
-4984 870 0
-876 4982 4983 4984 0
-4985 -35 0
-4985 927 0
-4986 -53 0
-4986 881 0
-4987 -57 0
-4987 877 0
-876 4985 4986 4987 0
-4988 -36 0
-4988 928 0
-4989 -54 0
-4989 882 0
-4990 -58 0
-4990 878 0
-876 4988 4989 4990 0
-4991 -37 0
-4991 929 0
-4992 -55 0
-4992 883 0
-4993 -59 0
-4993 879 0
-876 4991 4992 4993 0
-4994 -38 0
-4994 930 0
-4995 -56 0
-4995 884 0
-4996 -60 0
-4996 880 0
-876 4994 4995 4996 0
-4997 -3 0
-4997 768 0
-4998 -6 0
-4998 750 0
-4999 -8 0
-4999 748 0
-877 4997 4998 4999 0
-5000 -13 0
-5000 813 0
-5001 -16 0
-5001 795 0
-5002 -18 0
-5002 793 0
-877 5000 5001 5002 0
-5003 -22 0
-5003 849 0
-5004 -25 0
-5004 831 0
-5005 -27 0
-5005 829 0
-877 5003 5004 5005 0
-5006 -31 0
-5006 898 0
-5007 -40 0
-5007 866 0
-5008 -42 0
-5008 864 0
-877 5006 5007 5008 0
-5009 -32 0
-5009 913 0
-5010 -46 0
-5010 872 0
-5011 -48 0
-5011 870 0
-877 5009 5010 5011 0
-5012 -34 0
-5012 927 0
-5013 -52 0
-5013 881 0
-5014 -57 0
-5014 876 0
-877 5012 5013 5014 0
-5015 -36 0
-5015 931 0
-5016 -54 0
-5016 885 0
-5017 -61 0
-5017 878 0
-877 5015 5016 5017 0
-5018 -37 0
-5018 932 0
-5019 -55 0
-5019 886 0
-5020 -62 0
-5020 879 0
-877 5018 5019 5020 0
-5021 -38 0
-5021 933 0
-5022 -56 0
-5022 887 0
-5023 -63 0
-5023 880 0
-877 5021 5022 5023 0
-5024 -3 0
-5024 769 0
-5025 -6 0
-5025 751 0
-5026 -9 0
-5026 748 0
-878 5024 5025 5026 0
-5027 -13 0
-5027 814 0
-5028 -16 0
-5028 796 0
-5029 -19 0
-5029 793 0
-878 5027 5028 5029 0
-5030 -22 0
-5030 850 0
-5031 -25 0
-5031 832 0
-5032 -28 0
-5032 829 0
-878 5030 5031 5032 0
-5033 -31 0
-5033 899 0
-5034 -40 0
-5034 867 0
-5035 -43 0
-5035 864 0
-878 5033 5034 5035 0
-5036 -32 0
-5036 914 0
-5037 -46 0
-5037 873 0
-5038 -49 0
-5038 870 0
-878 5036 5037 5038 0
-5039 -34 0
-5039 928 0
-5040 -52 0
-5040 882 0
-5041 -58 0
-5041 876 0
-878 5039 5040 5041 0
-5042 -35 0
-5042 931 0
-5043 -53 0
-5043 885 0
-5044 -61 0
-5044 877 0
-878 5042 5043 5044 0
-5045 -37 0
-5045 934 0
-5046 -55 0
-5046 888 0
-5047 -64 0
-5047 879 0
-878 5045 5046 5047 0
-5048 -38 0
-5048 935 0
-5049 -56 0
-5049 889 0
-5050 -65 0
-5050 880 0
-878 5048 5049 5050 0
-5051 -3 0
-5051 770 0
-5052 -6 0
-5052 752 0
-5053 -10 0
-5053 748 0
-879 5051 5052 5053 0
-5054 -13 0
-5054 815 0
-5055 -16 0
-5055 797 0
-5056 -20 0
-5056 793 0
-879 5054 5055 5056 0
-5057 -22 0
-5057 851 0
-5058 -25 0
-5058 833 0
-5059 -29 0
-5059 829 0
-879 5057 5058 5059 0
-5060 -31 0
-5060 900 0
-5061 -40 0
-5061 868 0
-5062 -44 0
-5062 864 0
-879 5060 5061 5062 0
-5063 -32 0
-5063 915 0
-5064 -46 0
-5064 874 0
-5065 -50 0
-5065 870 0
-879 5063 5064 5065 0
-5066 -34 0
-5066 929 0
-5067 -52 0
-5067 883 0
-5068 -59 0
-5068 876 0
-879 5066 5067 5068 0
-5069 -35 0
-5069 932 0
-5070 -53 0
-5070 886 0
-5071 -62 0
-5071 877 0
-879 5069 5070 5071 0
-5072 -36 0
-5072 934 0
-5073 -54 0
-5073 888 0
-5074 -64 0
-5074 878 0
-879 5072 5073 5074 0
-5075 -38 0
-5075 936 0
-5076 -56 0
-5076 890 0
-5077 -66 0
-5077 880 0
-879 5075 5076 5077 0
-5078 -3 0
-5078 771 0
-5079 -6 0
-5079 753 0
-5080 -11 0
-5080 748 0
-880 5078 5079 5080 0
-5081 -13 0
-5081 816 0
-5082 -16 0
-5082 798 0
-5083 -21 0
-5083 793 0
-880 5081 5082 5083 0
-5084 -22 0
-5084 852 0
-5085 -25 0
-5085 834 0
-5086 -30 0
-5086 829 0
-880 5084 5085 5086 0
-5087 -31 0
-5087 901 0
-5088 -40 0
-5088 869 0
-5089 -45 0
-5089 864 0
-880 5087 5088 5089 0
-5090 -32 0
-5090 916 0
-5091 -46 0
-5091 875 0
-5092 -51 0
-5092 870 0
-880 5090 5091 5092 0
-5093 -34 0
-5093 930 0
-5094 -52 0
-5094 884 0
-5095 -60 0
-5095 876 0
-880 5093 5094 5095 0
-5096 -35 0
-5096 933 0
-5097 -53 0
-5097 887 0
-5098 -63 0
-5098 877 0
-880 5096 5097 5098 0
-5099 -36 0
-5099 935 0
-5100 -54 0
-5100 889 0
-5101 -65 0
-5101 878 0
-880 5099 5100 5101 0
-5102 -37 0
-5102 936 0
-5103 -55 0
-5103 890 0
-5104 -66 0
-5104 879 0
-880 5102 5103 5104 0
-5105 -3 0
-5105 772 0
-5106 -7 0
-5106 750 0
-5107 -8 0
-5107 749 0
-881 5105 5106 5107 0
-5108 -13 0
-5108 817 0
-5109 -17 0
-5109 795 0
-5110 -18 0
-5110 794 0
-881 5108 5109 5110 0
-5111 -22 0
-5111 853 0
-5112 -26 0
-5112 831 0
-5113 -27 0
-5113 830 0
-881 5111 5112 5113 0
-5114 -31 0
-5114 902 0
-5115 -41 0
-5115 866 0
-5116 -42 0
-5116 865 0
-881 5114 5115 5116 0
-5117 -32 0
-5117 917 0
-5118 -47 0
-5118 872 0
-5119 -48 0
-5119 871 0
-881 5117 5118 5119 0
-5120 -33 0
-5120 927 0
-5121 -52 0
-5121 877 0
-5122 -53 0
-5122 876 0
-881 5120 5121 5122 0
-5123 -36 0
-5123 937 0
-5124 -58 0
-5124 885 0
-5125 -61 0
-5125 882 0
-881 5123 5124 5125 0
-5126 -37 0
-5126 938 0
-5127 -59 0
-5127 886 0
-5128 -62 0
-5128 883 0
-881 5126 5127 5128 0
-5129 -38 0
-5129 939 0
-5130 -60 0
-5130 887 0
-5131 -63 0
-5131 884 0
-881 5129 5130 5131 0
-5132 -3 0
-5132 773 0
-5133 -7 0
-5133 751 0
-5134 -9 0
-5134 749 0
-882 5132 5133 5134 0
-5135 -13 0
-5135 818 0
-5136 -17 0
-5136 796 0
-5137 -19 0
-5137 794 0
-882 5135 5136 5137 0
-5138 -22 0
-5138 854 0
-5139 -26 0
-5139 832 0
-5140 -28 0
-5140 830 0
-882 5138 5139 5140 0
-5141 -31 0
-5141 903 0
-5142 -41 0
-5142 867 0
-5143 -43 0
-5143 865 0
-882 5141 5142 5143 0
-5144 -32 0
-5144 918 0
-5145 -47 0
-5145 873 0
-5146 -49 0
-5146 871 0
-882 5144 5145 5146 0
-5147 -33 0
-5147 928 0
-5148 -52 0
-5148 878 0
-5149 -54 0
-5149 876 0
-882 5147 5148 5149 0
-5150 -35 0
-5150 937 0
-5151 -57 0
-5151 885 0
-5152 -61 0
-5152 881 0
-882 5150 5151 5152 0
-5153 -37 0
-5153 940 0
-5154 -59 0
-5154 888 0
-5155 -64 0
-5155 883 0
-882 5153 5154 5155 0
-5156 -38 0
-5156 941 0
-5157 -60 0
-5157 889 0
-5158 -65 0
-5158 884 0
-882 5156 5157 5158 0
-5159 -3 0
-5159 774 0
-5160 -7 0
-5160 752 0
-5161 -10 0
-5161 749 0
-883 5159 5160 5161 0
-5162 -13 0
-5162 819 0
-5163 -17 0
-5163 797 0
-5164 -20 0
-5164 794 0
-883 5162 5163 5164 0
-5165 -22 0
-5165 855 0
-5166 -26 0
-5166 833 0
-5167 -29 0
-5167 830 0
-883 5165 5166 5167 0
-5168 -31 0
-5168 904 0
-5169 -41 0
-5169 868 0
-5170 -44 0
-5170 865 0
-883 5168 5169 5170 0
-5171 -32 0
-5171 919 0
-5172 -47 0
-5172 874 0
-5173 -50 0
-5173 871 0
-883 5171 5172 5173 0
-5174 -33 0
-5174 929 0
-5175 -52 0
-5175 879 0
-5176 -55 0
-5176 876 0
-883 5174 5175 5176 0
-5177 -35 0
-5177 938 0
-5178 -57 0
-5178 886 0
-5179 -62 0
-5179 881 0
-883 5177 5178 5179 0
-5180 -36 0
-5180 940 0
-5181 -58 0
-5181 888 0
-5182 -64 0
-5182 882 0
-883 5180 5181 5182 0
-5183 -38 0
-5183 942 0
-5184 -60 0
-5184 890 0
-5185 -66 0
-5185 884 0
-883 5183 5184 5185 0
-5186 -3 0
-5186 775 0
-5187 -7 0
-5187 753 0
-5188 -11 0
-5188 749 0
-884 5186 5187 5188 0
-5189 -13 0
-5189 820 0
-5190 -17 0
-5190 798 0
-5191 -21 0
-5191 794 0
-884 5189 5190 5191 0
-5192 -22 0
-5192 856 0
-5193 -26 0
-5193 834 0
-5194 -30 0
-5194 830 0
-884 5192 5193 5194 0
-5195 -31 0
-5195 905 0
-5196 -41 0
-5196 869 0
-5197 -45 0
-5197 865 0
-884 5195 5196 5197 0
-5198 -32 0
-5198 920 0
-5199 -47 0
-5199 875 0
-5200 -51 0
-5200 871 0
-884 5198 5199 5200 0
-5201 -33 0
-5201 930 0
-5202 -52 0
-5202 880 0
-5203 -56 0
-5203 876 0
-884 5201 5202 5203 0
-5204 -35 0
-5204 939 0
-5205 -57 0
-5205 887 0
-5206 -63 0
-5206 881 0
-884 5204 5205 5206 0
-5207 -36 0
-5207 941 0
-5208 -58 0
-5208 889 0
-5209 -65 0
-5209 882 0
-884 5207 5208 5209 0
-5210 -37 0
-5210 942 0
-5211 -59 0
-5211 890 0
-5212 -66 0
-5212 883 0
-884 5210 5211 5212 0
-5213 -3 0
-5213 776 0
-5214 -8 0
-5214 751 0
-5215 -9 0
-5215 750 0
-885 5213 5214 5215 0
-5216 -13 0
-5216 821 0
-5217 -18 0
-5217 796 0
-5218 -19 0
-5218 795 0
-885 5216 5217 5218 0
-5219 -22 0
-5219 857 0
-5220 -27 0
-5220 832 0
-5221 -28 0
-5221 831 0
-885 5219 5220 5221 0
-5222 -31 0
-5222 906 0
-5223 -42 0
-5223 867 0
-5224 -43 0
-5224 866 0
-885 5222 5223 5224 0
-5225 -32 0
-5225 921 0
-5226 -48 0
-5226 873 0
-5227 -49 0
-5227 872 0
-885 5225 5226 5227 0
-5228 -33 0
-5228 931 0
-5229 -53 0
-5229 878 0
-5230 -54 0
-5230 877 0
-885 5228 5229 5230 0
-5231 -34 0
-5231 937 0
-5232 -57 0
-5232 882 0
-5233 -58 0
-5233 881 0
-885 5231 5232 5233 0
-5234 -37 0
-5234 943 0
-5235 -62 0
-5235 888 0
-5236 -64 0
-5236 886 0
-885 5234 5235 5236 0
-5237 -38 0
-5237 944 0
-5238 -63 0
-5238 889 0
-5239 -65 0
-5239 887 0
-885 5237 5238 5239 0
-5240 -3 0
-5240 777 0
-5241 -8 0
-5241 752 0
-5242 -10 0
-5242 750 0
-886 5240 5241 5242 0
-5243 -13 0
-5243 822 0
-5244 -18 0
-5244 797 0
-5245 -20 0
-5245 795 0
-886 5243 5244 5245 0
-5246 -22 0
-5246 858 0
-5247 -27 0
-5247 833 0
-5248 -29 0
-5248 831 0
-886 5246 5247 5248 0
-5249 -31 0
-5249 907 0
-5250 -42 0
-5250 868 0
-5251 -44 0
-5251 866 0
-886 5249 5250 5251 0
-5252 -32 0
-5252 922 0
-5253 -48 0
-5253 874 0
-5254 -50 0
-5254 872 0
-886 5252 5253 5254 0
-5255 -33 0
-5255 932 0
-5256 -53 0
-5256 879 0
-5257 -55 0
-5257 877 0
-886 5255 5256 5257 0
-5258 -34 0
-5258 938 0
-5259 -57 0
-5259 883 0
-5260 -59 0
-5260 881 0
-886 5258 5259 5260 0
-5261 -36 0
-5261 943 0
-5262 -61 0
-5262 888 0
-5263 -64 0
-5263 885 0
-886 5261 5262 5263 0
-5264 -38 0
-5264 945 0
-5265 -63 0
-5265 890 0
-5266 -66 0
-5266 887 0
-886 5264 5265 5266 0
-5267 -3 0
-5267 778 0
-5268 -8 0
-5268 753 0
-5269 -11 0
-5269 750 0
-887 5267 5268 5269 0
-5270 -13 0
-5270 823 0
-5271 -18 0
-5271 798 0
-5272 -21 0
-5272 795 0
-887 5270 5271 5272 0
-5273 -22 0
-5273 859 0
-5274 -27 0
-5274 834 0
-5275 -30 0
-5275 831 0
-887 5273 5274 5275 0
-5276 -31 0
-5276 908 0
-5277 -42 0
-5277 869 0
-5278 -45 0
-5278 866 0
-887 5276 5277 5278 0
-5279 -32 0
-5279 923 0
-5280 -48 0
-5280 875 0
-5281 -51 0
-5281 872 0
-887 5279 5280 5281 0
-5282 -33 0
-5282 933 0
-5283 -53 0
-5283 880 0
-5284 -56 0
-5284 877 0
-887 5282 5283 5284 0
-5285 -34 0
-5285 939 0
-5286 -57 0
-5286 884 0
-5287 -60 0
-5287 881 0
-887 5285 5286 5287 0
-5288 -36 0
-5288 944 0
-5289 -61 0
-5289 889 0
-5290 -65 0
-5290 885 0
-887 5288 5289 5290 0
-5291 -37 0
-5291 945 0
-5292 -62 0
-5292 890 0
-5293 -66 0
-5293 886 0
-887 5291 5292 5293 0
-5294 -3 0
-5294 779 0
-5295 -9 0
-5295 752 0
-5296 -10 0
-5296 751 0
-888 5294 5295 5296 0
-5297 -13 0
-5297 824 0
-5298 -19 0
-5298 797 0
-5299 -20 0
-5299 796 0
-888 5297 5298 5299 0
-5300 -22 0
-5300 860 0
-5301 -28 0
-5301 833 0
-5302 -29 0
-5302 832 0
-888 5300 5301 5302 0
-5303 -31 0
-5303 909 0
-5304 -43 0
-5304 868 0
-5305 -44 0
-5305 867 0
-888 5303 5304 5305 0
-5306 -32 0
-5306 924 0
-5307 -49 0
-5307 874 0
-5308 -50 0
-5308 873 0
-888 5306 5307 5308 0
-5309 -33 0
-5309 934 0
-5310 -54 0
-5310 879 0
-5311 -55 0
-5311 878 0
-888 5309 5310 5311 0
-5312 -34 0
-5312 940 0
-5313 -58 0
-5313 883 0
-5314 -59 0
-5314 882 0
-888 5312 5313 5314 0
-5315 -35 0
-5315 943 0
-5316 -61 0
-5316 886 0
-5317 -62 0
-5317 885 0
-888 5315 5316 5317 0
-5318 -38 0
-5318 946 0
-5319 -65 0
-5319 890 0
-5320 -66 0
-5320 889 0
-888 5318 5319 5320 0
-5321 -3 0
-5321 780 0
-5322 -9 0
-5322 753 0
-5323 -11 0
-5323 751 0
-889 5321 5322 5323 0
-5324 -13 0
-5324 825 0
-5325 -19 0
-5325 798 0
-5326 -21 0
-5326 796 0
-889 5324 5325 5326 0
-5327 -22 0
-5327 861 0
-5328 -28 0
-5328 834 0
-5329 -30 0
-5329 832 0
-889 5327 5328 5329 0
-5330 -31 0
-5330 910 0
-5331 -43 0
-5331 869 0
-5332 -45 0
-5332 867 0
-889 5330 5331 5332 0
-5333 -32 0
-5333 925 0
-5334 -49 0
-5334 875 0
-5335 -51 0
-5335 873 0
-889 5333 5334 5335 0
-5336 -33 0
-5336 935 0
-5337 -54 0
-5337 880 0
-5338 -56 0
-5338 878 0
-889 5336 5337 5338 0
-5339 -34 0
-5339 941 0
-5340 -58 0
-5340 884 0
-5341 -60 0
-5341 882 0
-889 5339 5340 5341 0
-5342 -35 0
-5342 944 0
-5343 -61 0
-5343 887 0
-5344 -63 0
-5344 885 0
-889 5342 5343 5344 0
-5345 -37 0
-5345 946 0
-5346 -64 0
-5346 890 0
-5347 -66 0
-5347 888 0
-889 5345 5346 5347 0
-5348 -3 0
-5348 781 0
-5349 -10 0
-5349 753 0
-5350 -11 0
-5350 752 0
-890 5348 5349 5350 0
-5351 -13 0
-5351 826 0
-5352 -20 0
-5352 798 0
-5353 -21 0
-5353 797 0
-890 5351 5352 5353 0
-5354 -22 0
-5354 862 0
-5355 -29 0
-5355 834 0
-5356 -30 0
-5356 833 0
-890 5354 5355 5356 0
-5357 -31 0
-5357 911 0
-5358 -44 0
-5358 869 0
-5359 -45 0
-5359 868 0
-890 5357 5358 5359 0
-5360 -32 0
-5360 926 0
-5361 -50 0
-5361 875 0
-5362 -51 0
-5362 874 0
-890 5360 5361 5362 0
-5363 -33 0
-5363 936 0
-5364 -55 0
-5364 880 0
-5365 -56 0
-5365 879 0
-890 5363 5364 5365 0
-5366 -34 0
-5366 942 0
-5367 -59 0
-5367 884 0
-5368 -60 0
-5368 883 0
-890 5366 5367 5368 0
-5369 -35 0
-5369 945 0
-5370 -62 0
-5370 887 0
-5371 -63 0
-5371 886 0
-890 5369 5370 5371 0
-5372 -36 0
-5372 946 0
-5373 -64 0
-5373 889 0
-5374 -65 0
-5374 888 0
-890 5372 5373 5374 0
-5375 -4 0
-5375 761 0
-5376 -5 0
-5376 755 0
-5377 -6 0
-5377 754 0
-891 5375 5376 5377 0
-5378 -14 0
-5378 806 0
-5379 -15 0
-5379 800 0
-5380 -16 0
-5380 799 0
-891 5378 5379 5380 0
-5381 -23 0
-5381 842 0
-5382 -24 0
-5382 836 0
-5383 -25 0
-5383 835 0
-891 5381 5382 5383 0
-5384 -31 0
-5384 870 0
-5385 -32 0
-5385 864 0
-5386 -33 0
-5386 863 0
-891 5384 5385 5386 0
-5387 -41 0
-5387 912 0
-5388 -47 0
-5388 897 0
-5389 -52 0
-5389 892 0
-891 5387 5388 5389 0
-5390 -42 0
-5390 913 0
-5391 -48 0
-5391 898 0
-5392 -53 0
-5392 893 0
-891 5390 5391 5392 0
-5393 -43 0
-5393 914 0
-5394 -49 0
-5394 899 0
-5395 -54 0
-5395 894 0
-891 5393 5394 5395 0
-5396 -44 0
-5396 915 0
-5397 -50 0
-5397 900 0
-5398 -55 0
-5398 895 0
-891 5396 5397 5398 0
-5399 -45 0
-5399 916 0
-5400 -51 0
-5400 901 0
-5401 -56 0
-5401 896 0
-891 5399 5400 5401 0
-5402 -4 0
-5402 762 0
-5403 -5 0
-5403 756 0
-5404 -7 0
-5404 754 0
-892 5402 5403 5404 0
-5405 -14 0
-5405 807 0
-5406 -15 0
-5406 801 0
-5407 -17 0
-5407 799 0
-892 5405 5406 5407 0
-5408 -23 0
-5408 843 0
-5409 -24 0
-5409 837 0
-5410 -26 0
-5410 835 0
-892 5408 5409 5410 0
-5411 -31 0
-5411 871 0
-5412 -32 0
-5412 865 0
-5413 -34 0
-5413 863 0
-892 5411 5412 5413 0
-5414 -40 0
-5414 912 0
-5415 -46 0
-5415 897 0
-5416 -52 0
-5416 891 0
-892 5414 5415 5416 0
-5417 -42 0
-5417 917 0
-5418 -48 0
-5418 902 0
-5419 -57 0
-5419 893 0
-892 5417 5418 5419 0
-5420 -43 0
-5420 918 0
-5421 -49 0
-5421 903 0
-5422 -58 0
-5422 894 0
-892 5420 5421 5422 0
-5423 -44 0
-5423 919 0
-5424 -50 0
-5424 904 0
-5425 -59 0
-5425 895 0
-892 5423 5424 5425 0
-5426 -45 0
-5426 920 0
-5427 -51 0
-5427 905 0
-5428 -60 0
-5428 896 0
-892 5426 5427 5428 0
-5429 -4 0
-5429 763 0
-5430 -5 0
-5430 757 0
-5431 -8 0
-5431 754 0
-893 5429 5430 5431 0
-5432 -14 0
-5432 808 0
-5433 -15 0
-5433 802 0
-5434 -18 0
-5434 799 0
-893 5432 5433 5434 0
-5435 -23 0
-5435 844 0
-5436 -24 0
-5436 838 0
-5437 -27 0
-5437 835 0
-893 5435 5436 5437 0
-5438 -31 0
-5438 872 0
-5439 -32 0
-5439 866 0
-5440 -35 0
-5440 863 0
-893 5438 5439 5440 0
-5441 -40 0
-5441 913 0
-5442 -46 0
-5442 898 0
-5443 -53 0
-5443 891 0
-893 5441 5442 5443 0
-5444 -41 0
-5444 917 0
-5445 -47 0
-5445 902 0
-5446 -57 0
-5446 892 0
-893 5444 5445 5446 0
-5447 -43 0
-5447 921 0
-5448 -49 0
-5448 906 0
-5449 -61 0
-5449 894 0
-893 5447 5448 5449 0
-5450 -44 0
-5450 922 0
-5451 -50 0
-5451 907 0
-5452 -62 0
-5452 895 0
-893 5450 5451 5452 0
-5453 -45 0
-5453 923 0
-5454 -51 0
-5454 908 0
-5455 -63 0
-5455 896 0
-893 5453 5454 5455 0
-5456 -4 0
-5456 764 0
-5457 -5 0
-5457 758 0
-5458 -9 0
-5458 754 0
-894 5456 5457 5458 0
-5459 -14 0
-5459 809 0
-5460 -15 0
-5460 803 0
-5461 -19 0
-5461 799 0
-894 5459 5460 5461 0
-5462 -23 0
-5462 845 0
-5463 -24 0
-5463 839 0
-5464 -28 0
-5464 835 0
-894 5462 5463 5464 0
-5465 -31 0
-5465 873 0
-5466 -32 0
-5466 867 0
-5467 -36 0
-5467 863 0
-894 5465 5466 5467 0
-5468 -40 0
-5468 914 0
-5469 -46 0
-5469 899 0
-5470 -54 0
-5470 891 0
-894 5468 5469 5470 0
-5471 -41 0
-5471 918 0
-5472 -47 0
-5472 903 0
-5473 -58 0
-5473 892 0
-894 5471 5472 5473 0
-5474 -42 0
-5474 921 0
-5475 -48 0
-5475 906 0
-5476 -61 0
-5476 893 0
-894 5474 5475 5476 0
-5477 -44 0
-5477 924 0
-5478 -50 0
-5478 909 0
-5479 -64 0
-5479 895 0
-894 5477 5478 5479 0
-5480 -45 0
-5480 925 0
-5481 -51 0
-5481 910 0
-5482 -65 0
-5482 896 0
-894 5480 5481 5482 0
-5483 -4 0
-5483 765 0
-5484 -5 0
-5484 759 0
-5485 -10 0
-5485 754 0
-895 5483 5484 5485 0
-5486 -14 0
-5486 810 0
-5487 -15 0
-5487 804 0
-5488 -20 0
-5488 799 0
-895 5486 5487 5488 0
-5489 -23 0
-5489 846 0
-5490 -24 0
-5490 840 0
-5491 -29 0
-5491 835 0
-895 5489 5490 5491 0
-5492 -31 0
-5492 874 0
-5493 -32 0
-5493 868 0
-5494 -37 0
-5494 863 0
-895 5492 5493 5494 0
-5495 -40 0
-5495 915 0
-5496 -46 0
-5496 900 0
-5497 -55 0
-5497 891 0
-895 5495 5496 5497 0
-5498 -41 0
-5498 919 0
-5499 -47 0
-5499 904 0
-5500 -59 0
-5500 892 0
-895 5498 5499 5500 0
-5501 -42 0
-5501 922 0
-5502 -48 0
-5502 907 0
-5503 -62 0
-5503 893 0
-895 5501 5502 5503 0
-5504 -43 0
-5504 924 0
-5505 -49 0
-5505 909 0
-5506 -64 0
-5506 894 0
-895 5504 5505 5506 0
-5507 -45 0
-5507 926 0
-5508 -51 0
-5508 911 0
-5509 -66 0
-5509 896 0
-895 5507 5508 5509 0
-5510 -4 0
-5510 766 0
-5511 -5 0
-5511 760 0
-5512 -11 0
-5512 754 0
-896 5510 5511 5512 0
-5513 -14 0
-5513 811 0
-5514 -15 0
-5514 805 0
-5515 -21 0
-5515 799 0
-896 5513 5514 5515 0
-5516 -23 0
-5516 847 0
-5517 -24 0
-5517 841 0
-5518 -30 0
-5518 835 0
-896 5516 5517 5518 0
-5519 -31 0
-5519 875 0
-5520 -32 0
-5520 869 0
-5521 -38 0
-5521 863 0
-896 5519 5520 5521 0
-5522 -40 0
-5522 916 0
-5523 -46 0
-5523 901 0
-5524 -56 0
-5524 891 0
-896 5522 5523 5524 0
-5525 -41 0
-5525 920 0
-5526 -47 0
-5526 905 0
-5527 -60 0
-5527 892 0
-896 5525 5526 5527 0
-5528 -42 0
-5528 923 0
-5529 -48 0
-5529 908 0
-5530 -63 0
-5530 893 0
-896 5528 5529 5530 0
-5531 -43 0
-5531 925 0
-5532 -49 0
-5532 910 0
-5533 -65 0
-5533 894 0
-896 5531 5532 5533 0
-5534 -44 0
-5534 926 0
-5535 -50 0
-5535 911 0
-5536 -66 0
-5536 895 0
-896 5534 5535 5536 0
-5537 -4 0
-5537 767 0
-5538 -6 0
-5538 756 0
-5539 -7 0
-5539 755 0
-897 5537 5538 5539 0
-5540 -14 0
-5540 812 0
-5541 -16 0
-5541 801 0
-5542 -17 0
-5542 800 0
-897 5540 5541 5542 0
-5543 -23 0
-5543 848 0
-5544 -25 0
-5544 837 0
-5545 -26 0
-5545 836 0
-897 5543 5544 5545 0
-5546 -31 0
-5546 876 0
-5547 -33 0
-5547 865 0
-5548 -34 0
-5548 864 0
-897 5546 5547 5548 0
-5549 -39 0
-5549 912 0
-5550 -46 0
-5550 892 0
-5551 -47 0
-5551 891 0
-897 5549 5550 5551 0
-5552 -42 0
-5552 927 0
-5553 -53 0
-5553 902 0
-5554 -57 0
-5554 898 0
-897 5552 5553 5554 0
-5555 -43 0
-5555 928 0
-5556 -54 0
-5556 903 0
-5557 -58 0
-5557 899 0
-897 5555 5556 5557 0
-5558 -44 0
-5558 929 0
-5559 -55 0
-5559 904 0
-5560 -59 0
-5560 900 0
-897 5558 5559 5560 0
-5561 -45 0
-5561 930 0
-5562 -56 0
-5562 905 0
-5563 -60 0
-5563 901 0
-897 5561 5562 5563 0
-5564 -4 0
-5564 768 0
-5565 -6 0
-5565 757 0
-5566 -8 0
-5566 755 0
-898 5564 5565 5566 0
-5567 -14 0
-5567 813 0
-5568 -16 0
-5568 802 0
-5569 -18 0
-5569 800 0
-898 5567 5568 5569 0
-5570 -23 0
-5570 849 0
-5571 -25 0
-5571 838 0
-5572 -27 0
-5572 836 0
-898 5570 5571 5572 0
-5573 -31 0
-5573 877 0
-5574 -33 0
-5574 866 0
-5575 -35 0
-5575 864 0
-898 5573 5574 5575 0
-5576 -39 0
-5576 913 0
-5577 -46 0
-5577 893 0
-5578 -48 0
-5578 891 0
-898 5576 5577 5578 0
-5579 -41 0
-5579 927 0
-5580 -52 0
-5580 902 0
-5581 -57 0
-5581 897 0
-898 5579 5580 5581 0
-5582 -43 0
-5582 931 0
-5583 -54 0
-5583 906 0
-5584 -61 0
-5584 899 0
-898 5582 5583 5584 0
-5585 -44 0
-5585 932 0
-5586 -55 0
-5586 907 0
-5587 -62 0
-5587 900 0
-898 5585 5586 5587 0
-5588 -45 0
-5588 933 0
-5589 -56 0
-5589 908 0
-5590 -63 0
-5590 901 0
-898 5588 5589 5590 0
-5591 -4 0
-5591 769 0
-5592 -6 0
-5592 758 0
-5593 -9 0
-5593 755 0
-899 5591 5592 5593 0
-5594 -14 0
-5594 814 0
-5595 -16 0
-5595 803 0
-5596 -19 0
-5596 800 0
-899 5594 5595 5596 0
-5597 -23 0
-5597 850 0
-5598 -25 0
-5598 839 0
-5599 -28 0
-5599 836 0
-899 5597 5598 5599 0
-5600 -31 0
-5600 878 0
-5601 -33 0
-5601 867 0
-5602 -36 0
-5602 864 0
-899 5600 5601 5602 0
-5603 -39 0
-5603 914 0
-5604 -46 0
-5604 894 0
-5605 -49 0
-5605 891 0
-899 5603 5604 5605 0
-5606 -41 0
-5606 928 0
-5607 -52 0
-5607 903 0
-5608 -58 0
-5608 897 0
-899 5606 5607 5608 0
-5609 -42 0
-5609 931 0
-5610 -53 0
-5610 906 0
-5611 -61 0
-5611 898 0
-899 5609 5610 5611 0
-5612 -44 0
-5612 934 0
-5613 -55 0
-5613 909 0
-5614 -64 0
-5614 900 0
-899 5612 5613 5614 0
-5615 -45 0
-5615 935 0
-5616 -56 0
-5616 910 0
-5617 -65 0
-5617 901 0
-899 5615 5616 5617 0
-5618 -4 0
-5618 770 0
-5619 -6 0
-5619 759 0
-5620 -10 0
-5620 755 0
-900 5618 5619 5620 0
-5621 -14 0
-5621 815 0
-5622 -16 0
-5622 804 0
-5623 -20 0
-5623 800 0
-900 5621 5622 5623 0
-5624 -23 0
-5624 851 0
-5625 -25 0
-5625 840 0
-5626 -29 0
-5626 836 0
-900 5624 5625 5626 0
-5627 -31 0
-5627 879 0
-5628 -33 0
-5628 868 0
-5629 -37 0
-5629 864 0
-900 5627 5628 5629 0
-5630 -39 0
-5630 915 0
-5631 -46 0
-5631 895 0
-5632 -50 0
-5632 891 0
-900 5630 5631 5632 0
-5633 -41 0
-5633 929 0
-5634 -52 0
-5634 904 0
-5635 -59 0
-5635 897 0
-900 5633 5634 5635 0
-5636 -42 0
-5636 932 0
-5637 -53 0
-5637 907 0
-5638 -62 0
-5638 898 0
-900 5636 5637 5638 0
-5639 -43 0
-5639 934 0
-5640 -54 0
-5640 909 0
-5641 -64 0
-5641 899 0
-900 5639 5640 5641 0
-5642 -45 0
-5642 936 0
-5643 -56 0
-5643 911 0
-5644 -66 0
-5644 901 0
-900 5642 5643 5644 0
-5645 -4 0
-5645 771 0
-5646 -6 0
-5646 760 0
-5647 -11 0
-5647 755 0
-901 5645 5646 5647 0
-5648 -14 0
-5648 816 0
-5649 -16 0
-5649 805 0
-5650 -21 0
-5650 800 0
-901 5648 5649 5650 0
-5651 -23 0
-5651 852 0
-5652 -25 0
-5652 841 0
-5653 -30 0
-5653 836 0
-901 5651 5652 5653 0
-5654 -31 0
-5654 880 0
-5655 -33 0
-5655 869 0
-5656 -38 0
-5656 864 0
-901 5654 5655 5656 0
-5657 -39 0
-5657 916 0
-5658 -46 0
-5658 896 0
-5659 -51 0
-5659 891 0
-901 5657 5658 5659 0
-5660 -41 0
-5660 930 0
-5661 -52 0
-5661 905 0
-5662 -60 0
-5662 897 0
-901 5660 5661 5662 0
-5663 -42 0
-5663 933 0
-5664 -53 0
-5664 908 0
-5665 -63 0
-5665 898 0
-901 5663 5664 5665 0
-5666 -43 0
-5666 935 0
-5667 -54 0
-5667 910 0
-5668 -65 0
-5668 899 0
-901 5666 5667 5668 0
-5669 -44 0
-5669 936 0
-5670 -55 0
-5670 911 0
-5671 -66 0
-5671 900 0
-901 5669 5670 5671 0
-5672 -4 0
-5672 772 0
-5673 -7 0
-5673 757 0
-5674 -8 0
-5674 756 0
-902 5672 5673 5674 0
-5675 -14 0
-5675 817 0
-5676 -17 0
-5676 802 0
-5677 -18 0
-5677 801 0
-902 5675 5676 5677 0
-5678 -23 0
-5678 853 0
-5679 -26 0
-5679 838 0
-5680 -27 0
-5680 837 0
-902 5678 5679 5680 0
-5681 -31 0
-5681 881 0
-5682 -34 0
-5682 866 0
-5683 -35 0
-5683 865 0
-902 5681 5682 5683 0
-5684 -39 0
-5684 917 0
-5685 -47 0
-5685 893 0
-5686 -48 0
-5686 892 0
-902 5684 5685 5686 0
-5687 -40 0
-5687 927 0
-5688 -52 0
-5688 898 0
-5689 -53 0
-5689 897 0
-902 5687 5688 5689 0
-5690 -43 0
-5690 937 0
-5691 -58 0
-5691 906 0
-5692 -61 0
-5692 903 0
-902 5690 5691 5692 0
-5693 -44 0
-5693 938 0
-5694 -59 0
-5694 907 0
-5695 -62 0
-5695 904 0
-902 5693 5694 5695 0
-5696 -45 0
-5696 939 0
-5697 -60 0
-5697 908 0
-5698 -63 0
-5698 905 0
-902 5696 5697 5698 0
-5699 -4 0
-5699 773 0
-5700 -7 0
-5700 758 0
-5701 -9 0
-5701 756 0
-903 5699 5700 5701 0
-5702 -14 0
-5702 818 0
-5703 -17 0
-5703 803 0
-5704 -19 0
-5704 801 0
-903 5702 5703 5704 0
-5705 -23 0
-5705 854 0
-5706 -26 0
-5706 839 0
-5707 -28 0
-5707 837 0
-903 5705 5706 5707 0
-5708 -31 0
-5708 882 0
-5709 -34 0
-5709 867 0
-5710 -36 0
-5710 865 0
-903 5708 5709 5710 0
-5711 -39 0
-5711 918 0
-5712 -47 0
-5712 894 0
-5713 -49 0
-5713 892 0
-903 5711 5712 5713 0
-5714 -40 0
-5714 928 0
-5715 -52 0
-5715 899 0
-5716 -54 0
-5716 897 0
-903 5714 5715 5716 0
-5717 -42 0
-5717 937 0
-5718 -57 0
-5718 906 0
-5719 -61 0
-5719 902 0
-903 5717 5718 5719 0
-5720 -44 0
-5720 940 0
-5721 -59 0
-5721 909 0
-5722 -64 0
-5722 904 0
-903 5720 5721 5722 0
-5723 -45 0
-5723 941 0
-5724 -60 0
-5724 910 0
-5725 -65 0
-5725 905 0
-903 5723 5724 5725 0
-5726 -4 0
-5726 774 0
-5727 -7 0
-5727 759 0
-5728 -10 0
-5728 756 0
-904 5726 5727 5728 0
-5729 -14 0
-5729 819 0
-5730 -17 0
-5730 804 0
-5731 -20 0
-5731 801 0
-904 5729 5730 5731 0
-5732 -23 0
-5732 855 0
-5733 -26 0
-5733 840 0
-5734 -29 0
-5734 837 0
-904 5732 5733 5734 0
-5735 -31 0
-5735 883 0
-5736 -34 0
-5736 868 0
-5737 -37 0
-5737 865 0
-904 5735 5736 5737 0
-5738 -39 0
-5738 919 0
-5739 -47 0
-5739 895 0
-5740 -50 0
-5740 892 0
-904 5738 5739 5740 0
-5741 -40 0
-5741 929 0
-5742 -52 0
-5742 900 0
-5743 -55 0
-5743 897 0
-904 5741 5742 5743 0
-5744 -42 0
-5744 938 0
-5745 -57 0
-5745 907 0
-5746 -62 0
-5746 902 0
-904 5744 5745 5746 0
-5747 -43 0
-5747 940 0
-5748 -58 0
-5748 909 0
-5749 -64 0
-5749 903 0
-904 5747 5748 5749 0
-5750 -45 0
-5750 942 0
-5751 -60 0
-5751 911 0
-5752 -66 0
-5752 905 0
-904 5750 5751 5752 0
-5753 -4 0
-5753 775 0
-5754 -7 0
-5754 760 0
-5755 -11 0
-5755 756 0
-905 5753 5754 5755 0
-5756 -14 0
-5756 820 0
-5757 -17 0
-5757 805 0
-5758 -21 0
-5758 801 0
-905 5756 5757 5758 0
-5759 -23 0
-5759 856 0
-5760 -26 0
-5760 841 0
-5761 -30 0
-5761 837 0
-905 5759 5760 5761 0
-5762 -31 0
-5762 884 0
-5763 -34 0
-5763 869 0
-5764 -38 0
-5764 865 0
-905 5762 5763 5764 0
-5765 -39 0
-5765 920 0
-5766 -47 0
-5766 896 0
-5767 -51 0
-5767 892 0
-905 5765 5766 5767 0
-5768 -40 0
-5768 930 0
-5769 -52 0
-5769 901 0
-5770 -56 0
-5770 897 0
-905 5768 5769 5770 0
-5771 -42 0
-5771 939 0
-5772 -57 0
-5772 908 0
-5773 -63 0
-5773 902 0
-905 5771 5772 5773 0
-5774 -43 0
-5774 941 0
-5775 -58 0
-5775 910 0
-5776 -65 0
-5776 903 0
-905 5774 5775 5776 0
-5777 -44 0
-5777 942 0
-5778 -59 0
-5778 911 0
-5779 -66 0
-5779 904 0
-905 5777 5778 5779 0
-5780 -4 0
-5780 776 0
-5781 -8 0
-5781 758 0
-5782 -9 0
-5782 757 0
-906 5780 5781 5782 0
-5783 -14 0
-5783 821 0
-5784 -18 0
-5784 803 0
-5785 -19 0
-5785 802 0
-906 5783 5784 5785 0
-5786 -23 0
-5786 857 0
-5787 -27 0
-5787 839 0
-5788 -28 0
-5788 838 0
-906 5786 5787 5788 0
-5789 -31 0
-5789 885 0
-5790 -35 0
-5790 867 0
-5791 -36 0
-5791 866 0
-906 5789 5790 5791 0
-5792 -39 0
-5792 921 0
-5793 -48 0
-5793 894 0
-5794 -49 0
-5794 893 0
-906 5792 5793 5794 0
-5795 -40 0
-5795 931 0
-5796 -53 0
-5796 899 0
-5797 -54 0
-5797 898 0
-906 5795 5796 5797 0
-5798 -41 0
-5798 937 0
-5799 -57 0
-5799 903 0
-5800 -58 0
-5800 902 0
-906 5798 5799 5800 0
-5801 -44 0
-5801 943 0
-5802 -62 0
-5802 909 0
-5803 -64 0
-5803 907 0
-906 5801 5802 5803 0
-5804 -45 0
-5804 944 0
-5805 -63 0
-5805 910 0
-5806 -65 0
-5806 908 0
-906 5804 5805 5806 0
-5807 -4 0
-5807 777 0
-5808 -8 0
-5808 759 0
-5809 -10 0
-5809 757 0
-907 5807 5808 5809 0
-5810 -14 0
-5810 822 0
-5811 -18 0
-5811 804 0
-5812 -20 0
-5812 802 0
-907 5810 5811 5812 0
-5813 -23 0
-5813 858 0
-5814 -27 0
-5814 840 0
-5815 -29 0
-5815 838 0
-907 5813 5814 5815 0
-5816 -31 0
-5816 886 0
-5817 -35 0
-5817 868 0
-5818 -37 0
-5818 866 0
-907 5816 5817 5818 0
-5819 -39 0
-5819 922 0
-5820 -48 0
-5820 895 0
-5821 -50 0
-5821 893 0
-907 5819 5820 5821 0
-5822 -40 0
-5822 932 0
-5823 -53 0
-5823 900 0
-5824 -55 0
-5824 898 0
-907 5822 5823 5824 0
-5825 -41 0
-5825 938 0
-5826 -57 0
-5826 904 0
-5827 -59 0
-5827 902 0
-907 5825 5826 5827 0
-5828 -43 0
-5828 943 0
-5829 -61 0
-5829 909 0
-5830 -64 0
-5830 906 0
-907 5828 5829 5830 0
-5831 -45 0
-5831 945 0
-5832 -63 0
-5832 911 0
-5833 -66 0
-5833 908 0
-907 5831 5832 5833 0
-5834 -4 0
-5834 778 0
-5835 -8 0
-5835 760 0
-5836 -11 0
-5836 757 0
-908 5834 5835 5836 0
-5837 -14 0
-5837 823 0
-5838 -18 0
-5838 805 0
-5839 -21 0
-5839 802 0
-908 5837 5838 5839 0
-5840 -23 0
-5840 859 0
-5841 -27 0
-5841 841 0
-5842 -30 0
-5842 838 0
-908 5840 5841 5842 0
-5843 -31 0
-5843 887 0
-5844 -35 0
-5844 869 0
-5845 -38 0
-5845 866 0
-908 5843 5844 5845 0
-5846 -39 0
-5846 923 0
-5847 -48 0
-5847 896 0
-5848 -51 0
-5848 893 0
-908 5846 5847 5848 0
-5849 -40 0
-5849 933 0
-5850 -53 0
-5850 901 0
-5851 -56 0
-5851 898 0
-908 5849 5850 5851 0
-5852 -41 0
-5852 939 0
-5853 -57 0
-5853 905 0
-5854 -60 0
-5854 902 0
-908 5852 5853 5854 0
-5855 -43 0
-5855 944 0
-5856 -61 0
-5856 910 0
-5857 -65 0
-5857 906 0
-908 5855 5856 5857 0
-5858 -44 0
-5858 945 0
-5859 -62 0
-5859 911 0
-5860 -66 0
-5860 907 0
-908 5858 5859 5860 0
-5861 -4 0
-5861 779 0
-5862 -9 0
-5862 759 0
-5863 -10 0
-5863 758 0
-909 5861 5862 5863 0
-5864 -14 0
-5864 824 0
-5865 -19 0
-5865 804 0
-5866 -20 0
-5866 803 0
-909 5864 5865 5866 0
-5867 -23 0
-5867 860 0
-5868 -28 0
-5868 840 0
-5869 -29 0
-5869 839 0
-909 5867 5868 5869 0
-5870 -31 0
-5870 888 0
-5871 -36 0
-5871 868 0
-5872 -37 0
-5872 867 0
-909 5870 5871 5872 0
-5873 -39 0
-5873 924 0
-5874 -49 0
-5874 895 0
-5875 -50 0
-5875 894 0
-909 5873 5874 5875 0
-5876 -40 0
-5876 934 0
-5877 -54 0
-5877 900 0
-5878 -55 0
-5878 899 0
-909 5876 5877 5878 0
-5879 -41 0
-5879 940 0
-5880 -58 0
-5880 904 0
-5881 -59 0
-5881 903 0
-909 5879 5880 5881 0
-5882 -42 0
-5882 943 0
-5883 -61 0
-5883 907 0
-5884 -62 0
-5884 906 0
-909 5882 5883 5884 0
-5885 -45 0
-5885 946 0
-5886 -65 0
-5886 911 0
-5887 -66 0
-5887 910 0
-909 5885 5886 5887 0
-5888 -4 0
-5888 780 0
-5889 -9 0
-5889 760 0
-5890 -11 0
-5890 758 0
-910 5888 5889 5890 0
-5891 -14 0
-5891 825 0
-5892 -19 0
-5892 805 0
-5893 -21 0
-5893 803 0
-910 5891 5892 5893 0
-5894 -23 0
-5894 861 0
-5895 -28 0
-5895 841 0
-5896 -30 0
-5896 839 0
-910 5894 5895 5896 0
-5897 -31 0
-5897 889 0
-5898 -36 0
-5898 869 0
-5899 -38 0
-5899 867 0
-910 5897 5898 5899 0
-5900 -39 0
-5900 925 0
-5901 -49 0
-5901 896 0
-5902 -51 0
-5902 894 0
-910 5900 5901 5902 0
-5903 -40 0
-5903 935 0
-5904 -54 0
-5904 901 0
-5905 -56 0
-5905 899 0
-910 5903 5904 5905 0
-5906 -41 0
-5906 941 0
-5907 -58 0
-5907 905 0
-5908 -60 0
-5908 903 0
-910 5906 5907 5908 0
-5909 -42 0
-5909 944 0
-5910 -61 0
-5910 908 0
-5911 -63 0
-5911 906 0
-910 5909 5910 5911 0
-5912 -44 0
-5912 946 0
-5913 -64 0
-5913 911 0
-5914 -66 0
-5914 909 0
-910 5912 5913 5914 0
-5915 -4 0
-5915 781 0
-5916 -10 0
-5916 760 0
-5917 -11 0
-5917 759 0
-911 5915 5916 5917 0
-5918 -14 0
-5918 826 0
-5919 -20 0
-5919 805 0
-5920 -21 0
-5920 804 0
-911 5918 5919 5920 0
-5921 -23 0
-5921 862 0
-5922 -29 0
-5922 841 0
-5923 -30 0
-5923 840 0
-911 5921 5922 5923 0
-5924 -31 0
-5924 890 0
-5925 -37 0
-5925 869 0
-5926 -38 0
-5926 868 0
-911 5924 5925 5926 0
-5927 -39 0
-5927 926 0
-5928 -50 0
-5928 896 0
-5929 -51 0
-5929 895 0
-911 5927 5928 5929 0
-5930 -40 0
-5930 936 0
-5931 -55 0
-5931 901 0
-5932 -56 0
-5932 900 0
-911 5930 5931 5932 0
-5933 -41 0
-5933 942 0
-5934 -59 0
-5934 905 0
-5935 -60 0
-5935 904 0
-911 5933 5934 5935 0
-5936 -42 0
-5936 945 0
-5937 -62 0
-5937 908 0
-5938 -63 0
-5938 907 0
-911 5936 5937 5938 0
-5939 -43 0
-5939 946 0
-5940 -64 0
-5940 910 0
-5941 -65 0
-5941 909 0
-911 5939 5940 5941 0
-5942 -5 0
-5942 767 0
-5943 -6 0
-5943 762 0
-5944 -7 0
-5944 761 0
-912 5942 5943 5944 0
-5945 -15 0
-5945 812 0
-5946 -16 0
-5946 807 0
-5947 -17 0
-5947 806 0
-912 5945 5946 5947 0
-5948 -24 0
-5948 848 0
-5949 -25 0
-5949 843 0
-5950 -26 0
-5950 842 0
-912 5948 5949 5950 0
-5951 -32 0
-5951 876 0
-5952 -33 0
-5952 871 0
-5953 -34 0
-5953 870 0
-912 5951 5952 5953 0
-5954 -39 0
-5954 897 0
-5955 -40 0
-5955 892 0
-5956 -41 0
-5956 891 0
-912 5954 5955 5956 0
-5957 -48 0
-5957 927 0
-5958 -53 0
-5958 917 0
-5959 -57 0
-5959 913 0
-912 5957 5958 5959 0
-5960 -49 0
-5960 928 0
-5961 -54 0
-5961 918 0
-5962 -58 0
-5962 914 0
-912 5960 5961 5962 0
-5963 -50 0
-5963 929 0
-5964 -55 0
-5964 919 0
-5965 -59 0
-5965 915 0
-912 5963 5964 5965 0
-5966 -51 0
-5966 930 0
-5967 -56 0
-5967 920 0
-5968 -60 0
-5968 916 0
-912 5966 5967 5968 0
-5969 -5 0
-5969 768 0
-5970 -6 0
-5970 763 0
-5971 -8 0
-5971 761 0
-913 5969 5970 5971 0
-5972 -15 0
-5972 813 0
-5973 -16 0
-5973 808 0
-5974 -18 0
-5974 806 0
-913 5972 5973 5974 0
-5975 -24 0
-5975 849 0
-5976 -25 0
-5976 844 0
-5977 -27 0
-5977 842 0
-913 5975 5976 5977 0
-5978 -32 0
-5978 877 0
-5979 -33 0
-5979 872 0
-5980 -35 0
-5980 870 0
-913 5978 5979 5980 0
-5981 -39 0
-5981 898 0
-5982 -40 0
-5982 893 0
-5983 -42 0
-5983 891 0
-913 5981 5982 5983 0
-5984 -47 0
-5984 927 0
-5985 -52 0
-5985 917 0
-5986 -57 0
-5986 912 0
-913 5984 5985 5986 0
-5987 -49 0
-5987 931 0
-5988 -54 0
-5988 921 0
-5989 -61 0
-5989 914 0
-913 5987 5988 5989 0
-5990 -50 0
-5990 932 0
-5991 -55 0
-5991 922 0
-5992 -62 0
-5992 915 0
-913 5990 5991 5992 0
-5993 -51 0
-5993 933 0
-5994 -56 0
-5994 923 0
-5995 -63 0
-5995 916 0
-913 5993 5994 5995 0
-5996 -5 0
-5996 769 0
-5997 -6 0
-5997 764 0
-5998 -9 0
-5998 761 0
-914 5996 5997 5998 0
-5999 -15 0
-5999 814 0
-6000 -16 0
-6000 809 0
-6001 -19 0
-6001 806 0
-914 5999 6000 6001 0
-6002 -24 0
-6002 850 0
-6003 -25 0
-6003 845 0
-6004 -28 0
-6004 842 0
-914 6002 6003 6004 0
-6005 -32 0
-6005 878 0
-6006 -33 0
-6006 873 0
-6007 -36 0
-6007 870 0
-914 6005 6006 6007 0
-6008 -39 0
-6008 899 0
-6009 -40 0
-6009 894 0
-6010 -43 0
-6010 891 0
-914 6008 6009 6010 0
-6011 -47 0
-6011 928 0
-6012 -52 0
-6012 918 0
-6013 -58 0
-6013 912 0
-914 6011 6012 6013 0
-6014 -48 0
-6014 931 0
-6015 -53 0
-6015 921 0
-6016 -61 0
-6016 913 0
-914 6014 6015 6016 0
-6017 -50 0
-6017 934 0
-6018 -55 0
-6018 924 0
-6019 -64 0
-6019 915 0
-914 6017 6018 6019 0
-6020 -51 0
-6020 935 0
-6021 -56 0
-6021 925 0
-6022 -65 0
-6022 916 0
-914 6020 6021 6022 0
-6023 -5 0
-6023 770 0
-6024 -6 0
-6024 765 0
-6025 -10 0
-6025 761 0
-915 6023 6024 6025 0
-6026 -15 0
-6026 815 0
-6027 -16 0
-6027 810 0
-6028 -20 0
-6028 806 0
-915 6026 6027 6028 0
-6029 -24 0
-6029 851 0
-6030 -25 0
-6030 846 0
-6031 -29 0
-6031 842 0
-915 6029 6030 6031 0
-6032 -32 0
-6032 879 0
-6033 -33 0
-6033 874 0
-6034 -37 0
-6034 870 0
-915 6032 6033 6034 0
-6035 -39 0
-6035 900 0
-6036 -40 0
-6036 895 0
-6037 -44 0
-6037 891 0
-915 6035 6036 6037 0
-6038 -47 0
-6038 929 0
-6039 -52 0
-6039 919 0
-6040 -59 0
-6040 912 0
-915 6038 6039 6040 0
-6041 -48 0
-6041 932 0
-6042 -53 0
-6042 922 0
-6043 -62 0
-6043 913 0
-915 6041 6042 6043 0
-6044 -49 0
-6044 934 0
-6045 -54 0
-6045 924 0
-6046 -64 0
-6046 914 0
-915 6044 6045 6046 0
-6047 -51 0
-6047 936 0
-6048 -56 0
-6048 926 0
-6049 -66 0
-6049 916 0
-915 6047 6048 6049 0
-6050 -5 0
-6050 771 0
-6051 -6 0
-6051 766 0
-6052 -11 0
-6052 761 0
-916 6050 6051 6052 0
-6053 -15 0
-6053 816 0
-6054 -16 0
-6054 811 0
-6055 -21 0
-6055 806 0
-916 6053 6054 6055 0
-6056 -24 0
-6056 852 0
-6057 -25 0
-6057 847 0
-6058 -30 0
-6058 842 0
-916 6056 6057 6058 0
-6059 -32 0
-6059 880 0
-6060 -33 0
-6060 875 0
-6061 -38 0
-6061 870 0
-916 6059 6060 6061 0
-6062 -39 0
-6062 901 0
-6063 -40 0
-6063 896 0
-6064 -45 0
-6064 891 0
-916 6062 6063 6064 0
-6065 -47 0
-6065 930 0
-6066 -52 0
-6066 920 0
-6067 -60 0
-6067 912 0
-916 6065 6066 6067 0
-6068 -48 0
-6068 933 0
-6069 -53 0
-6069 923 0
-6070 -63 0
-6070 913 0
-916 6068 6069 6070 0
-6071 -49 0
-6071 935 0
-6072 -54 0
-6072 925 0
-6073 -65 0
-6073 914 0
-916 6071 6072 6073 0
-6074 -50 0
-6074 936 0
-6075 -55 0
-6075 926 0
-6076 -66 0
-6076 915 0
-916 6074 6075 6076 0
-6077 -5 0
-6077 772 0
-6078 -7 0
-6078 763 0
-6079 -8 0
-6079 762 0
-917 6077 6078 6079 0
-6080 -15 0
-6080 817 0
-6081 -17 0
-6081 808 0
-6082 -18 0
-6082 807 0
-917 6080 6081 6082 0
-6083 -24 0
-6083 853 0
-6084 -26 0
-6084 844 0
-6085 -27 0
-6085 843 0
-917 6083 6084 6085 0
-6086 -32 0
-6086 881 0
-6087 -34 0
-6087 872 0
-6088 -35 0
-6088 871 0
-917 6086 6087 6088 0
-6089 -39 0
-6089 902 0
-6090 -41 0
-6090 893 0
-6091 -42 0
-6091 892 0
-917 6089 6090 6091 0
-6092 -46 0
-6092 927 0
-6093 -52 0
-6093 913 0
-6094 -53 0
-6094 912 0
-917 6092 6093 6094 0
-6095 -49 0
-6095 937 0
-6096 -58 0
-6096 921 0
-6097 -61 0
-6097 918 0
-917 6095 6096 6097 0
-6098 -50 0
-6098 938 0
-6099 -59 0
-6099 922 0
-6100 -62 0
-6100 919 0
-917 6098 6099 6100 0
-6101 -51 0
-6101 939 0
-6102 -60 0
-6102 923 0
-6103 -63 0
-6103 920 0
-917 6101 6102 6103 0
-6104 -5 0
-6104 773 0
-6105 -7 0
-6105 764 0
-6106 -9 0
-6106 762 0
-918 6104 6105 6106 0
-6107 -15 0
-6107 818 0
-6108 -17 0
-6108 809 0
-6109 -19 0
-6109 807 0
-918 6107 6108 6109 0
-6110 -24 0
-6110 854 0
-6111 -26 0
-6111 845 0
-6112 -28 0
-6112 843 0
-918 6110 6111 6112 0
-6113 -32 0
-6113 882 0
-6114 -34 0
-6114 873 0
-6115 -36 0
-6115 871 0
-918 6113 6114 6115 0
-6116 -39 0
-6116 903 0
-6117 -41 0
-6117 894 0
-6118 -43 0
-6118 892 0
-918 6116 6117 6118 0
-6119 -46 0
-6119 928 0
-6120 -52 0
-6120 914 0
-6121 -54 0
-6121 912 0
-918 6119 6120 6121 0
-6122 -48 0
-6122 937 0
-6123 -57 0
-6123 921 0
-6124 -61 0
-6124 917 0
-918 6122 6123 6124 0
-6125 -50 0
-6125 940 0
-6126 -59 0
-6126 924 0
-6127 -64 0
-6127 919 0
-918 6125 6126 6127 0
-6128 -51 0
-6128 941 0
-6129 -60 0
-6129 925 0
-6130 -65 0
-6130 920 0
-918 6128 6129 6130 0
-6131 -5 0
-6131 774 0
-6132 -7 0
-6132 765 0
-6133 -10 0
-6133 762 0
-919 6131 6132 6133 0
-6134 -15 0
-6134 819 0
-6135 -17 0
-6135 810 0
-6136 -20 0
-6136 807 0
-919 6134 6135 6136 0
-6137 -24 0
-6137 855 0
-6138 -26 0
-6138 846 0
-6139 -29 0
-6139 843 0
-919 6137 6138 6139 0
-6140 -32 0
-6140 883 0
-6141 -34 0
-6141 874 0
-6142 -37 0
-6142 871 0
-919 6140 6141 6142 0
-6143 -39 0
-6143 904 0
-6144 -41 0
-6144 895 0
-6145 -44 0
-6145 892 0
-919 6143 6144 6145 0
-6146 -46 0
-6146 929 0
-6147 -52 0
-6147 915 0
-6148 -55 0
-6148 912 0
-919 6146 6147 6148 0
-6149 -48 0
-6149 938 0
-6150 -57 0
-6150 922 0
-6151 -62 0
-6151 917 0
-919 6149 6150 6151 0
-6152 -49 0
-6152 940 0
-6153 -58 0
-6153 924 0
-6154 -64 0
-6154 918 0
-919 6152 6153 6154 0
-6155 -51 0
-6155 942 0
-6156 -60 0
-6156 926 0
-6157 -66 0
-6157 920 0
-919 6155 6156 6157 0
-6158 -5 0
-6158 775 0
-6159 -7 0
-6159 766 0
-6160 -11 0
-6160 762 0
-920 6158 6159 6160 0
-6161 -15 0
-6161 820 0
-6162 -17 0
-6162 811 0
-6163 -21 0
-6163 807 0
-920 6161 6162 6163 0
-6164 -24 0
-6164 856 0
-6165 -26 0
-6165 847 0
-6166 -30 0
-6166 843 0
-920 6164 6165 6166 0
-6167 -32 0
-6167 884 0
-6168 -34 0
-6168 875 0
-6169 -38 0
-6169 871 0
-920 6167 6168 6169 0
-6170 -39 0
-6170 905 0
-6171 -41 0
-6171 896 0
-6172 -45 0
-6172 892 0
-920 6170 6171 6172 0
-6173 -46 0
-6173 930 0
-6174 -52 0
-6174 916 0
-6175 -56 0
-6175 912 0
-920 6173 6174 6175 0
-6176 -48 0
-6176 939 0
-6177 -57 0
-6177 923 0
-6178 -63 0
-6178 917 0
-920 6176 6177 6178 0
-6179 -49 0
-6179 941 0
-6180 -58 0
-6180 925 0
-6181 -65 0
-6181 918 0
-920 6179 6180 6181 0
-6182 -50 0
-6182 942 0
-6183 -59 0
-6183 926 0
-6184 -66 0
-6184 919 0
-920 6182 6183 6184 0
-6185 -5 0
-6185 776 0
-6186 -8 0
-6186 764 0
-6187 -9 0
-6187 763 0
-921 6185 6186 6187 0
-6188 -15 0
-6188 821 0
-6189 -18 0
-6189 809 0
-6190 -19 0
-6190 808 0
-921 6188 6189 6190 0
-6191 -24 0
-6191 857 0
-6192 -27 0
-6192 845 0
-6193 -28 0
-6193 844 0
-921 6191 6192 6193 0
-6194 -32 0
-6194 885 0
-6195 -35 0
-6195 873 0
-6196 -36 0
-6196 872 0
-921 6194 6195 6196 0
-6197 -39 0
-6197 906 0
-6198 -42 0
-6198 894 0
-6199 -43 0
-6199 893 0
-921 6197 6198 6199 0
-6200 -46 0
-6200 931 0
-6201 -53 0
-6201 914 0
-6202 -54 0
-6202 913 0
-921 6200 6201 6202 0
-6203 -47 0
-6203 937 0
-6204 -57 0
-6204 918 0
-6205 -58 0
-6205 917 0
-921 6203 6204 6205 0
-6206 -50 0
-6206 943 0
-6207 -62 0
-6207 924 0
-6208 -64 0
-6208 922 0
-921 6206 6207 6208 0
-6209 -51 0
-6209 944 0
-6210 -63 0
-6210 925 0
-6211 -65 0
-6211 923 0
-921 6209 6210 6211 0
-6212 -5 0
-6212 777 0
-6213 -8 0
-6213 765 0
-6214 -10 0
-6214 763 0
-922 6212 6213 6214 0
-6215 -15 0
-6215 822 0
-6216 -18 0
-6216 810 0
-6217 -20 0
-6217 808 0
-922 6215 6216 6217 0
-6218 -24 0
-6218 858 0
-6219 -27 0
-6219 846 0
-6220 -29 0
-6220 844 0
-922 6218 6219 6220 0
-6221 -32 0
-6221 886 0
-6222 -35 0
-6222 874 0
-6223 -37 0
-6223 872 0
-922 6221 6222 6223 0
-6224 -39 0
-6224 907 0
-6225 -42 0
-6225 895 0
-6226 -44 0
-6226 893 0
-922 6224 6225 6226 0
-6227 -46 0
-6227 932 0
-6228 -53 0
-6228 915 0
-6229 -55 0
-6229 913 0
-922 6227 6228 6229 0
-6230 -47 0
-6230 938 0
-6231 -57 0
-6231 919 0
-6232 -59 0
-6232 917 0
-922 6230 6231 6232 0
-6233 -49 0
-6233 943 0
-6234 -61 0
-6234 924 0
-6235 -64 0
-6235 921 0
-922 6233 6234 6235 0
-6236 -51 0
-6236 945 0
-6237 -63 0
-6237 926 0
-6238 -66 0
-6238 923 0
-922 6236 6237 6238 0
-6239 -5 0
-6239 778 0
-6240 -8 0
-6240 766 0
-6241 -11 0
-6241 763 0
-923 6239 6240 6241 0
-6242 -15 0
-6242 823 0
-6243 -18 0
-6243 811 0
-6244 -21 0
-6244 808 0
-923 6242 6243 6244 0
-6245 -24 0
-6245 859 0
-6246 -27 0
-6246 847 0
-6247 -30 0
-6247 844 0
-923 6245 6246 6247 0
-6248 -32 0
-6248 887 0
-6249 -35 0
-6249 875 0
-6250 -38 0
-6250 872 0
-923 6248 6249 6250 0
-6251 -39 0
-6251 908 0
-6252 -42 0
-6252 896 0
-6253 -45 0
-6253 893 0
-923 6251 6252 6253 0
-6254 -46 0
-6254 933 0
-6255 -53 0
-6255 916 0
-6256 -56 0
-6256 913 0
-923 6254 6255 6256 0
-6257 -47 0
-6257 939 0
-6258 -57 0
-6258 920 0
-6259 -60 0
-6259 917 0
-923 6257 6258 6259 0
-6260 -49 0
-6260 944 0
-6261 -61 0
-6261 925 0
-6262 -65 0
-6262 921 0
-923 6260 6261 6262 0
-6263 -50 0
-6263 945 0
-6264 -62 0
-6264 926 0
-6265 -66 0
-6265 922 0
-923 6263 6264 6265 0
-6266 -5 0
-6266 779 0
-6267 -9 0
-6267 765 0
-6268 -10 0
-6268 764 0
-924 6266 6267 6268 0
-6269 -15 0
-6269 824 0
-6270 -19 0
-6270 810 0
-6271 -20 0
-6271 809 0
-924 6269 6270 6271 0
-6272 -24 0
-6272 860 0
-6273 -28 0
-6273 846 0
-6274 -29 0
-6274 845 0
-924 6272 6273 6274 0
-6275 -32 0
-6275 888 0
-6276 -36 0
-6276 874 0
-6277 -37 0
-6277 873 0
-924 6275 6276 6277 0
-6278 -39 0
-6278 909 0
-6279 -43 0
-6279 895 0
-6280 -44 0
-6280 894 0
-924 6278 6279 6280 0
-6281 -46 0
-6281 934 0
-6282 -54 0
-6282 915 0
-6283 -55 0
-6283 914 0
-924 6281 6282 6283 0
-6284 -47 0
-6284 940 0
-6285 -58 0
-6285 919 0
-6286 -59 0
-6286 918 0
-924 6284 6285 6286 0
-6287 -48 0
-6287 943 0
-6288 -61 0
-6288 922 0
-6289 -62 0
-6289 921 0
-924 6287 6288 6289 0
-6290 -51 0
-6290 946 0
-6291 -65 0
-6291 926 0
-6292 -66 0
-6292 925 0
-924 6290 6291 6292 0
-6293 -5 0
-6293 780 0
-6294 -9 0
-6294 766 0
-6295 -11 0
-6295 764 0
-925 6293 6294 6295 0
-6296 -15 0
-6296 825 0
-6297 -19 0
-6297 811 0
-6298 -21 0
-6298 809 0
-925 6296 6297 6298 0
-6299 -24 0
-6299 861 0
-6300 -28 0
-6300 847 0
-6301 -30 0
-6301 845 0
-925 6299 6300 6301 0
-6302 -32 0
-6302 889 0
-6303 -36 0
-6303 875 0
-6304 -38 0
-6304 873 0
-925 6302 6303 6304 0
-6305 -39 0
-6305 910 0
-6306 -43 0
-6306 896 0
-6307 -45 0
-6307 894 0
-925 6305 6306 6307 0
-6308 -46 0
-6308 935 0
-6309 -54 0
-6309 916 0
-6310 -56 0
-6310 914 0
-925 6308 6309 6310 0
-6311 -47 0
-6311 941 0
-6312 -58 0
-6312 920 0
-6313 -60 0
-6313 918 0
-925 6311 6312 6313 0
-6314 -48 0
-6314 944 0
-6315 -61 0
-6315 923 0
-6316 -63 0
-6316 921 0
-925 6314 6315 6316 0
-6317 -50 0
-6317 946 0
-6318 -64 0
-6318 926 0
-6319 -66 0
-6319 924 0
-925 6317 6318 6319 0
-6320 -5 0
-6320 781 0
-6321 -10 0
-6321 766 0
-6322 -11 0
-6322 765 0
-926 6320 6321 6322 0
-6323 -15 0
-6323 826 0
-6324 -20 0
-6324 811 0
-6325 -21 0
-6325 810 0
-926 6323 6324 6325 0
-6326 -24 0
-6326 862 0
-6327 -29 0
-6327 847 0
-6328 -30 0
-6328 846 0
-926 6326 6327 6328 0
-6329 -32 0
-6329 890 0
-6330 -37 0
-6330 875 0
-6331 -38 0
-6331 874 0
-926 6329 6330 6331 0
-6332 -39 0
-6332 911 0
-6333 -44 0
-6333 896 0
-6334 -45 0
-6334 895 0
-926 6332 6333 6334 0
-6335 -46 0
-6335 936 0
-6336 -55 0
-6336 916 0
-6337 -56 0
-6337 915 0
-926 6335 6336 6337 0
-6338 -47 0
-6338 942 0
-6339 -59 0
-6339 920 0
-6340 -60 0
-6340 919 0
-926 6338 6339 6340 0
-6341 -48 0
-6341 945 0
-6342 -62 0
-6342 923 0
-6343 -63 0
-6343 922 0
-926 6341 6342 6343 0
-6344 -49 0
-6344 946 0
-6345 -64 0
-6345 925 0
-6346 -65 0
-6346 924 0
-926 6344 6345 6346 0
-6347 -6 0
-6347 772 0
-6348 -7 0
-6348 768 0
-6349 -8 0
-6349 767 0
-927 6347 6348 6349 0
-6350 -16 0
-6350 817 0
-6351 -17 0
-6351 813 0
-6352 -18 0
-6352 812 0
-927 6350 6351 6352 0
-6353 -25 0
-6353 853 0
-6354 -26 0
-6354 849 0
-6355 -27 0
-6355 848 0
-927 6353 6354 6355 0
-6356 -33 0
-6356 881 0
-6357 -34 0
-6357 877 0
-6358 -35 0
-6358 876 0
-927 6356 6357 6358 0
-6359 -40 0
-6359 902 0
-6360 -41 0
-6360 898 0
-6361 -42 0
-6361 897 0
-927 6359 6360 6361 0
-6362 -46 0
-6362 917 0
-6363 -47 0
-6363 913 0
-6364 -48 0
-6364 912 0
-927 6362 6363 6364 0
-6365 -54 0
-6365 937 0
-6366 -58 0
-6366 931 0
-6367 -61 0
-6367 928 0
-927 6365 6366 6367 0
-6368 -55 0
-6368 938 0
-6369 -59 0
-6369 932 0
-6370 -62 0
-6370 929 0
-927 6368 6369 6370 0
-6371 -56 0
-6371 939 0
-6372 -60 0
-6372 933 0
-6373 -63 0
-6373 930 0
-927 6371 6372 6373 0
-6374 -6 0
-6374 773 0
-6375 -7 0
-6375 769 0
-6376 -9 0
-6376 767 0
-928 6374 6375 6376 0
-6377 -16 0
-6377 818 0
-6378 -17 0
-6378 814 0
-6379 -19 0
-6379 812 0
-928 6377 6378 6379 0
-6380 -25 0
-6380 854 0
-6381 -26 0
-6381 850 0
-6382 -28 0
-6382 848 0
-928 6380 6381 6382 0
-6383 -33 0
-6383 882 0
-6384 -34 0
-6384 878 0
-6385 -36 0
-6385 876 0
-928 6383 6384 6385 0
-6386 -40 0
-6386 903 0
-6387 -41 0
-6387 899 0
-6388 -43 0
-6388 897 0
-928 6386 6387 6388 0
-6389 -46 0
-6389 918 0
-6390 -47 0
-6390 914 0
-6391 -49 0
-6391 912 0
-928 6389 6390 6391 0
-6392 -53 0
-6392 937 0
-6393 -57 0
-6393 931 0
-6394 -61 0
-6394 927 0
-928 6392 6393 6394 0
-6395 -55 0
-6395 940 0
-6396 -59 0
-6396 934 0
-6397 -64 0
-6397 929 0
-928 6395 6396 6397 0
-6398 -56 0
-6398 941 0
-6399 -60 0
-6399 935 0
-6400 -65 0
-6400 930 0
-928 6398 6399 6400 0
-6401 -6 0
-6401 774 0
-6402 -7 0
-6402 770 0
-6403 -10 0
-6403 767 0
-929 6401 6402 6403 0
-6404 -16 0
-6404 819 0
-6405 -17 0
-6405 815 0
-6406 -20 0
-6406 812 0
-929 6404 6405 6406 0
-6407 -25 0
-6407 855 0
-6408 -26 0
-6408 851 0
-6409 -29 0
-6409 848 0
-929 6407 6408 6409 0
-6410 -33 0
-6410 883 0
-6411 -34 0
-6411 879 0
-6412 -37 0
-6412 876 0
-929 6410 6411 6412 0
-6413 -40 0
-6413 904 0
-6414 -41 0
-6414 900 0
-6415 -44 0
-6415 897 0
-929 6413 6414 6415 0
-6416 -46 0
-6416 919 0
-6417 -47 0
-6417 915 0
-6418 -50 0
-6418 912 0
-929 6416 6417 6418 0
-6419 -53 0
-6419 938 0
-6420 -57 0
-6420 932 0
-6421 -62 0
-6421 927 0
-929 6419 6420 6421 0
-6422 -54 0
-6422 940 0
-6423 -58 0
-6423 934 0
-6424 -64 0
-6424 928 0
-929 6422 6423 6424 0
-6425 -56 0
-6425 942 0
-6426 -60 0
-6426 936 0
-6427 -66 0
-6427 930 0
-929 6425 6426 6427 0
-6428 -6 0
-6428 775 0
-6429 -7 0
-6429 771 0
-6430 -11 0
-6430 767 0
-930 6428 6429 6430 0
-6431 -16 0
-6431 820 0
-6432 -17 0
-6432 816 0
-6433 -21 0
-6433 812 0
-930 6431 6432 6433 0
-6434 -25 0
-6434 856 0
-6435 -26 0
-6435 852 0
-6436 -30 0
-6436 848 0
-930 6434 6435 6436 0
-6437 -33 0
-6437 884 0
-6438 -34 0
-6438 880 0
-6439 -38 0
-6439 876 0
-930 6437 6438 6439 0
-6440 -40 0
-6440 905 0
-6441 -41 0
-6441 901 0
-6442 -45 0
-6442 897 0
-930 6440 6441 6442 0
-6443 -46 0
-6443 920 0
-6444 -47 0
-6444 916 0
-6445 -51 0
-6445 912 0
-930 6443 6444 6445 0
-6446 -53 0
-6446 939 0
-6447 -57 0
-6447 933 0
-6448 -63 0
-6448 927 0
-930 6446 6447 6448 0
-6449 -54 0
-6449 941 0
-6450 -58 0
-6450 935 0
-6451 -65 0
-6451 928 0
-930 6449 6450 6451 0
-6452 -55 0
-6452 942 0
-6453 -59 0
-6453 936 0
-6454 -66 0
-6454 929 0
-930 6452 6453 6454 0
-6455 -6 0
-6455 776 0
-6456 -8 0
-6456 769 0
-6457 -9 0
-6457 768 0
-931 6455 6456 6457 0
-6458 -16 0
-6458 821 0
-6459 -18 0
-6459 814 0
-6460 -19 0
-6460 813 0
-931 6458 6459 6460 0
-6461 -25 0
-6461 857 0
-6462 -27 0
-6462 850 0
-6463 -28 0
-6463 849 0
-931 6461 6462 6463 0
-6464 -33 0
-6464 885 0
-6465 -35 0
-6465 878 0
-6466 -36 0
-6466 877 0
-931 6464 6465 6466 0
-6467 -40 0
-6467 906 0
-6468 -42 0
-6468 899 0
-6469 -43 0
-6469 898 0
-931 6467 6468 6469 0
-6470 -46 0
-6470 921 0
-6471 -48 0
-6471 914 0
-6472 -49 0
-6472 913 0
-931 6470 6471 6472 0
-6473 -52 0
-6473 937 0
-6474 -57 0
-6474 928 0
-6475 -58 0
-6475 927 0
-931 6473 6474 6475 0
-6476 -55 0
-6476 943 0
-6477 -62 0
-6477 934 0
-6478 -64 0
-6478 932 0
-931 6476 6477 6478 0
-6479 -56 0
-6479 944 0
-6480 -63 0
-6480 935 0
-6481 -65 0
-6481 933 0
-931 6479 6480 6481 0
-6482 -6 0
-6482 777 0
-6483 -8 0
-6483 770 0
-6484 -10 0
-6484 768 0
-932 6482 6483 6484 0
-6485 -16 0
-6485 822 0
-6486 -18 0
-6486 815 0
-6487 -20 0
-6487 813 0
-932 6485 6486 6487 0
-6488 -25 0
-6488 858 0
-6489 -27 0
-6489 851 0
-6490 -29 0
-6490 849 0
-932 6488 6489 6490 0
-6491 -33 0
-6491 886 0
-6492 -35 0
-6492 879 0
-6493 -37 0
-6493 877 0
-932 6491 6492 6493 0
-6494 -40 0
-6494 907 0
-6495 -42 0
-6495 900 0
-6496 -44 0
-6496 898 0
-932 6494 6495 6496 0
-6497 -46 0
-6497 922 0
-6498 -48 0
-6498 915 0
-6499 -50 0
-6499 913 0
-932 6497 6498 6499 0
-6500 -52 0
-6500 938 0
-6501 -57 0
-6501 929 0
-6502 -59 0
-6502 927 0
-932 6500 6501 6502 0
-6503 -54 0
-6503 943 0
-6504 -61 0
-6504 934 0
-6505 -64 0
-6505 931 0
-932 6503 6504 6505 0
-6506 -56 0
-6506 945 0
-6507 -63 0
-6507 936 0
-6508 -66 0
-6508 933 0
-932 6506 6507 6508 0
-6509 -6 0
-6509 778 0
-6510 -8 0
-6510 771 0
-6511 -11 0
-6511 768 0
-933 6509 6510 6511 0
-6512 -16 0
-6512 823 0
-6513 -18 0
-6513 816 0
-6514 -21 0
-6514 813 0
-933 6512 6513 6514 0
-6515 -25 0
-6515 859 0
-6516 -27 0
-6516 852 0
-6517 -30 0
-6517 849 0
-933 6515 6516 6517 0
-6518 -33 0
-6518 887 0
-6519 -35 0
-6519 880 0
-6520 -38 0
-6520 877 0
-933 6518 6519 6520 0
-6521 -40 0
-6521 908 0
-6522 -42 0
-6522 901 0
-6523 -45 0
-6523 898 0
-933 6521 6522 6523 0
-6524 -46 0
-6524 923 0
-6525 -48 0
-6525 916 0
-6526 -51 0
-6526 913 0
-933 6524 6525 6526 0
-6527 -52 0
-6527 939 0
-6528 -57 0
-6528 930 0
-6529 -60 0
-6529 927 0
-933 6527 6528 6529 0
-6530 -54 0
-6530 944 0
-6531 -61 0
-6531 935 0
-6532 -65 0
-6532 931 0
-933 6530 6531 6532 0
-6533 -55 0
-6533 945 0
-6534 -62 0
-6534 936 0
-6535 -66 0
-6535 932 0
-933 6533 6534 6535 0
-6536 -6 0
-6536 779 0
-6537 -9 0
-6537 770 0
-6538 -10 0
-6538 769 0
-934 6536 6537 6538 0
-6539 -16 0
-6539 824 0
-6540 -19 0
-6540 815 0
-6541 -20 0
-6541 814 0
-934 6539 6540 6541 0
-6542 -25 0
-6542 860 0
-6543 -28 0
-6543 851 0
-6544 -29 0
-6544 850 0
-934 6542 6543 6544 0
-6545 -33 0
-6545 888 0
-6546 -36 0
-6546 879 0
-6547 -37 0
-6547 878 0
-934 6545 6546 6547 0
-6548 -40 0
-6548 909 0
-6549 -43 0
-6549 900 0
-6550 -44 0
-6550 899 0
-934 6548 6549 6550 0
-6551 -46 0
-6551 924 0
-6552 -49 0
-6552 915 0
-6553 -50 0
-6553 914 0
-934 6551 6552 6553 0
-6554 -52 0
-6554 940 0
-6555 -58 0
-6555 929 0
-6556 -59 0
-6556 928 0
-934 6554 6555 6556 0
-6557 -53 0
-6557 943 0
-6558 -61 0
-6558 932 0
-6559 -62 0
-6559 931 0
-934 6557 6558 6559 0
-6560 -56 0
-6560 946 0
-6561 -65 0
-6561 936 0
-6562 -66 0
-6562 935 0
-934 6560 6561 6562 0
-6563 -6 0
-6563 780 0
-6564 -9 0
-6564 771 0
-6565 -11 0
-6565 769 0
-935 6563 6564 6565 0
-6566 -16 0
-6566 825 0
-6567 -19 0
-6567 816 0
-6568 -21 0
-6568 814 0
-935 6566 6567 6568 0
-6569 -25 0
-6569 861 0
-6570 -28 0
-6570 852 0
-6571 -30 0
-6571 850 0
-935 6569 6570 6571 0
-6572 -33 0
-6572 889 0
-6573 -36 0
-6573 880 0
-6574 -38 0
-6574 878 0
-935 6572 6573 6574 0
-6575 -40 0
-6575 910 0
-6576 -43 0
-6576 901 0
-6577 -45 0
-6577 899 0
-935 6575 6576 6577 0
-6578 -46 0
-6578 925 0
-6579 -49 0
-6579 916 0
-6580 -51 0
-6580 914 0
-935 6578 6579 6580 0
-6581 -52 0
-6581 941 0
-6582 -58 0
-6582 930 0
-6583 -60 0
-6583 928 0
-935 6581 6582 6583 0
-6584 -53 0
-6584 944 0
-6585 -61 0
-6585 933 0
-6586 -63 0
-6586 931 0
-935 6584 6585 6586 0
-6587 -55 0
-6587 946 0
-6588 -64 0
-6588 936 0
-6589 -66 0
-6589 934 0
-935 6587 6588 6589 0
-6590 -6 0
-6590 781 0
-6591 -10 0
-6591 771 0
-6592 -11 0
-6592 770 0
-936 6590 6591 6592 0
-6593 -16 0
-6593 826 0
-6594 -20 0
-6594 816 0
-6595 -21 0
-6595 815 0
-936 6593 6594 6595 0
-6596 -25 0
-6596 862 0
-6597 -29 0
-6597 852 0
-6598 -30 0
-6598 851 0
-936 6596 6597 6598 0
-6599 -33 0
-6599 890 0
-6600 -37 0
-6600 880 0
-6601 -38 0
-6601 879 0
-936 6599 6600 6601 0
-6602 -40 0
-6602 911 0
-6603 -44 0
-6603 901 0
-6604 -45 0
-6604 900 0
-936 6602 6603 6604 0
-6605 -46 0
-6605 926 0
-6606 -50 0
-6606 916 0
-6607 -51 0
-6607 915 0
-936 6605 6606 6607 0
-6608 -52 0
-6608 942 0
-6609 -59 0
-6609 930 0
-6610 -60 0
-6610 929 0
-936 6608 6609 6610 0
-6611 -53 0
-6611 945 0
-6612 -62 0
-6612 933 0
-6613 -63 0
-6613 932 0
-936 6611 6612 6613 0
-6614 -54 0
-6614 946 0
-6615 -64 0
-6615 935 0
-6616 -65 0
-6616 934 0
-936 6614 6615 6616 0
-6617 -7 0
-6617 776 0
-6618 -8 0
-6618 773 0
-6619 -9 0
-6619 772 0
-937 6617 6618 6619 0
-6620 -17 0
-6620 821 0
-6621 -18 0
-6621 818 0
-6622 -19 0
-6622 817 0
-937 6620 6621 6622 0
-6623 -26 0
-6623 857 0
-6624 -27 0
-6624 854 0
-6625 -28 0
-6625 853 0
-937 6623 6624 6625 0
-6626 -34 0
-6626 885 0
-6627 -35 0
-6627 882 0
-6628 -36 0
-6628 881 0
-937 6626 6627 6628 0
-6629 -41 0
-6629 906 0
-6630 -42 0
-6630 903 0
-6631 -43 0
-6631 902 0
-937 6629 6630 6631 0
-6632 -47 0
-6632 921 0
-6633 -48 0
-6633 918 0
-6634 -49 0
-6634 917 0
-937 6632 6633 6634 0
-6635 -52 0
-6635 931 0
-6636 -53 0
-6636 928 0
-6637 -54 0
-6637 927 0
-937 6635 6636 6637 0
-6638 -59 0
-6638 943 0
-6639 -62 0
-6639 940 0
-6640 -64 0
-6640 938 0
-937 6638 6639 6640 0
-6641 -60 0
-6641 944 0
-6642 -63 0
-6642 941 0
-6643 -65 0
-6643 939 0
-937 6641 6642 6643 0
-6644 -7 0
-6644 777 0
-6645 -8 0
-6645 774 0
-6646 -10 0
-6646 772 0
-938 6644 6645 6646 0
-6647 -17 0
-6647 822 0
-6648 -18 0
-6648 819 0
-6649 -20 0
-6649 817 0
-938 6647 6648 6649 0
-6650 -26 0
-6650 858 0
-6651 -27 0
-6651 855 0
-6652 -29 0
-6652 853 0
-938 6650 6651 6652 0
-6653 -34 0
-6653 886 0
-6654 -35 0
-6654 883 0
-6655 -37 0
-6655 881 0
-938 6653 6654 6655 0
-6656 -41 0
-6656 907 0
-6657 -42 0
-6657 904 0
-6658 -44 0
-6658 902 0
-938 6656 6657 6658 0
-6659 -47 0
-6659 922 0
-6660 -48 0
-6660 919 0
-6661 -50 0
-6661 917 0
-938 6659 6660 6661 0
-6662 -52 0
-6662 932 0
-6663 -53 0
-6663 929 0
-6664 -55 0
-6664 927 0
-938 6662 6663 6664 0
-6665 -58 0
-6665 943 0
-6666 -61 0
-6666 940 0
-6667 -64 0
-6667 937 0
-938 6665 6666 6667 0
-6668 -60 0
-6668 945 0
-6669 -63 0
-6669 942 0
-6670 -66 0
-6670 939 0
-938 6668 6669 6670 0
-6671 -7 0
-6671 778 0
-6672 -8 0
-6672 775 0
-6673 -11 0
-6673 772 0
-939 6671 6672 6673 0
-6674 -17 0
-6674 823 0
-6675 -18 0
-6675 820 0
-6676 -21 0
-6676 817 0
-939 6674 6675 6676 0
-6677 -26 0
-6677 859 0
-6678 -27 0
-6678 856 0
-6679 -30 0
-6679 853 0
-939 6677 6678 6679 0
-6680 -34 0
-6680 887 0
-6681 -35 0
-6681 884 0
-6682 -38 0
-6682 881 0
-939 6680 6681 6682 0
-6683 -41 0
-6683 908 0
-6684 -42 0
-6684 905 0
-6685 -45 0
-6685 902 0
-939 6683 6684 6685 0
-6686 -47 0
-6686 923 0
-6687 -48 0
-6687 920 0
-6688 -51 0
-6688 917 0
-939 6686 6687 6688 0
-6689 -52 0
-6689 933 0
-6690 -53 0
-6690 930 0
-6691 -56 0
-6691 927 0
-939 6689 6690 6691 0
-6692 -58 0
-6692 944 0
-6693 -61 0
-6693 941 0
-6694 -65 0
-6694 937 0
-939 6692 6693 6694 0
-6695 -59 0
-6695 945 0
-6696 -62 0
-6696 942 0
-6697 -66 0
-6697 938 0
-939 6695 6696 6697 0
-6698 -7 0
-6698 779 0
-6699 -9 0
-6699 774 0
-6700 -10 0
-6700 773 0
-940 6698 6699 6700 0
-6701 -17 0
-6701 824 0
-6702 -19 0
-6702 819 0
-6703 -20 0
-6703 818 0
-940 6701 6702 6703 0
-6704 -26 0
-6704 860 0
-6705 -28 0
-6705 855 0
-6706 -29 0
-6706 854 0
-940 6704 6705 6706 0
-6707 -34 0
-6707 888 0
-6708 -36 0
-6708 883 0
-6709 -37 0
-6709 882 0
-940 6707 6708 6709 0
-6710 -41 0
-6710 909 0
-6711 -43 0
-6711 904 0
-6712 -44 0
-6712 903 0
-940 6710 6711 6712 0
-6713 -47 0
-6713 924 0
-6714 -49 0
-6714 919 0
-6715 -50 0
-6715 918 0
-940 6713 6714 6715 0
-6716 -52 0
-6716 934 0
-6717 -54 0
-6717 929 0
-6718 -55 0
-6718 928 0
-940 6716 6717 6718 0
-6719 -57 0
-6719 943 0
-6720 -61 0
-6720 938 0
-6721 -62 0
-6721 937 0
-940 6719 6720 6721 0
-6722 -60 0
-6722 946 0
-6723 -65 0
-6723 942 0
-6724 -66 0
-6724 941 0
-940 6722 6723 6724 0
-6725 -7 0
-6725 780 0
-6726 -9 0
-6726 775 0
-6727 -11 0
-6727 773 0
-941 6725 6726 6727 0
-6728 -17 0
-6728 825 0
-6729 -19 0
-6729 820 0
-6730 -21 0
-6730 818 0
-941 6728 6729 6730 0
-6731 -26 0
-6731 861 0
-6732 -28 0
-6732 856 0
-6733 -30 0
-6733 854 0
-941 6731 6732 6733 0
-6734 -34 0
-6734 889 0
-6735 -36 0
-6735 884 0
-6736 -38 0
-6736 882 0
-941 6734 6735 6736 0
-6737 -41 0
-6737 910 0
-6738 -43 0
-6738 905 0
-6739 -45 0
-6739 903 0
-941 6737 6738 6739 0
-6740 -47 0
-6740 925 0
-6741 -49 0
-6741 920 0
-6742 -51 0
-6742 918 0
-941 6740 6741 6742 0
-6743 -52 0
-6743 935 0
-6744 -54 0
-6744 930 0
-6745 -56 0
-6745 928 0
-941 6743 6744 6745 0
-6746 -57 0
-6746 944 0
-6747 -61 0
-6747 939 0
-6748 -63 0
-6748 937 0
-941 6746 6747 6748 0
-6749 -59 0
-6749 946 0
-6750 -64 0
-6750 942 0
-6751 -66 0
-6751 940 0
-941 6749 6750 6751 0
-6752 -7 0
-6752 781 0
-6753 -10 0
-6753 775 0
-6754 -11 0
-6754 774 0
-942 6752 6753 6754 0
-6755 -17 0
-6755 826 0
-6756 -20 0
-6756 820 0
-6757 -21 0
-6757 819 0
-942 6755 6756 6757 0
-6758 -26 0
-6758 862 0
-6759 -29 0
-6759 856 0
-6760 -30 0
-6760 855 0
-942 6758 6759 6760 0
-6761 -34 0
-6761 890 0
-6762 -37 0
-6762 884 0
-6763 -38 0
-6763 883 0
-942 6761 6762 6763 0
-6764 -41 0
-6764 911 0
-6765 -44 0
-6765 905 0
-6766 -45 0
-6766 904 0
-942 6764 6765 6766 0
-6767 -47 0
-6767 926 0
-6768 -50 0
-6768 920 0
-6769 -51 0
-6769 919 0
-942 6767 6768 6769 0
-6770 -52 0
-6770 936 0
-6771 -55 0
-6771 930 0
-6772 -56 0
-6772 929 0
-942 6770 6771 6772 0
-6773 -57 0
-6773 945 0
-6774 -62 0
-6774 939 0
-6775 -63 0
-6775 938 0
-942 6773 6774 6775 0
-6776 -58 0
-6776 946 0
-6777 -64 0
-6777 941 0
-6778 -65 0
-6778 940 0
-942 6776 6777 6778 0
-6779 -8 0
-6779 779 0
-6780 -9 0
-6780 777 0
-6781 -10 0
-6781 776 0
-943 6779 6780 6781 0
-6782 -18 0
-6782 824 0
-6783 -19 0
-6783 822 0
-6784 -20 0
-6784 821 0
-943 6782 6783 6784 0
-6785 -27 0
-6785 860 0
-6786 -28 0
-6786 858 0
-6787 -29 0
-6787 857 0
-943 6785 6786 6787 0
-6788 -35 0
-6788 888 0
-6789 -36 0
-6789 886 0
-6790 -37 0
-6790 885 0
-943 6788 6789 6790 0
-6791 -42 0
-6791 909 0
-6792 -43 0
-6792 907 0
-6793 -44 0
-6793 906 0
-943 6791 6792 6793 0
-6794 -48 0
-6794 924 0
-6795 -49 0
-6795 922 0
-6796 -50 0
-6796 921 0
-943 6794 6795 6796 0
-6797 -53 0
-6797 934 0
-6798 -54 0
-6798 932 0
-6799 -55 0
-6799 931 0
-943 6797 6798 6799 0
-6800 -57 0
-6800 940 0
-6801 -58 0
-6801 938 0
-6802 -59 0
-6802 937 0
-943 6800 6801 6802 0
-6803 -63 0
-6803 946 0
-6804 -65 0
-6804 945 0
-6805 -66 0
-6805 944 0
-943 6803 6804 6805 0
-6806 -8 0
-6806 780 0
-6807 -9 0
-6807 778 0
-6808 -11 0
-6808 776 0
-944 6806 6807 6808 0
-6809 -18 0
-6809 825 0
-6810 -19 0
-6810 823 0
-6811 -21 0
-6811 821 0
-944 6809 6810 6811 0
-6812 -27 0
-6812 861 0
-6813 -28 0
-6813 859 0
-6814 -30 0
-6814 857 0
-944 6812 6813 6814 0
-6815 -35 0
-6815 889 0
-6816 -36 0
-6816 887 0
-6817 -38 0
-6817 885 0
-944 6815 6816 6817 0
-6818 -42 0
-6818 910 0
-6819 -43 0
-6819 908 0
-6820 -45 0
-6820 906 0
-944 6818 6819 6820 0
-6821 -48 0
-6821 925 0
-6822 -49 0
-6822 923 0
-6823 -51 0
-6823 921 0
-944 6821 6822 6823 0
-6824 -53 0
-6824 935 0
-6825 -54 0
-6825 933 0
-6826 -56 0
-6826 931 0
-944 6824 6825 6826 0
-6827 -57 0
-6827 941 0
-6828 -58 0
-6828 939 0
-6829 -60 0
-6829 937 0
-944 6827 6828 6829 0
-6830 -62 0
-6830 946 0
-6831 -64 0
-6831 945 0
-6832 -66 0
-6832 943 0
-944 6830 6831 6832 0
-6833 -8 0
-6833 781 0
-6834 -10 0
-6834 778 0
-6835 -11 0
-6835 777 0
-945 6833 6834 6835 0
-6836 -18 0
-6836 826 0
-6837 -20 0
-6837 823 0
-6838 -21 0
-6838 822 0
-945 6836 6837 6838 0
-6839 -27 0
-6839 862 0
-6840 -29 0
-6840 859 0
-6841 -30 0
-6841 858 0
-945 6839 6840 6841 0
-6842 -35 0
-6842 890 0
-6843 -37 0
-6843 887 0
-6844 -38 0
-6844 886 0
-945 6842 6843 6844 0
-6845 -42 0
-6845 911 0
-6846 -44 0
-6846 908 0
-6847 -45 0
-6847 907 0
-945 6845 6846 6847 0
-6848 -48 0
-6848 926 0
-6849 -50 0
-6849 923 0
-6850 -51 0
-6850 922 0
-945 6848 6849 6850 0
-6851 -53 0
-6851 936 0
-6852 -55 0
-6852 933 0
-6853 -56 0
-6853 932 0
-945 6851 6852 6853 0
-6854 -57 0
-6854 942 0
-6855 -59 0
-6855 939 0
-6856 -60 0
-6856 938 0
-945 6854 6855 6856 0
-6857 -61 0
-6857 946 0
-6858 -64 0
-6858 944 0
-6859 -65 0
-6859 943 0
-945 6857 6858 6859 0
-6860 -9 0
-6860 781 0
-6861 -10 0
-6861 780 0
-6862 -11 0
-6862 779 0
-946 6860 6861 6862 0
-6863 -19 0
-6863 826 0
-6864 -20 0
-6864 825 0
-6865 -21 0
-6865 824 0
-946 6863 6864 6865 0
-6866 -28 0
-6866 862 0
-6867 -29 0
-6867 861 0
-6868 -30 0
-6868 860 0
-946 6866 6867 6868 0
-6869 -36 0
-6869 890 0
-6870 -37 0
-6870 889 0
-6871 -38 0
-6871 888 0
-946 6869 6870 6871 0
-6872 -43 0
-6872 911 0
-6873 -44 0
-6873 910 0
-6874 -45 0
-6874 909 0
-946 6872 6873 6874 0
-6875 -49 0
-6875 926 0
-6876 -50 0
-6876 925 0
-6877 -51 0
-6877 924 0
-946 6875 6876 6877 0
-6878 -54 0
-6878 936 0
-6879 -55 0
-6879 935 0
-6880 -56 0
-6880 934 0
-946 6878 6879 6880 0
-6881 -58 0
-6881 942 0
-6882 -59 0
-6882 941 0
-6883 -60 0
-6883 940 0
-946 6881 6882 6883 0
-6884 -61 0
-6884 945 0
-6885 -62 0
-6885 944 0
-6886 -63 0
-6886 943 0
-946 6884 6885 6886 0
-1 -2 -12 727 0
-1 -3 -13 728 0
-1 -4 -14 729 0
-1 -5 -15 730 0
-1 -6 -16 731 0
-1 -7 -17 732 0
-1 -8 -18 733 0
-1 -9 -19 734 0
-1 -10 -20 735 0
-1 -11 -21 736 0
-2 -3 -22 737 0
-2 -4 -23 738 0
-2 -5 -24 739 0
-2 -6 -25 740 0
-2 -7 -26 741 0
-2 -8 -27 742 0
-2 -9 -28 743 0
-2 -10 -29 744 0
-2 -11 -30 745 0
-3 -4 -31 746 0
-3 -5 -32 747 0
-3 -6 -33 748 0
-3 -7 -34 749 0
-3 -8 -35 750 0
-3 -9 -36 751 0
-3 -10 -37 752 0
-3 -11 -38 753 0
-4 -5 -39 754 0
-4 -6 -40 755 0
-4 -7 -41 756 0
-4 -8 -42 757 0
-4 -9 -43 758 0
-4 -10 -44 759 0
-4 -11 -45 760 0
-5 -6 -46 761 0
-5 -7 -47 762 0
-5 -8 -48 763 0
-5 -9 -49 764 0
-5 -10 -50 765 0
-5 -11 -51 766 0
-6 -7 -52 767 0
-6 -8 -53 768 0
-6 -9 -54 769 0
-6 -10 -55 770 0
-6 -11 -56 771 0
-7 -8 -57 772 0
-7 -9 -58 773 0
-7 -10 -59 774 0
-7 -11 -60 775 0
-8 -9 -61 776 0
-8 -10 -62 777 0
-8 -11 -63 778 0
-9 -10 -64 779 0
-9 -11 -65 780 0
-10 -11 -66 781 0
-12 -13 -22 782 0
-12 -14 -23 783 0
-12 -15 -24 784 0
-12 -16 -25 785 0
-12 -17 -26 786 0
-12 -18 -27 787 0
-12 -19 -28 788 0
-12 -20 -29 789 0
-12 -21 -30 790 0
-13 -14 -31 791 0
-13 -15 -32 792 0
-13 -16 -33 793 0
-13 -17 -34 794 0
-13 -18 -35 795 0
-13 -19 -36 796 0
-13 -20 -37 797 0
-13 -21 -38 798 0
-14 -15 -39 799 0
-14 -16 -40 800 0
-14 -17 -41 801 0
-14 -18 -42 802 0
-14 -19 -43 803 0
-14 -20 -44 804 0
-14 -21 -45 805 0
-15 -16 -46 806 0
-15 -17 -47 807 0
-15 -18 -48 808 0
-15 -19 -49 809 0
-15 -20 -50 810 0
-15 -21 -51 811 0
-16 -17 -52 812 0
-16 -18 -53 813 0
-16 -19 -54 814 0
-16 -20 -55 815 0
-16 -21 -56 816 0
-17 -18 -57 817 0
-17 -19 -58 818 0
-17 -20 -59 819 0
-17 -21 -60 820 0
-18 -19 -61 821 0
-18 -20 -62 822 0
-18 -21 -63 823 0
-19 -20 -64 824 0
-19 -21 -65 825 0
-20 -21 -66 826 0
-22 -23 -31 827 0
-22 -24 -32 828 0
-22 -25 -33 829 0
-22 -26 -34 830 0
-22 -27 -35 831 0
-22 -28 -36 832 0
-22 -29 -37 833 0
-22 -30 -38 834 0
-23 -24 -39 835 0
-23 -25 -40 836 0
-23 -26 -41 837 0
-23 -27 -42 838 0
-23 -28 -43 839 0
-23 -29 -44 840 0
-23 -30 -45 841 0
-24 -25 -46 842 0
-24 -26 -47 843 0
-24 -27 -48 844 0
-24 -28 -49 845 0
-24 -29 -50 846 0
-24 -30 -51 847 0
-25 -26 -52 848 0
-25 -27 -53 849 0
-25 -28 -54 850 0
-25 -29 -55 851 0
-25 -30 -56 852 0
-26 -27 -57 853 0
-26 -28 -58 854 0
-26 -29 -59 855 0
-26 -30 -60 856 0
-27 -28 -61 857 0
-27 -29 -62 858 0
-27 -30 -63 859 0
-28 -29 -64 860 0
-28 -30 -65 861 0
-29 -30 -66 862 0
-31 -32 -39 863 0
-31 -33 -40 864 0
-31 -34 -41 865 0
-31 -35 -42 866 0
-31 -36 -43 867 0
-31 -37 -44 868 0
-31 -38 -45 869 0
-32 -33 -46 870 0
-32 -34 -47 871 0
-32 -35 -48 872 0
-32 -36 -49 873 0
-32 -37 -50 874 0
-32 -38 -51 875 0
-33 -34 -52 876 0
-33 -35 -53 877 0
-33 -36 -54 878 0
-33 -37 -55 879 0
-33 -38 -56 880 0
-34 -35 -57 881 0
-34 -36 -58 882 0
-34 -37 -59 883 0
-34 -38 -60 884 0
-35 -36 -61 885 0
-35 -37 -62 886 0
-35 -38 -63 887 0
-36 -37 -64 888 0
-36 -38 -65 889 0
-37 -38 -66 890 0
-39 -40 -46 891 0
-39 -41 -47 892 0
-39 -42 -48 893 0
-39 -43 -49 894 0
-39 -44 -50 895 0
-39 -45 -51 896 0
-40 -41 -52 897 0
-40 -42 -53 898 0
-40 -43 -54 899 0
-40 -44 -55 900 0
-40 -45 -56 901 0
-41 -42 -57 902 0
-41 -43 -58 903 0
-41 -44 -59 904 0
-41 -45 -60 905 0
-42 -43 -61 906 0
-42 -44 -62 907 0
-42 -45 -63 908 0
-43 -44 -64 909 0
-43 -45 -65 910 0
-44 -45 -66 911 0
-46 -47 -52 912 0
-46 -48 -53 913 0
-46 -49 -54 914 0
-46 -50 -55 915 0
-46 -51 -56 916 0
-47 -48 -57 917 0
-47 -49 -58 918 0
-47 -50 -59 919 0
-47 -51 -60 920 0
-48 -49 -61 921 0
-48 -50 -62 922 0
-48 -51 -63 923 0
-49 -50 -64 924 0
-49 -51 -65 925 0
-50 -51 -66 926 0
-52 -53 -57 927 0
-52 -54 -58 928 0
-52 -55 -59 929 0
-52 -56 -60 930 0
-53 -54 -61 931 0
-53 -55 -62 932 0
-53 -56 -63 933 0
-54 -55 -64 934 0
-54 -56 -65 935 0
-55 -56 -66 936 0
-57 -58 -61 937 0
-57 -59 -62 938 0
-57 -60 -63 939 0
-58 -59 -64 940 0
-58 -60 -65 941 0
-59 -60 -66 942 0
-61 -62 -64 943 0
-61 -63 -65 944 0
-62 -63 -66 945 0
-64 -65 -66 946 0
2 4 8 9 10 11 13 15 23 27 28 29 30 32 42 43 44 45 52 61 62 63 64 65 66 0
2 4 8 9 10 13 15 21 23 27 28 29 32 38 42 43 44 51 52 61 62 64 0
2 4 8 9 10 13 15 23 27 28 29 32 42 43 44 52 56 60 61 62 64 0
2 4 8 9 11 13 15 20 23 27 28 30 32 37 42 43 45 50 52 61 63 65 0
2 4 8 9 13 15 20 21 23 27 28 32 37 38 42 43 50 51 52 61 66 0
2 4 8 9 13 15 20 23 27 28 32 37 42 43 50 52 56 60 61 0
2 4 8 9 11 13 15 23 27 28 30 32 42 43 45 52 55 59 61 63 65 0
2 4 8 9 13 15 21 23 27 28 32 38 42 43 51 52 55 59 61 0
2 4 8 9 13 15 23 27 28 32 42 43 52 55 56 59 60 61 66 0
2 4 8 10 11 13 15 19 23 27 29 30 32 36 42 44 45 49 52 62 63 66 0
2 4 8 10 13 15 19 21 23 27 29 32 36 38 42 44 49 51 52 62 65 0
2 4 8 10 13 15 19 23 27 29 32 36 42 44 49 52 56 60 62 0
2 4 8 11 13 15 19 20 23 27 30 32 36 37 42 45 49 50 52 63 64 0
2 4 8 13 15 19 20 21 23 27 32 36 37 38 42 49 50 51 52 64 65 66 0
2 4 8 13 15 19 20 23 27 32 36 37 42 49 50 52 56 60 64 0
2 4 8 11 13 15 19 23 27 30 32 36 42 45 49 52 55 59 63 0
2 4 8 13 15 19 21 23 27 32 36 38 42 49 51 52 55 59 65 0
2 4 8 13 15 19 23 27 32 36 42 49 52 55 56 59 60 66 0
2 4 8 10 11 13 15 23 27 29 30 32 42 44 45 52 54 58 62 63 66 0
2 4 8 10 13 15 21 23 27 29 32 38 42 44 51 52 54 58 62 0
2 4 8 10 13 15 23 27 29 32 42 44 52 54 56 58 60 62 65 0
2 4 8 11 13 15 20 23 27 30 32 37 42 45 50 52 54 58 63 0
2 4 8 13 15 20 21 23 27 32 37 38 42 50 51 52 54 58 66 0
2 4 8 13 15 20 23 27 32 37 42 50 52 54 56 58 60 65 0
2 4 8 11 13 15 23 27 30 32 42 45 52 54 55 58 59 63 64 0
2 4 8 13 15 21 23 27 32 38 42 51 52 54 55 58 59 64 0
2 4 8 13 15 23 27 32 42 52 54 55 56 58 59 60 64 65 66 0
2 4 9 10 11 13 15 18 23 28 29 30 32 35 43 44 45 48 52 64 65 66 0
2 4 9 10 13 15 18 21 23 28 29 32 35 38 43 44 48 51 52 63 64 0
2 4 9 10 13 15 18 23 28 29 32 35 43 44 48 52 56 60 64 0
2 4 9 11 13 15 18 20 23 28 30 32 35 37 43 45 48 50 52 62 65 0
2 4 9 13 15 18 20 21 23 28 32 35 37 38 43 48 50 51 52 62 63 66 0
2 4 9 13 15 18 20 23 28 32 35 37 43 48 50 52 56 60 62 0
2 4 9 11 13 15 18 23 28 30 32 35 43 45 48 52 55 59 65 0
2 4 9 13 15 18 21 23 28 32 35 38 43 48 51 52 55 59 63 0
2 4 9 13 15 18 23 28 32 35 43 48 52 55 56 59 60 66 0
2 4 10 11 13 15 18 19 23 29 30 32 35 36 44 45 48 49 52 61 66 0
2 4 10 13 15 18 19 21 23 29 32 35 36 38 44 48 49 51 52 61 63 65 0
2 4 10 13 15 18 19 23 29 32 35 36 44 48 49 52 56 60 61 0
2 4 11 13 15 18 19 20 23 30 32 35 36 37 45 48 49 50 52 61 62 64 0
2 4 13 15 18 19 20 21 23 32 35 36 37 38 48 49 50 51 52 61 62 63 64 65 66 0
2 4 13 15 18 19 20 23 32 35 36 37 48 49 50 52 56 60 61 62 64 0
2 4 11 13 15 18 19 23 30 32 35 36 45 48 49 52 55 59 61 0
2 4 13 15 18 19 21 23 32 35 36 38 48 49 51 52 55 59 61 63 65 0
2 4 13 15 18 19 23 32 35 36 48 49 52 55 56 59 60 61 66 0
2 4 10 11 13 15 18 23 29 30 32 35 44 45 48 52 54 58 66 0
2 4 10 13 15 18 21 23 29 32 35 38 44 48 51 52 54 58 63 0
2 4 10 13 15 18 23 29 32 35 44 48 52 54 56 58 60 65 0
2 4 11 13 15 18 20 23 30 32 35 37 45 48 50 52 54 58 62 0
2 4 13 15 18 20 21 23 32 35 37 38 48 50 51 52 54 58 62 63 66 0
2 4 13 15 18 20 23 32 35 37 48 50 52 54 56 58 60 62 65 0
2 4 11 13 15 18 23 30 32 35 45 48 52 54 55 58 59 64 0
2 4 13 15 18 21 23 32 35 38 48 51 52 54 55 58 59 63 64 0
2 4 13 15 18 23 32 35 48 52 54 55 56 58 59 60 64 65 66 0
2 4 9 10 11 13 15 23 28 29 30 32 43 44 45 52 53 57 64 65 66 0
2 4 9 10 13 15 21 23 28 29 32 38 43 44 51 52 53 57 64 0
2 4 9 10 13 15 23 28 29 32 43 44 52 53 56 57 60 63 64 0
2 4 9 11 13 15 20 23 28 30 32 37 43 45 50 52 53 57 65 0
2 4 9 13 15 20 21 23 28 32 37 38 43 50 51 52 53 57 66 0
2 4 9 13 15 20 23 28 32 37 43 50 52 53 56 57 60 63 0
2 4 9 11 13 15 23 28 30 32 43 45 52 53 55 57 59 62 65 0
2 4 9 13 15 21 23 28 32 38 43 51 52 53 55 57 59 62 0
2 4 9 13 15 23 28 32 43 52 53 55 56 57 59 60 62 63 66 0
2 4 10 11 13 15 19 23 29 30 32 36 44 45 49 52 53 57 66 0
2 4 10 13 15 19 21 23 29 32 36 38 44 49 51 52 53 57 65 0
2 4 10 13 15 19 23 29 32 36 44 49 52 53 56 57 60 63 0
2 4 11 13 15 19 20 23 30 32 36 37 45 49 50 52 53 57 64 0
2 4 13 15 19 20 21 23 32 36 37 38 49 50 51 52 53 57 64 65 66 0
2 4 13 15 19 20 23 32 36 37 49 50 52 53 56 57 60 63 64 0
2 4 11 13 15 19 23 30 32 36 45 49 52 53 55 57 59 62 0
2 4 13 15 19 21 23 32 36 38 49 51 52 53 55 57 59 62 65 0
2 4 13 15 19 23 32 36 49 52 53 55 56 57 59 60 62 63 66 0
2 4 10 11 13 15 23 29 30 32 44 45 52 53 54 57 58 61 66 0
2 4 10 13 15 21 23 29 32 38 44 51 52 53 54 57 58 61 0
2 4 10 13 15 23 29 32 44 52 53 54 56 57 58 60 61 63 65 0
2 4 11 13 15 20 23 30 32 37 45 50 52 53 54 57 58 61 0
2 4 13 15 20 21 23 32 37 38 50 51 52 53 54 57 58 61 66 0
2 4 13 15 20 23 32 37 50 52 53 54 56 57 58 60 61 63 65 0
2 4 11 13 15 23 30 32 45 52 53 54 55 57 58 59 61 62 64 0
2 4 13 15 21 23 32 38 51 52 53 54 55 57 58 59 61 62 64 0
2 4 13 15 23 32 52 53 54 55 56 57 58 59 60 61 62 63 64 65 66 0
2 4 8 9 10 11 13 16 23 27 28 29 30 33 42 43 44 45 47 61 62 63 64 65 66 0
2 4 8 9 10 13 16 21 23 27 28 29 33 38 42 43 44 47 56 61 62 64 0
2 4 8 9 10 13 16 23 27 28 29 33 42 43 44 47 51 60 61 62 64 0
2 4 8 9 11 13 16 20 23 27 28 30 33 37 42 43 45 47 55 61 63 65 0
2 4 8 9 13 16 20 21 23 27 28 33 37 38 42 43 47 55 56 61 66 0
2 4 8 9 13 16 20 23 27 28 33 37 42 43 47 51 55 60 61 0
2 4 8 9 11 13 16 23 27 28 30 33 42 43 45 47 50 59 61 63 65 0
2 4 8 9 13 16 21 23 27 28 33 38 42 43 47 50 56 59 61 0
2 4 8 9 13 16 23 27 28 33 42 43 47 50 51 59 60 61 66 0
2 4 8 10 11 13 16 19 23 27 29 30 33 36 42 44 45 47 54 62 63 66 0
2 4 8 10 13 16 19 21 23 27 29 33 36 38 42 44 47 54 56 62 65 0
2 4 8 10 13 16 19 23 27 29 33 36 42 44 47 51 54 60 62 0
2 4 8 11 13 16 19 20 23 27 30 33 36 37 42 45 47 54 55 63 64 0
2 4 8 13 16 19 20 21 23 27 33 36 37 38 42 47 54 55 56 64 65 66 0
2 4 8 13 16 19 20 23 27 33 36 37 42 47 51 54 55 60 64 0
2 4 8 11 13 16 19 23 27 30 33 36 42 45 47 50 54 59 63 0
2 4 8 13 16 19 21 23 27 33 36 38 42 47 50 54 56 59 65 0
2 4 8 13 16 19 23 27 33 36 42 47 50 51 54 59 60 66 0
2 4 8 10 11 13 16 23 27 29 30 33 42 44 45 47 49 58 62 63 66 0
2 4 8 10 13 16 21 23 27 29 33 38 42 44 47 49 56 58 62 0
2 4 8 10 13 16 23 27 29 33 42 44 47 49 51 58 60 62 65 0
2 4 8 11 13 16 20 23 27 30 33 37 42 45 47 49 55 58 63 0
2 4 8 13 16 20 21 23 27 33 37 38 42 47 49 55 56 58 66 0
2 4 8 13 16 20 23 27 33 37 42 47 49 51 55 58 60 65 0
2 4 8 11 13 16 23 27 30 33 42 45 47 49 50 58 59 63 64 0
2 4 8 13 16 21 23 27 33 38 42 47 49 50 56 58 59 64 0
2 4 8 13 16 23 27 33 42 47 49 50 51 58 59 60 64 65 66 0
2 4 9 10 11 13 16 18 23 28 29 30 33 35 43 44 45 47 53 64 65 66 0
2 4 9 10 13 16 18 21 23 28 29 33 35 38 43 44 47 53 56 63 64 0
2 4 9 10 13 16 18 23 28 29 33 35 43 44 47 51 53 60 64 0
2 4 9 11 13 16 18 20 23 28 30 33 35 37 43 45 47 53 55 62 65 0
2 4 9 13 16 18 20 21 23 28 33 35 37 38 43 47 53 55 56 62 63 66 0
2 4 9 13 16 18 20 23 28 33 35 37 43 47 51 53 55 60 62 0
2 4 9 11 13 16 18 23 28 30 33 35 43 45 47 50 53 59 65 0
2 4 9 13 16 18 21 23 28 33 35 38 43 47 50 53 56 59 63 0
2 4 9 13 16 18 23 28 33 35 43 47 50 51 53 59 60 66 0
2 4 10 11 13 16 18 19 23 29 30 33 35 36 44 45 47 53 54 61 66 0
2 4 10 13 16 18 19 21 23 29 33 35 36 38 44 47 53 54 56 61 63 65 0
2 4 10 13 16 18 19 23 29 33 35 36 44 47 51 53 54 60 61 0
2 4 11 13 16 18 19 20 23 30 33 35 36 37 45 47 53 54 55 61 62 64 0
2 4 13 16 18 19 20 21 23 33 35 36 37 38 47 53 54 55 56 61 62 63 64 65 66 0
2 4 13 16 18 19 20 23 33 35 36 37 47 51 53 54 55 60 61 62 64 0
2 4 11 13 16 18 19 23 30 33 35 36 45 47 50 53 54 59 61 0
2 4 13 16 18 19 21 23 33 35 36 38 47 50 53 54 56 59 61 63 65 0
2 4 13 16 18 19 23 33 35 36 47 50 51 53 54 59 60 61 66 0
2 4 10 11 13 16 18 23 29 30 33 35 44 45 47 49 53 58 66 0
2 4 10 13 16 18 21 23 29 33 35 38 44 47 49 53 56 58 63 0
2 4 10 13 16 18 23 29 33 35 44 47 49 51 53 58 60 65 0
2 4 11 13 16 18 20 23 30 33 35 37 45 47 49 53 55 58 62 0
2 4 13 16 18 20 21 23 33 35 37 38 47 49 53 55 56 58 62 63 66 0
2 4 13 16 18 20 23 33 35 37 47 49 51 53 55 58 60 62 65 0
2 4 11 13 16 18 23 30 33 35 45 47 49 50 53 58 59 64 0
2 4 13 16 18 21 23 33 35 38 47 49 50 53 56 58 59 63 64 0
2 4 13 16 18 23 33 35 47 49 50 51 53 58 59 60 64 65 66 0
2 4 9 10 11 13 16 23 28 29 30 33 43 44 45 47 48 57 64 65 66 0
2 4 9 10 13 16 21 23 28 29 33 38 43 44 47 48 56 57 64 0
2 4 9 10 13 16 23 28 29 33 43 44 47 48 51 57 60 63 64 0
2 4 9 11 13 16 20 23 28 30 33 37 43 45 47 48 55 57 65 0
2 4 9 13 16 20 21 23 28 33 37 38 43 47 48 55 56 57 66 0
2 4 9 13 16 20 23 28 33 37 43 47 48 51 55 57 60 63 0
2 4 9 11 13 16 23 28 30 33 43 45 47 48 50 57 59 62 65 0
2 4 9 13 16 21 23 28 33 38 43 47 48 50 56 57 59 62 0
2 4 9 13 16 23 28 33 43 47 48 50 51 57 59 60 62 63 66 0
2 4 10 11 13 16 19 23 29 30 33 36 44 45 47 48 54 57 66 0
2 4 10 13 16 19 21 23 29 33 36 38 44 47 48 54 56 57 65 0
2 4 10 13 16 19 23 29 33 36 44 47 48 51 54 57 60 63 0
2 4 11 13 16 19 20 23 30 33 36 37 45 47 48 54 55 57 64 0
2 4 13 16 19 20 21 23 33 36 37 38 47 48 54 55 56 57 64 65 66 0
2 4 13 16 19 20 23 33 36 37 47 48 51 54 55 57 60 63 64 0
2 4 11 13 16 19 23 30 33 36 45 47 48 50 54 57 59 62 0
2 4 13 16 19 21 23 33 36 38 47 48 50 54 56 57 59 62 65 0
2 4 13 16 19 23 33 36 47 48 50 51 54 57 59 60 62 63 66 0
2 4 10 11 13 16 23 29 30 33 44 45 47 48 49 57 58 61 66 0
2 4 10 13 16 21 23 29 33 38 44 47 48 49 56 57 58 61 0
2 4 10 13 16 23 29 33 44 47 48 49 51 57 58 60 61 63 65 0
2 4 11 13 16 20 23 30 33 37 45 47 48 49 55 57 58 61 0
2 4 13 16 20 21 23 33 37 38 47 48 49 55 56 57 58 61 66 0
2 4 13 16 20 23 33 37 47 48 49 51 55 57 58 60 61 63 65 0
2 4 11 13 16 23 30 33 45 47 48 49 50 57 58 59 61 62 64 0
2 4 13 16 21 23 33 38 47 48 49 50 56 57 58 59 61 62 64 0
2 4 13 16 23 33 47 48 49 50 51 57 58 59 60 61 62 63 64 65 66 0
2 5 8 9 10 11 13 16 24 27 28 29 30 33 41 48 49 50 51 61 62 63 64 65 66 0
2 5 8 9 10 13 16 21 24 27 28 29 33 38 41 48 49 50 56 61 62 64 0
2 5 8 9 10 13 16 24 27 28 29 33 41 45 48 49 50 60 61 62 64 0
2 5 8 9 11 13 16 20 24 27 28 30 33 37 41 48 49 51 55 61 63 65 0
2 5 8 9 13 16 20 21 24 27 28 33 37 38 41 48 49 55 56 61 66 0
2 5 8 9 13 16 20 24 27 28 33 37 41 45 48 49 55 60 61 0
2 5 8 9 11 13 16 24 27 28 30 33 41 44 48 49 51 59 61 63 65 0
2 5 8 9 13 16 21 24 27 28 33 38 41 44 48 49 56 59 61 0
2 5 8 9 13 16 24 27 28 33 41 44 45 48 49 59 60 61 66 0
2 5 8 10 11 13 16 19 24 27 29 30 33 36 41 48 50 51 54 62 63 66 0
2 5 8 10 13 16 19 21 24 27 29 33 36 38 41 48 50 54 56 62 65 0
2 5 8 10 13 16 19 24 27 29 33 36 41 45 48 50 54 60 62 0
2 5 8 11 13 16 19 20 24 27 30 33 36 37 41 48 51 54 55 63 64 0
2 5 8 13 16 19 20 21 24 27 33 36 37 38 41 48 54 55 56 64 65 66 0
2 5 8 13 16 19 20 24 27 33 36 37 41 45 48 54 55 60 64 0
2 5 8 11 13 16 19 24 27 30 33 36 41 44 48 51 54 59 63 0
2 5 8 13 16 19 21 24 27 33 36 38 41 44 48 54 56 59 65 0
2 5 8 13 16 19 24 27 33 36 41 44 45 48 54 59 60 66 0
2 5 8 10 11 13 16 24 27 29 30 33 41 43 48 50 51 58 62 63 66 0
2 5 8 10 13 16 21 24 27 29 33 38 41 43 48 50 56 58 62 0
2 5 8 10 13 16 24 27 29 33 41 43 45 48 50 58 60 62 65 0
2 5 8 11 13 16 20 24 27 30 33 37 41 43 48 51 55 58 63 0
2 5 8 13 16 20 21 24 27 33 37 38 41 43 48 55 56 58 66 0
2 5 8 13 16 20 24 27 33 37 41 43 45 48 55 58 60 65 0
2 5 8 11 13 16 24 27 30 33 41 43 44 48 51 58 59 63 64 0
2 5 8 13 16 21 24 27 33 38 41 43 44 48 56 58 59 64 0
2 5 8 13 16 24 27 33 41 43 44 45 48 58 59 60 64 65 66 0
2 5 9 10 11 13 16 18 24 28 29 30 33 35 41 49 50 51 53 64 65 66 0
2 5 9 10 13 16 18 21 24 28 29 33 35 38 41 49 50 53 56 63 64 0
2 5 9 10 13 16 18 24 28 29 33 35 41 45 49 50 53 60 64 0
2 5 9 11 13 16 18 20 24 28 30 33 35 37 41 49 51 53 55 62 65 0
2 5 9 13 16 18 20 21 24 28 33 35 37 38 41 49 53 55 56 62 63 66 0
2 5 9 13 16 18 20 24 28 33 35 37 41 45 49 53 55 60 62 0
2 5 9 11 13 16 18 24 28 30 33 35 41 44 49 51 53 59 65 0
2 5 9 13 16 18 21 24 28 33 35 38 41 44 49 53 56 59 63 0
2 5 9 13 16 18 24 28 33 35 41 44 45 49 53 59 60 66 0
2 5 10 11 13 16 18 19 24 29 30 33 35 36 41 50 51 53 54 61 66 0
2 5 10 13 16 18 19 21 24 29 33 35 36 38 41 50 53 54 56 61 63 65 0
2 5 10 13 16 18 19 24 29 33 35 36 41 45 50 53 54 60 61 0
2 5 11 13 16 18 19 20 24 30 33 35 36 37 41 51 53 54 55 61 62 64 0
2 5 13 16 18 19 20 21 24 33 35 36 37 38 41 53 54 55 56 61 62 63 64 65 66 0
2 5 13 16 18 19 20 24 33 35 36 37 41 45 53 54 55 60 61 62 64 0
2 5 11 13 16 18 19 24 30 33 35 36 41 44 51 53 54 59 61 0
2 5 13 16 18 19 21 24 33 35 36 38 41 44 53 54 56 59 61 63 65 0
2 5 13 16 18 19 24 33 35 36 41 44 45 53 54 59 60 61 66 0
2 5 10 11 13 16 18 24 29 30 33 35 41 43 50 51 53 58 66 0
2 5 10 13 16 18 21 24 29 33 35 38 41 43 50 53 56 58 63 0
2 5 10 13 16 18 24 29 33 35 41 43 45 50 53 58 60 65 0
2 5 11 13 16 18 20 24 30 33 35 37 41 43 51 53 55 58 62 0
2 5 13 16 18 20 21 24 33 35 37 38 41 43 53 55 56 58 62 63 66 0
2 5 13 16 18 20 24 33 35 37 41 43 45 53 55 58 60 62 65 0
2 5 11 13 16 18 24 30 33 35 41 43 44 51 53 58 59 64 0
2 5 13 16 18 21 24 33 35 38 41 43 44 53 56 58 59 63 64 0
2 5 13 16 18 24 33 35 41 43 44 45 53 58 59 60 64 65 66 0
2 5 9 10 11 13 16 24 28 29 30 33 41 42 49 50 51 57 64 65 66 0
2 5 9 10 13 16 21 24 28 29 33 38 41 42 49 50 56 57 64 0
2 5 9 10 13 16 24 28 29 33 41 42 45 49 50 57 60 63 64 0
2 5 9 11 13 16 20 24 28 30 33 37 41 42 49 51 55 57 65 0
2 5 9 13 16 20 21 24 28 33 37 38 41 42 49 55 56 57 66 0
2 5 9 13 16 20 24 28 33 37 41 42 45 49 55 57 60 63 0
2 5 9 11 13 16 24 28 30 33 41 42 44 49 51 57 59 62 65 0
2 5 9 13 16 21 24 28 33 38 41 42 44 49 56 57 59 62 0
2 5 9 13 16 24 28 33 41 42 44 45 49 57 59 60 62 63 66 0
2 5 10 11 13 16 19 24 29 30 33 36 41 42 50 51 54 57 66 0
2 5 10 13 16 19 21 24 29 33 36 38 41 42 50 54 56 57 65 0
2 5 10 13 16 19 24 29 33 36 41 42 45 50 54 57 60 63 0
2 5 11 13 16 19 20 24 30 33 36 37 41 42 51 54 55 57 64 0
2 5 13 16 19 20 21 24 33 36 37 38 41 42 54 55 56 57 64 65 66 0
2 5 13 16 19 20 24 33 36 37 41 42 45 54 55 57 60 63 64 0
2 5 11 13 16 19 24 30 33 36 41 42 44 51 54 57 59 62 0
2 5 13 16 19 21 24 33 36 38 41 42 44 54 56 57 59 62 65 0
2 5 13 16 19 24 33 36 41 42 44 45 54 57 59 60 62 63 66 0
2 5 10 11 13 16 24 29 30 33 41 42 43 50 51 57 58 61 66 0
2 5 10 13 16 21 24 29 33 38 41 42 43 50 56 57 58 61 0
2 5 10 13 16 24 29 33 41 42 43 45 50 57 58 60 61 63 65 0
2 5 11 13 16 20 24 30 33 37 41 42 43 51 55 57 58 61 0
2 5 13 16 20 21 24 33 37 38 41 42 43 55 56 57 58 61 66 0
2 5 13 16 20 24 33 37 41 42 43 45 55 57 58 60 61 63 65 0
2 5 11 13 16 24 30 33 41 42 43 44 51 57 58 59 61 62 64 0
2 5 13 16 21 24 33 38 41 42 43 44 56 57 58 59 61 62 64 0
2 5 13 16 24 33 41 42 43 44 45 57 58 59 60 61 62 63 64 65 66 0
2 5 8 9 10 11 13 24 27 28 29 30 40 41 48 49 50 51 52 61 62 63 64 65 66 0
2 5 8 9 10 13 21 24 27 28 29 38 40 41 48 49 50 52 61 62 64 0
2 5 8 9 10 13 24 27 28 29 40 41 45 48 49 50 52 56 60 61 62 64 0
2 5 8 9 11 13 20 24 27 28 30 37 40 41 48 49 51 52 61 63 65 0
2 5 8 9 13 20 21 24 27 28 37 38 40 41 48 49 52 61 66 0
2 5 8 9 13 20 24 27 28 37 40 41 45 48 49 52 56 60 61 0
2 5 8 9 11 13 24 27 28 30 40 41 44 48 49 51 52 55 59 61 63 65 0
2 5 8 9 13 21 24 27 28 38 40 41 44 48 49 52 55 59 61 0
2 5 8 9 13 24 27 28 40 41 44 45 48 49 52 55 56 59 60 61 66 0
2 5 8 10 11 13 19 24 27 29 30 36 40 41 48 50 51 52 62 63 66 0
2 5 8 10 13 19 21 24 27 29 36 38 40 41 48 50 52 62 65 0
2 5 8 10 13 19 24 27 29 36 40 41 45 48 50 52 56 60 62 0
2 5 8 11 13 19 20 24 27 30 36 37 40 41 48 51 52 63 64 0
2 5 8 13 19 20 21 24 27 36 37 38 40 41 48 52 64 65 66 0
2 5 8 13 19 20 24 27 36 37 40 41 45 48 52 56 60 64 0
2 5 8 11 13 19 24 27 30 36 40 41 44 48 51 52 55 59 63 0
2 5 8 13 19 21 24 27 36 38 40 41 44 48 52 55 59 65 0
2 5 8 13 19 24 27 36 40 41 44 45 48 52 55 56 59 60 66 0
2 5 8 10 11 13 24 27 29 30 40 41 43 48 50 51 52 54 58 62 63 66 0
2 5 8 10 13 21 24 27 29 38 40 41 43 48 50 52 54 58 62 0
2 5 8 10 13 24 27 29 40 41 43 45 48 50 52 54 56 58 60 62 65 0
2 5 8 11 13 20 24 27 30 37 40 41 43 48 51 52 54 58 63 0
2 5 8 13 20 21 24 27 37 38 40 41 43 48 52 54 58 66 0
2 5 8 13 20 24 27 37 40 41 43 45 48 52 54 56 58 60 65 0
2 5 8 11 13 24 27 30 40 41 43 44 48 51 52 54 55 58 59 63 64 0
2 5 8 13 21 24 27 38 40 41 43 44 48 52 54 55 58 59 64 0
2 5 8 13 24 27 40 41 43 44 45 48 52 54 55 56 58 59 60 64 65 66 0
2 5 9 10 11 13 18 24 28 29 30 35 40 41 49 50 51 52 64 65 66 0
2 5 9 10 13 18 21 24 28 29 35 38 40 41 49 50 52 63 64 0
2 5 9 10 13 18 24 28 29 35 40 41 45 49 50 52 56 60 64 0
2 5 9 11 13 18 20 24 28 30 35 37 40 41 49 51 52 62 65 0
2 5 9 13 18 20 21 24 28 35 37 38 40 41 49 52 62 63 66 0
2 5 9 13 18 20 24 28 35 37 40 41 45 49 52 56 60 62 0
2 5 9 11 13 18 24 28 30 35 40 41 44 49 51 52 55 59 65 0
2 5 9 13 18 21 24 28 35 38 40 41 44 49 52 55 59 63 0
2 5 9 13 18 24 28 35 40 41 44 45 49 52 55 56 59 60 66 0
2 5 10 11 13 18 19 24 29 30 35 36 40 41 50 51 52 61 66 0
2 5 10 13 18 19 21 24 29 35 36 38 40 41 50 52 61 63 65 0
2 5 10 13 18 19 24 29 35 36 40 41 45 50 52 56 60 61 0
2 5 11 13 18 19 20 24 30 35 36 37 40 41 51 52 61 62 64 0
2 5 13 18 19 20 21 24 35 36 37 38 40 41 52 61 62 63 64 65 66 0
2 5 13 18 19 20 24 35 36 37 40 41 45 52 56 60 61 62 64 0
2 5 11 13 18 19 24 30 35 36 40 41 44 51 52 55 59 61 0
2 5 13 18 19 21 24 35 36 38 40 41 44 52 55 59 61 63 65 0
2 5 13 18 19 24 35 36 40 41 44 45 52 55 56 59 60 61 66 0
2 5 10 11 13 18 24 29 30 35 40 41 43 50 51 52 54 58 66 0
2 5 10 13 18 21 24 29 35 38 40 41 43 50 52 54 58 63 0
2 5 10 13 18 24 29 35 40 41 43 45 50 52 54 56 58 60 65 0
2 5 11 13 18 20 24 30 35 37 40 41 43 51 52 54 58 62 0
2 5 13 18 20 21 24 35 37 38 40 41 43 52 54 58 62 63 66 0
2 5 13 18 20 24 35 37 40 41 43 45 52 54 56 58 60 62 65 0
2 5 11 13 18 24 30 35 40 41 43 44 51 52 54 55 58 59 64 0
2 5 13 18 21 24 35 38 40 41 43 44 52 54 55 58 59 63 64 0
2 5 13 18 24 35 40 41 43 44 45 52 54 55 56 58 59 60 64 65 66 0
2 5 9 10 11 13 24 28 29 30 40 41 42 49 50 51 52 53 57 64 65 66 0
2 5 9 10 13 21 24 28 29 38 40 41 42 49 50 52 53 57 64 0
2 5 9 10 13 24 28 29 40 41 42 45 49 50 52 53 56 57 60 63 64 0
2 5 9 11 13 20 24 28 30 37 40 41 42 49 51 52 53 57 65 0
2 5 9 13 20 21 24 28 37 38 40 41 42 49 52 53 57 66 0
2 5 9 13 20 24 28 37 40 41 42 45 49 52 53 56 57 60 63 0
2 5 9 11 13 24 28 30 40 41 42 44 49 51 52 53 55 57 59 62 65 0
2 5 9 13 21 24 28 38 40 41 42 44 49 52 53 55 57 59 62 0
2 5 9 13 24 28 40 41 42 44 45 49 52 53 55 56 57 59 60 62 63 66 0
2 5 10 11 13 19 24 29 30 36 40 41 42 50 51 52 53 57 66 0
2 5 10 13 19 21 24 29 36 38 40 41 42 50 52 53 57 65 0
2 5 10 13 19 24 29 36 40 41 42 45 50 52 53 56 57 60 63 0
2 5 11 13 19 20 24 30 36 37 40 41 42 51 52 53 57 64 0
2 5 13 19 20 21 24 36 37 38 40 41 42 52 53 57 64 65 66 0
2 5 13 19 20 24 36 37 40 41 42 45 52 53 56 57 60 63 64 0
2 5 11 13 19 24 30 36 40 41 42 44 51 52 53 55 57 59 62 0
2 5 13 19 21 24 36 38 40 41 42 44 52 53 55 57 59 62 65 0
2 5 13 19 24 36 40 41 42 44 45 52 53 55 56 57 59 60 62 63 66 0
2 5 10 11 13 24 29 30 40 41 42 43 50 51 52 53 54 57 58 61 66 0
2 5 10 13 21 24 29 38 40 41 42 43 50 52 53 54 57 58 61 0
2 5 10 13 24 29 40 41 42 43 45 50 52 53 54 56 57 58 60 61 63 65 0
2 5 11 13 20 24 30 37 40 41 42 43 51 52 53 54 57 58 61 0
2 5 13 20 21 24 37 38 40 41 42 43 52 53 54 57 58 61 66 0
2 5 13 20 24 37 40 41 42 43 45 52 53 54 56 57 58 60 61 63 65 0
2 5 11 13 24 30 40 41 42 43 44 51 52 53 54 55 57 58 59 61 62 64 0
2 5 13 21 24 38 40 41 42 43 44 52 53 54 55 57 58 59 61 62 64 0
2 5 13 24 40 41 42 43 44 45 52 53 54 55 56 57 58 59 60 61 62 63 64 65 66 0
2 8 9 10 11 13 15 27 28 29 30 32 40 41 52 61 62 63 64 65 66 0
2 8 9 10 13 15 21 27 28 29 32 38 40 41 51 52 61 62 64 0
2 8 9 10 13 15 27 28 29 32 40 41 45 52 56 60 61 62 64 0
2 8 9 11 13 15 20 27 28 30 32 37 40 41 50 52 61 63 65 0
2 8 9 13 15 20 21 27 28 32 37 38 40 41 50 51 52 61 66 0
2 8 9 13 15 20 27 28 32 37 40 41 45 50 52 56 60 61 0
2 8 9 11 13 15 27 28 30 32 40 41 44 52 55 59 61 63 65 0
2 8 9 13 15 21 27 28 32 38 40 41 44 51 52 55 59 61 0
2 8 9 13 15 27 28 32 40 41 44 45 52 55 56 59 60 61 66 0
2 8 10 11 13 15 19 27 29 30 32 36 40 41 49 52 62 63 66 0
2 8 10 13 15 19 21 27 29 32 36 38 40 41 49 51 52 62 65 0
2 8 10 13 15 19 27 29 32 36 40 41 45 49 52 56 60 62 0
2 8 11 13 15 19 20 27 30 32 36 37 40 41 49 50 52 63 64 0
2 8 13 15 19 20 21 27 32 36 37 38 40 41 49 50 51 52 64 65 66 0
2 8 13 15 19 20 27 32 36 37 40 41 45 49 50 52 56 60 64 0
2 8 11 13 15 19 27 30 32 36 40 41 44 49 52 55 59 63 0
2 8 13 15 19 21 27 32 36 38 40 41 44 49 51 52 55 59 65 0
2 8 13 15 19 27 32 36 40 41 44 45 49 52 55 56 59 60 66 0
2 8 10 11 13 15 27 29 30 32 40 41 43 52 54 58 62 63 66 0
2 8 10 13 15 21 27 29 32 38 40 41 43 51 52 54 58 62 0
2 8 10 13 15 27 29 32 40 41 43 45 52 54 56 58 60 62 65 0
2 8 11 13 15 20 27 30 32 37 40 41 43 50 52 54 58 63 0
2 8 13 15 20 21 27 32 37 38 40 41 43 50 51 52 54 58 66 0
2 8 13 15 20 27 32 37 40 41 43 45 50 52 54 56 58 60 65 0
2 8 11 13 15 27 30 32 40 41 43 44 52 54 55 58 59 63 64 0
2 8 13 15 21 27 32 38 40 41 43 44 51 52 54 55 58 59 64 0
2 8 13 15 27 32 40 41 43 44 45 52 54 55 56 58 59 60 64 65 66 0
2 9 10 11 13 15 18 28 29 30 32 35 40 41 48 52 64 65 66 0
2 9 10 13 15 18 21 28 29 32 35 38 40 41 48 51 52 63 64 0
2 9 10 13 15 18 28 29 32 35 40 41 45 48 52 56 60 64 0
2 9 11 13 15 18 20 28 30 32 35 37 40 41 48 50 52 62 65 0
2 9 13 15 18 20 21 28 32 35 37 38 40 41 48 50 51 52 62 63 66 0
2 9 13 15 18 20 28 32 35 37 40 41 45 48 50 52 56 60 62 0
2 9 11 13 15 18 28 30 32 35 40 41 44 48 52 55 59 65 0
2 9 13 15 18 21 28 32 35 38 40 41 44 48 51 52 55 59 63 0
2 9 13 15 18 28 32 35 40 41 44 45 48 52 55 56 59 60 66 0
2 10 11 13 15 18 19 29 30 32 35 36 40 41 48 49 52 61 66 0
2 10 13 15 18 19 21 29 32 35 36 38 40 41 48 49 51 52 61 63 65 0
2 10 13 15 18 19 29 32 35 36 40 41 45 48 49 52 56 60 61 0
2 11 13 15 18 19 20 30 32 35 36 37 40 41 48 49 50 52 61 62 64 0
2 13 15 18 19 20 21 32 35 36 37 38 40 41 48 49 50 51 52 61 62 63 64 65 66 0
2 13 15 18 19 20 32 35 36 37 40 41 45 48 49 50 52 56 60 61 62 64 0
2 11 13 15 18 19 30 32 35 36 40 41 44 48 49 52 55 59 61 0
2 13 15 18 19 21 32 35 36 38 40 41 44 48 49 51 52 55 59 61 63 65 0
2 13 15 18 19 32 35 36 40 41 44 45 48 49 52 55 56 59 60 61 66 0
2 10 11 13 15 18 29 30 32 35 40 41 43 48 52 54 58 66 0
2 10 13 15 18 21 29 32 35 38 40 41 43 48 51 52 54 58 63 0
2 10 13 15 18 29 32 35 40 41 43 45 48 52 54 56 58 60 65 0
2 11 13 15 18 20 30 32 35 37 40 41 43 48 50 52 54 58 62 0
2 13 15 18 20 21 32 35 37 38 40 41 43 48 50 51 52 54 58 62 63 66 0
2 13 15 18 20 32 35 37 40 41 43 45 48 50 52 54 56 58 60 62 65 0
2 11 13 15 18 30 32 35 40 41 43 44 48 52 54 55 58 59 64 0
2 13 15 18 21 32 35 38 40 41 43 44 48 51 52 54 55 58 59 63 64 0
2 13 15 18 32 35 40 41 43 44 45 48 52 54 55 56 58 59 60 64 65 66 0
2 9 10 11 13 15 28 29 30 32 40 41 42 52 53 57 64 65 66 0
2 9 10 13 15 21 28 29 32 38 40 41 42 51 52 53 57 64 0
2 9 10 13 15 28 29 32 40 41 42 45 52 53 56 57 60 63 64 0
2 9 11 13 15 20 28 30 32 37 40 41 42 50 52 53 57 65 0
2 9 13 15 20 21 28 32 37 38 40 41 42 50 51 52 53 57 66 0
2 9 13 15 20 28 32 37 40 41 42 45 50 52 53 56 57 60 63 0
2 9 11 13 15 28 30 32 40 41 42 44 52 53 55 57 59 62 65 0
2 9 13 15 21 28 32 38 40 41 42 44 51 52 53 55 57 59 62 0
2 9 13 15 28 32 40 41 42 44 45 52 53 55 56 57 59 60 62 63 66 0
2 10 11 13 15 19 29 30 32 36 40 41 42 49 52 53 57 66 0
2 10 13 15 19 21 29 32 36 38 40 41 42 49 51 52 53 57 65 0
2 10 13 15 19 29 32 36 40 41 42 45 49 52 53 56 57 60 63 0
2 11 13 15 19 20 30 32 36 37 40 41 42 49 50 52 53 57 64 0
2 13 15 19 20 21 32 36 37 38 40 41 42 49 50 51 52 53 57 64 65 66 0
2 13 15 19 20 32 36 37 40 41 42 45 49 50 52 53 56 57 60 63 64 0
2 11 13 15 19 30 32 36 40 41 42 44 49 52 53 55 57 59 62 0
2 13 15 19 21 32 36 38 40 41 42 44 49 51 52 53 55 57 59 62 65 0
2 13 15 19 32 36 40 41 42 44 45 49 52 53 55 56 57 59 60 62 63 66 0
2 10 11 13 15 29 30 32 40 41 42 43 52 53 54 57 58 61 66 0
2 10 13 15 21 29 32 38 40 41 42 43 51 52 53 54 57 58 61 0
2 10 13 15 29 32 40 41 42 43 45 52 53 54 56 57 58 60 61 63 65 0
2 11 13 15 20 30 32 37 40 41 42 43 50 52 53 54 57 58 61 0
2 13 15 20 21 32 37 38 40 41 42 43 50 51 52 53 54 57 58 61 66 0
2 13 15 20 32 37 40 41 42 43 45 50 52 53 54 56 57 58 60 61 63 65 0
2 11 13 15 30 32 40 41 42 43 44 52 53 54 55 57 58 59 61 62 64 0
2 13 15 21 32 38 40 41 42 43 44 51 52 53 54 55 57 58 59 61 62 64 0
2 13 15 32 40 41 42 43 44 45 52 53 54 55 56 57 58 59 60 61 62 63 64 65 66 0
2 4 8 9 10 11 15 23 27 28 29 30 33 34 42 43 44 45 52 61 62 63 64 65 66 0
2 4 8 9 10 15 21 23 27 28 29 33 34 42 43 44 51 52 61 62 64 0
2 4 8 9 10 15 23 27 28 29 33 34 38 42 43 44 52 56 60 61 62 64 0
2 4 8 9 11 15 20 23 27 28 30 33 34 42 43 45 50 52 61 63 65 0
2 4 8 9 15 20 21 23 27 28 33 34 42 43 50 51 52 61 66 0
2 4 8 9 15 20 23 27 28 33 34 38 42 43 50 52 56 60 61 0
2 4 8 9 11 15 23 27 28 30 33 34 37 42 43 45 52 55 59 61 63 65 0
2 4 8 9 15 21 23 27 28 33 34 37 42 43 51 52 55 59 61 0
2 4 8 9 15 23 27 28 33 34 37 38 42 43 52 55 56 59 60 61 66 0
2 4 8 10 11 15 19 23 27 29 30 33 34 42 44 45 49 52 62 63 66 0
2 4 8 10 15 19 21 23 27 29 33 34 42 44 49 51 52 62 65 0
2 4 8 10 15 19 23 27 29 33 34 38 42 44 49 52 56 60 62 0
2 4 8 11 15 19 20 23 27 30 33 34 42 45 49 50 52 63 64 0
2 4 8 15 19 20 21 23 27 33 34 42 49 50 51 52 64 65 66 0
2 4 8 15 19 20 23 27 33 34 38 42 49 50 52 56 60 64 0
2 4 8 11 15 19 23 27 30 33 34 37 42 45 49 52 55 59 63 0
2 4 8 15 19 21 23 27 33 34 37 42 49 51 52 55 59 65 0
2 4 8 15 19 23 27 33 34 37 38 42 49 52 55 56 59 60 66 0
2 4 8 10 11 15 23 27 29 30 33 34 36 42 44 45 52 54 58 62 63 66 0
2 4 8 10 15 21 23 27 29 33 34 36 42 44 51 52 54 58 62 0
2 4 8 10 15 23 27 29 33 34 36 38 42 44 52 54 56 58 60 62 65 0
2 4 8 11 15 20 23 27 30 33 34 36 42 45 50 52 54 58 63 0
2 4 8 15 20 21 23 27 33 34 36 42 50 51 52 54 58 66 0
2 4 8 15 20 23 27 33 34 36 38 42 50 52 54 56 58 60 65 0
2 4 8 11 15 23 27 30 33 34 36 37 42 45 52 54 55 58 59 63 64 0
2 4 8 15 21 23 27 33 34 36 37 42 51 52 54 55 58 59 64 0
2 4 8 15 23 27 33 34 36 37 38 42 52 54 55 56 58 59 60 64 65 66 0
2 4 9 10 11 15 18 23 28 29 30 33 34 43 44 45 48 52 64 65 66 0
2 4 9 10 15 18 21 23 28 29 33 34 43 44 48 51 52 63 64 0
2 4 9 10 15 18 23 28 29 33 34 38 43 44 48 52 56 60 64 0
2 4 9 11 15 18 20 23 28 30 33 34 43 45 48 50 52 62 65 0
2 4 9 15 18 20 21 23 28 33 34 43 48 50 51 52 62 63 66 0
2 4 9 15 18 20 23 28 33 34 38 43 48 50 52 56 60 62 0
2 4 9 11 15 18 23 28 30 33 34 37 43 45 48 52 55 59 65 0
2 4 9 15 18 21 23 28 33 34 37 43 48 51 52 55 59 63 0
2 4 9 15 18 23 28 33 34 37 38 43 48 52 55 56 59 60 66 0
2 4 10 11 15 18 19 23 29 30 33 34 44 45 48 49 52 61 66 0
2 4 10 15 18 19 21 23 29 33 34 44 48 49 51 52 61 63 65 0
2 4 10 15 18 19 23 29 33 34 38 44 48 49 52 56 60 61 0
2 4 11 15 18 19 20 23 30 33 34 45 48 49 50 52 61 62 64 0
2 4 15 18 19 20 21 23 33 34 48 49 50 51 52 61 62 63 64 65 66 0
2 4 15 18 19 20 23 33 34 38 48 49 50 52 56 60 61 62 64 0
2 4 11 15 18 19 23 30 33 34 37 45 48 49 52 55 59 61 0
2 4 15 18 19 21 23 33 34 37 48 49 51 52 55 59 61 63 65 0
2 4 15 18 19 23 33 34 37 38 48 49 52 55 56 59 60 61 66 0
2 4 10 11 15 18 23 29 30 33 34 36 44 45 48 52 54 58 66 0
2 4 10 15 18 21 23 29 33 34 36 44 48 51 52 54 58 63 0
2 4 10 15 18 23 29 33 34 36 38 44 48 52 54 56 58 60 65 0
2 4 11 15 18 20 23 30 33 34 36 45 48 50 52 54 58 62 0
2 4 15 18 20 21 23 33 34 36 48 50 51 52 54 58 62 63 66 0
2 4 15 18 20 23 33 34 36 38 48 50 52 54 56 58 60 62 65 0
2 4 11 15 18 23 30 33 34 36 37 45 48 52 54 55 58 59 64 0
2 4 15 18 21 23 33 34 36 37 48 51 52 54 55 58 59 63 64 0
2 4 15 18 23 33 34 36 37 38 48 52 54 55 56 58 59 60 64 65 66 0
2 4 9 10 11 15 23 28 29 30 33 34 35 43 44 45 52 53 57 64 65 66 0
2 4 9 10 15 21 23 28 29 33 34 35 43 44 51 52 53 57 64 0
2 4 9 10 15 23 28 29 33 34 35 38 43 44 52 53 56 57 60 63 64 0
2 4 9 11 15 20 23 28 30 33 34 35 43 45 50 52 53 57 65 0
2 4 9 15 20 21 23 28 33 34 35 43 50 51 52 53 57 66 0
2 4 9 15 20 23 28 33 34 35 38 43 50 52 53 56 57 60 63 0
2 4 9 11 15 23 28 30 33 34 35 37 43 45 52 53 55 57 59 62 65 0
2 4 9 15 21 23 28 33 34 35 37 43 51 52 53 55 57 59 62 0
2 4 9 15 23 28 33 34 35 37 38 43 52 53 55 56 57 59 60 62 63 66 0
2 4 10 11 15 19 23 29 30 33 34 35 44 45 49 52 53 57 66 0
2 4 10 15 19 21 23 29 33 34 35 44 49 51 52 53 57 65 0
2 4 10 15 19 23 29 33 34 35 38 44 49 52 53 56 57 60 63 0
2 4 11 15 19 20 23 30 33 34 35 45 49 50 52 53 57 64 0
2 4 15 19 20 21 23 33 34 35 49 50 51 52 53 57 64 65 66 0
2 4 15 19 20 23 33 34 35 38 49 50 52 53 56 57 60 63 64 0
2 4 11 15 19 23 30 33 34 35 37 45 49 52 53 55 57 59 62 0
2 4 15 19 21 23 33 34 35 37 49 51 52 53 55 57 59 62 65 0
2 4 15 19 23 33 34 35 37 38 49 52 53 55 56 57 59 60 62 63 66 0
2 4 10 11 15 23 29 30 33 34 35 36 44 45 52 53 54 57 58 61 66 0
2 4 10 15 21 23 29 33 34 35 36 44 51 52 53 54 57 58 61 0
2 4 10 15 23 29 33 34 35 36 38 44 52 53 54 56 57 58 60 61 63 65 0
2 4 11 15 20 23 30 33 34 35 36 45 50 52 53 54 57 58 61 0
2 4 15 20 21 23 33 34 35 36 50 51 52 53 54 57 58 61 66 0
2 4 15 20 23 33 34 35 36 38 50 52 53 54 56 57 58 60 61 63 65 0
2 4 11 15 23 30 33 34 35 36 37 45 52 53 54 55 57 58 59 61 62 64 0
2 4 15 21 23 33 34 35 36 37 51 52 53 54 55 57 58 59 61 62 64 0
2 4 15 23 33 34 35 36 37 38 52 53 54 55 56 57 58 59 60 61 62 63 64 65 66 0
2 4 8 9 10 11 16 23 27 28 29 30 32 34 42 43 44 45 47 61 62 63 64 65 66 0
2 4 8 9 10 16 21 23 27 28 29 32 34 42 43 44 47 56 61 62 64 0
2 4 8 9 10 16 23 27 28 29 32 34 38 42 43 44 47 51 60 61 62 64 0
2 4 8 9 11 16 20 23 27 28 30 32 34 42 43 45 47 55 61 63 65 0
2 4 8 9 16 20 21 23 27 28 32 34 42 43 47 55 56 61 66 0
2 4 8 9 16 20 23 27 28 32 34 38 42 43 47 51 55 60 61 0
2 4 8 9 11 16 23 27 28 30 32 34 37 42 43 45 47 50 59 61 63 65 0
2 4 8 9 16 21 23 27 28 32 34 37 42 43 47 50 56 59 61 0
2 4 8 9 16 23 27 28 32 34 37 38 42 43 47 50 51 59 60 61 66 0
2 4 8 10 11 16 19 23 27 29 30 32 34 42 44 45 47 54 62 63 66 0
2 4 8 10 16 19 21 23 27 29 32 34 42 44 47 54 56 62 65 0
2 4 8 10 16 19 23 27 29 32 34 38 42 44 47 51 54 60 62 0
2 4 8 11 16 19 20 23 27 30 32 34 42 45 47 54 55 63 64 0
2 4 8 16 19 20 21 23 27 32 34 42 47 54 55 56 64 65 66 0
2 4 8 16 19 20 23 27 32 34 38 42 47 51 54 55 60 64 0
2 4 8 11 16 19 23 27 30 32 34 37 42 45 47 50 54 59 63 0
2 4 8 16 19 21 23 27 32 34 37 42 47 50 54 56 59 65 0
2 4 8 16 19 23 27 32 34 37 38 42 47 50 51 54 59 60 66 0
2 4 8 10 11 16 23 27 29 30 32 34 36 42 44 45 47 49 58 62 63 66 0
2 4 8 10 16 21 23 27 29 32 34 36 42 44 47 49 56 58 62 0
2 4 8 10 16 23 27 29 32 34 36 38 42 44 47 49 51 58 60 62 65 0
2 4 8 11 16 20 23 27 30 32 34 36 42 45 47 49 55 58 63 0
2 4 8 16 20 21 23 27 32 34 36 42 47 49 55 56 58 66 0
2 4 8 16 20 23 27 32 34 36 38 42 47 49 51 55 58 60 65 0
2 4 8 11 16 23 27 30 32 34 36 37 42 45 47 49 50 58 59 63 64 0
2 4 8 16 21 23 27 32 34 36 37 42 47 49 50 56 58 59 64 0
2 4 8 16 23 27 32 34 36 37 38 42 47 49 50 51 58 59 60 64 65 66 0
2 4 9 10 11 16 18 23 28 29 30 32 34 43 44 45 47 53 64 65 66 0
2 4 9 10 16 18 21 23 28 29 32 34 43 44 47 53 56 63 64 0
2 4 9 10 16 18 23 28 29 32 34 38 43 44 47 51 53 60 64 0
2 4 9 11 16 18 20 23 28 30 32 34 43 45 47 53 55 62 65 0
2 4 9 16 18 20 21 23 28 32 34 43 47 53 55 56 62 63 66 0
2 4 9 16 18 20 23 28 32 34 38 43 47 51 53 55 60 62 0
2 4 9 11 16 18 23 28 30 32 34 37 43 45 47 50 53 59 65 0
2 4 9 16 18 21 23 28 32 34 37 43 47 50 53 56 59 63 0
2 4 9 16 18 23 28 32 34 37 38 43 47 50 51 53 59 60 66 0
2 4 10 11 16 18 19 23 29 30 32 34 44 45 47 53 54 61 66 0
2 4 10 16 18 19 21 23 29 32 34 44 47 53 54 56 61 63 65 0
2 4 10 16 18 19 23 29 32 34 38 44 47 51 53 54 60 61 0
2 4 11 16 18 19 20 23 30 32 34 45 47 53 54 55 61 62 64 0
2 4 16 18 19 20 21 23 32 34 47 53 54 55 56 61 62 63 64 65 66 0
2 4 16 18 19 20 23 32 34 38 47 51 53 54 55 60 61 62 64 0
2 4 11 16 18 19 23 30 32 34 37 45 47 50 53 54 59 61 0
2 4 16 18 19 21 23 32 34 37 47 50 53 54 56 59 61 63 65 0
2 4 16 18 19 23 32 34 37 38 47 50 51 53 54 59 60 61 66 0
2 4 10 11 16 18 23 29 30 32 34 36 44 45 47 49 53 58 66 0
2 4 10 16 18 21 23 29 32 34 36 44 47 49 53 56 58 63 0
2 4 10 16 18 23 29 32 34 36 38 44 47 49 51 53 58 60 65 0
2 4 11 16 18 20 23 30 32 34 36 45 47 49 53 55 58 62 0
2 4 16 18 20 21 23 32 34 36 47 49 53 55 56 58 62 63 66 0
2 4 16 18 20 23 32 34 36 38 47 49 51 53 55 58 60 62 65 0
2 4 11 16 18 23 30 32 34 36 37 45 47 49 50 53 58 59 64 0
2 4 16 18 21 23 32 34 36 37 47 49 50 53 56 58 59 63 64 0
2 4 16 18 23 32 34 36 37 38 47 49 50 51 53 58 59 60 64 65 66 0
2 4 9 10 11 16 23 28 29 30 32 34 35 43 44 45 47 48 57 64 65 66 0
2 4 9 10 16 21 23 28 29 32 34 35 43 44 47 48 56 57 64 0
2 4 9 10 16 23 28 29 32 34 35 38 43 44 47 48 51 57 60 63 64 0
2 4 9 11 16 20 23 28 30 32 34 35 43 45 47 48 55 57 65 0
2 4 9 16 20 21 23 28 32 34 35 43 47 48 55 56 57 66 0
2 4 9 16 20 23 28 32 34 35 38 43 47 48 51 55 57 60 63 0
2 4 9 11 16 23 28 30 32 34 35 37 43 45 47 48 50 57 59 62 65 0
2 4 9 16 21 23 28 32 34 35 37 43 47 48 50 56 57 59 62 0
2 4 9 16 23 28 32 34 35 37 38 43 47 48 50 51 57 59 60 62 63 66 0
2 4 10 11 16 19 23 29 30 32 34 35 44 45 47 48 54 57 66 0
2 4 10 16 19 21 23 29 32 34 35 44 47 48 54 56 57 65 0
2 4 10 16 19 23 29 32 34 35 38 44 47 48 51 54 57 60 63 0
2 4 11 16 19 20 23 30 32 34 35 45 47 48 54 55 57 64 0
2 4 16 19 20 21 23 32 34 35 47 48 54 55 56 57 64 65 66 0
2 4 16 19 20 23 32 34 35 38 47 48 51 54 55 57 60 63 64 0
2 4 11 16 19 23 30 32 34 35 37 45 47 48 50 54 57 59 62 0
2 4 16 19 21 23 32 34 35 37 47 48 50 54 56 57 59 62 65 0
2 4 16 19 23 32 34 35 37 38 47 48 50 51 54 57 59 60 62 63 66 0
2 4 10 11 16 23 29 30 32 34 35 36 44 45 47 48 49 57 58 61 66 0
2 4 10 16 21 23 29 32 34 35 36 44 47 48 49 56 57 58 61 0
2 4 10 16 23 29 32 34 35 36 38 44 47 48 49 51 57 58 60 61 63 65 0
2 4 11 16 20 23 30 32 34 35 36 45 47 48 49 55 57 58 61 0
2 4 16 20 21 23 32 34 35 36 47 48 49 55 56 57 58 61 66 0
2 4 16 20 23 32 34 35 36 38 47 48 49 51 55 57 58 60 61 63 65 0
2 4 11 16 23 30 32 34 35 36 37 45 47 48 49 50 57 58 59 61 62 64 0
2 4 16 21 23 32 34 35 36 37 47 48 49 50 56 57 58 59 61 62 64 0
2 4 16 23 32 34 35 36 37 38 47 48 49 50 51 57 58 59 60 61 62 63 64 65 66 0
2 5 8 9 10 11 14 16 24 27 28 29 30 34 40 48 49 50 51 61 62 63 64 65 66 0
2 5 8 9 10 14 16 21 24 27 28 29 34 40 45 48 49 50 56 61 62 64 0
2 5 8 9 10 14 16 24 27 28 29 34 38 40 48 49 50 60 61 62 64 0
2 5 8 9 11 14 16 20 24 27 28 30 34 40 44 48 49 51 55 61 63 65 0
2 5 8 9 14 16 20 21 24 27 28 34 40 44 45 48 49 55 56 61 66 0
2 5 8 9 14 16 20 24 27 28 34 38 40 44 48 49 55 60 61 0
2 5 8 9 11 14 16 24 27 28 30 34 37 40 48 49 51 59 61 63 65 0
2 5 8 9 14 16 21 24 27 28 34 37 40 45 48 49 56 59 61 0
2 5 8 9 14 16 24 27 28 34 37 38 40 48 49 59 60 61 66 0
2 5 8 10 11 14 16 19 24 27 29 30 34 40 43 48 50 51 54 62 63 66 0
2 5 8 10 14 16 19 21 24 27 29 34 40 43 45 48 50 54 56 62 65 0
2 5 8 10 14 16 19 24 27 29 34 38 40 43 48 50 54 60 62 0
2 5 8 11 14 16 19 20 24 27 30 34 40 43 44 48 51 54 55 63 64 0
2 5 8 14 16 19 20 21 24 27 34 40 43 44 45 48 54 55 56 64 65 66 0
2 5 8 14 16 19 20 24 27 34 38 40 43 44 48 54 55 60 64 0
2 5 8 11 14 16 19 24 27 30 34 37 40 43 48 51 54 59 63 0
2 5 8 14 16 19 21 24 27 34 37 40 43 45 48 54 56 59 65 0
2 5 8 14 16 19 24 27 34 37 38 40 43 48 54 59 60 66 0
2 5 8 10 11 14 16 24 27 29 30 34 36 40 48 50 51 58 62 63 66 0
2 5 8 10 14 16 21 24 27 29 34 36 40 45 48 50 56 58 62 0
2 5 8 10 14 16 24 27 29 34 36 38 40 48 50 58 60 62 65 0
2 5 8 11 14 16 20 24 27 30 34 36 40 44 48 51 55 58 63 0
2 5 8 14 16 20 21 24 27 34 36 40 44 45 48 55 56 58 66 0
2 5 8 14 16 20 24 27 34 36 38 40 44 48 55 58 60 65 0
2 5 8 11 14 16 24 27 30 34 36 37 40 48 51 58 59 63 64 0
2 5 8 14 16 21 24 27 34 36 37 40 45 48 56 58 59 64 0
2 5 8 14 16 24 27 34 36 37 38 40 48 58 59 60 64 65 66 0
2 5 9 10 11 14 16 18 24 28 29 30 34 40 42 49 50 51 53 64 65 66 0
2 5 9 10 14 16 18 21 24 28 29 34 40 42 45 49 50 53 56 63 64 0
2 5 9 10 14 16 18 24 28 29 34 38 40 42 49 50 53 60 64 0
2 5 9 11 14 16 18 20 24 28 30 34 40 42 44 49 51 53 55 62 65 0
2 5 9 14 16 18 20 21 24 28 34 40 42 44 45 49 53 55 56 62 63 66 0
2 5 9 14 16 18 20 24 28 34 38 40 42 44 49 53 55 60 62 0
2 5 9 11 14 16 18 24 28 30 34 37 40 42 49 51 53 59 65 0
2 5 9 14 16 18 21 24 28 34 37 40 42 45 49 53 56 59 63 0
2 5 9 14 16 18 24 28 34 37 38 40 42 49 53 59 60 66 0
2 5 10 11 14 16 18 19 24 29 30 34 40 42 43 50 51 53 54 61 66 0
2 5 10 14 16 18 19 21 24 29 34 40 42 43 45 50 53 54 56 61 63 65 0
2 5 10 14 16 18 19 24 29 34 38 40 42 43 50 53 54 60 61 0
2 5 11 14 16 18 19 20 24 30 34 40 42 43 44 51 53 54 55 61 62 64 0
2 5 14 16 18 19 20 21 24 34 40 42 43 44 45 53 54 55 56 61 62 63 64 65 66 0
2 5 14 16 18 19 20 24 34 38 40 42 43 44 53 54 55 60 61 62 64 0
2 5 11 14 16 18 19 24 30 34 37 40 42 43 51 53 54 59 61 0
2 5 14 16 18 19 21 24 34 37 40 42 43 45 53 54 56 59 61 63 65 0
2 5 14 16 18 19 24 34 37 38 40 42 43 53 54 59 60 61 66 0
2 5 10 11 14 16 18 24 29 30 34 36 40 42 50 51 53 58 66 0
2 5 10 14 16 18 21 24 29 34 36 40 42 45 50 53 56 58 63 0
2 5 10 14 16 18 24 29 34 36 38 40 42 50 53 58 60 65 0
2 5 11 14 16 18 20 24 30 34 36 40 42 44 51 53 55 58 62 0
2 5 14 16 18 20 21 24 34 36 40 42 44 45 53 55 56 58 62 63 66 0
2 5 14 16 18 20 24 34 36 38 40 42 44 53 55 58 60 62 65 0
2 5 11 14 16 18 24 30 34 36 37 40 42 51 53 58 59 64 0
2 5 14 16 18 21 24 34 36 37 40 42 45 53 56 58 59 63 64 0
2 5 14 16 18 24 34 36 37 38 40 42 53 58 59 60 64 65 66 0
2 5 9 10 11 14 16 24 28 29 30 34 35 40 49 50 51 57 64 65 66 0
2 5 9 10 14 16 21 24 28 29 34 35 40 45 49 50 56 57 64 0
2 5 9 10 14 16 24 28 29 34 35 38 40 49 50 57 60 63 64 0
2 5 9 11 14 16 20 24 28 30 34 35 40 44 49 51 55 57 65 0
2 5 9 14 16 20 21 24 28 34 35 40 44 45 49 55 56 57 66 0
2 5 9 14 16 20 24 28 34 35 38 40 44 49 55 57 60 63 0
2 5 9 11 14 16 24 28 30 34 35 37 40 49 51 57 59 62 65 0
2 5 9 14 16 21 24 28 34 35 37 40 45 49 56 57 59 62 0
2 5 9 14 16 24 28 34 35 37 38 40 49 57 59 60 62 63 66 0
2 5 10 11 14 16 19 24 29 30 34 35 40 43 50 51 54 57 66 0
2 5 10 14 16 19 21 24 29 34 35 40 43 45 50 54 56 57 65 0
2 5 10 14 16 19 24 29 34 35 38 40 43 50 54 57 60 63 0
2 5 11 14 16 19 20 24 30 34 35 40 43 44 51 54 55 57 64 0
2 5 14 16 19 20 21 24 34 35 40 43 44 45 54 55 56 57 64 65 66 0
2 5 14 16 19 20 24 34 35 38 40 43 44 54 55 57 60 63 64 0
2 5 11 14 16 19 24 30 34 35 37 40 43 51 54 57 59 62 0
2 5 14 16 19 21 24 34 35 37 40 43 45 54 56 57 59 62 65 0
2 5 14 16 19 24 34 35 37 38 40 43 54 57 59 60 62 63 66 0
2 5 10 11 14 16 24 29 30 34 35 36 40 50 51 57 58 61 66 0
2 5 10 14 16 21 24 29 34 35 36 40 45 50 56 57 58 61 0
2 5 10 14 16 24 29 34 35 36 38 40 50 57 58 60 61 63 65 0
2 5 11 14 16 20 24 30 34 35 36 40 44 51 55 57 58 61 0
2 5 14 16 20 21 24 34 35 36 40 44 45 55 56 57 58 61 66 0
2 5 14 16 20 24 34 35 36 38 40 44 55 57 58 60 61 63 65 0
2 5 11 14 16 24 30 34 35 36 37 40 51 57 58 59 61 62 64 0
2 5 14 16 21 24 34 35 36 37 40 45 56 57 58 59 61 62 64 0
2 5 14 16 24 34 35 36 37 38 40 57 58 59 60 61 62 63 64 65 66 0
2 5 8 9 10 11 14 24 27 28 29 30 33 34 48 49 50 51 52 61 62 63 64 65 66 0
2 5 8 9 10 14 21 24 27 28 29 33 34 45 48 49 50 52 61 62 64 0
2 5 8 9 10 14 24 27 28 29 33 34 38 48 49 50 52 56 60 61 62 64 0
2 5 8 9 11 14 20 24 27 28 30 33 34 44 48 49 51 52 61 63 65 0
2 5 8 9 14 20 21 24 27 28 33 34 44 45 48 49 52 61 66 0
2 5 8 9 14 20 24 27 28 33 34 38 44 48 49 52 56 60 61 0
2 5 8 9 11 14 24 27 28 30 33 34 37 48 49 51 52 55 59 61 63 65 0
2 5 8 9 14 21 24 27 28 33 34 37 45 48 49 52 55 59 61 0
2 5 8 9 14 24 27 28 33 34 37 38 48 49 52 55 56 59 60 61 66 0
2 5 8 10 11 14 19 24 27 29 30 33 34 43 48 50 51 52 62 63 66 0
2 5 8 10 14 19 21 24 27 29 33 34 43 45 48 50 52 62 65 0
2 5 8 10 14 19 24 27 29 33 34 38 43 48 50 52 56 60 62 0
2 5 8 11 14 19 20 24 27 30 33 34 43 44 48 51 52 63 64 0
2 5 8 14 19 20 21 24 27 33 34 43 44 45 48 52 64 65 66 0
2 5 8 14 19 20 24 27 33 34 38 43 44 48 52 56 60 64 0
2 5 8 11 14 19 24 27 30 33 34 37 43 48 51 52 55 59 63 0
2 5 8 14 19 21 24 27 33 34 37 43 45 48 52 55 59 65 0
2 5 8 14 19 24 27 33 34 37 38 43 48 52 55 56 59 60 66 0
2 5 8 10 11 14 24 27 29 30 33 34 36 48 50 51 52 54 58 62 63 66 0
2 5 8 10 14 21 24 27 29 33 34 36 45 48 50 52 54 58 62 0
2 5 8 10 14 24 27 29 33 34 36 38 48 50 52 54 56 58 60 62 65 0
2 5 8 11 14 20 24 27 30 33 34 36 44 48 51 52 54 58 63 0
2 5 8 14 20 21 24 27 33 34 36 44 45 48 52 54 58 66 0
2 5 8 14 20 24 27 33 34 36 38 44 48 52 54 56 58 60 65 0
2 5 8 11 14 24 27 30 33 34 36 37 48 51 52 54 55 58 59 63 64 0
2 5 8 14 21 24 27 33 34 36 37 45 48 52 54 55 58 59 64 0
2 5 8 14 24 27 33 34 36 37 38 48 52 54 55 56 58 59 60 64 65 66 0
2 5 9 10 11 14 18 24 28 29 30 33 34 42 49 50 51 52 64 65 66 0
2 5 9 10 14 18 21 24 28 29 33 34 42 45 49 50 52 63 64 0
2 5 9 10 14 18 24 28 29 33 34 38 42 49 50 52 56 60 64 0
2 5 9 11 14 18 20 24 28 30 33 34 42 44 49 51 52 62 65 0
2 5 9 14 18 20 21 24 28 33 34 42 44 45 49 52 62 63 66 0
2 5 9 14 18 20 24 28 33 34 38 42 44 49 52 56 60 62 0
2 5 9 11 14 18 24 28 30 33 34 37 42 49 51 52 55 59 65 0
2 5 9 14 18 21 24 28 33 34 37 42 45 49 52 55 59 63 0
2 5 9 14 18 24 28 33 34 37 38 42 49 52 55 56 59 60 66 0
2 5 10 11 14 18 19 24 29 30 33 34 42 43 50 51 52 61 66 0
2 5 10 14 18 19 21 24 29 33 34 42 43 45 50 52 61 63 65 0
2 5 10 14 18 19 24 29 33 34 38 42 43 50 52 56 60 61 0
2 5 11 14 18 19 20 24 30 33 34 42 43 44 51 52 61 62 64 0
2 5 14 18 19 20 21 24 33 34 42 43 44 45 52 61 62 63 64 65 66 0
2 5 14 18 19 20 24 33 34 38 42 43 44 52 56 60 61 62 64 0
2 5 11 14 18 19 24 30 33 34 37 42 43 51 52 55 59 61 0
2 5 14 18 19 21 24 33 34 37 42 43 45 52 55 59 61 63 65 0
2 5 14 18 19 24 33 34 37 38 42 43 52 55 56 59 60 61 66 0
2 5 10 11 14 18 24 29 30 33 34 36 42 50 51 52 54 58 66 0
2 5 10 14 18 21 24 29 33 34 36 42 45 50 52 54 58 63 0
2 5 10 14 18 24 29 33 34 36 38 42 50 52 54 56 58 60 65 0
2 5 11 14 18 20 24 30 33 34 36 42 44 51 52 54 58 62 0
2 5 14 18 20 21 24 33 34 36 42 44 45 52 54 58 62 63 66 0
2 5 14 18 20 24 33 34 36 38 42 44 52 54 56 58 60 62 65 0
2 5 11 14 18 24 30 33 34 36 37 42 51 52 54 55 58 59 64 0
2 5 14 18 21 24 33 34 36 37 42 45 52 54 55 58 59 63 64 0
2 5 14 18 24 33 34 36 37 38 42 52 54 55 56 58 59 60 64 65 66 0
2 5 9 10 11 14 24 28 29 30 33 34 35 49 50 51 52 53 57 64 65 66 0
2 5 9 10 14 21 24 28 29 33 34 35 45 49 50 52 53 57 64 0
2 5 9 10 14 24 28 29 33 34 35 38 49 50 52 53 56 57 60 63 64 0
2 5 9 11 14 20 24 28 30 33 34 35 44 49 51 52 53 57 65 0
2 5 9 14 20 21 24 28 33 34 35 44 45 49 52 53 57 66 0
2 5 9 14 20 24 28 33 34 35 38 44 49 52 53 56 57 60 63 0
2 5 9 11 14 24 28 30 33 34 35 37 49 51 52 53 55 57 59 62 65 0
2 5 9 14 21 24 28 33 34 35 37 45 49 52 53 55 57 59 62 0
2 5 9 14 24 28 33 34 35 37 38 49 52 53 55 56 57 59 60 62 63 66 0
2 5 10 11 14 19 24 29 30 33 34 35 43 50 51 52 53 57 66 0
2 5 10 14 19 21 24 29 33 34 35 43 45 50 52 53 57 65 0
2 5 10 14 19 24 29 33 34 35 38 43 50 52 53 56 57 60 63 0
2 5 11 14 19 20 24 30 33 34 35 43 44 51 52 53 57 64 0
2 5 14 19 20 21 24 33 34 35 43 44 45 52 53 57 64 65 66 0
2 5 14 19 20 24 33 34 35 38 43 44 52 53 56 57 60 63 64 0
2 5 11 14 19 24 30 33 34 35 37 43 51 52 53 55 57 59 62 0
2 5 14 19 21 24 33 34 35 37 43 45 52 53 55 57 59 62 65 0
2 5 14 19 24 33 34 35 37 38 43 52 53 55 56 57 59 60 62 63 66 0
2 5 10 11 14 24 29 30 33 34 35 36 50 51 52 53 54 57 58 61 66 0
2 5 10 14 21 24 29 33 34 35 36 45 50 52 53 54 57 58 61 0
2 5 10 14 24 29 33 34 35 36 38 50 52 53 54 56 57 58 60 61 63 65 0
2 5 11 14 20 24 30 33 34 35 36 44 51 52 53 54 57 58 61 0
2 5 14 20 21 24 33 34 35 36 44 45 52 53 54 57 58 61 66 0
2 5 14 20 24 33 34 35 36 38 44 52 53 54 56 57 58 60 61 63 65 0
2 5 11 14 24 30 33 34 35 36 37 51 52 53 54 55 57 58 59 61 62 64 0
2 5 14 21 24 33 34 35 36 37 45 52 53 54 55 57 58 59 61 62 64 0
2 5 14 24 33 34 35 36 37 38 52 53 54 55 56 57 58 59 60 61 62 63 64 65 66 0
2 8 9 10 11 14 16 27 28 29 30 32 34 40 47 61 62 63 64 65 66 0
2 8 9 10 14 16 21 27 28 29 32 34 40 45 47 56 61 62 64 0
2 8 9 10 14 16 27 28 29 32 34 38 40 47 51 60 61 62 64 0
2 8 9 11 14 16 20 27 28 30 32 34 40 44 47 55 61 63 65 0
2 8 9 14 16 20 21 27 28 32 34 40 44 45 47 55 56 61 66 0
2 8 9 14 16 20 27 28 32 34 38 40 44 47 51 55 60 61 0
2 8 9 11 14 16 27 28 30 32 34 37 40 47 50 59 61 63 65 0
2 8 9 14 16 21 27 28 32 34 37 40 45 47 50 56 59 61 0
2 8 9 14 16 27 28 32 34 37 38 40 47 50 51 59 60 61 66 0
2 8 10 11 14 16 19 27 29 30 32 34 40 43 47 54 62 63 66 0
2 8 10 14 16 19 21 27 29 32 34 40 43 45 47 54 56 62 65 0
2 8 10 14 16 19 27 29 32 34 38 40 43 47 51 54 60 62 0
2 8 11 14 16 19 20 27 30 32 34 40 43 44 47 54 55 63 64 0
2 8 14 16 19 20 21 27 32 34 40 43 44 45 47 54 55 56 64 65 66 0
2 8 14 16 19 20 27 32 34 38 40 43 44 47 51 54 55 60 64 0
2 8 11 14 16 19 27 30 32 34 37 40 43 47 50 54 59 63 0
2 8 14 16 19 21 27 32 34 37 40 43 45 47 50 54 56 59 65 0
2 8 14 16 19 27 32 34 37 38 40 43 47 50 51 54 59 60 66 0
2 8 10 11 14 16 27 29 30 32 34 36 40 47 49 58 62 63 66 0
2 8 10 14 16 21 27 29 32 34 36 40 45 47 49 56 58 62 0
2 8 10 14 16 27 29 32 34 36 38 40 47 49 51 58 60 62 65 0
2 8 11 14 16 20 27 30 32 34 36 40 44 47 49 55 58 63 0
2 8 14 16 20 21 27 32 34 36 40 44 45 47 49 55 56 58 66 0
2 8 14 16 20 27 32 34 36 38 40 44 47 49 51 55 58 60 65 0
2 8 11 14 16 27 30 32 34 36 37 40 47 49 50 58 59 63 64 0
2 8 14 16 21 27 32 34 36 37 40 45 47 49 50 56 58 59 64 0
2 8 14 16 27 32 34 36 37 38 40 47 49 50 51 58 59 60 64 65 66 0
2 9 10 11 14 16 18 28 29 30 32 34 40 42 47 53 64 65 66 0
2 9 10 14 16 18 21 28 29 32 34 40 42 45 47 53 56 63 64 0
2 9 10 14 16 18 28 29 32 34 38 40 42 47 51 53 60 64 0
2 9 11 14 16 18 20 28 30 32 34 40 42 44 47 53 55 62 65 0
2 9 14 16 18 20 21 28 32 34 40 42 44 45 47 53 55 56 62 63 66 0
2 9 14 16 18 20 28 32 34 38 40 42 44 47 51 53 55 60 62 0
2 9 11 14 16 18 28 30 32 34 37 40 42 47 50 53 59 65 0
2 9 14 16 18 21 28 32 34 37 40 42 45 47 50 53 56 59 63 0
2 9 14 16 18 28 32 34 37 38 40 42 47 50 51 53 59 60 66 0
2 10 11 14 16 18 19 29 30 32 34 40 42 43 47 53 54 61 66 0
2 10 14 16 18 19 21 29 32 34 40 42 43 45 47 53 54 56 61 63 65 0
2 10 14 16 18 19 29 32 34 38 40 42 43 47 51 53 54 60 61 0
2 11 14 16 18 19 20 30 32 34 40 42 43 44 47 53 54 55 61 62 64 0
2 14 16 18 19 20 21 32 34 40 42 43 44 45 47 53 54 55 56 61 62 63 64 65 66 0
2 14 16 18 19 20 32 34 38 40 42 43 44 47 51 53 54 55 60 61 62 64 0
2 11 14 16 18 19 30 32 34 37 40 42 43 47 50 53 54 59 61 0
2 14 16 18 19 21 32 34 37 40 42 43 45 47 50 53 54 56 59 61 63 65 0
2 14 16 18 19 32 34 37 38 40 42 43 47 50 51 53 54 59 60 61 66 0
2 10 11 14 16 18 29 30 32 34 36 40 42 47 49 53 58 66 0
2 10 14 16 18 21 29 32 34 36 40 42 45 47 49 53 56 58 63 0
2 10 14 16 18 29 32 34 36 38 40 42 47 49 51 53 58 60 65 0
2 11 14 16 18 20 30 32 34 36 40 42 44 47 49 53 55 58 62 0
2 14 16 18 20 21 32 34 36 40 42 44 45 47 49 53 55 56 58 62 63 66 0
2 14 16 18 20 32 34 36 38 40 42 44 47 49 51 53 55 58 60 62 65 0
2 11 14 16 18 30 32 34 36 37 40 42 47 49 50 53 58 59 64 0
2 14 16 18 21 32 34 36 37 40 42 45 47 49 50 53 56 58 59 63 64 0
2 14 16 18 32 34 36 37 38 40 42 47 49 50 51 53 58 59 60 64 65 66 0
2 9 10 11 14 16 28 29 30 32 34 35 40 47 48 57 64 65 66 0
2 9 10 14 16 21 28 29 32 34 35 40 45 47 48 56 57 64 0
2 9 10 14 16 28 29 32 34 35 38 40 47 48 51 57 60 63 64 0
2 9 11 14 16 20 28 30 32 34 35 40 44 47 48 55 57 65 0
2 9 14 16 20 21 28 32 34 35 40 44 45 47 48 55 56 57 66 0
2 9 14 16 20 28 32 34 35 38 40 44 47 48 51 55 57 60 63 0
2 9 11 14 16 28 30 32 34 35 37 40 47 48 50 57 59 62 65 0
2 9 14 16 21 28 32 34 35 37 40 45 47 48 50 56 57 59 62 0
2 9 14 16 28 32 34 35 37 38 40 47 48 50 51 57 59 60 62 63 66 0
2 10 11 14 16 19 29 30 32 34 35 40 43 47 48 54 57 66 0
2 10 14 16 19 21 29 32 34 35 40 43 45 47 48 54 56 57 65 0
2 10 14 16 19 29 32 34 35 38 40 43 47 48 51 54 57 60 63 0
2 11 14 16 19 20 30 32 34 35 40 43 44 47 48 54 55 57 64 0
2 14 16 19 20 21 32 34 35 40 43 44 45 47 48 54 55 56 57 64 65 66 0
2 14 16 19 20 32 34 35 38 40 43 44 47 48 51 54 55 57 60 63 64 0
2 11 14 16 19 30 32 34 35 37 40 43 47 48 50 54 57 59 62 0
2 14 16 19 21 32 34 35 37 40 43 45 47 48 50 54 56 57 59 62 65 0
2 14 16 19 32 34 35 37 38 40 43 47 48 50 51 54 57 59 60 62 63 66 0
2 10 11 14 16 29 30 32 34 35 36 40 47 48 49 57 58 61 66 0
2 10 14 16 21 29 32 34 35 36 40 45 47 48 49 56 57 58 61 0
2 10 14 16 29 32 34 35 36 38 40 47 48 49 51 57 58 60 61 63 65 0
2 11 14 16 20 30 32 34 35 36 40 44 47 48 49 55 57 58 61 0
2 14 16 20 21 32 34 35 36 40 44 45 47 48 49 55 56 57 58 61 66 0
2 14 16 20 32 34 35 36 38 40 44 47 48 49 51 55 57 58 60 61 63 65 0
2 11 14 16 30 32 34 35 36 37 40 47 48 49 50 57 58 59 61 62 64 0
2 14 16 21 32 34 35 36 37 40 45 47 48 49 50 56 57 58 59 61 62 64 0
2 14 16 32 34 35 36 37 38 40 47 48 49 50 51 57 58 59 60 61 62 63 64 65 66 0
3 5 8 9 10 11 14 16 26 32 35 36 37 38 40 48 49 50 51 61 62 63 64 65 66 0
3 5 8 9 10 14 16 21 26 32 35 36 37 40 45 48 49 50 56 61 62 64 0
3 5 8 9 10 14 16 26 30 32 35 36 37 40 48 49 50 60 61 62 64 0
3 5 8 9 11 14 16 20 26 32 35 36 38 40 44 48 49 51 55 61 63 65 0
3 5 8 9 14 16 20 21 26 32 35 36 40 44 45 48 49 55 56 61 66 0
3 5 8 9 14 16 20 26 30 32 35 36 40 44 48 49 55 60 61 0
3 5 8 9 11 14 16 26 29 32 35 36 38 40 48 49 51 59 61 63 65 0
3 5 8 9 14 16 21 26 29 32 35 36 40 45 48 49 56 59 61 0
3 5 8 9 14 16 26 29 30 32 35 36 40 48 49 59 60 61 66 0
3 5 8 10 11 14 16 19 26 32 35 37 38 40 43 48 50 51 54 62 63 66 0
3 5 8 10 14 16 19 21 26 32 35 37 40 43 45 48 50 54 56 62 65 0
3 5 8 10 14 16 19 26 30 32 35 37 40 43 48 50 54 60 62 0
3 5 8 11 14 16 19 20 26 32 35 38 40 43 44 48 51 54 55 63 64 0
3 5 8 14 16 19 20 21 26 32 35 40 43 44 45 48 54 55 56 64 65 66 0
3 5 8 14 16 19 20 26 30 32 35 40 43 44 48 54 55 60 64 0
3 5 8 11 14 16 19 26 29 32 35 38 40 43 48 51 54 59 63 0
3 5 8 14 16 19 21 26 29 32 35 40 43 45 48 54 56 59 65 0
3 5 8 14 16 19 26 29 30 32 35 40 43 48 54 59 60 66 0
3 5 8 10 11 14 16 26 28 32 35 37 38 40 48 50 51 58 62 63 66 0
3 5 8 10 14 16 21 26 28 32 35 37 40 45 48 50 56 58 62 0
3 5 8 10 14 16 26 28 30 32 35 37 40 48 50 58 60 62 65 0
3 5 8 11 14 16 20 26 28 32 35 38 40 44 48 51 55 58 63 0
3 5 8 14 16 20 21 26 28 32 35 40 44 45 48 55 56 58 66 0
3 5 8 14 16 20 26 28 30 32 35 40 44 48 55 58 60 65 0
3 5 8 11 14 16 26 28 29 32 35 38 40 48 51 58 59 63 64 0
3 5 8 14 16 21 26 28 29 32 35 40 45 48 56 58 59 64 0
3 5 8 14 16 26 28 29 30 32 35 40 48 58 59 60 64 65 66 0
3 5 9 10 11 14 16 18 26 32 36 37 38 40 42 49 50 51 53 64 65 66 0
3 5 9 10 14 16 18 21 26 32 36 37 40 42 45 49 50 53 56 63 64 0
3 5 9 10 14 16 18 26 30 32 36 37 40 42 49 50 53 60 64 0
3 5 9 11 14 16 18 20 26 32 36 38 40 42 44 49 51 53 55 62 65 0
3 5 9 14 16 18 20 21 26 32 36 40 42 44 45 49 53 55 56 62 63 66 0
3 5 9 14 16 18 20 26 30 32 36 40 42 44 49 53 55 60 62 0
3 5 9 11 14 16 18 26 29 32 36 38 40 42 49 51 53 59 65 0
3 5 9 14 16 18 21 26 29 32 36 40 42 45 49 53 56 59 63 0
3 5 9 14 16 18 26 29 30 32 36 40 42 49 53 59 60 66 0
3 5 10 11 14 16 18 19 26 32 37 38 40 42 43 50 51 53 54 61 66 0
3 5 10 14 16 18 19 21 26 32 37 40 42 43 45 50 53 54 56 61 63 65 0
3 5 10 14 16 18 19 26 30 32 37 40 42 43 50 53 54 60 61 0
3 5 11 14 16 18 19 20 26 32 38 40 42 43 44 51 53 54 55 61 62 64 0
3 5 14 16 18 19 20 21 26 32 40 42 43 44 45 53 54 55 56 61 62 63 64 65 66 0
3 5 14 16 18 19 20 26 30 32 40 42 43 44 53 54 55 60 61 62 64 0
3 5 11 14 16 18 19 26 29 32 38 40 42 43 51 53 54 59 61 0
3 5 14 16 18 19 21 26 29 32 40 42 43 45 53 54 56 59 61 63 65 0
3 5 14 16 18 19 26 29 30 32 40 42 43 53 54 59 60 61 66 0
3 5 10 11 14 16 18 26 28 32 37 38 40 42 50 51 53 58 66 0
3 5 10 14 16 18 21 26 28 32 37 40 42 45 50 53 56 58 63 0
3 5 10 14 16 18 26 28 30 32 37 40 42 50 53 58 60 65 0
3 5 11 14 16 18 20 26 28 32 38 40 42 44 51 53 55 58 62 0
3 5 14 16 18 20 21 26 28 32 40 42 44 45 53 55 56 58 62 63 66 0
3 5 14 16 18 20 26 28 30 32 40 42 44 53 55 58 60 62 65 0
3 5 11 14 16 18 26 28 29 32 38 40 42 51 53 58 59 64 0
3 5 14 16 18 21 26 28 29 32 40 42 45 53 56 58 59 63 64 0
3 5 14 16 18 26 28 29 30 32 40 42 53 58 59 60 64 65 66 0
3 5 9 10 11 14 16 26 27 32 36 37 38 40 49 50 51 57 64 65 66 0
3 5 9 10 14 16 21 26 27 32 36 37 40 45 49 50 56 57 64 0
3 5 9 10 14 16 26 27 30 32 36 37 40 49 50 57 60 63 64 0
3 5 9 11 14 16 20 26 27 32 36 38 40 44 49 51 55 57 65 0
3 5 9 14 16 20 21 26 27 32 36 40 44 45 49 55 56 57 66 0
3 5 9 14 16 20 26 27 30 32 36 40 44 49 55 57 60 63 0
3 5 9 11 14 16 26 27 29 32 36 38 40 49 51 57 59 62 65 0
3 5 9 14 16 21 26 27 29 32 36 40 45 49 56 57 59 62 0
3 5 9 14 16 26 27 29 30 32 36 40 49 57 59 60 62 63 66 0
3 5 10 11 14 16 19 26 27 32 37 38 40 43 50 51 54 57 66 0
3 5 10 14 16 19 21 26 27 32 37 40 43 45 50 54 56 57 65 0
3 5 10 14 16 19 26 27 30 32 37 40 43 50 54 57 60 63 0
3 5 11 14 16 19 20 26 27 32 38 40 43 44 51 54 55 57 64 0
3 5 14 16 19 20 21 26 27 32 40 43 44 45 54 55 56 57 64 65 66 0
3 5 14 16 19 20 26 27 30 32 40 43 44 54 55 57 60 63 64 0
3 5 11 14 16 19 26 27 29 32 38 40 43 51 54 57 59 62 0
3 5 14 16 19 21 26 27 29 32 40 43 45 54 56 57 59 62 65 0
3 5 14 16 19 26 27 29 30 32 40 43 54 57 59 60 62 63 66 0
3 5 10 11 14 16 26 27 28 32 37 38 40 50 51 57 58 61 66 0
3 5 10 14 16 21 26 27 28 32 37 40 45 50 56 57 58 61 0
3 5 10 14 16 26 27 28 30 32 37 40 50 57 58 60 61 63 65 0
3 5 11 14 16 20 26 27 28 32 38 40 44 51 55 57 58 61 0
3 5 14 16 20 21 26 27 28 32 40 44 45 55 56 57 58 61 66 0
3 5 14 16 20 26 27 28 30 32 40 44 55 57 58 60 61 63 65 0
3 5 11 14 16 26 27 28 29 32 38 40 51 57 58 59 61 62 64 0
3 5 14 16 21 26 27 28 29 32 40 45 56 57 58 59 61 62 64 0
3 5 14 16 26 27 28 29 30 32 40 57 58 59 60 61 62 63 64 65 66 0
3 5 8 9 10 11 14 25 26 32 35 36 37 38 48 49 50 51 52 61 62 63 64 65 66 0
3 5 8 9 10 14 21 25 26 32 35 36 37 45 48 49 50 52 61 62 64 0
3 5 8 9 10 14 25 26 30 32 35 36 37 48 49 50 52 56 60 61 62 64 0
3 5 8 9 11 14 20 25 26 32 35 36 38 44 48 49 51 52 61 63 65 0
3 5 8 9 14 20 21 25 26 32 35 36 44 45 48 49 52 61 66 0
3 5 8 9 14 20 25 26 30 32 35 36 44 48 49 52 56 60 61 0
3 5 8 9 11 14 25 26 29 32 35 36 38 48 49 51 52 55 59 61 63 65 0
3 5 8 9 14 21 25 26 29 32 35 36 45 48 49 52 55 59 61 0
3 5 8 9 14 25 26 29 30 32 35 36 48 49 52 55 56 59 60 61 66 0
3 5 8 10 11 14 19 25 26 32 35 37 38 43 48 50 51 52 62 63 66 0
3 5 8 10 14 19 21 25 26 32 35 37 43 45 48 50 52 62 65 0
3 5 8 10 14 19 25 26 30 32 35 37 43 48 50 52 56 60 62 0
3 5 8 11 14 19 20 25 26 32 35 38 43 44 48 51 52 63 64 0
3 5 8 14 19 20 21 25 26 32 35 43 44 45 48 52 64 65 66 0
3 5 8 14 19 20 25 26 30 32 35 43 44 48 52 56 60 64 0
3 5 8 11 14 19 25 26 29 32 35 38 43 48 51 52 55 59 63 0
3 5 8 14 19 21 25 26 29 32 35 43 45 48 52 55 59 65 0
3 5 8 14 19 25 26 29 30 32 35 43 48 52 55 56 59 60 66 0
3 5 8 10 11 14 25 26 28 32 35 37 38 48 50 51 52 54 58 62 63 66 0
3 5 8 10 14 21 25 26 28 32 35 37 45 48 50 52 54 58 62 0
3 5 8 10 14 25 26 28 30 32 35 37 48 50 52 54 56 58 60 62 65 0
3 5 8 11 14 20 25 26 28 32 35 38 44 48 51 52 54 58 63 0
3 5 8 14 20 21 25 26 28 32 35 44 45 48 52 54 58 66 0
3 5 8 14 20 25 26 28 30 32 35 44 48 52 54 56 58 60 65 0
3 5 8 11 14 25 26 28 29 32 35 38 48 51 52 54 55 58 59 63 64 0
3 5 8 14 21 25 26 28 29 32 35 45 48 52 54 55 58 59 64 0
3 5 8 14 25 26 28 29 30 32 35 48 52 54 55 56 58 59 60 64 65 66 0
3 5 9 10 11 14 18 25 26 32 36 37 38 42 49 50 51 52 64 65 66 0
3 5 9 10 14 18 21 25 26 32 36 37 42 45 49 50 52 63 64 0
3 5 9 10 14 18 25 26 30 32 36 37 42 49 50 52 56 60 64 0
3 5 9 11 14 18 20 25 26 32 36 38 42 44 49 51 52 62 65 0
3 5 9 14 18 20 21 25 26 32 36 42 44 45 49 52 62 63 66 0
3 5 9 14 18 20 25 26 30 32 36 42 44 49 52 56 60 62 0
3 5 9 11 14 18 25 26 29 32 36 38 42 49 51 52 55 59 65 0
3 5 9 14 18 21 25 26 29 32 36 42 45 49 52 55 59 63 0
3 5 9 14 18 25 26 29 30 32 36 42 49 52 55 56 59 60 66 0
3 5 10 11 14 18 19 25 26 32 37 38 42 43 50 51 52 61 66 0
3 5 10 14 18 19 21 25 26 32 37 42 43 45 50 52 61 63 65 0
3 5 10 14 18 19 25 26 30 32 37 42 43 50 52 56 60 61 0
3 5 11 14 18 19 20 25 26 32 38 42 43 44 51 52 61 62 64 0
3 5 14 18 19 20 21 25 26 32 42 43 44 45 52 61 62 63 64 65 66 0
3 5 14 18 19 20 25 26 30 32 42 43 44 52 56 60 61 62 64 0
3 5 11 14 18 19 25 26 29 32 38 42 43 51 52 55 59 61 0
3 5 14 18 19 21 25 26 29 32 42 43 45 52 55 59 61 63 65 0
3 5 14 18 19 25 26 29 30 32 42 43 52 55 56 59 60 61 66 0
3 5 10 11 14 18 25 26 28 32 37 38 42 50 51 52 54 58 66 0
3 5 10 14 18 21 25 26 28 32 37 42 45 50 52 54 58 63 0
3 5 10 14 18 25 26 28 30 32 37 42 50 52 54 56 58 60 65 0
3 5 11 14 18 20 25 26 28 32 38 42 44 51 52 54 58 62 0
3 5 14 18 20 21 25 26 28 32 42 44 45 52 54 58 62 63 66 0
3 5 14 18 20 25 26 28 30 32 42 44 52 54 56 58 60 62 65 0
3 5 11 14 18 25 26 28 29 32 38 42 51 52 54 55 58 59 64 0
3 5 14 18 21 25 26 28 29 32 42 45 52 54 55 58 59 63 64 0
3 5 14 18 25 26 28 29 30 32 42 52 54 55 56 58 59 60 64 65 66 0
3 5 9 10 11 14 25 26 27 32 36 37 38 49 50 51 52 53 57 64 65 66 0
3 5 9 10 14 21 25 26 27 32 36 37 45 49 50 52 53 57 64 0
3 5 9 10 14 25 26 27 30 32 36 37 49 50 52 53 56 57 60 63 64 0
3 5 9 11 14 20 25 26 27 32 36 38 44 49 51 52 53 57 65 0
3 5 9 14 20 21 25 26 27 32 36 44 45 49 52 53 57 66 0
3 5 9 14 20 25 26 27 30 32 36 44 49 52 53 56 57 60 63 0
3 5 9 11 14 25 26 27 29 32 36 38 49 51 52 53 55 57 59 62 65 0
3 5 9 14 21 25 26 27 29 32 36 45 49 52 53 55 57 59 62 0
3 5 9 14 25 26 27 29 30 32 36 49 52 53 55 56 57 59 60 62 63 66 0
3 5 10 11 14 19 25 26 27 32 37 38 43 50 51 52 53 57 66 0
3 5 10 14 19 21 25 26 27 32 37 43 45 50 52 53 57 65 0
3 5 10 14 19 25 26 27 30 32 37 43 50 52 53 56 57 60 63 0
3 5 11 14 19 20 25 26 27 32 38 43 44 51 52 53 57 64 0
3 5 14 19 20 21 25 26 27 32 43 44 45 52 53 57 64 65 66 0
3 5 14 19 20 25 26 27 30 32 43 44 52 53 56 57 60 63 64 0
3 5 11 14 19 25 26 27 29 32 38 43 51 52 53 55 57 59 62 0
3 5 14 19 21 25 26 27 29 32 43 45 52 53 55 57 59 62 65 0
3 5 14 19 25 26 27 29 30 32 43 52 53 55 56 57 59 60 62 63 66 0
3 5 10 11 14 25 26 27 28 32 37 38 50 51 52 53 54 57 58 61 66 0
3 5 10 14 21 25 26 27 28 32 37 45 50 52 53 54 57 58 61 0
3 5 10 14 25 26 27 28 30 32 37 50 52 53 54 56 57 58 60 61 63 65 0
3 5 11 14 20 25 26 27 28 32 38 44 51 52 53 54 57 58 61 0
3 5 14 20 21 25 26 27 28 32 44 45 52 53 54 57 58 61 66 0
3 5 14 20 25 26 27 28 30 32 44 52 53 54 56 57 58 60 61 63 65 0
3 5 11 14 25 26 27 28 29 32 38 51 52 53 54 55 57 58 59 61 62 64 0
3 5 14 21 25 26 27 28 29 32 45 52 53 54 55 57 58 59 61 62 64 0
3 5 14 25 26 27 28 29 30 32 52 53 54 55 56 57 58 59 60 61 62 63 64 65 66 0
3 8 9 10 11 14 16 24 26 35 36 37 38 40 47 61 62 63 64 65 66 0
3 8 9 10 14 16 21 24 26 35 36 37 40 45 47 56 61 62 64 0
3 8 9 10 14 16 24 26 30 35 36 37 40 47 51 60 61 62 64 0
3 8 9 11 14 16 20 24 26 35 36 38 40 44 47 55 61 63 65 0
3 8 9 14 16 20 21 24 26 35 36 40 44 45 47 55 56 61 66 0
3 8 9 14 16 20 24 26 30 35 36 40 44 47 51 55 60 61 0
3 8 9 11 14 16 24 26 29 35 36 38 40 47 50 59 61 63 65 0
3 8 9 14 16 21 24 26 29 35 36 40 45 47 50 56 59 61 0
3 8 9 14 16 24 26 29 30 35 36 40 47 50 51 59 60 61 66 0
3 8 10 11 14 16 19 24 26 35 37 38 40 43 47 54 62 63 66 0
3 8 10 14 16 19 21 24 26 35 37 40 43 45 47 54 56 62 65 0
3 8 10 14 16 19 24 26 30 35 37 40 43 47 51 54 60 62 0
3 8 11 14 16 19 20 24 26 35 38 40 43 44 47 54 55 63 64 0
3 8 14 16 19 20 21 24 26 35 40 43 44 45 47 54 55 56 64 65 66 0
3 8 14 16 19 20 24 26 30 35 40 43 44 47 51 54 55 60 64 0
3 8 11 14 16 19 24 26 29 35 38 40 43 47 50 54 59 63 0
3 8 14 16 19 21 24 26 29 35 40 43 45 47 50 54 56 59 65 0
3 8 14 16 19 24 26 29 30 35 40 43 47 50 51 54 59 60 66 0
3 8 10 11 14 16 24 26 28 35 37 38 40 47 49 58 62 63 66 0
3 8 10 14 16 21 24 26 28 35 37 40 45 47 49 56 58 62 0
3 8 10 14 16 24 26 28 30 35 37 40 47 49 51 58 60 62 65 0
3 8 11 14 16 20 24 26 28 35 38 40 44 47 49 55 58 63 0
3 8 14 16 20 21 24 26 28 35 40 44 45 47 49 55 56 58 66 0
3 8 14 16 20 24 26 28 30 35 40 44 47 49 51 55 58 60 65 0
3 8 11 14 16 24 26 28 29 35 38 40 47 49 50 58 59 63 64 0
3 8 14 16 21 24 26 28 29 35 40 45 47 49 50 56 58 59 64 0
3 8 14 16 24 26 28 29 30 35 40 47 49 50 51 58 59 60 64 65 66 0
3 9 10 11 14 16 18 24 26 36 37 38 40 42 47 53 64 65 66 0
3 9 10 14 16 18 21 24 26 36 37 40 42 45 47 53 56 63 64 0
3 9 10 14 16 18 24 26 30 36 37 40 42 47 51 53 60 64 0
3 9 11 14 16 18 20 24 26 36 38 40 42 44 47 53 55 62 65 0
3 9 14 16 18 20 21 24 26 36 40 42 44 45 47 53 55 56 62 63 66 0
3 9 14 16 18 20 24 26 30 36 40 42 44 47 51 53 55 60 62 0
3 9 11 14 16 18 24 26 29 36 38 40 42 47 50 53 59 65 0
3 9 14 16 18 21 24 26 29 36 40 42 45 47 50 53 56 59 63 0
3 9 14 16 18 24 26 29 30 36 40 42 47 50 51 53 59 60 66 0
3 10 11 14 16 18 19 24 26 37 38 40 42 43 47 53 54 61 66 0
3 10 14 16 18 19 21 24 26 37 40 42 43 45 47 53 54 56 61 63 65 0
3 10 14 16 18 19 24 26 30 37 40 42 43 47 51 53 54 60 61 0
3 11 14 16 18 19 20 24 26 38 40 42 43 44 47 53 54 55 61 62 64 0
3 14 16 18 19 20 21 24 26 40 42 43 44 45 47 53 54 55 56 61 62 63 64 65 66 0
3 14 16 18 19 20 24 26 30 40 42 43 44 47 51 53 54 55 60 61 62 64 0
3 11 14 16 18 19 24 26 29 38 40 42 43 47 50 53 54 59 61 0
3 14 16 18 19 21 24 26 29 40 42 43 45 47 50 53 54 56 59 61 63 65 0
3 14 16 18 19 24 26 29 30 40 42 43 47 50 51 53 54 59 60 61 66 0
3 10 11 14 16 18 24 26 28 37 38 40 42 47 49 53 58 66 0
3 10 14 16 18 21 24 26 28 37 40 42 45 47 49 53 56 58 63 0
3 10 14 16 18 24 26 28 30 37 40 42 47 49 51 53 58 60 65 0
3 11 14 16 18 20 24 26 28 38 40 42 44 47 49 53 55 58 62 0
3 14 16 18 20 21 24 26 28 40 42 44 45 47 49 53 55 56 58 62 63 66 0
3 14 16 18 20 24 26 28 30 40 42 44 47 49 51 53 55 58 60 62 65 0
3 11 14 16 18 24 26 28 29 38 40 42 47 49 50 53 58 59 64 0
3 14 16 18 21 24 26 28 29 40 42 45 47 49 50 53 56 58 59 63 64 0
3 14 16 18 24 26 28 29 30 40 42 47 49 50 51 53 58 59 60 64 65 66 0
3 9 10 11 14 16 24 26 27 36 37 38 40 47 48 57 64 65 66 0
3 9 10 14 16 21 24 26 27 36 37 40 45 47 48 56 57 64 0
3 9 10 14 16 24 26 27 30 36 37 40 47 48 51 57 60 63 64 0
3 9 11 14 16 20 24 26 27 36 38 40 44 47 48 55 57 65 0
3 9 14 16 20 21 24 26 27 36 40 44 45 47 48 55 56 57 66 0
3 9 14 16 20 24 26 27 30 36 40 44 47 48 51 55 57 60 63 0
3 9 11 14 16 24 26 27 29 36 38 40 47 48 50 57 59 62 65 0
3 9 14 16 21 24 26 27 29 36 40 45 47 48 50 56 57 59 62 0
3 9 14 16 24 26 27 29 30 36 40 47 48 50 51 57 59 60 62 63 66 0
3 10 11 14 16 19 24 26 27 37 38 40 43 47 48 54 57 66 0
3 10 14 16 19 21 24 26 27 37 40 43 45 47 48 54 56 57 65 0
3 10 14 16 19 24 26 27 30 37 40 43 47 48 51 54 57 60 63 0
3 11 14 16 19 20 24 26 27 38 40 43 44 47 48 54 55 57 64 0
3 14 16 19 20 21 24 26 27 40 43 44 45 47 48 54 55 56 57 64 65 66 0
3 14 16 19 20 24 26 27 30 40 43 44 47 48 51 54 55 57 60 63 64 0
3 11 14 16 19 24 26 27 29 38 40 43 47 48 50 54 57 59 62 0
3 14 16 19 21 24 26 27 29 40 43 45 47 48 50 54 56 57 59 62 65 0
3 14 16 19 24 26 27 29 30 40 43 47 48 50 51 54 57 59 60 62 63 66 0
3 10 11 14 16 24 26 27 28 37 38 40 47 48 49 57 58 61 66 0
3 10 14 16 21 24 26 27 28 37 40 45 47 48 49 56 57 58 61 0
3 10 14 16 24 26 27 28 30 37 40 47 48 49 51 57 58 60 61 63 65 0
3 11 14 16 20 24 26 27 28 38 40 44 47 48 49 55 57 58 61 0
3 14 16 20 21 24 26 27 28 40 44 45 47 48 49 55 56 57 58 61 66 0
3 14 16 20 24 26 27 28 30 40 44 47 48 49 51 55 57 58 60 61 63 65 0
3 11 14 16 24 26 27 28 29 38 40 47 48 49 50 57 58 59 61 62 64 0
3 14 16 21 24 26 27 28 29 40 45 47 48 49 50 56 57 58 59 61 62 64 0
3 14 16 24 26 27 28 29 30 40 47 48 49 50 51 57 58 59 60 61 62 63 64 65 66 0
3 5 8 9 10 11 16 23 26 32 35 36 37 38 41 48 49 50 51 61 62 63 64 65 66 0
3 5 8 9 10 16 21 23 26 32 35 36 37 41 48 49 50 56 61 62 64 0
3 5 8 9 10 16 23 26 30 32 35 36 37 41 45 48 49 50 60 61 62 64 0
3 5 8 9 11 16 20 23 26 32 35 36 38 41 48 49 51 55 61 63 65 0
3 5 8 9 16 20 21 23 26 32 35 36 41 48 49 55 56 61 66 0
3 5 8 9 16 20 23 26 30 32 35 36 41 45 48 49 55 60 61 0
3 5 8 9 11 16 23 26 29 32 35 36 38 41 44 48 49 51 59 61 63 65 0
3 5 8 9 16 21 23 26 29 32 35 36 41 44 48 49 56 59 61 0
3 5 8 9 16 23 26 29 30 32 35 36 41 44 45 48 49 59 60 61 66 0
3 5 8 10 11 16 19 23 26 32 35 37 38 41 48 50 51 54 62 63 66 0
3 5 8 10 16 19 21 23 26 32 35 37 41 48 50 54 56 62 65 0
3 5 8 10 16 19 23 26 30 32 35 37 41 45 48 50 54 60 62 0
3 5 8 11 16 19 20 23 26 32 35 38 41 48 51 54 55 63 64 0
3 5 8 16 19 20 21 23 26 32 35 41 48 54 55 56 64 65 66 0
3 5 8 16 19 20 23 26 30 32 35 41 45 48 54 55 60 64 0
3 5 8 11 16 19 23 26 29 32 35 38 41 44 48 51 54 59 63 0
3 5 8 16 19 21 23 26 29 32 35 41 44 48 54 56 59 65 0
3 5 8 16 19 23 26 29 30 32 35 41 44 45 48 54 59 60 66 0
3 5 8 10 11 16 23 26 28 32 35 37 38 41 43 48 50 51 58 62 63 66 0
3 5 8 10 16 21 23 26 28 32 35 37 41 43 48 50 56 58 62 0
3 5 8 10 16 23 26 28 30 32 35 37 41 43 45 48 50 58 60 62 65 0
3 5 8 11 16 20 23 26 28 32 35 38 41 43 48 51 55 58 63 0
3 5 8 16 20 21 23 26 28 32 35 41 43 48 55 56 58 66 0
3 5 8 16 20 23 26 28 30 32 35 41 43 45 48 55 58 60 65 0
3 5 8 11 16 23 26 28 29 32 35 38 41 43 44 48 51 58 59 63 64 0
3 5 8 16 21 23 26 28 29 32 35 41 43 44 48 56 58 59 64 0
3 5 8 16 23 26 28 29 30 32 35 41 43 44 45 48 58 59 60 64 65 66 0
3 5 9 10 11 16 18 23 26 32 36 37 38 41 49 50 51 53 64 65 66 0
3 5 9 10 16 18 21 23 26 32 36 37 41 49 50 53 56 63 64 0
3 5 9 10 16 18 23 26 30 32 36 37 41 45 49 50 53 60 64 0
3 5 9 11 16 18 20 23 26 32 36 38 41 49 51 53 55 62 65 0
3 5 9 16 18 20 21 23 26 32 36 41 49 53 55 56 62 63 66 0
3 5 9 16 18 20 23 26 30 32 36 41 45 49 53 55 60 62 0
3 5 9 11 16 18 23 26 29 32 36 38 41 44 49 51 53 59 65 0
3 5 9 16 18 21 23 26 29 32 36 41 44 49 53 56 59 63 0
3 5 9 16 18 23 26 29 30 32 36 41 44 45 49 53 59 60 66 0
3 5 10 11 16 18 19 23 26 32 37 38 41 50 51 53 54 61 66 0
3 5 10 16 18 19 21 23 26 32 37 41 50 53 54 56 61 63 65 0
3 5 10 16 18 19 23 26 30 32 37 41 45 50 53 54 60 61 0
3 5 11 16 18 19 20 23 26 32 38 41 51 53 54 55 61 62 64 0
3 5 16 18 19 20 21 23 26 32 41 53 54 55 56 61 62 63 64 65 66 0
3 5 16 18 19 20 23 26 30 32 41 45 53 54 55 60 61 62 64 0
3 5 11 16 18 19 23 26 29 32 38 41 44 51 53 54 59 61 0
3 5 16 18 19 21 23 26 29 32 41 44 53 54 56 59 61 63 65 0
3 5 16 18 19 23 26 29 30 32 41 44 45 53 54 59 60 61 66 0
3 5 10 11 16 18 23 26 28 32 37 38 41 43 50 51 53 58 66 0
3 5 10 16 18 21 23 26 28 32 37 41 43 50 53 56 58 63 0
3 5 10 16 18 23 26 28 30 32 37 41 43 45 50 53 58 60 65 0
3 5 11 16 18 20 23 26 28 32 38 41 43 51 53 55 58 62 0
3 5 16 18 20 21 23 26 28 32 41 43 53 55 56 58 62 63 66 0
3 5 16 18 20 23 26 28 30 32 41 43 45 53 55 58 60 62 65 0
3 5 11 16 18 23 26 28 29 32 38 41 43 44 51 53 58 59 64 0
3 5 16 18 21 23 26 28 29 32 41 43 44 53 56 58 59 63 64 0
3 5 16 18 23 26 28 29 30 32 41 43 44 45 53 58 59 60 64 65 66 0
3 5 9 10 11 16 23 26 27 32 36 37 38 41 42 49 50 51 57 64 65 66 0
3 5 9 10 16 21 23 26 27 32 36 37 41 42 49 50 56 57 64 0
3 5 9 10 16 23 26 27 30 32 36 37 41 42 45 49 50 57 60 63 64 0
3 5 9 11 16 20 23 26 27 32 36 38 41 42 49 51 55 57 65 0
3 5 9 16 20 21 23 26 27 32 36 41 42 49 55 56 57 66 0
3 5 9 16 20 23 26 27 30 32 36 41 42 45 49 55 57 60 63 0
3 5 9 11 16 23 26 27 29 32 36 38 41 42 44 49 51 57 59 62 65 0
3 5 9 16 21 23 26 27 29 32 36 41 42 44 49 56 57 59 62 0
3 5 9 16 23 26 27 29 30 32 36 41 42 44 45 49 57 59 60 62 63 66 0
3 5 10 11 16 19 23 26 27 32 37 38 41 42 50 51 54 57 66 0
3 5 10 16 19 21 23 26 27 32 37 41 42 50 54 56 57 65 0
3 5 10 16 19 23 26 27 30 32 37 41 42 45 50 54 57 60 63 0
3 5 11 16 19 20 23 26 27 32 38 41 42 51 54 55 57 64 0
3 5 16 19 20 21 23 26 27 32 41 42 54 55 56 57 64 65 66 0
3 5 16 19 20 23 26 27 30 32 41 42 45 54 55 57 60 63 64 0
3 5 11 16 19 23 26 27 29 32 38 41 42 44 51 54 57 59 62 0
3 5 16 19 21 23 26 27 29 32 41 42 44 54 56 57 59 62 65 0
3 5 16 19 23 26 27 29 30 32 41 42 44 45 54 57 59 60 62 63 66 0
3 5 10 11 16 23 26 27 28 32 37 38 41 42 43 50 51 57 58 61 66 0
3 5 10 16 21 23 26 27 28 32 37 41 42 43 50 56 57 58 61 0
3 5 10 16 23 26 27 28 30 32 37 41 42 43 45 50 57 58 60 61 63 65 0
3 5 11 16 20 23 26 27 28 32 38 41 42 43 51 55 57 58 61 0
3 5 16 20 21 23 26 27 28 32 41 42 43 55 56 57 58 61 66 0
3 5 16 20 23 26 27 28 30 32 41 42 43 45 55 57 58 60 61 63 65 0
3 5 11 16 23 26 27 28 29 32 38 41 42 43 44 51 57 58 59 61 62 64 0
3 5 16 21 23 26 27 28 29 32 41 42 43 44 56 57 58 59 61 62 64 0
3 5 16 23 26 27 28 29 30 32 41 42 43 44 45 57 58 59 60 61 62 63 64 65 66 0
3 5 8 9 10 11 23 25 26 32 35 36 37 38 40 41 48 49 50 51 52 61 62 63 64 65 66 0
3 5 8 9 10 21 23 25 26 32 35 36 37 40 41 48 49 50 52 61 62 64 0
3 5 8 9 10 23 25 26 30 32 35 36 37 40 41 45 48 49 50 52 56 60 61 62 64 0
3 5 8 9 11 20 23 25 26 32 35 36 38 40 41 48 49 51 52 61 63 65 0
3 5 8 9 20 21 23 25 26 32 35 36 40 41 48 49 52 61 66 0
3 5 8 9 20 23 25 26 30 32 35 36 40 41 45 48 49 52 56 60 61 0
3 5 8 9 11 23 25 26 29 32 35 36 38 40 41 44 48 49 51 52 55 59 61 63 65 0
3 5 8 9 21 23 25 26 29 32 35 36 40 41 44 48 49 52 55 59 61 0
3 5 8 9 23 25 26 29 30 32 35 36 40 41 44 45 48 49 52 55 56 59 60 61 66 0
3 5 8 10 11 19 23 25 26 32 35 37 38 40 41 48 50 51 52 62 63 66 0
3 5 8 10 19 21 23 25 26 32 35 37 40 41 48 50 52 62 65 0
3 5 8 10 19 23 25 26 30 32 35 37 40 41 45 48 50 52 56 60 62 0
3 5 8 11 19 20 23 25 26 32 35 38 40 41 48 51 52 63 64 0
3 5 8 19 20 21 23 25 26 32 35 40 41 48 52 64 65 66 0
3 5 8 19 20 23 25 26 30 32 35 40 41 45 48 52 56 60 64 0
3 5 8 11 19 23 25 26 29 32 35 38 40 41 44 48 51 52 55 59 63 0
3 5 8 19 21 23 25 26 29 32 35 40 41 44 48 52 55 59 65 0
3 5 8 19 23 25 26 29 30 32 35 40 41 44 45 48 52 55 56 59 60 66 0
3 5 8 10 11 23 25 26 28 32 35 37 38 40 41 43 48 50 51 52 54 58 62 63 66 0
3 5 8 10 21 23 25 26 28 32 35 37 40 41 43 48 50 52 54 58 62 0
3 5 8 10 23 25 26 28 30 32 35 37 40 41 43 45 48 50 52 54 56 58 60 62 65 0
3 5 8 11 20 23 25 26 28 32 35 38 40 41 43 48 51 52 54 58 63 0
3 5 8 20 21 23 25 26 28 32 35 40 41 43 48 52 54 58 66 0
3 5 8 20 23 25 26 28 30 32 35 40 41 43 45 48 52 54 56 58 60 65 0
3 5 8 11 23 25 26 28 29 32 35 38 40 41 43 44 48 51 52 54 55 58 59 63 64 0
3 5 8 21 23 25 26 28 29 32 35 40 41 43 44 48 52 54 55 58 59 64 0
3 5 8 23 25 26 28 29 30 32 35 40 41 43 44 45 48 52 54 55 56 58 59 60 64 65 66 0
3 5 9 10 11 18 23 25 26 32 36 37 38 40 41 49 50 51 52 64 65 66 0
3 5 9 10 18 21 23 25 26 32 36 37 40 41 49 50 52 63 64 0
3 5 9 10 18 23 25 26 30 32 36 37 40 41 45 49 50 52 56 60 64 0
3 5 9 11 18 20 23 25 26 32 36 38 40 41 49 51 52 62 65 0
3 5 9 18 20 21 23 25 26 32 36 40 41 49 52 62 63 66 0
3 5 9 18 20 23 25 26 30 32 36 40 41 45 49 52 56 60 62 0
3 5 9 11 18 23 25 26 29 32 36 38 40 41 44 49 51 52 55 59 65 0
3 5 9 18 21 23 25 26 29 32 36 40 41 44 49 52 55 59 63 0
3 5 9 18 23 25 26 29 30 32 36 40 41 44 45 49 52 55 56 59 60 66 0
3 5 10 11 18 19 23 25 26 32 37 38 40 41 50 51 52 61 66 0
3 5 10 18 19 21 23 25 26 32 37 40 41 50 52 61 63 65 0
3 5 10 18 19 23 25 26 30 32 37 40 41 45 50 52 56 60 61 0
3 5 11 18 19 20 23 25 26 32 38 40 41 51 52 61 62 64 0
3 5 18 19 20 21 23 25 26 32 40 41 52 61 62 63 64 65 66 0
3 5 18 19 20 23 25 26 30 32 40 41 45 52 56 60 61 62 64 0
3 5 11 18 19 23 25 26 29 32 38 40 41 44 51 52 55 59 61 0
3 5 18 19 21 23 25 26 29 32 40 41 44 52 55 59 61 63 65 0
3 5 18 19 23 25 26 29 30 32 40 41 44 45 52 55 56 59 60 61 66 0
3 5 10 11 18 23 25 26 28 32 37 38 40 41 43 50 51 52 54 58 66 0
3 5 10 18 21 23 25 26 28 32 37 40 41 43 50 52 54 58 63 0
3 5 10 18 23 25 26 28 30 32 37 40 41 43 45 50 52 54 56 58 60 65 0
3 5 11 18 20 23 25 26 28 32 38 40 41 43 51 52 54 58 62 0
3 5 18 20 21 23 25 26 28 32 40 41 43 52 54 58 62 63 66 0
3 5 18 20 23 25 26 28 30 32 40 41 43 45 52 54 56 58 60 62 65 0
3 5 11 18 23 25 26 28 29 32 38 40 41 43 44 51 52 54 55 58 59 64 0
3 5 18 21 23 25 26 28 29 32 40 41 43 44 52 54 55 58 59 63 64 0
3 5 18 23 25 26 28 29 30 32 40 41 43 44 45 52 54 55 56 58 59 60 64 65 66 0
3 5 9 10 11 23 25 26 27 32 36 37 38 40 41 42 49 50 51 52 53 57 64 65 66 0
3 5 9 10 21 23 25 26 27 32 36 37 40 41 42 49 50 52 53 57 64 0
3 5 9 10 23 25 26 27 30 32 36 37 40 41 42 45 49 50 52 53 56 57 60 63 64 0
3 5 9 11 20 23 25 26 27 32 36 38 40 41 42 49 51 52 53 57 65 0
3 5 9 20 21 23 25 26 27 32 36 40 41 42 49 52 53 57 66 0
3 5 9 20 23 25 26 27 30 32 36 40 41 42 45 49 52 53 56 57 60 63 0
3 5 9 11 23 25 26 27 29 32 36 38 40 41 42 44 49 51 52 53 55 57 59 62 65 0
3 5 9 21 23 25 26 27 29 32 36 40 41 42 44 49 52 53 55 57 59 62 0
3 5 9 23 25 26 27 29 30 32 36 40 41 42 44 45 49 52 53 55 56 57 59 60 62 63 66 0
3 5 10 11 19 23 25 26 27 32 37 38 40 41 42 50 51 52 53 57 66 0
3 5 10 19 21 23 25 26 27 32 37 40 41 42 50 52 53 57 65 0
3 5 10 19 23 25 26 27 30 32 37 40 41 42 45 50 52 53 56 57 60 63 0
3 5 11 19 20 23 25 26 27 32 38 40 41 42 51 52 53 57 64 0
3 5 19 20 21 23 25 26 27 32 40 41 42 52 53 57 64 65 66 0
3 5 19 20 23 25 26 27 30 32 40 41 42 45 52 53 56 57 60 63 64 0
3 5 11 19 23 25 26 27 29 32 38 40 41 42 44 51 52 53 55 57 59 62 0
3 5 19 21 23 25 26 27 29 32 40 41 42 44 52 53 55 57 59 62 65 0
3 5 19 23 25 26 27 29 30 32 40 41 42 44 45 52 53 55 56 57 59 60 62 63 66 0
3 5 10 11 23 25 26 27 28 32 37 38 40 41 42 43 50 51 52 53 54 57 58 61 66 0
3 5 10 21 23 25 26 27 28 32 37 40 41 42 43 50 52 53 54 57 58 61 0
3 5 10 23 25 26 27 28 30 32 37 40 41 42 43 45 50 52 53 54 56 57 58 60 61 63 65 0
3 5 11 20 23 25 26 27 28 32 38 40 41 42 43 51 52 53 54 57 58 61 0
3 5 20 21 23 25 26 27 28 32 40 41 42 43 52 53 54 57 58 61 66 0
3 5 20 23 25 26 27 28 30 32 40 41 42 43 45 52 53 54 56 57 58 60 61 63 65 0
3 5 11 23 25 26 27 28 29 32 38 40 41 42 43 44 51 52 53 54 55 57 58 59 61 62 64 0
3 5 21 23 25 26 27 28 29 32 40 41 42 43 44 52 53 54 55 57 58 59 61 62 64 0
3 5 23 25 26 27 28 29 30 32 40 41 42 43 44 45 52 53 54 55 56 57 58 59 60 61 62 63 64 65 66 0
3 8 9 10 11 15 23 25 26 35 36 37 38 40 41 52 61 62 63 64 65 66 0
3 8 9 10 15 21 23 25 26 35 36 37 40 41 51 52 61 62 64 0
3 8 9 10 15 23 25 26 30 35 36 37 40 41 45 52 56 60 61 62 64 0
3 8 9 11 15 20 23 25 26 35 36 38 40 41 50 52 61 63 65 0
3 8 9 15 20 21 23 25 26 35 36 40 41 50 51 52 61 66 0
3 8 9 15 20 23 25 26 30 35 36 40 41 45 50 52 56 60 61 0
3 8 9 11 15 23 25 26 29 35 36 38 40 41 44 52 55 59 61 63 65 0
3 8 9 15 21 23 25 26 29 35 36 40 41 44 51 52 55 59 61 0
3 8 9 15 23 25 26 29 30 35 36 40 41 44 45 52 55 56 59 60 61 66 0
3 8 10 11 15 19 23 25 26 35 37 38 40 41 49 52 62 63 66 0
3 8 10 15 19 21 23 25 26 35 37 40 41 49 51 52 62 65 0
3 8 10 15 19 23 25 26 30 35 37 40 41 45 49 52 56 60 62 0
3 8 11 15 19 20 23 25 26 35 38 40 41 49 50 52 63 64 0
3 8 15 19 20 21 23 25 26 35 40 41 49 50 51 52 64 65 66 0
3 8 15 19 20 23 25 26 30 35 40 41 45 49 50 52 56 60 64 0
3 8 11 15 19 23 25 26 29 35 38 40 41 44 49 52 55 59 63 0
3 8 15 19 21 23 25 26 29 35 40 41 44 49 51 52 55 59 65 0
3 8 15 19 23 25 26 29 30 35 40 41 44 45 49 52 55 56 59 60 66 0
3 8 10 11 15 23 25 26 28 35 37 38 40 41 43 52 54 58 62 63 66 0
3 8 10 15 21 23 25 26 28 35 37 40 41 43 51 52 54 58 62 0
3 8 10 15 23 25 26 28 30 35 37 40 41 43 45 52 54 56 58 60 62 65 0
3 8 11 15 20 23 25 26 28 35 38 40 41 43 50 52 54 58 63 0
3 8 15 20 21 23 25 26 28 35 40 41 43 50 51 52 54 58 66 0
3 8 15 20 23 25 26 28 30 35 40 41 43 45 50 52 54 56 58 60 65 0
3 8 11 15 23 25 26 28 29 35 38 40 41 43 44 52 54 55 58 59 63 64 0
3 8 15 21 23 25 26 28 29 35 40 41 43 44 51 52 54 55 58 59 64 0
3 8 15 23 25 26 28 29 30 35 40 41 43 44 45 52 54 55 56 58 59 60 64 65 66 0
3 9 10 11 15 18 23 25 26 36 37 38 40 41 48 52 64 65 66 0
3 9 10 15 18 21 23 25 26 36 37 40 41 48 51 52 63 64 0
3 9 10 15 18 23 25 26 30 36 37 40 41 45 48 52 56 60 64 0
3 9 11 15 18 20 23 25 26 36 38 40 41 48 50 52 62 65 0
3 9 15 18 20 21 23 25 26 36 40 41 48 50 51 52 62 63 66 0
3 9 15 18 20 23 25 26 30 36 40 41 45 48 50 52 56 60 62 0
3 9 11 15 18 23 25 26 29 36 38 40 41 44 48 52 55 59 65 0
3 9 15 18 21 23 25 26 29 36 40 41 44 48 51 52 55 59 63 0
3 9 15 18 23 25 26 29 30 36 40 41 44 45 48 52 55 56 59 60 66 0
3 10 11 15 18 19 23 25 26 37 38 40 41 48 49 52 61 66 0
3 10 15 18 19 21 23 25 26 37 40 41 48 49 51 52 61 63 65 0
3 10 15 18 19 23 25 26 30 37 40 41 45 48 49 52 56 60 61 0
3 11 15 18 19 20 23 25 26 38 40 41 48 49 50 52 61 62 64 0
3 15 18 19 20 21 23 25 26 40 41 48 49 50 51 52 61 62 63 64 65 66 0
3 15 18 19 20 23 25 26 30 40 41 45 48 49 50 52 56 60 61 62 64 0
3 11 15 18 19 23 25 26 29 38 40 41 44 48 49 52 55 59 61 0
3 15 18 19 21 23 25 26 29 40 41 44 48 49 51 52 55 59 61 63 65 0
3 15 18 19 23 25 26 29 30 40 41 44 45 48 49 52 55 56 59 60 61 66 0
3 10 11 15 18 23 25 26 28 37 38 40 41 43 48 52 54 58 66 0
3 10 15 18 21 23 25 26 28 37 40 41 43 48 51 52 54 58 63 0
3 10 15 18 23 25 26 28 30 37 40 41 43 45 48 52 54 56 58 60 65 0
3 11 15 18 20 23 25 26 28 38 40 41 43 48 50 52 54 58 62 0
3 15 18 20 21 23 25 26 28 40 41 43 48 50 51 52 54 58 62 63 66 0
3 15 18 20 23 25 26 28 30 40 41 43 45 48 50 52 54 56 58 60 62 65 0
3 11 15 18 23 25 26 28 29 38 40 41 43 44 48 52 54 55 58 59 64 0
3 15 18 21 23 25 26 28 29 40 41 43 44 48 51 52 54 55 58 59 63 64 0
3 15 18 23 25 26 28 29 30 40 41 43 44 45 48 52 54 55 56 58 59 60 64 65 66 0
3 9 10 11 15 23 25 26 27 36 37 38 40 41 42 52 53 57 64 65 66 0
3 9 10 15 21 23 25 26 27 36 37 40 41 42 51 52 53 57 64 0
3 9 10 15 23 25 26 27 30 36 37 40 41 42 45 52 53 56 57 60 63 64 0
3 9 11 15 20 23 25 26 27 36 38 40 41 42 50 52 53 57 65 0
3 9 15 20 21 23 25 26 27 36 40 41 42 50 51 52 53 57 66 0
3 9 15 20 23 25 26 27 30 36 40 41 42 45 50 52 53 56 57 60 63 0
3 9 11 15 23 25 26 27 29 36 38 40 41 42 44 52 53 55 57 59 62 65 0
3 9 15 21 23 25 26 27 29 36 40 41 42 44 51 52 53 55 57 59 62 0
3 9 15 23 25 26 27 29 30 36 40 41 42 44 45 52 53 55 56 57 59 60 62 63 66 0
3 10 11 15 19 23 25 26 27 37 38 40 41 42 49 52 53 57 66 0
3 10 15 19 21 23 25 26 27 37 40 41 42 49 51 52 53 57 65 0
3 10 15 19 23 25 26 27 30 37 40 41 42 45 49 52 53 56 57 60 63 0
3 11 15 19 20 23 25 26 27 38 40 41 42 49 50 52 53 57 64 0
3 15 19 20 21 23 25 26 27 40 41 42 49 50 51 52 53 57 64 65 66 0
3 15 19 20 23 25 26 27 30 40 41 42 45 49 50 52 53 56 57 60 63 64 0
3 11 15 19 23 25 26 27 29 38 40 41 42 44 49 52 53 55 57 59 62 0
3 15 19 21 23 25 26 27 29 40 41 42 44 49 51 52 53 55 57 59 62 65 0
3 15 19 23 25 26 27 29 30 40 41 42 44 45 49 52 53 55 56 57 59 60 62 63 66 0
3 10 11 15 23 25 26 27 28 37 38 40 41 42 43 52 53 54 57 58 61 66 0
3 10 15 21 23 25 26 27 28 37 40 41 42 43 51 52 53 54 57 58 61 0
3 10 15 23 25 26 27 28 30 37 40 41 42 43 45 52 53 54 56 57 58 60 61 63 65 0
3 11 15 20 23 25 26 27 28 38 40 41 42 43 50 52 53 54 57 58 61 0
3 15 20 21 23 25 26 27 28 40 41 42 43 50 51 52 53 54 57 58 61 66 0
3 15 20 23 25 26 27 28 30 40 41 42 43 45 50 52 53 54 56 57 58 60 61 63 65 0
3 11 15 23 25 26 27 28 29 38 40 41 42 43 44 52 53 54 55 57 58 59 61 62 64 0
3 15 21 23 25 26 27 28 29 40 41 42 43 44 51 52 53 54 55 57 58 59 61 62 64 0
3 15 23 25 26 27 28 29 30 40 41 42 43 44 45 52 53 54 55 56 57 58 59 60 61 62 63 64 65 66 0
4 8 9 10 11 13 15 25 26 32 42 43 44 45 52 61 62 63 64 65 66 0
4 8 9 10 13 15 21 25 26 32 38 42 43 44 51 52 61 62 64 0
4 8 9 10 13 15 25 26 30 32 42 43 44 52 56 60 61 62 64 0
4 8 9 11 13 15 20 25 26 32 37 42 43 45 50 52 61 63 65 0
4 8 9 13 15 20 21 25 26 32 37 38 42 43 50 51 52 61 66 0
4 8 9 13 15 20 25 26 30 32 37 42 43 50 52 56 60 61 0
4 8 9 11 13 15 25 26 29 32 42 43 45 52 55 59 61 63 65 0
4 8 9 13 15 21 25 26 29 32 38 42 43 51 52 55 59 61 0
4 8 9 13 15 25 26 29 30 32 42 43 52 55 56 59 60 61 66 0
4 8 10 11 13 15 19 25 26 32 36 42 44 45 49 52 62 63 66 0
4 8 10 13 15 19 21 25 26 32 36 38 42 44 49 51 52 62 65 0
4 8 10 13 15 19 25 26 30 32 36 42 44 49 52 56 60 62 0
4 8 11 13 15 19 20 25 26 32 36 37 42 45 49 50 52 63 64 0
4 8 13 15 19 20 21 25 26 32 36 37 38 42 49 50 51 52 64 65 66 0
4 8 13 15 19 20 25 26 30 32 36 37 42 49 50 52 56 60 64 0
4 8 11 13 15 19 25 26 29 32 36 42 45 49 52 55 59 63 0
4 8 13 15 19 21 25 26 29 32 36 38 42 49 51 52 55 59 65 0
4 8 13 15 19 25 26 29 30 32 36 42 49 52 55 56 59 60 66 0
4 8 10 11 13 15 25 26 28 32 42 44 45 52 54 58 62 63 66 0
4 8 10 13 15 21 25 26 28 32 38 42 44 51 52 54 58 62 0
4 8 10 13 15 25 26 28 30 32 42 44 52 54 56 58 60 62 65 0
4 8 11 13 15 20 25 26 28 32 37 42 45 50 52 54 58 63 0
4 8 13 15 20 21 25 26 28 32 37 38 42 50 51 52 54 58 66 0
4 8 13 15 20 25 26 28 30 32 37 42 50 52 54 56 58 60 65 0
4 8 11 13 15 25 26 28 29 32 42 45 52 54 55 58 59 63 64 0
4 8 13 15 21 25 26 28 29 32 38 42 51 52 54 55 58 59 64 0
4 8 13 15 25 26 28 29 30 32 42 52 54 55 56 58 59 60 64 65 66 0
4 9 10 11 13 15 18 25 26 32 35 43 44 45 48 52 64 65 66 0
4 9 10 13 15 18 21 25 26 32 35 38 43 44 48 51 52 63 64 0
4 9 10 13 15 18 25 26 30 32 35 43 44 48 52 56 60 64 0
4 9 11 13 15 18 20 25 26 32 35 37 43 45 48 50 52 62 65 0
4 9 13 15 18 20 21 25 26 32 35 37 38 43 48 50 51 52 62 63 66 0
4 9 13 15 18 20 25 26 30 32 35 37 43 48 50 52 56 60 62 0
4 9 11 13 15 18 25 26 29 32 35 43 45 48 52 55 59 65 0
4 9 13 15 18 21 25 26 29 32 35 38 43 48 51 52 55 59 63 0
4 9 13 15 18 25 26 29 30 32 35 43 48 52 55 56 59 60 66 0
4 10 11 13 15 18 19 25 26 32 35 36 44 45 48 49 52 61 66 0
4 10 13 15 18 19 21 25 26 32 35 36 38 44 48 49 51 52 61 63 65 0
4 10 13 15 18 19 25 26 30 32 35 36 44 48 49 52 56 60 61 0
4 11 13 15 18 19 20 25 26 32 35 36 37 45 48 49 50 52 61 62 64 0
4 13 15 18 19 20 21 25 26 32 35 36 37 38 48 49 50 51 52 61 62 63 64 65 66 0
4 13 15 18 19 20 25 26 30 32 35 36 37 48 49 50 52 56 60 61 62 64 0
4 11 13 15 18 19 25 26 29 32 35 36 45 48 49 52 55 59 61 0
4 13 15 18 19 21 25 26 29 32 35 36 38 48 49 51 52 55 59 61 63 65 0
4 13 15 18 19 25 26 29 30 32 35 36 48 49 52 55 56 59 60 61 66 0
4 10 11 13 15 18 25 26 28 32 35 44 45 48 52 54 58 66 0
4 10 13 15 18 21 25 26 28 32 35 38 44 48 51 52 54 58 63 0
4 10 13 15 18 25 26 28 30 32 35 44 48 52 54 56 58 60 65 0
4 11 13 15 18 20 25 26 28 32 35 37 45 48 50 52 54 58 62 0
4 13 15 18 20 21 25 26 28 32 35 37 38 48 50 51 52 54 58 62 63 66 0
4 13 15 18 20 25 26 28 30 32 35 37 48 50 52 54 56 58 60 62 65 0
4 11 13 15 18 25 26 28 29 32 35 45 48 52 54 55 58 59 64 0
4 13 15 18 21 25 26 28 29 32 35 38 48 51 52 54 55 58 59 63 64 0
4 13 15 18 25 26 28 29 30 32 35 48 52 54 55 56 58 59 60 64 65 66 0
4 9 10 11 13 15 25 26 27 32 43 44 45 52 53 57 64 65 66 0
4 9 10 13 15 21 25 26 27 32 38 43 44 51 52 53 57 64 0
4 9 10 13 15 25 26 27 30 32 43 44 52 53 56 57 60 63 64 0
4 9 11 13 15 20 25 26 27 32 37 43 45 50 52 53 57 65 0
4 9 13 15 20 21 25 26 27 32 37 38 43 50 51 52 53 57 66 0
4 9 13 15 20 25 26 27 30 32 37 43 50 52 53 56 57 60 63 0
4 9 11 13 15 25 26 27 29 32 43 45 52 53 55 57 59 62 65 0
4 9 13 15 21 25 26 27 29 32 38 43 51 52 53 55 57 59 62 0
4 9 13 15 25 26 27 29 30 32 43 52 53 55 56 57 59 60 62 63 66 0
4 10 11 13 15 19 25 26 27 32 36 44 45 49 52 53 57 66 0
4 10 13 15 19 21 25 26 27 32 36 38 44 49 51 52 53 57 65 0
4 10 13 15 19 25 26 27 30 32 36 44 49 52 53 56 57 60 63 0
4 11 13 15 19 20 25 26 27 32 36 37 45 49 50 52 53 57 64 0
4 13 15 19 20 21 25 26 27 32 36 37 38 49 50 51 52 53 57 64 65 66 0
4 13 15 19 20 25 26 27 30 32 36 37 49 50 52 53 56 57 60 63 64 0
4 11 13 15 19 25 26 27 29 32 36 45 49 52 53 55 57 59 62 0
4 13 15 19 21 25 26 27 29 32 36 38 49 51 52 53 55 57 59 62 65 0
4 13 15 19 25 26 27 29 30 32 36 49 52 53 55 56 57 59 60 62 63 66 0
4 10 11 13 15 25 26 27 28 32 44 45 52 53 54 57 58 61 66 0
4 10 13 15 21 25 26 27 28 32 38 44 51 52 53 54 57 58 61 0
4 10 13 15 25 26 27 28 30 32 44 52 53 54 56 57 58 60 61 63 65 0
4 11 13 15 20 25 26 27 28 32 37 45 50 52 53 54 57 58 61 0
4 13 15 20 21 25 26 27 28 32 37 38 50 51 52 53 54 57 58 61 66 0
4 13 15 20 25 26 27 28 30 32 37 50 52 53 54 56 57 58 60 61 63 65 0
4 11 13 15 25 26 27 28 29 32 45 52 53 54 55 57 58 59 61 62 64 0
4 13 15 21 25 26 27 28 29 32 38 51 52 53 54 55 57 58 59 61 62 64 0
4 13 15 25 26 27 28 29 30 32 52 53 54 55 56 57 58 59 60 61 62 63 64 65 66 0
4 8 9 10 11 13 16 24 26 33 42 43 44 45 47 61 62 63 64 65 66 0
4 8 9 10 13 16 21 24 26 33 38 42 43 44 47 56 61 62 64 0
4 8 9 10 13 16 24 26 30 33 42 43 44 47 51 60 61 62 64 0
4 8 9 11 13 16 20 24 26 33 37 42 43 45 47 55 61 63 65 0
4 8 9 13 16 20 21 24 26 33 37 38 42 43 47 55 56 61 66 0
4 8 9 13 16 20 24 26 30 33 37 42 43 47 51 55 60 61 0
4 8 9 11 13 16 24 26 29 33 42 43 45 47 50 59 61 63 65 0
4 8 9 13 16 21 24 26 29 33 38 42 43 47 50 56 59 61 0
4 8 9 13 16 24 26 29 30 33 42 43 47 50 51 59 60 61 66 0
4 8 10 11 13 16 19 24 26 33 36 42 44 45 47 54 62 63 66 0
4 8 10 13 16 19 21 24 26 33 36 38 42 44 47 54 56 62 65 0
4 8 10 13 16 19 24 26 30 33 36 42 44 47 51 54 60 62 0
4 8 11 13 16 19 20 24 26 33 36 37 42 45 47 54 55 63 64 0
4 8 13 16 19 20 21 24 26 33 36 37 38 42 47 54 55 56 64 65 66 0
4 8 13 16 19 20 24 26 30 33 36 37 42 47 51 54 55 60 64 0
4 8 11 13 16 19 24 26 29 33 36 42 45 47 50 54 59 63 0
4 8 13 16 19 21 24 26 29 33 36 38 42 47 50 54 56 59 65 0
4 8 13 16 19 24 26 29 30 33 36 42 47 50 51 54 59 60 66 0
4 8 10 11 13 16 24 26 28 33 42 44 45 47 49 58 62 63 66 0
4 8 10 13 16 21 24 26 28 33 38 42 44 47 49 56 58 62 0
4 8 10 13 16 24 26 28 30 33 42 44 47 49 51 58 60 62 65 0
4 8 11 13 16 20 24 26 28 33 37 42 45 47 49 55 58 63 0
4 8 13 16 20 21 24 26 28 33 37 38 42 47 49 55 56 58 66 0
4 8 13 16 20 24 26 28 30 33 37 42 47 49 51 55 58 60 65 0
4 8 11 13 16 24 26 28 29 33 42 45 47 49 50 58 59 63 64 0
4 8 13 16 21 24 26 28 29 33 38 42 47 49 50 56 58 59 64 0
4 8 13 16 24 26 28 29 30 33 42 47 49 50 51 58 59 60 64 65 66 0
4 9 10 11 13 16 18 24 26 33 35 43 44 45 47 53 64 65 66 0
4 9 10 13 16 18 21 24 26 33 35 38 43 44 47 53 56 63 64 0
4 9 10 13 16 18 24 26 30 33 35 43 44 47 51 53 60 64 0
4 9 11 13 16 18 20 24 26 33 35 37 43 45 47 53 55 62 65 0
4 9 13 16 18 20 21 24 26 33 35 37 38 43 47 53 55 56 62 63 66 0
4 9 13 16 18 20 24 26 30 33 35 37 43 47 51 53 55 60 62 0
4 9 11 13 16 18 24 26 29 33 35 43 45 47 50 53 59 65 0
4 9 13 16 18 21 24 26 29 33 35 38 43 47 50 53 56 59 63 0
4 9 13 16 18 24 26 29 30 33 35 43 47 50 51 53 59 60 66 0
4 10 11 13 16 18 19 24 26 33 35 36 44 45 47 53 54 61 66 0
4 10 13 16 18 19 21 24 26 33 35 36 38 44 47 53 54 56 61 63 65 0
4 10 13 16 18 19 24 26 30 33 35 36 44 47 51 53 54 60 61 0
4 11 13 16 18 19 20 24 26 33 35 36 37 45 47 53 54 55 61 62 64 0
4 13 16 18 19 20 21 24 26 33 35 36 37 38 47 53 54 55 56 61 62 63 64 65 66 0
4 13 16 18 19 20 24 26 30 33 35 36 37 47 51 53 54 55 60 61 62 64 0
4 11 13 16 18 19 24 26 29 33 35 36 45 47 50 53 54 59 61 0
4 13 16 18 19 21 24 26 29 33 35 36 38 47 50 53 54 56 59 61 63 65 0
4 13 16 18 19 24 26 29 30 33 35 36 47 50 51 53 54 59 60 61 66 0
4 10 11 13 16 18 24 26 28 33 35 44 45 47 49 53 58 66 0
4 10 13 16 18 21 24 26 28 33 35 38 44 47 49 53 56 58 63 0
4 10 13 16 18 24 26 28 30 33 35 44 47 49 51 53 58 60 65 0
4 11 13 16 18 20 24 26 28 33 35 37 45 47 49 53 55 58 62 0
4 13 16 18 20 21 24 26 28 33 35 37 38 47 49 53 55 56 58 62 63 66 0
4 13 16 18 20 24 26 28 30 33 35 37 47 49 51 53 55 58 60 62 65 0
4 11 13 16 18 24 26 28 29 33 35 45 47 49 50 53 58 59 64 0
4 13 16 18 21 24 26 28 29 33 35 38 47 49 50 53 56 58 59 63 64 0
4 13 16 18 24 26 28 29 30 33 35 47 49 50 51 53 58 59 60 64 65 66 0
4 9 10 11 13 16 24 26 27 33 43 44 45 47 48 57 64 65 66 0
4 9 10 13 16 21 24 26 27 33 38 43 44 47 48 56 57 64 0
4 9 10 13 16 24 26 27 30 33 43 44 47 48 51 57 60 63 64 0
4 9 11 13 16 20 24 26 27 33 37 43 45 47 48 55 57 65 0
4 9 13 16 20 21 24 26 27 33 37 38 43 47 48 55 56 57 66 0
4 9 13 16 20 24 26 27 30 33 37 43 47 48 51 55 57 60 63 0
4 9 11 13 16 24 26 27 29 33 43 45 47 48 50 57 59 62 65 0
4 9 13 16 21 24 26 27 29 33 38 43 47 48 50 56 57 59 62 0
4 9 13 16 24 26 27 29 30 33 43 47 48 50 51 57 59 60 62 63 66 0
4 10 11 13 16 19 24 26 27 33 36 44 45 47 48 54 57 66 0
4 10 13 16 19 21 24 26 27 33 36 38 44 47 48 54 56 57 65 0
4 10 13 16 19 24 26 27 30 33 36 44 47 48 51 54 57 60 63 0
4 11 13 16 19 20 24 26 27 33 36 37 45 47 48 54 55 57 64 0
4 13 16 19 20 21 24 26 27 33 36 37 38 47 48 54 55 56 57 64 65 66 0
4 13 16 19 20 24 26 27 30 33 36 37 47 48 51 54 55 57 60 63 64 0
4 11 13 16 19 24 26 27 29 33 36 45 47 48 50 54 57 59 62 0
4 13 16 19 21 24 26 27 29 33 36 38 47 48 50 54 56 57 59 62 65 0
4 13 16 19 24 26 27 29 30 33 36 47 48 50 51 54 57 59 60 62 63 66 0
4 10 11 13 16 24 26 27 28 33 44 45 47 48 49 57 58 61 66 0
4 10 13 16 21 24 26 27 28 33 38 44 47 48 49 56 57 58 61 0
4 10 13 16 24 26 27 28 30 33 44 47 48 49 51 57 58 60 61 63 65 0
4 11 13 16 20 24 26 27 28 33 37 45 47 48 49 55 57 58 61 0
4 13 16 20 21 24 26 27 28 33 37 38 47 48 49 55 56 57 58 61 66 0
4 13 16 20 24 26 27 28 30 33 37 47 48 49 51 55 57 58 60 61 63 65 0
4 11 13 16 24 26 27 28 29 33 45 47 48 49 50 57 58 59 61 62 64 0
4 13 16 21 24 26 27 28 29 33 38 47 48 49 50 56 57 58 59 61 62 64 0
4 13 16 24 26 27 28 29 30 33 47 48 49 50 51 57 58 59 60 61 62 63 64 65 66 0
5 8 9 10 11 13 16 23 26 33 41 48 49 50 51 61 62 63 64 65 66 0
5 8 9 10 13 16 21 23 26 33 38 41 48 49 50 56 61 62 64 0
5 8 9 10 13 16 23 26 30 33 41 45 48 49 50 60 61 62 64 0
5 8 9 11 13 16 20 23 26 33 37 41 48 49 51 55 61 63 65 0
5 8 9 13 16 20 21 23 26 33 37 38 41 48 49 55 56 61 66 0
5 8 9 13 16 20 23 26 30 33 37 41 45 48 49 55 60 61 0
5 8 9 11 13 16 23 26 29 33 41 44 48 49 51 59 61 63 65 0
5 8 9 13 16 21 23 26 29 33 38 41 44 48 49 56 59 61 0
5 8 9 13 16 23 26 29 30 33 41 44 45 48 49 59 60 61 66 0
5 8 10 11 13 16 19 23 26 33 36 41 48 50 51 54 62 63 66 0
5 8 10 13 16 19 21 23 26 33 36 38 41 48 50 54 56 62 65 0
5 8 10 13 16 19 23 26 30 33 36 41 45 48 50 54 60 62 0
5 8 11 13 16 19 20 23 26 33 36 37 41 48 51 54 55 63 64 0
5 8 13 16 19 20 21 23 26 33 36 37 38 41 48 54 55 56 64 65 66 0
5 8 13 16 19 20 23 26 30 33 36 37 41 45 48 54 55 60 64 0
5 8 11 13 16 19 23 26 29 33 36 41 44 48 51 54 59 63 0
5 8 13 16 19 21 23 26 29 33 36 38 41 44 48 54 56 59 65 0
5 8 13 16 19 23 26 29 30 33 36 41 44 45 48 54 59 60 66 0
5 8 10 11 13 16 23 26 28 33 41 43 48 50 51 58 62 63 66 0
5 8 10 13 16 21 23 26 28 33 38 41 43 48 50 56 58 62 0
5 8 10 13 16 23 26 28 30 33 41 43 45 48 50 58 60 62 65 0
5 8 11 13 16 20 23 26 28 33 37 41 43 48 51 55 58 63 0
5 8 13 16 20 21 23 26 28 33 37 38 41 43 48 55 56 58 66 0
5 8 13 16 20 23 26 28 30 33 37 41 43 45 48 55 58 60 65 0
5 8 11 13 16 23 26 28 29 33 41 43 44 48 51 58 59 63 64 0
5 8 13 16 21 23 26 28 29 33 38 41 43 44 48 56 58 59 64 0
5 8 13 16 23 26 28 29 30 33 41 43 44 45 48 58 59 60 64 65 66 0
5 9 10 11 13 16 18 23 26 33 35 41 49 50 51 53 64 65 66 0
5 9 10 13 16 18 21 23 26 33 35 38 41 49 50 53 56 63 64 0
5 9 10 13 16 18 23 26 30 33 35 41 45 49 50 53 60 64 0
5 9 11 13 16 18 20 23 26 33 35 37 41 49 51 53 55 62 65 0
5 9 13 16 18 20 21 23 26 33 35 37 38 41 49 53 55 56 62 63 66 0
5 9 13 16 18 20 23 26 30 33 35 37 41 45 49 53 55 60 62 0
5 9 11 13 16 18 23 26 29 33 35 41 44 49 51 53 59 65 0
5 9 13 16 18 21 23 26 29 33 35 38 41 44 49 53 56 59 63 0
5 9 13 16 18 23 26 29 30 33 35 41 44 45 49 53 59 60 66 0
5 10 11 13 16 18 19 23 26 33 35 36 41 50 51 53 54 61 66 0
5 10 13 16 18 19 21 23 26 33 35 36 38 41 50 53 54 56 61 63 65 0
5 10 13 16 18 19 23 26 30 33 35 36 41 45 50 53 54 60 61 0
5 11 13 16 18 19 20 23 26 33 35 36 37 41 51 53 54 55 61 62 64 0
5 13 16 18 19 20 21 23 26 33 35 36 37 38 41 53 54 55 56 61 62 63 64 65 66 0
5 13 16 18 19 20 23 26 30 33 35 36 37 41 45 53 54 55 60 61 62 64 0
5 11 13 16 18 19 23 26 29 33 35 36 41 44 51 53 54 59 61 0
5 13 16 18 19 21 23 26 29 33 35 36 38 41 44 53 54 56 59 61 63 65 0
5 13 16 18 19 23 26 29 30 33 35 36 41 44 45 53 54 59 60 61 66 0
5 10 11 13 16 18 23 26 28 33 35 41 43 50 51 53 58 66 0
5 10 13 16 18 21 23 26 28 33 35 38 41 43 50 53 56 58 63 0
5 10 13 16 18 23 26 28 30 33 35 41 43 45 50 53 58 60 65 0
5 11 13 16 18 20 23 26 28 33 35 37 41 43 51 53 55 58 62 0
5 13 16 18 20 21 23 26 28 33 35 37 38 41 43 53 55 56 58 62 63 66 0
5 13 16 18 20 23 26 28 30 33 35 37 41 43 45 53 55 58 60 62 65 0
5 11 13 16 18 23 26 28 29 33 35 41 43 44 51 53 58 59 64 0
5 13 16 18 21 23 26 28 29 33 35 38 41 43 44 53 56 58 59 63 64 0
5 13 16 18 23 26 28 29 30 33 35 41 43 44 45 53 58 59 60 64 65 66 0
5 9 10 11 13 16 23 26 27 33 41 42 49 50 51 57 64 65 66 0
5 9 10 13 16 21 23 26 27 33 38 41 42 49 50 56 57 64 0
5 9 10 13 16 23 26 27 30 33 41 42 45 49 50 57 60 63 64 0
5 9 11 13 16 20 23 26 27 33 37 41 42 49 51 55 57 65 0
5 9 13 16 20 21 23 26 27 33 37 38 41 42 49 55 56 57 66 0
5 9 13 16 20 23 26 27 30 33 37 41 42 45 49 55 57 60 63 0
5 9 11 13 16 23 26 27 29 33 41 42 44 49 51 57 59 62 65 0
5 9 13 16 21 23 26 27 29 33 38 41 42 44 49 56 57 59 62 0
5 9 13 16 23 26 27 29 30 33 41 42 44 45 49 57 59 60 62 63 66 0
5 10 11 13 16 19 23 26 27 33 36 41 42 50 51 54 57 66 0
5 10 13 16 19 21 23 26 27 33 36 38 41 42 50 54 56 57 65 0
5 10 13 16 19 23 26 27 30 33 36 41 42 45 50 54 57 60 63 0
5 11 13 16 19 20 23 26 27 33 36 37 41 42 51 54 55 57 64 0
5 13 16 19 20 21 23 26 27 33 36 37 38 41 42 54 55 56 57 64 65 66 0
5 13 16 19 20 23 26 27 30 33 36 37 41 42 45 54 55 57 60 63 64 0
5 11 13 16 19 23 26 27 29 33 36 41 42 44 51 54 57 59 62 0
5 13 16 19 21 23 26 27 29 33 36 38 41 42 44 54 56 57 59 62 65 0
5 13 16 19 23 26 27 29 30 33 36 41 42 44 45 54 57 59 60 62 63 66 0
5 10 11 13 16 23 26 27 28 33 41 42 43 50 51 57 58 61 66 0
5 10 13 16 21 23 26 27 28 33 38 41 42 43 50 56 57 58 61 0
5 10 13 16 23 26 27 28 30 33 41 42 43 45 50 57 58 60 61 63 65 0
5 11 13 16 20 23 26 27 28 33 37 41 42 43 51 55 57 58 61 0
5 13 16 20 21 23 26 27 28 33 37 38 41 42 43 55 56 57 58 61 66 0
5 13 16 20 23 26 27 28 30 33 37 41 42 43 45 55 57 58 60 61 63 65 0
5 11 13 16 23 26 27 28 29 33 41 42 43 44 51 57 58 59 61 62 64 0
5 13 16 21 23 26 27 28 29 33 38 41 42 43 44 56 57 58 59 61 62 64 0
5 13 16 23 26 27 28 29 30 33 41 42 43 44 45 57 58 59 60 61 62 63 64 65 66 0
5 8 9 10 11 13 23 25 26 40 41 48 49 50 51 52 61 62 63 64 65 66 0
5 8 9 10 13 21 23 25 26 38 40 41 48 49 50 52 61 62 64 0
5 8 9 10 13 23 25 26 30 40 41 45 48 49 50 52 56 60 61 62 64 0
5 8 9 11 13 20 23 25 26 37 40 41 48 49 51 52 61 63 65 0
5 8 9 13 20 21 23 25 26 37 38 40 41 48 49 52 61 66 0
5 8 9 13 20 23 25 26 30 37 40 41 45 48 49 52 56 60 61 0
5 8 9 11 13 23 25 26 29 40 41 44 48 49 51 52 55 59 61 63 65 0
5 8 9 13 21 23 25 26 29 38 40 41 44 48 49 52 55 59 61 0
5 8 9 13 23 25 26 29 30 40 41 44 45 48 49 52 55 56 59 60 61 66 0
5 8 10 11 13 19 23 25 26 36 40 41 48 50 51 52 62 63 66 0
5 8 10 13 19 21 23 25 26 36 38 40 41 48 50 52 62 65 0
5 8 10 13 19 23 25 26 30 36 40 41 45 48 50 52 56 60 62 0
5 8 11 13 19 20 23 25 26 36 37 40 41 48 51 52 63 64 0
5 8 13 19 20 21 23 25 26 36 37 38 40 41 48 52 64 65 66 0
5 8 13 19 20 23 25 26 30 36 37 40 41 45 48 52 56 60 64 0
5 8 11 13 19 23 25 26 29 36 40 41 44 48 51 52 55 59 63 0
5 8 13 19 21 23 25 26 29 36 38 40 41 44 48 52 55 59 65 0
5 8 13 19 23 25 26 29 30 36 40 41 44 45 48 52 55 56 59 60 66 0
5 8 10 11 13 23 25 26 28 40 41 43 48 50 51 52 54 58 62 63 66 0
5 8 10 13 21 23 25 26 28 38 40 41 43 48 50 52 54 58 62 0
5 8 10 13 23 25 26 28 30 40 41 43 45 48 50 52 54 56 58 60 62 65 0
5 8 11 13 20 23 25 26 28 37 40 41 43 48 51 52 54 58 63 0
5 8 13 20 21 23 25 26 28 37 38 40 41 43 48 52 54 58 66 0
5 8 13 20 23 25 26 28 30 37 40 41 43 45 48 52 54 56 58 60 65 0
5 8 11 13 23 25 26 28 29 40 41 43 44 48 51 52 54 55 58 59 63 64 0
5 8 13 21 23 25 26 28 29 38 40 41 43 44 48 52 54 55 58 59 64 0
5 8 13 23 25 26 28 29 30 40 41 43 44 45 48 52 54 55 56 58 59 60 64 65 66 0
5 9 10 11 13 18 23 25 26 35 40 41 49 50 51 52 64 65 66 0
5 9 10 13 18 21 23 25 26 35 38 40 41 49 50 52 63 64 0
5 9 10 13 18 23 25 26 30 35 40 41 45 49 50 52 56 60 64 0
5 9 11 13 18 20 23 25 26 35 37 40 41 49 51 52 62 65 0
5 9 13 18 20 21 23 25 26 35 37 38 40 41 49 52 62 63 66 0
5 9 13 18 20 23 25 26 30 35 37 40 41 45 49 52 56 60 62 0
5 9 11 13 18 23 25 26 29 35 40 41 44 49 51 52 55 59 65 0
5 9 13 18 21 23 25 26 29 35 38 40 41 44 49 52 55 59 63 0
5 9 13 18 23 25 26 29 30 35 40 41 44 45 49 52 55 56 59 60 66 0
5 10 11 13 18 19 23 25 26 35 36 40 41 50 51 52 61 66 0
5 10 13 18 19 21 23 25 26 35 36 38 40 41 50 52 61 63 65 0
5 10 13 18 19 23 25 26 30 35 36 40 41 45 50 52 56 60 61 0
5 11 13 18 19 20 23 25 26 35 36 37 40 41 51 52 61 62 64 0
5 13 18 19 20 21 23 25 26 35 36 37 38 40 41 52 61 62 63 64 65 66 0
5 13 18 19 20 23 25 26 30 35 36 37 40 41 45 52 56 60 61 62 64 0
5 11 13 18 19 23 25 26 29 35 36 40 41 44 51 52 55 59 61 0
5 13 18 19 21 23 25 26 29 35 36 38 40 41 44 52 55 59 61 63 65 0
5 13 18 19 23 25 26 29 30 35 36 40 41 44 45 52 55 56 59 60 61 66 0
5 10 11 13 18 23 25 26 28 35 40 41 43 50 51 52 54 58 66 0
5 10 13 18 21 23 25 26 28 35 38 40 41 43 50 52 54 58 63 0
5 10 13 18 23 25 26 28 30 35 40 41 43 45 50 52 54 56 58 60 65 0
5 11 13 18 20 23 25 26 28 35 37 40 41 43 51 52 54 58 62 0
5 13 18 20 21 23 25 26 28 35 37 38 40 41 43 52 54 58 62 63 66 0
5 13 18 20 23 25 26 28 30 35 37 40 41 43 45 52 54 56 58 60 62 65 0
5 11 13 18 23 25 26 28 29 35 40 41 43 44 51 52 54 55 58 59 64 0
5 13 18 21 23 25 26 28 29 35 38 40 41 43 44 52 54 55 58 59 63 64 0
5 13 18 23 25 26 28 29 30 35 40 41 43 44 45 52 54 55 56 58 59 60 64 65 66 0
5 9 10 11 13 23 25 26 27 40 41 42 49 50 51 52 53 57 64 65 66 0
5 9 10 13 21 23 25 26 27 38 40 41 42 49 50 52 53 57 64 0
5 9 10 13 23 25 26 27 30 40 41 42 45 49 50 52 53 56 57 60 63 64 0
5 9 11 13 20 23 25 26 27 37 40 41 42 49 51 52 53 57 65 0
5 9 13 20 21 23 25 26 27 37 38 40 41 42 49 52 53 57 66 0
5 9 13 20 23 25 26 27 30 37 40 41 42 45 49 52 53 56 57 60 63 0
5 9 11 13 23 25 26 27 29 40 41 42 44 49 51 52 53 55 57 59 62 65 0
5 9 13 21 23 25 26 27 29 38 40 41 42 44 49 52 53 55 57 59 62 0
5 9 13 23 25 26 27 29 30 40 41 42 44 45 49 52 53 55 56 57 59 60 62 63 66 0
5 10 11 13 19 23 25 26 27 36 40 41 42 50 51 52 53 57 66 0
5 10 13 19 21 23 25 26 27 36 38 40 41 42 50 52 53 57 65 0
5 10 13 19 23 25 26 27 30 36 40 41 42 45 50 52 53 56 57 60 63 0
5 11 13 19 20 23 25 26 27 36 37 40 41 42 51 52 53 57 64 0
5 13 19 20 21 23 25 26 27 36 37 38 40 41 42 52 53 57 64 65 66 0
5 13 19 20 23 25 26 27 30 36 37 40 41 42 45 52 53 56 57 60 63 64 0
5 11 13 19 23 25 26 27 29 36 40 41 42 44 51 52 53 55 57 59 62 0
5 13 19 21 23 25 26 27 29 36 38 40 41 42 44 52 53 55 57 59 62 65 0
5 13 19 23 25 26 27 29 30 36 40 41 42 44 45 52 53 55 56 57 59 60 62 63 66 0
5 10 11 13 23 25 26 27 28 40 41 42 43 50 51 52 53 54 57 58 61 66 0
5 10 13 21 23 25 26 27 28 38 40 41 42 43 50 52 53 54 57 58 61 0
5 10 13 23 25 26 27 28 30 40 41 42 43 45 50 52 53 54 56 57 58 60 61 63 65 0
5 11 13 20 23 25 26 27 28 37 40 41 42 43 51 52 53 54 57 58 61 0
5 13 20 21 23 25 26 27 28 37 38 40 41 42 43 52 53 54 57 58 61 66 0
5 13 20 23 25 26 27 28 30 37 40 41 42 43 45 52 53 54 56 57 58 60 61 63 65 0
5 11 13 23 25 26 27 28 29 40 41 42 43 44 51 52 53 54 55 57 58 59 61 62 64 0
5 13 21 23 25 26 27 28 29 38 40 41 42 43 44 52 53 54 55 57 58 59 61 62 64 0
5 13 23 25 26 27 28 29 30 40 41 42 43 44 45 52 53 54 55 56 57 58 59 60 61 62 63 64 65 66 0
8 9 10 11 13 15 23 25 26 32 40 41 52 61 62 63 64 65 66 0
8 9 10 13 15 21 23 25 26 32 38 40 41 51 52 61 62 64 0
8 9 10 13 15 23 25 26 30 32 40 41 45 52 56 60 61 62 64 0
8 9 11 13 15 20 23 25 26 32 37 40 41 50 52 61 63 65 0
8 9 13 15 20 21 23 25 26 32 37 38 40 41 50 51 52 61 66 0
8 9 13 15 20 23 25 26 30 32 37 40 41 45 50 52 56 60 61 0
8 9 11 13 15 23 25 26 29 32 40 41 44 52 55 59 61 63 65 0
8 9 13 15 21 23 25 26 29 32 38 40 41 44 51 52 55 59 61 0
8 9 13 15 23 25 26 29 30 32 40 41 44 45 52 55 56 59 60 61 66 0
8 10 11 13 15 19 23 25 26 32 36 40 41 49 52 62 63 66 0
8 10 13 15 19 21 23 25 26 32 36 38 40 41 49 51 52 62 65 0
8 10 13 15 19 23 25 26 30 32 36 40 41 45 49 52 56 60 62 0
8 11 13 15 19 20 23 25 26 32 36 37 40 41 49 50 52 63 64 0
8 13 15 19 20 21 23 25 26 32 36 37 38 40 41 49 50 51 52 64 65 66 0
8 13 15 19 20 23 25 26 30 32 36 37 40 41 45 49 50 52 56 60 64 0
8 11 13 15 19 23 25 26 29 32 36 40 41 44 49 52 55 59 63 0
8 13 15 19 21 23 25 26 29 32 36 38 40 41 44 49 51 52 55 59 65 0
8 13 15 19 23 25 26 29 30 32 36 40 41 44 45 49 52 55 56 59 60 66 0
8 10 11 13 15 23 25 26 28 32 40 41 43 52 54 58 62 63 66 0
8 10 13 15 21 23 25 26 28 32 38 40 41 43 51 52 54 58 62 0
8 10 13 15 23 25 26 28 30 32 40 41 43 45 52 54 56 58 60 62 65 0
8 11 13 15 20 23 25 26 28 32 37 40 41 43 50 52 54 58 63 0
8 13 15 20 21 23 25 26 28 32 37 38 40 41 43 50 51 52 54 58 66 0
8 13 15 20 23 25 26 28 30 32 37 40 41 43 45 50 52 54 56 58 60 65 0
8 11 13 15 23 25 26 28 29 32 40 41 43 44 52 54 55 58 59 63 64 0
8 13 15 21 23 25 26 28 29 32 38 40 41 43 44 51 52 54 55 58 59 64 0
8 13 15 23 25 26 28 29 30 32 40 41 43 44 45 52 54 55 56 58 59 60 64 65 66 0
9 10 11 13 15 18 23 25 26 32 35 40 41 48 52 64 65 66 0
9 10 13 15 18 21 23 25 26 32 35 38 40 41 48 51 52 63 64 0
9 10 13 15 18 23 25 26 30 32 35 40 41 45 48 52 56 60 64 0
9 11 13 15 18 20 23 25 26 32 35 37 40 41 48 50 52 62 65 0
9 13 15 18 20 21 23 25 26 32 35 37 38 40 41 48 50 51 52 62 63 66 0
9 13 15 18 20 23 25 26 30 32 35 37 40 41 45 48 50 52 56 60 62 0
9 11 13 15 18 23 25 26 29 32 35 40 41 44 48 52 55 59 65 0
9 13 15 18 21 23 25 26 29 32 35 38 40 41 44 48 51 52 55 59 63 0
9 13 15 18 23 25 26 29 30 32 35 40 41 44 45 48 52 55 56 59 60 66 0
10 11 13 15 18 19 23 25 26 32 35 36 40 41 48 49 52 61 66 0
10 13 15 18 19 21 23 25 26 32 35 36 38 40 41 48 49 51 52 61 63 65 0
10 13 15 18 19 23 25 26 30 32 35 36 40 41 45 48 49 52 56 60 61 0
11 13 15 18 19 20 23 25 26 32 35 36 37 40 41 48 49 50 52 61 62 64 0
13 15 18 19 20 21 23 25 26 32 35 36 37 38 40 41 48 49 50 51 52 61 62 63 64 65 66 0
13 15 18 19 20 23 25 26 30 32 35 36 37 40 41 45 48 49 50 52 56 60 61 62 64 0
11 13 15 18 19 23 25 26 29 32 35 36 40 41 44 48 49 52 55 59 61 0
13 15 18 19 21 23 25 26 29 32 35 36 38 40 41 44 48 49 51 52 55 59 61 63 65 0
13 15 18 19 23 25 26 29 30 32 35 36 40 41 44 45 48 49 52 55 56 59 60 61 66 0
10 11 13 15 18 23 25 26 28 32 35 40 41 43 48 52 54 58 66 0
10 13 15 18 21 23 25 26 28 32 35 38 40 41 43 48 51 52 54 58 63 0
10 13 15 18 23 25 26 28 30 32 35 40 41 43 45 48 52 54 56 58 60 65 0
11 13 15 18 20 23 25 26 28 32 35 37 40 41 43 48 50 52 54 58 62 0
13 15 18 20 21 23 25 26 28 32 35 37 38 40 41 43 48 50 51 52 54 58 62 63 66 0
13 15 18 20 23 25 26 28 30 32 35 37 40 41 43 45 48 50 52 54 56 58 60 62 65 0
11 13 15 18 23 25 26 28 29 32 35 40 41 43 44 48 52 54 55 58 59 64 0
13 15 18 21 23 25 26 28 29 32 35 38 40 41 43 44 48 51 52 54 55 58 59 63 64 0
13 15 18 23 25 26 28 29 30 32 35 40 41 43 44 45 48 52 54 55 56 58 59 60 64 65 66 0
9 10 11 13 15 23 25 26 27 32 40 41 42 52 53 57 64 65 66 0
9 10 13 15 21 23 25 26 27 32 38 40 41 42 51 52 53 57 64 0
9 10 13 15 23 25 26 27 30 32 40 41 42 45 52 53 56 57 60 63 64 0
9 11 13 15 20 23 25 26 27 32 37 40 41 42 50 52 53 57 65 0
9 13 15 20 21 23 25 26 27 32 37 38 40 41 42 50 51 52 53 57 66 0
9 13 15 20 23 25 26 27 30 32 37 40 41 42 45 50 52 53 56 57 60 63 0
9 11 13 15 23 25 26 27 29 32 40 41 42 44 52 53 55 57 59 62 65 0
9 13 15 21 23 25 26 27 29 32 38 40 41 42 44 51 52 53 55 57 59 62 0
9 13 15 23 25 26 27 29 30 32 40 41 42 44 45 52 53 55 56 57 59 60 62 63 66 0
10 11 13 15 19 23 25 26 27 32 36 40 41 42 49 52 53 57 66 0
10 13 15 19 21 23 25 26 27 32 36 38 40 41 42 49 51 52 53 57 65 0
10 13 15 19 23 25 26 27 30 32 36 40 41 42 45 49 52 53 56 57 60 63 0
11 13 15 19 20 23 25 26 27 32 36 37 40 41 42 49 50 52 53 57 64 0
13 15 19 20 21 23 25 26 27 32 36 37 38 40 41 42 49 50 51 52 53 57 64 65 66 0
13 15 19 20 23 25 26 27 30 32 36 37 40 41 42 45 49 50 52 53 56 57 60 63 64 0
11 13 15 19 23 25 26 27 29 32 36 40 41 42 44 49 52 53 55 57 59 62 0
13 15 19 21 23 25 26 27 29 32 36 38 40 41 42 44 49 51 52 53 55 57 59 62 65 0
13 15 19 23 25 26 27 29 30 32 36 40 41 42 44 45 49 52 53 55 56 57 59 60 62 63 66 0
10 11 13 15 23 25 26 27 28 32 40 41 42 43 52 53 54 57 58 61 66 0
10 13 15 21 23 25 26 27 28 32 38 40 41 42 43 51 52 53 54 57 58 61 0
10 13 15 23 25 26 27 28 30 32 40 41 42 43 45 52 53 54 56 57 58 60 61 63 65 0
11 13 15 20 23 25 26 27 28 32 37 40 41 42 43 50 52 53 54 57 58 61 0
13 15 20 21 23 25 26 27 28 32 37 38 40 41 42 43 50 51 52 53 54 57 58 61 66 0
13 15 20 23 25 26 27 28 30 32 37 40 41 42 43 45 50 52 53 54 56 57 58 60 61 63 65 0
11 13 15 23 25 26 27 28 29 32 40 41 42 43 44 52 53 54 55 57 58 59 61 62 64 0
13 15 21 23 25 26 27 28 29 32 38 40 41 42 43 44 51 52 53 54 55 57 58 59 61 62 64 0
13 15 23 25 26 27 28 29 30 32 40 41 42 43 44 45 52 53 54 55 56 57 58 59 60 61 62 63 64 65 66 0
