c generator ramsey55_fixed_boundary_free_edge_cnf_v1
c base_file_sha256 f5adf13e5791bb8fe4c58941e3d797c283223013290a2376935f1e1eef4ef31a
c base_graph6 jzGOSHBG[`hBhBs`\GRhAmcH\G\\GYmcMjhBt\G^Ts`]jhA]jhAnTs`jt\G\]jhBTymcMjt\G]jt\GVTymcHt]jhAmjt\GQynTs`dt]jhBdt]jhBQynTs`cmjt\GWdt]jhAAVTymcICmjt\GUCmjt\GO
c fixed_boundary all unlisted edges equal the base graph
c variable true means the named free edge is present
c clause order: lexicographic 5-subset clique-prevention clauses, then lexicographic 5-subset independent-prevention clauses
c forbidden_size 5 clique_clauses 3299 independent_clauses 2109
c var 1 edge 0 42
c var 2 edge 2 3
c var 3 edge 3 4
c var 4 edge 3 7
c var 5 edge 3 10
c var 6 edge 3 21
c var 7 edge 3 22
c var 8 edge 3 30
c var 9 edge 3 31
c var 10 edge 3 32
c var 11 edge 3 38
c var 12 edge 3 41
c var 13 edge 3 42
c var 14 edge 4 5
c var 15 edge 4 7
c var 16 edge 4 10
c var 17 edge 4 21
c var 18 edge 4 22
c var 19 edge 4 30
c var 20 edge 4 31
c var 21 edge 4 32
c var 22 edge 4 38
c var 23 edge 4 41
c var 24 edge 4 42
c var 25 edge 6 7
c var 26 edge 7 8
c var 27 edge 7 10
c var 28 edge 7 21
c var 29 edge 7 22
c var 30 edge 7 30
c var 31 edge 7 31
c var 32 edge 7 32
c var 33 edge 7 38
c var 34 edge 7 41
c var 35 edge 7 42
c var 36 edge 9 10
c var 37 edge 10 11
c var 38 edge 10 21
c var 39 edge 10 22
c var 40 edge 10 30
c var 41 edge 10 31
c var 42 edge 10 32
c var 43 edge 10 38
c var 44 edge 10 41
c var 45 edge 10 42
c var 46 edge 20 21
c var 47 edge 21 22
c var 48 edge 21 30
c var 49 edge 21 31
c var 50 edge 21 32
c var 51 edge 21 38
c var 52 edge 21 41
c var 53 edge 21 42
c var 54 edge 22 23
c var 55 edge 22 30
c var 56 edge 22 31
c var 57 edge 22 32
c var 58 edge 22 38
c var 59 edge 22 41
c var 60 edge 22 42
c var 61 edge 29 30
c var 62 edge 30 31
c var 63 edge 30 32
c var 64 edge 30 38
c var 65 edge 30 41
c var 66 edge 30 42
c var 67 edge 31 32
c var 68 edge 31 38
c var 69 edge 31 41
c var 70 edge 31 42
c var 71 edge 32 33
c var 72 edge 32 38
c var 73 edge 32 41
c var 74 edge 32 42
c var 75 edge 37 38
c var 76 edge 38 39
c var 77 edge 38 41
c var 78 edge 38 42
c var 79 edge 40 41
c var 80 edge 41 42
p cnf 80 5408
-54 0
-56 0
-1 -70 0
-48 0
-47 -54 0
-47 -48 -55 0
-47 -49 -56 0
-1 -47 -53 -60 0
-48 0
-48 -49 -62 0
-1 -48 -53 -66 0
-1 -49 -53 -70 0
-54 -55 0
-55 -56 -62 0
-1 -55 -60 -66 0
-1 -56 -60 -70 0
-1 -62 -66 -70 0
-56 0
-27 -28 -38 -46 0
-27 -29 -39 0
-27 -30 -40 0
-27 -34 -44 0
-1 -27 -35 -45 0
-27 -28 -29 -38 -39 -47 0
-27 -28 -38 0
-27 -28 -30 -38 -40 -48 0
-27 -28 -31 -38 -41 -49 0
-27 -28 -34 -38 -44 -52 0
-1 -27 -28 -35 -38 -45 -53 0
-27 -29 -39 -54 0
-27 -29 -30 -39 -40 -55 0
-27 -29 -31 -39 -41 -56 0
-27 -29 -34 -39 -44 -59 0
-1 -27 -29 -35 -39 -45 -60 0
-27 -30 -40 0
-27 -34 -44 0
-27 -30 -31 -40 -41 -62 0
-27 -30 -34 -40 -44 -65 0
-1 -27 -30 -35 -40 -45 -66 0
-27 -31 -34 -41 -44 -69 0
-1 -27 -31 -35 -41 -45 -70 0
-1 -27 -34 -35 -44 -45 -80 0
-28 -30 -48 0
-28 -34 -52 0
-34 0
-30 -34 -65 0
-28 -29 -46 -47 0
-28 -30 -46 -48 0
-28 -34 -46 -52 0
-1 -28 -35 -46 -53 0
-29 -30 -55 0
-29 0
-29 -34 -59 0
-1 -29 -35 -60 0
-34 0
-30 -34 -65 0
-1 -30 -35 -66 0
-1 -34 -35 -80 0
-28 -29 -47 -54 0
-28 -29 -30 -47 -48 -55 0
-28 -29 -31 -47 -49 -56 0
-28 -29 -34 -47 -52 -59 0
-1 -28 -29 -35 -47 -53 -60 0
-28 -30 -48 0
-28 -34 -52 0
-28 -30 -31 -48 -49 -62 0
-28 -30 -34 -48 -52 -65 0
-1 -28 -30 -35 -48 -53 -66 0
-28 -31 -34 -49 -52 -69 0
-1 -28 -31 -35 -49 -53 -70 0
-1 -28 -34 -35 -52 -53 -80 0
-29 -30 -54 -55 0
-29 -54 0
-29 -34 -54 -59 0
-29 -30 -55 -61 0
-29 -31 -56 0
-29 0
-29 -34 -59 0
-1 -29 -35 -60 0
-29 -30 -31 -55 -56 -62 0
-29 -30 -34 -55 -59 -65 0
-1 -29 -30 -35 -55 -60 -66 0
-29 -31 -34 -56 -59 -69 0
-1 -29 -31 -35 -56 -60 -70 0
-1 -29 -34 -35 -59 -60 -80 0
-34 0
-30 -34 -65 0
-34 0
-34 0
-30 -31 -61 -62 0
-30 -34 -61 -65 0
-1 -30 -35 -61 -66 0
-31 -34 -69 0
-1 -31 -35 -70 0
-1 -34 -35 -80 0
-30 -31 -34 -62 -65 -69 0
-1 -30 -31 -35 -62 -66 -70 0
-1 -30 -34 -35 -65 -66 -80 0
-1 -31 -34 -35 -69 -70 -80 0
-39 -40 -55 0
-39 -44 -59 0
-1 -39 -45 -60 0
-40 -44 -65 0
-1 -40 -45 -66 0
-1 -44 -45 -80 0
-38 -39 -46 -47 0
-38 -40 -46 -48 0
-38 -46 0
-38 -44 -46 -52 0
-1 -38 -45 -46 -53 0
-39 -40 -55 0
-39 -44 -59 0
-1 -39 -45 -60 0
-40 -44 -65 0
-1 -40 -45 -66 0
-1 -44 -45 -80 0
-38 -39 -47 -54 0
-38 -39 -40 -47 -48 -55 0
-38 -39 -41 -47 -49 -56 0
-38 -39 -44 -47 -52 -59 0
-1 -38 -39 -45 -47 -53 -60 0
-38 -40 -48 0
-38 0
-38 -44 -52 0
-38 -40 -41 -48 -49 -62 0
-38 -40 -44 -48 -52 -65 0
-1 -38 -40 -45 -48 -53 -66 0
-38 -41 -49 0
-38 -41 -44 -49 -52 -69 0
-1 -38 -41 -45 -49 -53 -70 0
-1 -38 -44 -45 -52 -53 -80 0
-39 -40 -54 -55 0
-39 -44 -54 -59 0
-39 -40 -41 -55 -56 -62 0
-39 -40 -44 -55 -59 -65 0
-1 -39 -40 -45 -55 -60 -66 0
-39 -41 -44 -56 -59 -69 0
-1 -39 -41 -45 -56 -60 -70 0
-1 -39 -44 -45 -59 -60 -80 0
-40 -44 -65 0
-40 -41 -44 -62 -65 -69 0
-1 -40 -41 -45 -62 -66 -70 0
-1 -40 -44 -45 -65 -66 -80 0
-1 -41 -44 -45 -69 -70 -80 0
-65 0
-55 -59 -65 0
-1 -55 -60 -66 0
-1 -59 -60 -80 0
-1 -65 -66 -80 0
-1 -70 0
-65 0
-48 -52 -65 0
-65 0
-65 0
-61 -65 0
-65 0
-62 -65 -69 0
-46 -47 -48 -55 0
-46 -47 -52 -59 0
-1 -46 -47 -53 -60 0
-46 -48 -52 -65 0
-1 -46 -48 -53 -66 0
-1 -46 -52 -53 -80 0
-55 -59 -65 0
-1 -55 -60 -66 0
-1 -59 -60 -80 0
-1 -65 -66 -80 0
-47 -48 -54 -55 0
-47 -52 -54 -59 0
-47 -48 -49 -55 -56 -62 0
-47 -48 -52 -55 -59 -65 0
-1 -47 -48 -53 -55 -60 -66 0
-47 -49 -52 -56 -59 -69 0
-1 -47 -49 -53 -56 -60 -70 0
-1 -47 -52 -53 -59 -60 -80 0
-48 -52 -65 0
-48 -49 -52 -62 -65 -69 0
-1 -48 -49 -53 -62 -66 -70 0
-1 -48 -52 -53 -65 -66 -80 0
-1 -49 -52 -53 -69 -70 -80 0
-54 -55 -59 -65 0
-55 -56 -61 -62 0
-55 -59 -61 -65 0
-1 -55 -60 -61 -66 0
-56 -59 -69 0
-1 -56 -60 -70 0
-1 -59 -60 -80 0
-55 -56 -59 -62 -65 -69 0
-1 -55 -56 -60 -62 -66 -70 0
-1 -55 -59 -60 -65 -66 -80 0
-1 -56 -59 -60 -69 -70 -80 0
-61 -62 -65 -69 0
-1 -61 -62 -66 -70 0
-1 -61 -65 -66 -80 0
-1 -69 -70 -80 0
-1 -62 -65 -66 -69 -70 -80 0
-2 -7 0
-2 -9 0
-2 -7 -54 0
-2 -7 0
-2 -7 -9 -56 0
-2 -7 -10 -57 0
-2 -9 0
-2 -9 -10 -67 0
-56 0
-56 0
-56 -57 -67 0
-9 0
-13 0
-13 0
-9 -13 -70 0
-9 0
-13 0
-7 -9 -56 0
-7 -13 -60 0
-13 0
-9 -13 -70 0
-9 0
-13 0
-9 0
-13 0
-8 -9 -62 0
-8 -13 -66 0
-9 -13 -70 0
-6 -9 -49 0
-6 -10 -50 0
-6 -13 -53 0
-13 0
-9 -10 -67 0
-9 -13 -70 0
-10 -13 -74 0
-6 -7 -47 -54 0
-6 -7 -8 -47 -48 -55 0
-6 -7 -9 -47 -49 -56 0
-6 -7 -10 -47 -50 -57 0
-6 -7 -47 0
-6 -7 -13 -47 -53 -60 0
-6 -8 -48 0
-6 -8 -48 0
-6 -13 -53 0
-6 -8 -9 -48 -49 -62 0
-6 -8 -10 -48 -50 -63 0
-6 -8 -13 -48 -53 -66 0
-6 -9 -10 -49 -50 -67 0
-6 -9 -13 -49 -53 -70 0
-6 -10 -50 0
-6 -10 -13 -50 -53 -74 0
-7 -8 -54 -55 0
-7 -9 -56 0
-7 0
-7 -13 -60 0
-7 -8 -9 -55 -56 -62 0
-7 -8 -10 -55 -57 -63 0
-7 -8 -13 -55 -60 -66 0
-7 -9 -10 -56 -57 -67 0
-7 -9 -13 -56 -60 -70 0
-7 -10 -57 0
-7 -10 -13 -57 -60 -74 0
-13 0
-9 -13 -70 0
-13 0
-8 -13 -66 0
-8 -9 -10 -62 -63 -67 0
-8 -9 -13 -62 -66 -70 0
-8 -10 -13 -63 -66 -74 0
-9 -10 -13 -67 -70 -74 0
-56 0
-47 -48 -55 0
-47 -49 -56 0
-48 0
-48 -49 -62 0
-48 0
-56 0
-55 -56 -62 0
-70 0
-49 -50 -67 0
-49 -53 -70 0
-50 0
-50 -53 -74 0
-70 0
-67 -70 -74 0
-70 0
-48 0
-48 -50 -63 0
-48 0
-50 0
-70 0
-56 -60 -70 0
-70 0
-70 0
-62 -66 -70 0
-49 -50 -67 0
-49 -53 -70 0
-50 -53 -74 0
-67 -70 -74 0
-47 -48 -54 -55 0
-47 -48 -49 -55 -56 -62 0
-47 -48 -50 -55 -57 -63 0
-47 -48 -53 -55 -60 -66 0
-47 -49 -50 -56 -57 -67 0
-47 -49 -53 -56 -60 -70 0
-47 -50 -57 0
-47 -50 -53 -57 -60 -74 0
-48 0
-48 -53 -66 0
-48 -49 -50 -62 -63 -67 0
-48 -49 -53 -62 -66 -70 0
-48 -50 -53 -63 -66 -74 0
-49 -50 -53 -67 -70 -74 0
-56 -60 -70 0
-55 -56 -57 -62 -63 -67 0
-55 -56 -60 -62 -66 -70 0
-55 -57 -60 -63 -66 -74 0
-56 -57 -60 -67 -70 -74 0
-62 -63 -66 -67 -70 -74 0
-2 -3 -10 -21 0
-2 -3 -11 -22 0
-2 -3 -7 -18 0
-2 -3 -7 -9 -18 -20 -56 0
-2 -3 -7 -10 -18 -21 -57 0
-2 -3 -7 -11 -18 -22 -58 0
-2 -3 0
-2 -3 -9 -20 0
-2 -3 -11 -22 0
-2 -3 -10 -21 0
-2 -3 -11 -22 0
-2 -3 -9 -10 -20 -21 -67 0
-2 -3 -9 -20 0
-2 -3 -9 -11 -20 -22 -68 0
-2 -3 -10 -21 -71 0
-2 -3 -10 -11 -21 -22 -72 0
-2 -7 -9 -56 0
-2 -7 -11 -58 0
-2 -11 0
-2 -9 0
-2 -9 -11 -68 0
-2 -10 -11 -72 0
-2 -7 -9 -56 0
-2 -7 -11 -58 0
-2 -7 -9 -10 -56 -57 -67 0
-2 -7 -9 -11 -56 -58 -68 0
-2 -7 -10 -11 -57 -58 -72 0
-2 -11 0
-2 -9 -11 -68 0
-2 -10 -11 -72 0
-2 -9 -10 -67 -71 0
-2 -9 -10 -11 -67 -68 -72 0
-21 0
-21 0
-22 0
-21 -22 -72 0
-21 0
-22 0
-21 0
-22 0
-20 -21 -67 0
-20 -22 -68 0
-21 -22 -72 0
-18 -21 -57 0
-18 -22 -58 0
-21 -71 0
-21 -22 -72 0
-18 -20 -56 0
-18 -22 -58 0
-18 -20 -56 0
-18 -20 -21 -56 -57 -67 0
-18 -20 -22 -56 -58 -68 0
-18 -21 -22 -57 -58 -72 0
-22 0
-20 -22 -68 0
-21 -22 -72 0
-20 -21 -67 -71 0
-20 -21 -22 -67 -68 -72 0
-72 0
-56 0
-56 -57 -67 0
-56 -58 -68 0
-57 -58 -72 0
-72 0
-67 -68 -72 0
-56 0
-56 -58 -68 0
-72 0
-72 0
-72 0
-67 -68 -72 0
-57 -58 -72 0
-56 -58 -68 0
-56 -57 -58 -67 -68 -72 0
-3 -4 -14 -15 0
-3 -4 -6 -14 -15 -17 -28 0
-3 -4 -14 -15 0
-3 -4 -8 -14 -15 -19 -30 0
-3 -4 -10 -14 -15 -21 -32 0
-3 -4 -14 -15 0
-3 -4 -11 -14 -15 -22 -33 0
-3 -4 -12 -14 -15 -23 -34 0
-3 -8 -14 -19 0
-3 -11 -14 -22 0
-3 -6 -8 -14 -17 -19 -48 0
-3 -6 -10 -14 -17 -21 -50 0
-3 -6 -14 -17 0
-3 -6 -11 -14 -17 -22 -51 0
-3 -6 -12 -14 -17 -23 -52 0
-3 -14 0
-3 -10 -14 -21 0
-3 -11 -14 -22 0
-3 -12 -14 -23 0
-3 -11 -14 -22 0
-3 -8 -10 -14 -19 -21 -63 0
-3 -8 -11 -14 -19 -22 -64 0
-3 -8 -12 -14 -19 -23 -65 0
-3 -10 -14 -21 0
-3 -10 -11 -14 -21 -22 -72 0
-3 -10 -12 -14 -21 -23 -73 0
-3 -12 -14 -23 0
-3 -11 -12 -14 -22 -23 -77 0
-3 -4 -5 -15 -16 -27 0
-3 -4 -5 -6 -15 -16 -17 -27 -28 -38 0
-3 -4 -5 -7 -15 -16 -18 -27 -29 -39 0
-3 -4 -5 -8 -15 -16 -19 -27 -30 -40 0
-3 -4 -5 -9 -15 -16 -20 -27 -31 -41 0
-3 -4 -5 -10 -15 -16 -21 -27 -32 -42 0
-3 -4 -5 -11 -15 -16 -22 -27 -33 -43 0
-3 -4 -5 -12 -15 -16 -23 -27 -34 -44 0
-3 -4 -5 -13 -15 -16 -24 -27 -35 -45 0
-3 -4 -8 -15 -19 -30 0
-3 -4 -9 -15 -20 -31 0
-3 -4 -11 -15 -22 -33 0
-3 -4 -13 -15 -24 -35 0
-3 -4 -6 -7 -15 -17 -18 -28 -29 -47 0
-3 -4 -6 -8 -15 -17 -19 -28 -30 -48 0
-3 -4 -6 -9 -15 -17 -20 -28 -31 -49 0
-3 -4 -6 -10 -15 -17 -21 -28 -32 -50 0
-3 -4 -6 -15 -17 -28 0
-3 -4 -6 -11 -15 -17 -22 -28 -33 -51 0
-3 -4 -6 -12 -15 -17 -23 -28 -34 -52 0
-3 -4 -6 -13 -15 -17 -24 -28 -35 -53 0
-3 -4 -7 -8 -15 -18 -19 -29 -30 -55 0
-3 -4 -7 -9 -15 -18 -20 -29 -31 -56 0
-3 -4 -7 -10 -15 -18 -21 -29 -32 -57 0
-3 -4 -7 -15 -18 -29 0
-3 -4 -7 -11 -15 -18 -22 -29 -33 -58 0
-3 -4 -7 -12 -15 -18 -23 -29 -34 -59 0
-3 -4 -7 -13 -15 -18 -24 -29 -35 -60 0
-3 -4 -10 -15 -21 -32 0
-3 -4 -11 -15 -22 -33 0
-3 -4 -12 -15 -23 -34 0
-3 -4 -8 -9 -15 -19 -20 -30 -31 -62 0
-3 -4 -8 -10 -15 -19 -21 -30 -32 -63 0
-3 -4 -8 -11 -15 -19 -22 -30 -33 -64 0
-3 -4 -8 -12 -15 -19 -23 -30 -34 -65 0
-3 -4 -8 -13 -15 -19 -24 -30 -35 -66 0
-3 -4 -9 -10 -15 -20 -21 -31 -32 -67 0
-3 -4 -9 -11 -15 -20 -22 -31 -33 -68 0
-3 -4 -9 -12 -15 -20 -23 -31 -34 -69 0
-3 -4 -9 -13 -15 -20 -24 -31 -35 -70 0
-3 -4 -10 -15 -21 -32 0
-3 -4 -10 -11 -15 -21 -22 -32 -33 -72 0
-3 -4 -10 -12 -15 -21 -23 -32 -34 -73 0
-3 -4 -10 -13 -15 -21 -24 -32 -35 -74 0
-3 -4 -12 -15 -23 -34 0
-3 -4 -11 -12 -15 -22 -23 -33 -34 -77 0
-3 -4 -11 -13 -15 -22 -24 -33 -35 -78 0
-3 -4 -12 -13 -15 -23 -24 -34 -35 -80 0
-3 -5 -16 0
-3 -5 -8 -16 -19 -40 0
-3 -5 -9 -16 -20 -41 0
-3 -5 -16 0
-3 -5 -11 -16 -22 -43 0
-3 -5 -13 -16 -24 -45 0
-3 -5 -6 -7 -16 -17 -18 -38 -39 -47 0
-3 -5 -6 -8 -16 -17 -19 -38 -40 -48 0
-3 -5 -6 -9 -16 -17 -20 -38 -41 -49 0
-3 -5 -6 -10 -16 -17 -21 -38 -42 -50 0
-3 -5 -6 -16 -17 -38 0
-3 -5 -6 -11 -16 -17 -22 -38 -43 -51 0
-3 -5 -6 -12 -16 -17 -23 -38 -44 -52 0
-3 -5 -6 -13 -16 -17 -24 -38 -45 -53 0
-3 -5 -7 -16 -18 -39 0
-3 -5 -7 -8 -16 -18 -19 -39 -40 -55 0
-3 -5 -7 -9 -16 -18 -20 -39 -41 -56 0
-3 -5 -7 -10 -16 -18 -21 -39 -42 -57 0
-3 -5 -7 -11 -16 -18 -22 -39 -43 -58 0
-3 -5 -7 -12 -16 -18 -23 -39 -44 -59 0
-3 -5 -7 -13 -16 -18 -24 -39 -45 -60 0
-3 -5 -16 0
-3 -5 -9 -16 -20 -41 0
-3 -5 -11 -16 -22 -43 0
-3 -5 -13 -16 -24 -45 0
-3 -5 -16 0
-3 -5 -11 -16 -22 -43 0
-3 -5 -13 -16 -24 -45 0
-3 -5 -8 -9 -16 -19 -20 -40 -41 -62 0
-3 -5 -8 -10 -16 -19 -21 -40 -42 -63 0
-3 -5 -8 -11 -16 -19 -22 -40 -43 -64 0
-3 -5 -8 -12 -16 -19 -23 -40 -44 -65 0
-3 -5 -8 -13 -16 -19 -24 -40 -45 -66 0
-3 -5 -9 -10 -16 -20 -21 -41 -42 -67 0
-3 -5 -9 -16 -20 -41 0
-3 -5 -9 -11 -16 -20 -22 -41 -43 -68 0
-3 -5 -9 -12 -16 -20 -23 -41 -44 -69 0
-3 -5 -9 -13 -16 -20 -24 -41 -45 -70 0
-3 -5 -10 -16 -21 -42 -71 0
-3 -5 -10 -11 -16 -21 -22 -42 -43 -72 0
-3 -5 -10 -12 -16 -21 -23 -42 -44 -73 0
-3 -5 -10 -13 -16 -21 -24 -42 -45 -74 0
-3 -5 -11 -12 -16 -22 -23 -43 -44 -77 0
-3 -5 -11 -13 -16 -22 -24 -43 -45 -78 0
-3 -5 -12 -13 -16 -23 -24 -44 -45 -80 0
-3 -8 -19 0
-3 -11 -22 0
-3 -11 -22 0
-3 -8 -10 -19 -21 -63 0
-3 -8 -11 -19 -22 -64 0
-3 -8 -12 -19 -23 -65 0
-3 -10 -21 0
-3 -10 -11 -21 -22 -72 0
-3 -10 -12 -21 -23 -73 0
-3 -12 -23 0
-3 -11 -12 -22 -23 -77 0
-3 -9 -20 0
-3 -11 -22 0
-3 -13 -24 0
-3 -8 -9 -19 -20 -62 0
-3 -8 -11 -19 -22 -64 0
-3 -8 -13 -19 -24 -66 0
-3 -9 -20 0
-3 -9 -11 -20 -22 -68 0
-3 -9 -13 -20 -24 -70 0
-3 -11 -13 -22 -24 -78 0
-3 -6 -7 -8 -17 -18 -19 -47 -48 -55 0
-3 -6 -7 -9 -17 -18 -20 -47 -49 -56 0
-3 -6 -7 -10 -17 -18 -21 -47 -50 -57 0
-3 -6 -7 -17 -18 -47 0
-3 -6 -7 -11 -17 -18 -22 -47 -51 -58 0
-3 -6 -7 -12 -17 -18 -23 -47 -52 -59 0
-3 -6 -7 -13 -17 -18 -24 -47 -53 -60 0
-3 -6 -8 -9 -17 -19 -20 -48 -49 -62 0
-3 -6 -8 -10 -17 -19 -21 -48 -50 -63 0
-3 -6 -8 -11 -17 -19 -22 -48 -51 -64 0
-3 -6 -8 -12 -17 -19 -23 -48 -52 -65 0
-3 -6 -8 -13 -17 -19 -24 -48 -53 -66 0
-3 -6 -9 -10 -17 -20 -21 -49 -50 -67 0
-3 -6 -9 -17 -20 -49 0
-3 -6 -9 -11 -17 -20 -22 -49 -51 -68 0
-3 -6 -9 -12 -17 -20 -23 -49 -52 -69 0
-3 -6 -9 -13 -17 -20 -24 -49 -53 -70 0
-3 -6 -10 -17 -21 -50 -71 0
-3 -6 -10 -17 -21 -50 0
-3 -6 -10 -11 -17 -21 -22 -50 -51 -72 0
-3 -6 -10 -12 -17 -21 -23 -50 -52 -73 0
-3 -6 -10 -13 -17 -21 -24 -50 -53 -74 0
-3 -6 -17 0
-3 -6 -12 -17 -23 -52 0
-3 -6 -11 -12 -17 -22 -23 -51 -52 -77 0
-3 -6 -11 -13 -17 -22 -24 -51 -53 -78 0
-3 -6 -12 -13 -17 -23 -24 -52 -53 -80 0
-3 -7 -9 -18 -20 -56 0
-3 -7 -18 0
-3 -7 -11 -18 -22 -58 0
-3 -7 -13 -18 -24 -60 0
-3 -7 -8 -9 -18 -19 -20 -55 -56 -62 0
-3 -7 -8 -10 -18 -19 -21 -55 -57 -63 0
-3 -7 -8 -11 -18 -19 -22 -55 -58 -64 0
-3 -7 -8 -12 -18 -19 -23 -55 -59 -65 0
-3 -7 -8 -13 -18 -19 -24 -55 -60 -66 0
-3 -7 -9 -10 -18 -20 -21 -56 -57 -67 0
-3 -7 -9 -11 -18 -20 -22 -56 -58 -68 0
-3 -7 -9 -12 -18 -20 -23 -56 -59 -69 0
-3 -7 -9 -13 -18 -20 -24 -56 -60 -70 0
-3 -7 -10 -18 -21 -57 0
-3 -7 -10 -11 -18 -21 -22 -57 -58 -72 0
-3 -7 -10 -12 -18 -21 -23 -57 -59 -73 0
-3 -7 -10 -13 -18 -21 -24 -57 -60 -74 0
-3 -7 -12 -18 -23 -59 0
-3 -7 -11 -12 -18 -22 -23 -58 -59 -77 0
-3 -7 -11 -13 -18 -22 -24 -58 -60 -78 0
-3 -7 -12 -13 -18 -23 -24 -59 -60 -80 0
-3 0
-3 -11 -22 0
-3 -11 -22 0
-3 -13 -24 0
-3 -9 -11 -20 -22 -68 0
-3 -9 -13 -20 -24 -70 0
-3 -11 -13 -22 -24 -78 0
-3 -11 -22 0
-3 -10 -11 -21 -22 -72 0
-3 -10 -12 -21 -23 -73 0
-3 -11 -12 -22 -23 -77 0
-3 -11 -13 -22 -24 -78 0
-3 -8 -9 -10 -19 -20 -21 -62 -63 -67 0
-3 -8 -9 -11 -19 -20 -22 -62 -64 -68 0
-3 -8 -9 -12 -19 -20 -23 -62 -65 -69 0
-3 -8 -9 -13 -19 -20 -24 -62 -66 -70 0
-3 -8 -10 -11 -19 -21 -22 -63 -64 -72 0
-3 -8 -10 -12 -19 -21 -23 -63 -65 -73 0
-3 -8 -10 -13 -19 -21 -24 -63 -66 -74 0
-3 -8 -11 -12 -19 -22 -23 -64 -65 -77 0
-3 -8 -11 -13 -19 -22 -24 -64 -66 -78 0
-3 -8 -12 -13 -19 -23 -24 -65 -66 -80 0
-3 -9 -10 -20 -21 -67 -71 0
-3 -9 -10 -11 -20 -21 -22 -67 -68 -72 0
-3 -9 -10 -12 -20 -21 -23 -67 -69 -73 0
-3 -9 -10 -13 -20 -21 -24 -67 -70 -74 0
-3 -9 -11 -12 -20 -22 -23 -68 -69 -77 0
-3 -9 -11 -13 -20 -22 -24 -68 -70 -78 0
-3 -9 -12 -13 -20 -23 -24 -69 -70 -80 0
-3 -10 -21 -71 0
-3 -10 -12 -21 -23 -73 0
-3 -10 -11 -12 -21 -22 -23 -72 -73 -77 0
-3 -10 -11 -13 -21 -22 -24 -72 -74 -78 0
-3 -10 -12 -13 -21 -23 -24 -73 -74 -80 0
-3 -11 -12 -13 -22 -23 -24 -77 -78 -80 0
-4 0
-4 -8 -30 0
-4 -11 -33 0
-4 -6 -28 0
-4 -10 -32 0
-4 -12 -34 0
-4 -6 -28 0
-4 -6 -28 0
-4 -6 -8 -28 -30 -48 0
-4 -6 -10 -28 -32 -50 0
-4 -6 -28 0
-4 -6 -11 -28 -33 -51 0
-4 -6 -12 -28 -34 -52 0
-4 0
-4 -8 -30 0
-4 0
-4 -12 -34 0
-4 -10 -32 0
-4 -11 -33 0
-4 -12 -34 0
-4 -8 -30 0
-4 -11 -33 0
-4 -12 -34 0
-4 -8 -10 -30 -32 -63 0
-4 -8 -11 -30 -33 -64 0
-4 -8 -12 -30 -34 -65 0
-4 -10 -32 0
-4 -10 -11 -32 -33 -72 0
-4 -10 -12 -32 -34 -73 0
-4 0
-4 -12 -34 0
-4 -11 -33 0
-4 -11 -12 -33 -34 -77 0
-11 0
-11 0
-11 0
-11 0
-8 -11 -64 0
-6 -10 -50 0
-6 -12 -52 0
-10 -12 -73 0
-6 -8 -48 0
-6 -12 -52 0
-6 -8 -48 0
-6 -11 -51 0
-6 -12 -52 0
-6 -8 -10 -48 -50 -63 0
-6 -8 -11 -48 -51 -64 0
-6 -8 -12 -48 -52 -65 0
-6 -10 -50 0
-6 -10 -11 -50 -51 -72 0
-6 -10 -12 -50 -52 -73 0
-6 -12 -52 0
-6 -11 -12 -51 -52 -77 0
-12 0
-8 -12 -65 0
-11 0
-10 -11 -72 0
-10 -12 -73 0
-11 -12 -77 0
-11 0
-11 0
-8 -11 -64 0
-8 -12 -65 0
-11 -12 -77 0
-8 -10 -11 -63 -64 -72 0
-8 -10 -12 -63 -65 -73 0
-8 -11 -12 -64 -65 -77 0
-10 -12 -73 0
-10 -11 -12 -72 -73 -77 0
-4 -5 -8 -27 -30 -40 0
-4 -5 -9 -27 -31 -41 0
-4 -5 -11 -27 -33 -43 0
-4 -5 -13 -27 -35 -45 0
-4 -5 -6 -7 -27 -28 -29 -38 -39 -47 0
-4 -5 -6 -27 -28 -38 0
-4 -5 -6 -27 -28 -38 0
-4 -5 -6 -8 -27 -28 -30 -38 -40 -48 0
-4 -5 -6 -9 -27 -28 -31 -38 -41 -49 0
-4 -5 -6 -10 -27 -28 -32 -38 -42 -50 0
-4 -5 -6 -11 -27 -28 -33 -38 -43 -51 0
-4 -5 -6 -12 -27 -28 -34 -38 -44 -52 0
-4 -5 -6 -13 -27 -28 -35 -38 -45 -53 0
-4 -5 -7 -27 -29 -39 -54 0
-4 -5 -7 -8 -27 -29 -30 -39 -40 -55 0
-4 -5 -7 -9 -27 -29 -31 -39 -41 -56 0
-4 -5 -7 -10 -27 -29 -32 -39 -42 -57 0
-4 -5 -7 -11 -27 -29 -33 -39 -43 -58 0
-4 -5 -7 -12 -27 -29 -34 -39 -44 -59 0
-4 -5 -7 -13 -27 -29 -35 -39 -45 -60 0
-4 -5 -8 -27 -30 -40 0
-4 -5 -12 -27 -34 -44 0
-4 -5 -8 -27 -30 -40 0
-4 -5 -11 -27 -33 -43 0
-4 -5 -12 -27 -34 -44 0
-4 -5 -13 -27 -35 -45 0
-4 -5 -8 -9 -27 -30 -31 -40 -41 -62 0
-4 -5 -8 -10 -27 -30 -32 -40 -42 -63 0
-4 -5 -8 -11 -27 -30 -33 -40 -43 -64 0
-4 -5 -8 -12 -27 -30 -34 -40 -44 -65 0
-4 -5 -8 -13 -27 -30 -35 -40 -45 -66 0
-4 -5 -9 -10 -27 -31 -32 -41 -42 -67 0
-4 -5 -9 -11 -27 -31 -33 -41 -43 -68 0
-4 -5 -9 -12 -27 -31 -34 -41 -44 -69 0
-4 -5 -9 -13 -27 -31 -35 -41 -45 -70 0
-4 -5 -10 -11 -27 -32 -33 -42 -43 -72 0
-4 -5 -10 -12 -27 -32 -34 -42 -44 -73 0
-4 -5 -10 -13 -27 -32 -35 -42 -45 -74 0
-4 -5 -11 -12 -27 -33 -34 -43 -44 -77 0
-4 -5 -11 -13 -27 -33 -35 -43 -45 -78 0
-4 -5 -12 -13 -27 -34 -35 -44 -45 -80 0
-4 -9 -31 0
-4 -13 -35 0
-4 -8 -9 -30 -31 -62 0
-4 -8 -11 -30 -33 -64 0
-4 -8 -13 -30 -35 -66 0
-4 -9 -11 -31 -33 -68 0
-4 -9 -13 -31 -35 -70 0
-4 -11 -13 -33 -35 -78 0
-4 -6 -9 -28 -31 -49 0
-4 -6 -10 -28 -32 -50 0
-4 -6 -12 -28 -34 -52 0
-4 -6 -13 -28 -35 -53 0
-4 -9 -10 -31 -32 -67 0
-4 -9 -12 -31 -34 -69 0
-4 -9 -13 -31 -35 -70 0
-4 -10 -12 -32 -34 -73 0
-4 -10 -13 -32 -35 -74 0
-4 -12 -13 -34 -35 -80 0
-4 -6 -7 -28 -29 -47 -54 0
-4 -6 -7 -8 -28 -29 -30 -47 -48 -55 0
-4 -6 -7 -9 -28 -29 -31 -47 -49 -56 0
-4 -6 -7 -10 -28 -29 -32 -47 -50 -57 0
-4 -6 -7 -28 -29 -47 0
-4 -6 -7 -11 -28 -29 -33 -47 -51 -58 0
-4 -6 -7 -12 -28 -29 -34 -47 -52 -59 0
-4 -6 -7 -13 -28 -29 -35 -47 -53 -60 0
-4 -6 -8 -28 -30 -48 0
-4 -6 -12 -28 -34 -52 0
-4 -6 -8 -28 -30 -48 0
-4 -6 -11 -28 -33 -51 0
-4 -6 -12 -28 -34 -52 0
-4 -6 -13 -28 -35 -53 0
-4 -6 -8 -9 -28 -30 -31 -48 -49 -62 0
-4 -6 -8 -10 -28 -30 -32 -48 -50 -63 0
-4 -6 -8 -11 -28 -30 -33 -48 -51 -64 0
-4 -6 -8 -12 -28 -30 -34 -48 -52 -65 0
-4 -6 -8 -13 -28 -30 -35 -48 -53 -66 0
-4 -6 -9 -10 -28 -31 -32 -49 -50 -67 0
-4 -6 -9 -11 -28 -31 -33 -49 -51 -68 0
-4 -6 -9 -12 -28 -31 -34 -49 -52 -69 0
-4 -6 -9 -13 -28 -31 -35 -49 -53 -70 0
-4 -6 -10 -28 -32 -50 0
-4 -6 -10 -11 -28 -32 -33 -50 -51 -72 0
-4 -6 -10 -12 -28 -32 -34 -50 -52 -73 0
-4 -6 -10 -13 -28 -32 -35 -50 -53 -74 0
-4 -6 -12 -28 -34 -52 0
-4 -6 -11 -12 -28 -33 -34 -51 -52 -77 0
-4 -6 -11 -13 -28 -33 -35 -51 -53 -78 0
-4 -6 -12 -13 -28 -34 -35 -52 -53 -80 0
-4 -7 -8 -29 -30 -54 -55 0
-4 -7 -29 -54 0
-4 -7 -12 -29 -34 -54 -59 0
-4 -7 -8 -9 -29 -30 -31 -55 -56 -62 0
-4 -7 -8 -10 -29 -30 -32 -55 -57 -63 0
-4 -7 -8 -11 -29 -30 -33 -55 -58 -64 0
-4 -7 -8 -12 -29 -30 -34 -55 -59 -65 0
-4 -7 -8 -13 -29 -30 -35 -55 -60 -66 0
-4 -7 -9 -10 -29 -31 -32 -56 -57 -67 0
-4 -7 -9 -11 -29 -31 -33 -56 -58 -68 0
-4 -7 -9 -12 -29 -31 -34 -56 -59 -69 0
-4 -7 -9 -13 -29 -31 -35 -56 -60 -70 0
-4 -7 -10 -29 -32 -57 0
-4 -7 -10 -11 -29 -32 -33 -57 -58 -72 0
-4 -7 -10 -12 -29 -32 -34 -57 -59 -73 0
-4 -7 -10 -13 -29 -32 -35 -57 -60 -74 0
-4 -7 -29 0
-4 -7 -12 -29 -34 -59 0
-4 -7 -11 -29 -33 -58 0
-4 -7 -11 -12 -29 -33 -34 -58 -59 -77 0
-4 -7 -11 -13 -29 -33 -35 -58 -60 -78 0
-4 -7 -12 -13 -29 -34 -35 -59 -60 -80 0
-4 -12 -34 0
-4 -8 -12 -30 -34 -65 0
-4 -10 -11 -32 -33 -72 0
-4 -10 -12 -32 -34 -73 0
-4 -11 -12 -33 -34 -77 0
-4 -8 -11 -30 -33 -64 0
-4 -8 -12 -30 -34 -65 0
-4 -8 -13 -30 -35 -66 0
-4 -11 -12 -33 -34 -77 0
-4 -11 -13 -33 -35 -78 0
-4 -12 -13 -34 -35 -80 0
-4 -8 -9 -10 -30 -31 -32 -62 -63 -67 0
-4 -8 -9 -11 -30 -31 -33 -62 -64 -68 0
-4 -8 -9 -12 -30 -31 -34 -62 -65 -69 0
-4 -8 -9 -13 -30 -31 -35 -62 -66 -70 0
-4 -8 -10 -11 -30 -32 -33 -63 -64 -72 0
-4 -8 -10 -12 -30 -32 -34 -63 -65 -73 0
-4 -8 -10 -13 -30 -32 -35 -63 -66 -74 0
-4 -8 -11 -12 -30 -33 -34 -64 -65 -77 0
-4 -8 -11 -13 -30 -33 -35 -64 -66 -78 0
-4 -8 -12 -13 -30 -34 -35 -65 -66 -80 0
-4 -9 -10 -11 -31 -32 -33 -67 -68 -72 0
-4 -9 -10 -12 -31 -32 -34 -67 -69 -73 0
-4 -9 -10 -13 -31 -32 -35 -67 -70 -74 0
-4 -9 -11 -12 -31 -33 -34 -68 -69 -77 0
-4 -9 -11 -13 -31 -33 -35 -68 -70 -78 0
-4 -9 -12 -13 -31 -34 -35 -69 -70 -80 0
-4 -10 -12 -32 -34 -73 0
-4 -10 -11 -12 -32 -33 -34 -72 -73 -77 0
-4 -10 -11 -13 -32 -33 -35 -72 -74 -78 0
-4 -10 -12 -13 -32 -34 -35 -73 -74 -80 0
-4 -11 -12 -13 -33 -34 -35 -77 -78 -80 0
-5 -9 -41 0
-5 -11 -43 0
-5 -13 -45 0
-5 -8 -9 -40 -41 -62 0
-5 -8 -11 -40 -43 -64 0
-5 -8 -13 -40 -45 -66 0
-5 -9 -41 0
-5 -9 -11 -41 -43 -68 0
-5 -9 -13 -41 -45 -70 0
-5 -11 -43 -76 0
-5 -11 -13 -43 -45 -78 0
-5 -6 -7 -38 -39 -47 -54 0
-5 -6 -7 -8 -38 -39 -40 -47 -48 -55 0
-5 -6 -7 -9 -38 -39 -41 -47 -49 -56 0
-5 -6 -7 -10 -38 -39 -42 -47 -50 -57 0
-5 -6 -7 -11 -38 -39 -43 -47 -51 -58 0
-5 -6 -7 -12 -38 -39 -44 -47 -52 -59 0
-5 -6 -7 -13 -38 -39 -45 -47 -53 -60 0
-5 -6 -8 -38 -40 -48 0
-5 -6 -38 0
-5 -6 -38 0
-5 -6 -12 -38 -44 -52 0
-5 -6 -8 -38 -40 -48 0
-5 -6 -11 -38 -43 -51 0
-5 -6 -12 -38 -44 -52 0
-5 -6 -13 -38 -45 -53 0
-5 -6 -8 -9 -38 -40 -41 -48 -49 -62 0
-5 -6 -8 -10 -38 -40 -42 -48 -50 -63 0
-5 -6 -8 -11 -38 -40 -43 -48 -51 -64 0
-5 -6 -8 -12 -38 -40 -44 -48 -52 -65 0
-5 -6 -8 -13 -38 -40 -45 -48 -53 -66 0
-5 -6 -9 -10 -38 -41 -42 -49 -50 -67 0
-5 -6 -9 -38 -41 -49 0
-5 -6 -9 -11 -38 -41 -43 -49 -51 -68 0
-5 -6 -9 -12 -38 -41 -44 -49 -52 -69 0
-5 -6 -9 -13 -38 -41 -45 -49 -53 -70 0
-5 -6 -10 -38 -42 -50 -71 0
-5 -6 -10 -11 -38 -42 -43 -50 -51 -72 0
-5 -6 -10 -38 -42 -50 0
-5 -6 -10 -12 -38 -42 -44 -50 -52 -73 0
-5 -6 -10 -13 -38 -42 -45 -50 -53 -74 0
-5 -6 -11 -38 -43 -51 -76 0
-5 -6 -11 -12 -38 -43 -44 -51 -52 -77 0
-5 -6 -11 -13 -38 -43 -45 -51 -53 -78 0
-5 -6 -12 -38 -44 -52 0
-5 -6 -12 -13 -38 -44 -45 -52 -53 -80 0
-5 -7 -8 -39 -40 -54 -55 0
-5 -7 -12 -39 -44 -54 -59 0
-5 -7 -9 -39 -41 -56 0
-5 -7 -11 -39 -43 -58 0
-5 -7 -13 -39 -45 -60 0
-5 -7 -8 -9 -39 -40 -41 -55 -56 -62 0
-5 -7 -8 -10 -39 -40 -42 -55 -57 -63 0
-5 -7 -8 -11 -39 -40 -43 -55 -58 -64 0
-5 -7 -8 -12 -39 -40 -44 -55 -59 -65 0
-5 -7 -8 -13 -39 -40 -45 -55 -60 -66 0
-5 -7 -9 -10 -39 -41 -42 -56 -57 -67 0
-5 -7 -9 -11 -39 -41 -43 -56 -58 -68 0
-5 -7 -9 -12 -39 -41 -44 -56 -59 -69 0
-5 -7 -9 -13 -39 -41 -45 -56 -60 -70 0
-5 -7 -10 -11 -39 -42 -43 -57 -58 -72 0
-5 -7 -10 -12 -39 -42 -44 -57 -59 -73 0
-5 -7 -10 -13 -39 -42 -45 -57 -60 -74 0
-5 -7 -11 -12 -39 -43 -44 -58 -59 -77 0
-5 -7 -11 -13 -39 -43 -45 -58 -60 -78 0
-5 -7 -12 -13 -39 -44 -45 -59 -60 -80 0
-5 -8 -12 -40 -44 -65 0
-5 -12 -44 0
-5 -11 -43 0
-5 -13 -45 0
-5 -9 -11 -41 -43 -68 0
-5 -9 -13 -41 -45 -70 0
-5 -11 -13 -43 -45 -78 0
-5 -11 -43 0
-5 -13 -45 0
-5 -11 -43 -76 0
-5 -11 -13 -43 -45 -78 0
-5 -8 -11 -40 -43 -64 0
-5 -8 -12 -40 -44 -65 0
-5 -8 -13 -40 -45 -66 0
-5 -11 -12 -43 -44 -77 0
-5 -11 -13 -43 -45 -78 0
-5 -12 -13 -44 -45 -80 0
-5 -8 -9 -10 -40 -41 -42 -62 -63 -67 0
-5 -8 -9 -11 -40 -41 -43 -62 -64 -68 0
-5 -8 -9 -12 -40 -41 -44 -62 -65 -69 0
-5 -8 -9 -13 -40 -41 -45 -62 -66 -70 0
-5 -8 -10 -11 -40 -42 -43 -63 -64 -72 0
-5 -8 -10 -12 -40 -42 -44 -63 -65 -73 0
-5 -8 -10 -13 -40 -42 -45 -63 -66 -74 0
-5 -8 -11 -12 -40 -43 -44 -64 -65 -77 0
-5 -8 -11 -13 -40 -43 -45 -64 -66 -78 0
-5 -8 -12 -13 -40 -44 -45 -65 -66 -80 0
-5 -9 -10 -41 -42 -67 -71 0
-5 -9 -10 -11 -41 -42 -43 -67 -68 -72 0
-5 -9 -10 -12 -41 -42 -44 -67 -69 -73 0
-5 -9 -10 -13 -41 -42 -45 -67 -70 -74 0
-5 -9 -11 -12 -41 -43 -44 -68 -69 -77 0
-5 -9 -11 -13 -41 -43 -45 -68 -70 -78 0
-5 -9 -12 -13 -41 -44 -45 -69 -70 -80 0
-5 -10 -11 -42 -43 -72 -76 0
-5 -10 -11 -12 -42 -43 -44 -72 -73 -77 0
-5 -10 -11 -13 -42 -43 -45 -72 -74 -78 0
-5 -10 -12 -42 -44 -73 0
-5 -10 -12 -13 -42 -44 -45 -73 -74 -80 0
-5 -11 -12 -43 -44 -76 -77 0
-5 -11 -12 -13 -43 -44 -45 -77 -78 -80 0
-11 0
-9 0
-9 -11 -68 0
-9 -13 -70 0
-11 0
-11 -13 -78 0
-11 0
-11 0
-11 -13 -78 0
-9 -11 -13 -68 -70 -78 0
-9 0
-9 -11 -68 0
-9 -13 -70 0
-11 -13 -78 0
-7 -9 -11 -56 -58 -68 0
-7 -9 -13 -56 -60 -70 0
-7 -11 -58 0
-7 -11 -13 -58 -60 -78 0
-11 -13 -78 0
-9 -11 -13 -68 -70 -78 0
-8 -11 -64 0
-11 -76 0
-8 -12 -65 0
-12 0
-11 0
-11 0
-11 -76 0
-8 -11 -64 0
-8 -12 -65 0
-11 -12 -77 0
-8 -10 -11 -63 -64 -72 0
-8 -10 -12 -63 -65 -73 0
-8 -11 -12 -64 -65 -77 0
-10 -12 -73 0
-10 -11 -72 -76 0
-10 -11 -12 -72 -73 -77 0
-10 -12 -73 0
-11 -12 -76 -77 0
-9 0
-9 -13 -70 0
-9 -11 -68 0
-9 -13 -70 0
-11 -13 -78 0
-8 -9 -11 -62 -64 -68 0
-8 -9 -13 -62 -66 -70 0
-8 -11 -13 -64 -66 -78 0
-9 -11 -13 -68 -70 -78 0
-6 -9 -10 -49 -50 -67 0
-6 -9 -49 0
-6 -9 -12 -49 -52 -69 0
-6 -9 -13 -49 -53 -70 0
-6 -10 -50 -71 0
-6 -10 -50 0
-6 -10 -12 -50 -52 -73 0
-6 -10 -13 -50 -53 -74 0
-6 -12 -52 0
-6 -12 -13 -52 -53 -80 0
-9 -10 -67 -71 0
-9 -10 -12 -67 -69 -73 0
-9 -10 -13 -67 -70 -74 0
-9 -12 -13 -69 -70 -80 0
-10 -12 -73 0
-10 -12 -13 -73 -74 -80 0
-6 -7 -8 -47 -48 -54 -55 0
-6 -7 -12 -47 -52 -54 -59 0
-6 -7 -8 -9 -47 -48 -49 -55 -56 -62 0
-6 -7 -8 -10 -47 -48 -50 -55 -57 -63 0
-6 -7 -8 -11 -47 -48 -51 -55 -58 -64 0
-6 -7 -8 -12 -47 -48 -52 -55 -59 -65 0
-6 -7 -8 -13 -47 -48 -53 -55 -60 -66 0
-6 -7 -9 -10 -47 -49 -50 -56 -57 -67 0
-6 -7 -9 -11 -47 -49 -51 -56 -58 -68 0
-6 -7 -9 -12 -47 -49 -52 -56 -59 -69 0
-6 -7 -9 -13 -47 -49 -53 -56 -60 -70 0
-6 -7 -10 -47 -50 -57 0
-6 -7 -10 -11 -47 -50 -51 -57 -58 -72 0
-6 -7 -10 -12 -47 -50 -52 -57 -59 -73 0
-6 -7 -10 -13 -47 -50 -53 -57 -60 -74 0
-6 -7 -12 -47 -52 -59 0
-6 -7 -11 -12 -47 -51 -52 -58 -59 -77 0
-6 -7 -11 -13 -47 -51 -53 -58 -60 -78 0
-6 -7 -12 -13 -47 -52 -53 -59 -60 -80 0
-6 -8 -12 -48 -52 -65 0
-6 -12 -52 0
-6 -8 -11 -48 -51 -64 0
-6 -8 -12 -48 -52 -65 0
-6 -8 -13 -48 -53 -66 0
-6 -11 -12 -51 -52 -77 0
-6 -11 -13 -51 -53 -78 0
-6 -12 -13 -52 -53 -80 0
-6 -8 -9 -10 -48 -49 -50 -62 -63 -67 0
-6 -8 -9 -11 -48 -49 -51 -62 -64 -68 0
-6 -8 -9 -12 -48 -49 -52 -62 -65 -69 0
-6 -8 -9 -13 -48 -49 -53 -62 -66 -70 0
-6 -8 -10 -11 -48 -50 -51 -63 -64 -72 0
-6 -8 -10 -12 -48 -50 -52 -63 -65 -73 0
-6 -8 -10 -13 -48 -50 -53 -63 -66 -74 0
-6 -8 -11 -12 -48 -51 -52 -64 -65 -77 0
-6 -8 -11 -13 -48 -51 -53 -64 -66 -78 0
-6 -8 -12 -13 -48 -52 -53 -65 -66 -80 0
-6 -9 -10 -49 -50 -67 -71 0
-6 -9 -10 -11 -49 -50 -51 -67 -68 -72 0
-6 -9 -10 -12 -49 -50 -52 -67 -69 -73 0
-6 -9 -10 -13 -49 -50 -53 -67 -70 -74 0
-6 -9 -11 -12 -49 -51 -52 -68 -69 -77 0
-6 -9 -11 -13 -49 -51 -53 -68 -70 -78 0
-6 -9 -12 -13 -49 -52 -53 -69 -70 -80 0
-6 -10 -50 -71 0
-6 -10 -12 -50 -52 -73 0
-6 -10 -11 -50 -51 -72 -76 0
-6 -10 -11 -12 -50 -51 -52 -72 -73 -77 0
-6 -10 -11 -13 -50 -51 -53 -72 -74 -78 0
-6 -10 -12 -50 -52 -73 0
-6 -10 -12 -13 -50 -52 -53 -73 -74 -80 0
-6 -11 -12 -51 -52 -76 -77 0
-6 -11 -12 -13 -51 -52 -53 -77 -78 -80 0
-7 -8 -12 -54 -55 -59 -65 0
-7 -9 -11 -56 -58 -68 0
-7 -9 -13 -56 -60 -70 0
-7 0
-7 -11 -58 0
-7 -11 -13 -58 -60 -78 0
-7 -8 -9 -10 -55 -56 -57 -62 -63 -67 0
-7 -8 -9 -11 -55 -56 -58 -62 -64 -68 0
-7 -8 -9 -12 -55 -56 -59 -62 -65 -69 0
-7 -8 -9 -13 -55 -56 -60 -62 -66 -70 0
-7 -8 -10 -11 -55 -57 -58 -63 -64 -72 0
-7 -8 -10 -12 -55 -57 -59 -63 -65 -73 0
-7 -8 -10 -13 -55 -57 -60 -63 -66 -74 0
-7 -8 -11 -12 -55 -58 -59 -64 -65 -77 0
-7 -8 -11 -13 -55 -58 -60 -64 -66 -78 0
-7 -8 -12 -13 -55 -59 -60 -65 -66 -80 0
-7 -9 -10 -11 -56 -57 -58 -67 -68 -72 0
-7 -9 -10 -12 -56 -57 -59 -67 -69 -73 0
-7 -9 -10 -13 -56 -57 -60 -67 -70 -74 0
-7 -9 -11 -12 -56 -58 -59 -68 -69 -77 0
-7 -9 -11 -13 -56 -58 -60 -68 -70 -78 0
-7 -9 -12 -13 -56 -59 -60 -69 -70 -80 0
-7 -10 -12 -57 -59 -73 0
-7 -10 -11 -12 -57 -58 -59 -72 -73 -77 0
-7 -10 -11 -13 -57 -58 -60 -72 -74 -78 0
-7 -10 -12 -13 -57 -59 -60 -73 -74 -80 0
-7 -11 -12 -13 -58 -59 -60 -77 -78 -80 0
-12 0
-11 0
-11 0
-11 -13 -78 0
-9 -11 -13 -68 -70 -78 0
-11 -76 0
-10 -11 -72 -76 0
-10 -11 -12 -72 -73 -77 0
-10 -12 -73 0
-11 -12 -76 -77 0
-11 -13 -78 0
-8 -11 -12 -64 -65 -77 0
-8 -11 -13 -64 -66 -78 0
-8 -12 -13 -65 -66 -80 0
-11 -12 -13 -77 -78 -80 0
-8 -9 -10 -11 -62 -63 -64 -67 -68 -72 0
-8 -9 -10 -12 -62 -63 -65 -67 -69 -73 0
-8 -9 -10 -13 -62 -63 -66 -67 -70 -74 0
-8 -9 -11 -12 -62 -64 -65 -68 -69 -77 0
-8 -9 -11 -13 -62 -64 -66 -68 -70 -78 0
-8 -9 -12 -13 -62 -65 -66 -69 -70 -80 0
-8 -10 -11 -12 -63 -64 -65 -72 -73 -77 0
-8 -10 -11 -13 -63 -64 -66 -72 -74 -78 0
-8 -10 -12 -13 -63 -65 -66 -73 -74 -80 0
-8 -11 -12 -13 -64 -65 -66 -77 -78 -80 0
-9 -10 -11 -12 -67 -68 -69 -72 -73 -77 0
-9 -10 -11 -13 -67 -68 -70 -72 -74 -78 0
-9 -10 -12 -13 -67 -69 -70 -73 -74 -80 0
-9 -11 -12 -13 -68 -69 -70 -77 -78 -80 0
-10 -11 -12 -72 -73 -76 -77 0
-10 -11 -12 -13 -72 -73 -74 -77 -78 -80 0
-14 -15 0
-14 -15 -19 -30 0
-14 -15 -22 -33 0
-14 -15 -17 -19 -28 -30 -48 0
-14 -15 -17 -21 -28 -32 -50 0
-14 -15 -17 -28 0
-14 -15 -17 -22 -28 -33 -51 0
-14 -15 -17 -23 -28 -34 -52 0
-14 -15 0
-14 -15 -21 -32 0
-14 -15 -22 -33 0
-14 -15 -23 -34 0
-14 -15 0
-14 -15 -23 -34 0
-14 -15 -19 -21 -30 -32 -63 0
-14 -15 -19 -22 -30 -33 -64 0
-14 -15 -19 -23 -30 -34 -65 0
-14 -15 -21 -32 0
-14 -15 -21 -22 -32 -33 -72 0
-14 -15 -21 -23 -32 -34 -73 0
-14 -15 -23 -34 0
-14 -15 -22 -23 -33 -34 -77 0
-14 -19 0
-14 -22 0
-14 -19 -22 -64 0
-14 -21 0
-14 -22 0
-14 -23 0
-14 -19 -21 -63 0
-14 -19 -22 -64 0
-14 -19 -23 -65 0
-14 -21 0
-14 -21 -22 -72 0
-14 -21 -23 -73 0
-14 -23 0
-14 -22 -23 -77 0
-14 -17 -19 -21 -48 -50 -63 0
-14 -17 -19 -22 -48 -51 -64 0
-14 -17 -19 -23 -48 -52 -65 0
-14 -17 -21 -50 0
-14 -17 -21 -22 -50 -51 -72 0
-14 -17 -21 -23 -50 -52 -73 0
-14 -17 0
-14 -17 -23 -52 0
-14 -17 -22 -23 -51 -52 -77 0
-14 0
-14 -22 0
-14 -23 0
-14 -21 -22 -72 0
-14 -21 -23 -73 0
-14 -22 -23 -77 0
-14 -23 0
-14 -19 -21 -22 -63 -64 -72 0
-14 -19 -21 -23 -63 -65 -73 0
-14 -19 -22 -23 -64 -65 -77 0
-14 -21 -23 -73 0
-14 -21 -22 -23 -72 -73 -77 0
-15 -18 -25 -29 0
-15 -25 0
-15 -24 -25 -35 0
-15 -18 -25 -29 0
-15 -18 -20 -25 -29 -31 -56 0
-15 -18 -24 -25 -29 -35 -60 0
-15 -25 0
-15 -25 0
-15 -20 -25 -31 0
-15 -24 -25 -35 0
-15 -20 -24 -25 -31 -35 -70 0
-18 -24 -60 0
-18 -20 -56 0
-18 -24 -60 0
-18 -20 -56 0
-18 -24 -60 0
-18 -20 -24 -56 -60 -70 0
-18 -24 -60 0
-24 0
-20 -24 -70 0
-20 -24 -70 0
-15 -16 -19 -27 -30 -40 0
-15 -16 -20 -27 -31 -41 0
-15 -16 -27 0
-15 -16 -22 -27 -33 -43 0
-15 -16 -27 0
-15 -16 -24 -27 -35 -45 0
-15 -16 -17 -27 -28 -38 -46 0
-15 -16 -18 -27 -29 -39 0
-15 -16 -19 -27 -30 -40 0
-15 -16 -21 -27 -32 -42 0
-15 -16 -22 -27 -33 -43 0
-15 -16 -27 0
-15 -16 -23 -27 -34 -44 0
-15 -16 -24 -27 -35 -45 0
-15 -16 -17 -18 -27 -28 -29 -38 -39 -47 0
-15 -16 -17 -19 -27 -28 -30 -38 -40 -48 0
-15 -16 -17 -20 -27 -28 -31 -38 -41 -49 0
-15 -16 -17 -21 -27 -28 -32 -38 -42 -50 0
-15 -16 -17 -27 -28 -38 0
-15 -16 -17 -22 -27 -28 -33 -38 -43 -51 0
-15 -16 -17 -23 -27 -28 -34 -38 -44 -52 0
-15 -16 -17 -24 -27 -28 -35 -38 -45 -53 0
-15 -16 -18 -19 -27 -29 -30 -39 -40 -55 0
-15 -16 -18 -20 -27 -29 -31 -39 -41 -56 0
-15 -16 -18 -21 -27 -29 -32 -39 -42 -57 0
-15 -16 -18 -22 -27 -29 -33 -39 -43 -58 0
-15 -16 -18 -27 -29 -39 0
-15 -16 -18 -23 -27 -29 -34 -39 -44 -59 0
-15 -16 -18 -24 -27 -29 -35 -39 -45 -60 0
-15 -16 -19 -20 -27 -30 -31 -40 -41 -62 0
-15 -16 -19 -21 -27 -30 -32 -40 -42 -63 0
-15 -16 -19 -27 -30 -40 0
-15 -16 -19 -22 -27 -30 -33 -40 -43 -64 0
-15 -16 -19 -27 -30 -40 0
-15 -16 -19 -23 -27 -30 -34 -40 -44 -65 0
-15 -16 -19 -24 -27 -30 -35 -40 -45 -66 0
-15 -16 -20 -21 -27 -31 -32 -41 -42 -67 0
-15 -16 -20 -22 -27 -31 -33 -41 -43 -68 0
-15 -16 -20 -23 -27 -31 -34 -41 -44 -69 0
-15 -16 -20 -24 -27 -31 -35 -41 -45 -70 0
-15 -16 -21 -22 -27 -32 -33 -42 -43 -72 0
-15 -16 -21 -23 -27 -32 -34 -42 -44 -73 0
-15 -16 -21 -24 -27 -32 -35 -42 -45 -74 0
-15 -16 -22 -27 -33 -43 -75 0
-15 -16 -22 -27 -33 -43 0
-15 -16 -22 -23 -27 -33 -34 -43 -44 -77 0
-15 -16 -22 -24 -27 -33 -35 -43 -45 -78 0
-15 -16 -23 -27 -34 -44 -79 0
-15 -16 -24 -27 -35 -45 0
-15 -16 -23 -24 -27 -34 -35 -44 -45 -80 0
-15 -17 -19 -28 -30 -48 0
-15 -17 -21 -28 -32 -50 0
-15 -17 -28 0
-15 -17 -28 0
-15 -17 -23 -28 -34 -52 0
-15 0
-15 0
-15 -23 -34 0
-15 -19 -21 -30 -32 -63 0
-15 -19 -30 0
-15 -19 -23 -30 -34 -65 0
-15 -21 -32 0
-15 -21 -23 -32 -34 -73 0
-15 -23 -34 0
-15 0
-15 0
-15 0
-15 -19 -30 -61 0
-15 -20 -31 0
-15 -24 -35 0
-15 -19 -20 -30 -31 -62 0
-15 -19 -30 0
-15 -19 -22 -30 -33 -64 0
-15 -19 -30 0
-15 -19 -24 -30 -35 -66 0
-15 -20 -22 -31 -33 -68 0
-15 -20 -24 -31 -35 -70 0
-15 -22 -33 -75 0
-15 -22 -33 0
-15 -22 -24 -33 -35 -78 0
-15 -24 -35 0
-15 -17 -18 -28 -29 -46 -47 0
-15 -17 -19 -28 -30 -46 -48 0
-15 -17 -21 -28 -32 -46 -50 0
-15 -17 -28 -46 0
-15 -17 -22 -28 -33 -46 -51 0
-15 -17 -23 -28 -34 -46 -52 0
-15 -17 -24 -28 -35 -46 -53 0
-15 -18 -19 -29 -30 -55 0
-15 -18 -21 -29 -32 -57 0
-15 -18 -29 0
-15 -18 -22 -29 -33 -58 0
-15 -18 -29 0
-15 -18 -23 -29 -34 -59 0
-15 -18 -24 -29 -35 -60 0
-15 0
-15 0
-15 -23 -34 0
-15 -19 -21 -30 -32 -63 0
-15 -19 -22 -30 -33 -64 0
-15 -19 -30 0
-15 -19 -23 -30 -34 -65 0
-15 -19 -24 -30 -35 -66 0
-15 -21 -32 0
-15 -21 -22 -32 -33 -72 0
-15 -21 -23 -32 -34 -73 0
-15 -21 -24 -32 -35 -74 0
-15 -23 -34 0
-15 -22 -33 0
-15 -22 -23 -33 -34 -77 0
-15 -22 -24 -33 -35 -78 0
-15 -23 -34 -79 0
-15 -24 -35 0
-15 -23 -24 -34 -35 -80 0
-15 -17 -18 -19 -28 -29 -30 -47 -48 -55 0
-15 -17 -18 -20 -28 -29 -31 -47 -49 -56 0
-15 -17 -18 -21 -28 -29 -32 -47 -50 -57 0
-15 -17 -18 -28 -29 -47 0
-15 -17 -18 -22 -28 -29 -33 -47 -51 -58 0
-15 -17 -18 -23 -28 -29 -34 -47 -52 -59 0
-15 -17 -18 -24 -28 -29 -35 -47 -53 -60 0
-15 -17 -19 -20 -28 -30 -31 -48 -49 -62 0
-15 -17 -19 -21 -28 -30 -32 -48 -50 -63 0
-15 -17 -19 -28 -30 -48 0
-15 -17 -19 -22 -28 -30 -33 -48 -51 -64 0
-15 -17 -19 -23 -28 -30 -34 -48 -52 -65 0
-15 -17 -19 -24 -28 -30 -35 -48 -53 -66 0
-15 -17 -20 -21 -28 -31 -32 -49 -50 -67 0
-15 -17 -20 -22 -28 -31 -33 -49 -51 -68 0
-15 -17 -20 -23 -28 -31 -34 -49 -52 -69 0
-15 -17 -20 -24 -28 -31 -35 -49 -53 -70 0
-15 -17 -21 -28 -32 -50 0
-15 -17 -21 -22 -28 -32 -33 -50 -51 -72 0
-15 -17 -21 -23 -28 -32 -34 -50 -52 -73 0
-15 -17 -21 -24 -28 -32 -35 -50 -53 -74 0
-15 -17 -23 -28 -34 -52 0
-15 -17 -22 -28 -33 -51 -75 0
-15 -17 -22 -23 -28 -33 -34 -51 -52 -77 0
-15 -17 -22 -24 -28 -33 -35 -51 -53 -78 0
-15 -17 -23 -24 -28 -34 -35 -52 -53 -80 0
-15 -18 -19 -29 -30 -55 -61 0
-15 -18 -20 -29 -31 -56 0
-15 -18 -23 -29 -34 -59 0
-15 -18 -24 -29 -35 -60 0
-15 -18 -19 -20 -29 -30 -31 -55 -56 -62 0
-15 -18 -19 -21 -29 -30 -32 -55 -57 -63 0
-15 -18 -19 -22 -29 -30 -33 -55 -58 -64 0
-15 -18 -19 -29 -30 -55 0
-15 -18 -19 -23 -29 -30 -34 -55 -59 -65 0
-15 -18 -19 -24 -29 -30 -35 -55 -60 -66 0
-15 -18 -20 -21 -29 -31 -32 -56 -57 -67 0
-15 -18 -20 -22 -29 -31 -33 -56 -58 -68 0
-15 -18 -20 -23 -29 -31 -34 -56 -59 -69 0
-15 -18 -20 -24 -29 -31 -35 -56 -60 -70 0
-15 -18 -21 -29 -32 -57 0
-15 -18 -21 -22 -29 -32 -33 -57 -58 -72 0
-15 -18 -21 -23 -29 -32 -34 -57 -59 -73 0
-15 -18 -21 -24 -29 -32 -35 -57 -60 -74 0
-15 -18 -23 -29 -34 -59 0
-15 -18 -22 -29 -33 -58 0
-15 -18 -22 -23 -29 -33 -34 -58 -59 -77 0
-15 -18 -22 -24 -29 -33 -35 -58 -60 -78 0
-15 -18 -23 -29 -34 -59 -79 0
-15 -18 -24 -29 -35 -60 0
-15 -18 -23 -24 -29 -34 -35 -59 -60 -80 0
-15 0
-15 -23 -34 0
-15 -21 -22 -32 -33 -72 0
-15 -21 -23 -32 -34 -73 0
-15 -22 -33 -75 0
-15 -22 -23 -33 -34 -77 0
-15 -23 -34 0
-15 -23 -34 0
-15 -23 -34 -79 0
-15 -19 -20 -30 -31 -61 -62 0
-15 -19 -23 -30 -34 -61 -65 0
-15 -19 -24 -30 -35 -61 -66 0
-15 -20 -23 -31 -34 -69 0
-15 -20 -24 -31 -35 -70 0
-15 -23 -24 -34 -35 -80 0
-15 -19 -20 -21 -30 -31 -32 -62 -63 -67 0
-15 -19 -20 -22 -30 -31 -33 -62 -64 -68 0
-15 -19 -20 -23 -30 -31 -34 -62 -65 -69 0
-15 -19 -20 -24 -30 -31 -35 -62 -66 -70 0
-15 -19 -21 -22 -30 -32 -33 -63 -64 -72 0
-15 -19 -21 -23 -30 -32 -34 -63 -65 -73 0
-15 -19 -21 -24 -30 -32 -35 -63 -66 -74 0
-15 -19 -22 -30 -33 -64 -75 0
-15 -19 -22 -30 -33 -64 0
-15 -19 -22 -23 -30 -33 -34 -64 -65 -77 0
-15 -19 -22 -24 -30 -33 -35 -64 -66 -78 0
-15 -19 -23 -30 -34 -65 -79 0
-15 -19 -24 -30 -35 -66 0
-15 -19 -23 -24 -30 -34 -35 -65 -66 -80 0
-15 -20 -21 -22 -31 -32 -33 -67 -68 -72 0
-15 -20 -21 -23 -31 -32 -34 -67 -69 -73 0
-15 -20 -21 -24 -31 -32 -35 -67 -70 -74 0
-15 -20 -22 -23 -31 -33 -34 -68 -69 -77 0
-15 -20 -22 -24 -31 -33 -35 -68 -70 -78 0
-15 -20 -23 -24 -31 -34 -35 -69 -70 -80 0
-15 -21 -23 -32 -34 -73 0
-15 -21 -22 -23 -32 -33 -34 -72 -73 -77 0
-15 -21 -22 -24 -32 -33 -35 -72 -74 -78 0
-15 -21 -23 -24 -32 -34 -35 -73 -74 -80 0
-15 -22 -23 -33 -34 -77 -79 0
-15 -22 -24 -33 -35 -78 0
-15 -22 -23 -24 -33 -34 -35 -77 -78 -80 0
-15 -23 -24 -34 -35 -79 -80 0
-16 -17 -20 -37 -38 -41 -49 0
-16 -17 -21 -37 -38 -42 -50 0
-16 -17 -37 -38 0
-16 -17 -22 -37 -38 -43 -51 0
-16 -17 -23 -37 -38 -44 -52 0
-16 -17 -24 -37 -38 -45 -53 0
-16 -20 -37 -41 0
-16 -22 -37 -43 0
-16 -37 0
-16 -24 -37 -45 0
-16 -20 -21 -37 -41 -42 -67 0
-16 -20 -37 -41 0
-16 -20 -22 -37 -41 -43 -68 0
-16 -20 -23 -37 -41 -44 -69 0
-16 -20 -24 -37 -41 -45 -70 0
-16 -21 -37 -42 -71 0
-16 -21 -22 -37 -42 -43 -72 0
-16 -21 -23 -37 -42 -44 -73 0
-16 -21 -24 -37 -42 -45 -74 0
-16 -37 0
-16 -22 -37 -43 0
-16 -22 -23 -37 -43 -44 -77 0
-16 -22 -24 -37 -43 -45 -78 0
-16 -23 -37 -44 -79 0
-16 -24 -37 -45 0
-16 -23 -24 -37 -44 -45 -80 0
-16 -20 -41 0
-16 0
-16 -22 -43 0
-16 0
-16 -24 -45 0
-16 -19 -20 -40 -41 -62 0
-16 -19 -40 0
-16 -19 -22 -40 -43 -64 0
-16 -19 -40 0
-16 -19 -24 -40 -45 -66 0
-16 -20 -41 0
-16 -20 -22 -41 -43 -68 0
-16 -20 -24 -41 -45 -70 0
-16 0
-16 0
-16 0
-16 -24 -45 0
-16 -22 -43 -75 0
-16 -22 -43 0
-16 -22 -24 -43 -45 -78 0
-16 -24 -45 0
-16 -17 -18 -38 -39 -46 -47 0
-16 -17 -19 -38 -40 -46 -48 0
-16 -17 -21 -38 -42 -46 -50 0
-16 -17 -38 -46 0
-16 -17 -22 -38 -43 -46 -51 0
-16 -17 -23 -38 -44 -46 -52 0
-16 -17 -24 -38 -45 -46 -53 0
-16 -18 -19 -39 -40 -55 0
-16 -18 -21 -39 -42 -57 0
-16 -18 -22 -39 -43 -58 0
-16 -18 -39 0
-16 -18 -23 -39 -44 -59 0
-16 -18 -24 -39 -45 -60 0
-16 -19 -21 -40 -42 -63 0
-16 -19 -22 -40 -43 -64 0
-16 -19 -40 0
-16 -19 -23 -40 -44 -65 0
-16 -19 -24 -40 -45 -66 0
-16 -21 -42 -71 0
-16 -21 -22 -42 -43 -72 0
-16 -21 -23 -42 -44 -73 0
-16 -21 -24 -42 -45 -74 0
-16 0
-16 -22 -43 0
-16 -22 -23 -43 -44 -77 0
-16 -22 -24 -43 -45 -78 0
-16 -23 -44 -79 0
-16 -24 -45 0
-16 -23 -24 -44 -45 -80 0
-16 -17 -18 -19 -38 -39 -40 -47 -48 -55 0
-16 -17 -18 -20 -38 -39 -41 -47 -49 -56 0
-16 -17 -18 -21 -38 -39 -42 -47 -50 -57 0
-16 -17 -18 -38 -39 -47 0
-16 -17 -18 -22 -38 -39 -43 -47 -51 -58 0
-16 -17 -18 -23 -38 -39 -44 -47 -52 -59 0
-16 -17 -18 -24 -38 -39 -45 -47 -53 -60 0
-16 -17 -19 -20 -38 -40 -41 -48 -49 -62 0
-16 -17 -19 -21 -38 -40 -42 -48 -50 -63 0
-16 -17 -19 -38 -40 -48 0
-16 -17 -19 -22 -38 -40 -43 -48 -51 -64 0
-16 -17 -19 -23 -38 -40 -44 -48 -52 -65 0
-16 -17 -19 -24 -38 -40 -45 -48 -53 -66 0
-16 -17 -20 -21 -38 -41 -42 -49 -50 -67 0
-16 -17 -20 -38 -41 -49 0
-16 -17 -20 -22 -38 -41 -43 -49 -51 -68 0
-16 -17 -20 -23 -38 -41 -44 -49 -52 -69 0
-16 -17 -20 -24 -38 -41 -45 -49 -53 -70 0
-16 -17 -21 -38 -42 -50 -71 0
-16 -17 -21 -22 -38 -42 -43 -50 -51 -72 0
-16 -17 -21 -23 -38 -42 -44 -50 -52 -73 0
-16 -17 -21 -24 -38 -42 -45 -50 -53 -74 0
-16 -17 -38 0
-16 -17 -38 0
-16 -17 -24 -38 -45 -53 0
-16 -17 -22 -38 -43 -51 -75 0
-16 -17 -22 -23 -38 -43 -44 -51 -52 -77 0
-16 -17 -22 -24 -38 -43 -45 -51 -53 -78 0
-16 -17 -23 -24 -38 -44 -45 -52 -53 -80 0
-16 -18 -20 -39 -41 -56 0
-16 -18 -22 -39 -43 -58 0
-16 -18 -39 0
-16 -18 -24 -39 -45 -60 0
-16 -18 -19 -20 -39 -40 -41 -55 -56 -62 0
-16 -18 -19 -21 -39 -40 -42 -55 -57 -63 0
-16 -18 -19 -22 -39 -40 -43 -55 -58 -64 0
-16 -18 -19 -39 -40 -55 0
-16 -18 -19 -23 -39 -40 -44 -55 -59 -65 0
-16 -18 -19 -24 -39 -40 -45 -55 -60 -66 0
-16 -18 -20 -21 -39 -41 -42 -56 -57 -67 0
-16 -18 -20 -22 -39 -41 -43 -56 -58 -68 0
-16 -18 -20 -23 -39 -41 -44 -56 -59 -69 0
-16 -18 -20 -24 -39 -41 -45 -56 -60 -70 0
-16 -18 -21 -22 -39 -42 -43 -57 -58 -72 0
-16 -18 -21 -23 -39 -42 -44 -57 -59 -73 0
-16 -18 -21 -24 -39 -42 -45 -57 -60 -74 0
-16 -18 -24 -39 -45 -60 0
-16 -18 -22 -39 -43 -58 0
-16 -18 -22 -23 -39 -43 -44 -58 -59 -77 0
-16 -18 -22 -24 -39 -43 -45 -58 -60 -78 0
-16 -18 -23 -39 -44 -59 -79 0
-16 -18 -24 -39 -45 -60 0
-16 -18 -23 -24 -39 -44 -45 -59 -60 -80 0
-16 -22 -43 0
-16 0
-16 -24 -45 0
-16 -20 -22 -41 -43 -68 0
-16 -20 -24 -41 -45 -70 0
-16 -22 -43 -75 0
-16 -22 -43 0
-16 -22 -24 -43 -45 -78 0
-16 -24 -45 0
-16 0
-16 -22 -43 0
-16 -22 -24 -43 -45 -78 0
-16 -24 -45 0
-16 -19 -20 -21 -40 -41 -42 -62 -63 -67 0
-16 -19 -20 -22 -40 -41 -43 -62 -64 -68 0
-16 -19 -20 -23 -40 -41 -44 -62 -65 -69 0
-16 -19 -20 -24 -40 -41 -45 -62 -66 -70 0
-16 -19 -21 -22 -40 -42 -43 -63 -64 -72 0
-16 -19 -21 -23 -40 -42 -44 -63 -65 -73 0
-16 -19 -21 -24 -40 -42 -45 -63 -66 -74 0
-16 -19 -22 -40 -43 -64 -75 0
-16 -19 -22 -40 -43 -64 0
-16 -19 -22 -23 -40 -43 -44 -64 -65 -77 0
-16 -19 -22 -24 -40 -43 -45 -64 -66 -78 0
-16 -19 -23 -40 -44 -65 -79 0
-16 -19 -24 -40 -45 -66 0
-16 -19 -23 -24 -40 -44 -45 -65 -66 -80 0
-16 -20 -21 -41 -42 -67 -71 0
-16 -20 -21 -22 -41 -42 -43 -67 -68 -72 0
-16 -20 -21 -23 -41 -42 -44 -67 -69 -73 0
-16 -20 -21 -24 -41 -42 -45 -67 -70 -74 0
-16 -20 -22 -23 -41 -43 -44 -68 -69 -77 0
-16 -20 -22 -24 -41 -43 -45 -68 -70 -78 0
-16 -20 -23 -24 -41 -44 -45 -69 -70 -80 0
-16 -21 -22 -23 -42 -43 -44 -72 -73 -77 0
-16 -21 -22 -24 -42 -43 -45 -72 -74 -78 0
-16 -21 -23 -24 -42 -44 -45 -73 -74 -80 0
-16 -22 -23 -43 -44 -77 -79 0
-16 -22 -24 -43 -45 -78 0
-16 -22 -23 -24 -43 -44 -45 -77 -78 -80 0
-16 -23 -24 -44 -45 -79 -80 0
-21 0
-22 0
-23 0
-20 -21 -67 0
-20 -22 -68 0
-20 -23 -69 0
-21 0
-21 -22 -72 0
-21 -23 -73 0
-23 0
-22 0
-22 -23 -77 0
-23 -79 0
-17 -20 -21 -49 -50 -67 0
-17 -20 -49 0
-17 -20 -22 -49 -51 -68 0
-17 -20 -23 -49 -52 -69 0
-17 -20 -24 -49 -53 -70 0
-17 -21 -50 -71 0
-17 -21 -50 0
-17 -21 -22 -50 -51 -72 0
-17 -21 -23 -50 -52 -73 0
-17 -21 -24 -50 -53 -74 0
-17 0
-17 -23 -52 0
-17 -22 -23 -51 -52 -77 0
-17 -22 -24 -51 -53 -78 0
-17 -23 -24 -52 -53 -80 0
-22 0
-20 -22 -68 0
-20 -24 -70 0
-22 0
-22 -24 -78 0
-24 0
-23 0
-21 -22 -72 0
-21 -23 -73 0
-22 -23 -77 0
-23 0
-23 0
-23 -79 0
-20 -23 -69 0
-20 -24 -70 0
-23 -24 -80 0
-20 -21 -67 -71 0
-20 -21 -22 -67 -68 -72 0
-20 -21 -23 -67 -69 -73 0
-20 -21 -24 -67 -70 -74 0
-20 -22 -23 -68 -69 -77 0
-20 -22 -24 -68 -70 -78 0
-20 -23 -24 -69 -70 -80 0
-21 -71 0
-21 -23 -73 0
-21 -22 -23 -72 -73 -77 0
-21 -22 -24 -72 -74 -78 0
-21 -23 -24 -73 -74 -80 0
-22 -23 -77 -79 0
-22 -24 -78 0
-22 -23 -24 -77 -78 -80 0
-23 -24 -79 -80 0
-19 -21 -63 0
-19 0
-19 -23 -65 0
-21 0
-21 -23 -73 0
-23 0
-17 -19 -21 -48 -50 -63 0
-17 -19 -48 0
-17 -19 -23 -48 -52 -65 0
-17 -21 -50 0
-17 -21 -23 -50 -52 -73 0
-17 0
-17 -23 -52 0
-17 0
-23 0
-19 -21 -23 -63 -65 -73 0
-21 -23 -73 0
-19 0
-22 0
-19 -61 0
-19 0
-19 -22 -64 0
-22 -75 0
-19 -21 -63 0
-19 -22 -64 0
-19 -23 -65 0
-21 0
-21 -22 -72 0
-21 -23 -73 0
-23 0
-22 -23 -77 0
-19 -23 -61 -65 0
-19 -21 -22 -63 -64 -72 0
-19 -21 -23 -63 -65 -73 0
-19 -22 -64 -75 0
-19 -22 -23 -64 -65 -77 0
-21 -23 -73 0
-21 -22 -23 -72 -73 -77 0
-19 -20 -62 0
-19 -22 -64 0
-19 0
-20 -22 -68 0
-22 0
-20 -22 -68 0
-20 -24 -70 0
-22 -75 0
-22 0
-22 -24 -78 0
-24 0
-19 -20 -61 -62 0
-19 -24 -61 -66 0
-20 -24 -70 0
-19 -20 -22 -62 -64 -68 0
-19 -20 -24 -62 -66 -70 0
-19 -22 -64 -75 0
-19 -22 -64 0
-19 -22 -24 -64 -66 -78 0
-19 -24 -66 0
-20 -22 -24 -68 -70 -78 0
-22 -24 -78 0
-19 -21 -63 0
-19 -22 -64 0
-19 0
-19 -23 -65 0
-21 0
-21 -22 -72 0
-21 -23 -73 0
-23 0
-22 0
-22 -23 -77 0
-23 -79 0
-21 -22 -72 0
-21 -23 -73 0
-22 -23 -77 0
-19 -20 -21 -62 -63 -67 0
-19 -20 -22 -62 -64 -68 0
-19 -20 -23 -62 -65 -69 0
-19 -21 -22 -63 -64 -72 0
-19 -21 -23 -63 -65 -73 0
-19 -22 -64 0
-19 -22 -23 -64 -65 -77 0
-19 -23 -65 -79 0
-20 -21 -22 -67 -68 -72 0
-20 -21 -23 -67 -69 -73 0
-20 -22 -23 -68 -69 -77 0
-21 -23 -73 0
-21 -22 -23 -72 -73 -77 0
-22 -23 -77 -79 0
-17 -18 -19 -46 -47 -48 -55 0
-17 -18 -21 -46 -47 -50 -57 0
-17 -18 -46 -47 0
-17 -18 -22 -46 -47 -51 -58 0
-17 -18 -23 -46 -47 -52 -59 0
-17 -18 -24 -46 -47 -53 -60 0
-17 -19 -21 -46 -48 -50 -63 0
-17 -19 -22 -46 -48 -51 -64 0
-17 -19 -23 -46 -48 -52 -65 0
-17 -19 -24 -46 -48 -53 -66 0
-17 -21 -46 -50 -71 0
-17 -21 -46 -50 0
-17 -21 -22 -46 -50 -51 -72 0
-17 -21 -23 -46 -50 -52 -73 0
-17 -21 -24 -46 -50 -53 -74 0
-17 -46 0
-17 -23 -46 -52 0
-17 -22 -23 -46 -51 -52 -77 0
-17 -22 -24 -46 -51 -53 -78 0
-17 -23 -24 -46 -52 -53 -80 0
-18 -19 -21 -55 -57 -63 0
-18 -19 -22 -55 -58 -64 0
-18 -19 -55 0
-18 -19 -23 -55 -59 -65 0
-18 -19 -24 -55 -60 -66 0
-18 -21 -57 0
-18 -21 -22 -57 -58 -72 0
-18 -21 -23 -57 -59 -73 0
-18 -21 -24 -57 -60 -74 0
-18 -23 -59 0
-18 -22 -58 0
-18 -22 -23 -58 -59 -77 0
-18 -22 -24 -58 -60 -78 0
-18 -23 -59 -79 0
-18 -24 -60 0
-18 -23 -24 -59 -60 -80 0
-23 0
-23 -79 0
-19 -21 -22 -63 -64 -72 0
-19 -21 -23 -63 -65 -73 0
-19 -21 -24 -63 -66 -74 0
-19 -22 -64 0
-19 -22 -23 -64 -65 -77 0
-19 -22 -24 -64 -66 -78 0
-19 -23 -65 -79 0
-19 -24 -66 0
-19 -23 -24 -65 -66 -80 0
-21 -71 0
-21 -23 -73 0
-21 -22 -23 -72 -73 -77 0
-21 -22 -24 -72 -74 -78 0
-21 -23 -24 -73 -74 -80 0
-22 -23 -77 -79 0
-22 -24 -78 0
-22 -23 -24 -77 -78 -80 0
-23 -24 -79 -80 0
-17 -18 -19 -20 -47 -48 -49 -55 -56 -62 0
-17 -18 -19 -21 -47 -48 -50 -55 -57 -63 0
-17 -18 -19 -22 -47 -48 -51 -55 -58 -64 0
-17 -18 -19 -23 -47 -48 -52 -55 -59 -65 0
-17 -18 -19 -24 -47 -48 -53 -55 -60 -66 0
-17 -18 -20 -21 -47 -49 -50 -56 -57 -67 0
-17 -18 -20 -22 -47 -49 -51 -56 -58 -68 0
-17 -18 -20 -23 -47 -49 -52 -56 -59 -69 0
-17 -18 -20 -24 -47 -49 -53 -56 -60 -70 0
-17 -18 -21 -47 -50 -57 0
-17 -18 -21 -22 -47 -50 -51 -57 -58 -72 0
-17 -18 -21 -23 -47 -50 -52 -57 -59 -73 0
-17 -18 -21 -24 -47 -50 -53 -57 -60 -74 0
-17 -18 -47 0
-17 -18 -23 -47 -52 -59 0
-17 -18 -24 -47 -53 -60 0
-17 -18 -22 -23 -47 -51 -52 -58 -59 -77 0
-17 -18 -22 -24 -47 -51 -53 -58 -60 -78 0
-17 -18 -23 -24 -47 -52 -53 -59 -60 -80 0
-17 -19 -20 -21 -48 -49 -50 -62 -63 -67 0
-17 -19 -20 -22 -48 -49 -51 -62 -64 -68 0
-17 -19 -20 -23 -48 -49 -52 -62 -65 -69 0
-17 -19 -20 -24 -48 -49 -53 -62 -66 -70 0
-17 -19 -21 -22 -48 -50 -51 -63 -64 -72 0
-17 -19 -21 -23 -48 -50 -52 -63 -65 -73 0
-17 -19 -21 -24 -48 -50 -53 -63 -66 -74 0
-17 -19 -22 -48 -51 -64 -75 0
-17 -19 -22 -23 -48 -51 -52 -64 -65 -77 0
-17 -19 -22 -24 -48 -51 -53 -64 -66 -78 0
-17 -19 -23 -24 -48 -52 -53 -65 -66 -80 0
-17 -20 -21 -49 -50 -67 -71 0
-17 -20 -21 -22 -49 -50 -51 -67 -68 -72 0
-17 -20 -21 -23 -49 -50 -52 -67 -69 -73 0
-17 -20 -21 -24 -49 -50 -53 -67 -70 -74 0
-17 -20 -22 -23 -49 -51 -52 -68 -69 -77 0
-17 -20 -22 -24 -49 -51 -53 -68 -70 -78 0
-17 -20 -23 -24 -49 -52 -53 -69 -70 -80 0
-17 -21 -50 -71 0
-17 -21 -23 -50 -52 -73 0
-17 -21 -22 -23 -50 -51 -52 -72 -73 -77 0
-17 -21 -22 -24 -50 -51 -53 -72 -74 -78 0
-17 -21 -23 -24 -50 -52 -53 -73 -74 -80 0
-17 0
-17 -22 -23 -24 -51 -52 -53 -77 -78 -80 0
-18 -20 -22 -56 -58 -68 0
-18 -20 -24 -56 -60 -70 0
-18 -22 -58 0
-18 -22 -24 -58 -60 -78 0
-18 -24 -60 0
-18 -19 -20 -55 -56 -61 -62 0
-18 -19 -23 -55 -59 -61 -65 0
-18 -19 -24 -55 -60 -61 -66 0
-18 -20 -23 -56 -59 -69 0
-18 -20 -24 -56 -60 -70 0
-18 -23 -24 -59 -60 -80 0
-18 -19 -20 -21 -55 -56 -57 -62 -63 -67 0
-18 -19 -20 -22 -55 -56 -58 -62 -64 -68 0
-18 -19 -20 -23 -55 -56 -59 -62 -65 -69 0
-18 -19 -20 -24 -55 -56 -60 -62 -66 -70 0
-18 -19 -21 -22 -55 -57 -58 -63 -64 -72 0
-18 -19 -21 -23 -55 -57 -59 -63 -65 -73 0
-18 -19 -21 -24 -55 -57 -60 -63 -66 -74 0
-18 -19 -22 -55 -58 -64 0
-18 -19 -22 -23 -55 -58 -59 -64 -65 -77 0
-18 -19 -22 -24 -55 -58 -60 -64 -66 -78 0
-18 -19 -23 -55 -59 -65 -79 0
-18 -19 -24 -55 -60 -66 0
-18 -19 -23 -24 -55 -59 -60 -65 -66 -80 0
-18 -20 -21 -22 -56 -57 -58 -67 -68 -72 0
-18 -20 -21 -23 -56 -57 -59 -67 -69 -73 0
-18 -20 -21 -24 -56 -57 -60 -67 -70 -74 0
-18 -20 -22 -23 -56 -58 -59 -68 -69 -77 0
-18 -20 -22 -24 -56 -58 -60 -68 -70 -78 0
-18 -20 -23 -24 -56 -59 -60 -69 -70 -80 0
-18 -21 -23 -57 -59 -73 0
-18 -21 -22 -23 -57 -58 -59 -72 -73 -77 0
-18 -21 -22 -24 -57 -58 -60 -72 -74 -78 0
-18 -21 -23 -24 -57 -59 -60 -73 -74 -80 0
-18 -22 -23 -58 -59 -77 -79 0
-18 -22 -24 -58 -60 -78 0
-18 -22 -23 -24 -58 -59 -60 -77 -78 -80 0
-18 -23 -24 -59 -60 -79 -80 0
-22 0
-22 -75 0
-22 0
-22 -24 -78 0
-24 0
-20 -22 -24 -68 -70 -78 0
-22 -24 -78 0
-21 -22 -23 -72 -73 -77 0
-22 -24 -78 0
-19 -20 -23 -61 -62 -65 -69 0
-19 -20 -24 -61 -62 -66 -70 0
-19 -23 -24 -61 -65 -66 -80 0
-20 -23 -24 -69 -70 -80 0
-19 -20 -21 -22 -62 -63 -64 -67 -68 -72 0
-19 -20 -21 -23 -62 -63 -65 -67 -69 -73 0
-19 -20 -21 -24 -62 -63 -66 -67 -70 -74 0
-19 -20 -22 -23 -62 -64 -65 -68 -69 -77 0
-19 -20 -22 -24 -62 -64 -66 -68 -70 -78 0
-19 -20 -23 -24 -62 -65 -66 -69 -70 -80 0
-19 -21 -22 -23 -63 -64 -65 -72 -73 -77 0
-19 -21 -22 -24 -63 -64 -66 -72 -74 -78 0
-19 -21 -23 -24 -63 -65 -66 -73 -74 -80 0
-19 -22 -23 -64 -65 -77 -79 0
-19 -22 -24 -64 -66 -78 0
-19 -22 -23 -24 -64 -65 -66 -77 -78 -80 0
-19 -23 -24 -65 -66 -79 -80 0
-20 -21 -22 -23 -67 -68 -69 -72 -73 -77 0
-20 -21 -22 -24 -67 -68 -70 -72 -74 -78 0
-20 -21 -23 -24 -67 -69 -70 -73 -74 -80 0
-20 -22 -23 -24 -68 -69 -70 -77 -78 -80 0
-21 -22 -23 -24 -72 -73 -74 -77 -78 -80 0
-22 -23 -24 -77 -78 -79 -80 0
-30 -33 -64 0
-28 -32 -50 0
-28 -34 -52 0
-32 -34 -73 0
-28 -30 -48 0
-28 -34 -52 0
-28 -30 -48 0
-28 -33 -51 0
-28 -34 -52 0
-28 -30 -32 -48 -50 -63 0
-28 -30 -33 -48 -51 -64 0
-28 -30 -34 -48 -52 -65 0
-28 -32 -50 0
-28 -32 -33 -50 -51 -72 0
-28 -32 -34 -50 -52 -73 0
-28 -34 -52 0
-28 -33 -34 -51 -52 -77 0
-34 0
-30 -34 -65 0
-34 0
-32 -33 -72 0
-32 -34 -73 0
-33 -34 -77 0
-34 0
-34 0
-30 -33 -64 0
-30 -34 -65 0
-33 -34 -77 0
-30 -32 -33 -63 -64 -72 0
-30 -32 -34 -63 -65 -73 0
-30 -33 -34 -64 -65 -77 0
-32 -34 -73 0
-32 -33 -34 -72 -73 -77 0
-73 0
-73 0
-65 0
-63 -65 -73 0
-73 0
-64 0
-73 0
-72 0
-73 0
-77 0
-64 0
-65 0
-77 0
-63 -64 -72 0
-63 -65 -73 0
-64 -65 -77 0
-73 0
-72 -73 -77 0
-50 -52 -73 0
-48 -52 -65 0
-48 -51 -64 0
-48 -52 -65 0
-51 -52 -77 0
-48 -50 -51 -63 -64 -72 0
-48 -50 -52 -63 -65 -73 0
-48 -51 -52 -64 -65 -77 0
-50 -52 -73 0
-50 -51 -52 -72 -73 -77 0
-72 -73 -77 0
-64 -65 -77 0
-63 -64 -65 -72 -73 -77 0
-25 -26 -29 0
-25 -26 -29 0
-25 -26 -29 -31 -56 0
-25 -26 0
-25 -26 -31 0
-25 -35 0
-25 -31 0
-25 -35 0
-25 -31 -35 -70 0
-25 -29 0
-25 -29 -35 -60 0
-25 -29 -31 -56 0
-25 -29 0
-25 -29 -35 -60 0
-25 -29 -31 -35 -56 -60 -70 0
-25 0
-25 -35 0
-25 -31 -35 -70 0
-56 0
-56 0
-70 0
-70 0
-56 -60 -70 0
-56 -60 -70 0
-26 -27 -28 -36 -38 0
-26 -27 -29 -36 -39 0
-26 -27 -30 -36 -40 0
-26 -27 -31 -36 -41 0
-26 -27 -33 -36 -43 0
-26 -28 -29 -47 0
-26 -28 -30 -48 0
-26 -28 -31 -49 0
-26 -28 -33 -51 0
-26 -29 0
-26 -29 -30 -55 0
-26 -29 -31 -56 0
-26 -29 -33 -58 0
-26 -30 -61 0
-26 -31 0
-26 -30 -31 -62 0
-26 -30 -33 -64 0
-26 -31 -33 -68 0
-26 -27 -28 -38 -46 0
-26 -27 -29 -39 0
-26 -27 -30 -40 0
-26 -27 -33 -43 0
-26 -27 -34 -44 0
-26 -27 -28 -29 -38 -39 -47 0
-26 -27 -28 -38 0
-26 -27 -28 -30 -38 -40 -48 0
-26 -27 -28 -31 -38 -41 -49 0
-26 -27 -28 -38 0
-26 -27 -28 -33 -38 -43 -51 0
-26 -27 -28 -34 -38 -44 -52 0
-26 -27 -29 -30 -39 -40 -55 0
-26 -27 -29 -31 -39 -41 -56 0
-26 -27 -29 -33 -39 -43 -58 0
-26 -27 -29 -34 -39 -44 -59 0
-26 -27 -30 -40 0
-26 -27 -33 -43 0
-26 -27 -34 -44 0
-26 -27 -30 -31 -40 -41 -62 0
-26 -27 -30 -40 0
-26 -27 -30 -33 -40 -43 -64 0
-26 -27 -30 -34 -40 -44 -65 0
-26 -27 -31 -33 -41 -43 -68 0
-26 -27 -31 -34 -41 -44 -69 0
-26 -27 -33 -43 -75 0
-26 -27 -33 -34 -43 -44 -77 0
-26 -28 -29 -46 -47 0
-26 -28 -30 -46 -48 0
-26 -28 -33 -46 -51 0
-26 -28 -34 -46 -52 0
-26 -29 -30 -55 0
-26 -29 -33 -58 0
-26 -29 -34 -59 0
-26 -30 -33 -64 0
-26 -30 -34 -65 0
-26 -33 -34 -77 0
-26 -28 -29 -30 -47 -48 -55 0
-26 -28 -29 -31 -47 -49 -56 0
-26 -28 -29 -33 -47 -51 -58 0
-26 -28 -29 -34 -47 -52 -59 0
-26 -28 -30 -48 0
-26 -28 -33 -51 0
-26 -28 -34 -52 0
-26 -28 -30 -31 -48 -49 -62 0
-26 -28 -30 -48 0
-26 -28 -30 -33 -48 -51 -64 0
-26 -28 -30 -34 -48 -52 -65 0
-26 -28 -31 -33 -49 -51 -68 0
-26 -28 -31 -34 -49 -52 -69 0
-26 -28 -33 -51 -75 0
-26 -28 -33 -34 -51 -52 -77 0
-26 -29 -30 -55 -61 0
-26 -29 -31 -56 0
-26 -29 -34 -59 0
-26 -29 -30 -31 -55 -56 -62 0
-26 -29 -30 -33 -55 -58 -64 0
-26 -29 -30 -34 -55 -59 -65 0
-26 -29 -31 -33 -56 -58 -68 0
-26 -29 -31 -34 -56 -59 -69 0
-26 -29 -33 -34 -58 -59 -77 0
-26 -30 -61 0
-26 -34 0
-26 -30 -33 -64 0
-26 -30 -34 -65 0
-26 -33 -34 -77 0
-26 -30 -31 -61 -62 0
-26 -30 -34 -61 -65 0
-26 -31 -34 -69 0
-26 -30 -31 -33 -62 -64 -68 0
-26 -30 -31 -34 -62 -65 -69 0
-26 -30 -33 -64 -75 0
-26 -30 -33 -34 -64 -65 -77 0
-26 -31 -33 -34 -68 -69 -77 0
-27 -28 -29 -36 -38 -39 -47 0
-27 -28 -36 -38 0
-27 -28 -30 -36 -38 -40 -48 0
-27 -28 -31 -36 -38 -41 -49 0
-27 -28 -32 -36 -38 -42 -50 0
-27 -28 -33 -36 -38 -43 -51 0
-27 -28 -35 -36 -38 -45 -53 0
-27 -29 -36 -39 -54 0
-27 -29 -30 -36 -39 -40 -55 0
-27 -29 -31 -36 -39 -41 -56 0
-27 -29 -32 -36 -39 -42 -57 0
-27 -29 -33 -36 -39 -43 -58 0
-27 -29 -36 -39 0
-27 -29 -35 -36 -39 -45 -60 0
-27 -30 -36 -40 0
-27 -30 -31 -36 -40 -41 -62 0
-27 -30 -32 -36 -40 -42 -63 0
-27 -30 -33 -36 -40 -43 -64 0
-27 -30 -36 -40 0
-27 -30 -35 -36 -40 -45 -66 0
-27 -31 -32 -36 -41 -42 -67 0
-27 -31 -33 -36 -41 -43 -68 0
-27 -31 -35 -36 -41 -45 -70 0
-27 -32 -33 -36 -42 -43 -72 0
-27 -32 -35 -36 -42 -45 -74 0
-27 -33 -36 -43 0
-27 -33 -35 -36 -43 -45 -78 0
-27 -35 -36 -45 0
-28 -31 -49 0
-28 -32 -50 0
-28 -35 -53 0
-31 0
-35 0
-31 -32 -67 0
-31 -35 -70 0
-32 -35 -74 0
-35 0
-28 -29 -47 -54 0
-28 -29 -30 -47 -48 -55 0
-28 -29 -31 -47 -49 -56 0
-28 -29 -32 -47 -50 -57 0
-28 -29 -47 0
-28 -29 -33 -47 -51 -58 0
-28 -29 -35 -47 -53 -60 0
-28 -30 -48 0
-28 -30 -31 -48 -49 -62 0
-28 -30 -32 -48 -50 -63 0
-28 -30 -33 -48 -51 -64 0
-28 -30 -35 -48 -53 -66 0
-28 -31 -32 -49 -50 -67 0
-28 -31 -33 -49 -51 -68 0
-28 -31 -35 -49 -53 -70 0
-28 -32 -50 0
-28 -32 -33 -50 -51 -72 0
-28 -32 -35 -50 -53 -74 0
-28 -33 -35 -51 -53 -78 0
-29 -30 -54 -55 0
-29 -54 0
-29 -30 -55 -61 0
-29 -31 -56 0
-29 0
-29 -35 -60 0
-29 -30 -31 -55 -56 -62 0
-29 -30 -32 -55 -57 -63 0
-29 -30 -33 -55 -58 -64 0
-29 -30 -55 0
-29 -30 -35 -55 -60 -66 0
-29 -31 -32 -56 -57 -67 0
-29 -31 -33 -56 -58 -68 0
-29 -31 -35 -56 -60 -70 0
-29 -32 -57 0
-29 -32 -33 -57 -58 -72 0
-29 -32 -35 -57 -60 -74 0
-29 0
-29 -33 -58 0
-29 -33 -58 0
-29 -33 -35 -58 -60 -78 0
-29 -35 -60 0
-32 -33 -72 0
-30 -31 -61 -62 0
-30 -35 -61 -66 0
-31 -35 -70 0
-30 -31 -32 -62 -63 -67 0
-30 -31 -33 -62 -64 -68 0
-30 -31 -35 -62 -66 -70 0
-30 -32 -33 -63 -64 -72 0
-30 -32 -35 -63 -66 -74 0
-30 -33 -64 0
-30 -33 -35 -64 -66 -78 0
-30 -35 -66 0
-31 -32 -33 -67 -68 -72 0
-31 -32 -35 -67 -70 -74 0
-31 -33 -35 -68 -70 -78 0
-32 -33 -35 -72 -74 -78 0
-33 -35 -78 0
-27 -30 -31 -40 -41 -62 0
-27 -30 -40 0
-27 -30 -33 -40 -43 -64 0
-27 -30 -40 0
-27 -30 -35 -40 -45 -66 0
-27 -31 -33 -41 -43 -68 0
-27 -31 -35 -41 -45 -70 0
-27 -33 -43 -75 0
-27 -33 -43 0
-27 -33 -35 -43 -45 -78 0
-27 -35 -45 0
-27 -28 -29 -38 -39 -46 -47 0
-27 -28 -30 -38 -40 -46 -48 0
-27 -28 -32 -38 -42 -46 -50 0
-27 -28 -33 -38 -43 -46 -51 0
-27 -28 -34 -38 -44 -46 -52 0
-27 -28 -35 -38 -45 -46 -53 0
-27 -29 -30 -39 -40 -55 0
-27 -29 -32 -39 -42 -57 0
-27 -29 -33 -39 -43 -58 0
-27 -29 -39 0
-27 -29 -34 -39 -44 -59 0
-27 -29 -35 -39 -45 -60 0
-27 -30 -32 -40 -42 -63 0
-27 -30 -33 -40 -43 -64 0
-27 -30 -40 0
-27 -30 -34 -40 -44 -65 0
-27 -30 -35 -40 -45 -66 0
-27 -32 -33 -42 -43 -72 0
-27 -32 -34 -42 -44 -73 0
-27 -32 -35 -42 -45 -74 0
-27 -33 -43 0
-27 -33 -34 -43 -44 -77 0
-27 -33 -35 -43 -45 -78 0
-27 -34 -44 -79 0
-27 -35 -45 0
-27 -34 -35 -44 -45 -80 0
-27 -28 -29 -38 -39 -47 -54 0
-27 -28 -29 -30 -38 -39 -40 -47 -48 -55 0
-27 -28 -29 -31 -38 -39 -41 -47 -49 -56 0
-27 -28 -29 -32 -38 -39 -42 -47 -50 -57 0
-27 -28 -29 -33 -38 -39 -43 -47 -51 -58 0
-27 -28 -29 -34 -38 -39 -44 -47 -52 -59 0
-27 -28 -29 -35 -38 -39 -45 -47 -53 -60 0
-27 -28 -30 -38 -40 -48 0
-27 -28 -38 0
-27 -28 -34 -38 -44 -52 0
-27 -28 -30 -38 -40 -48 0
-27 -28 -33 -38 -43 -51 0
-27 -28 -34 -38 -44 -52 0
-27 -28 -35 -38 -45 -53 0
-27 -28 -30 -31 -38 -40 -41 -48 -49 -62 0
-27 -28 -30 -32 -38 -40 -42 -48 -50 -63 0
-27 -28 -30 -38 -40 -48 0
-27 -28 -30 -33 -38 -40 -43 -48 -51 -64 0
-27 -28 -30 -34 -38 -40 -44 -48 -52 -65 0
-27 -28 -30 -35 -38 -40 -45 -48 -53 -66 0
-27 -28 -31 -32 -38 -41 -42 -49 -50 -67 0
-27 -28 -31 -33 -38 -41 -43 -49 -51 -68 0
-27 -28 -31 -34 -38 -41 -44 -49 -52 -69 0
-27 -28 -31 -35 -38 -41 -45 -49 -53 -70 0
-27 -28 -32 -33 -38 -42 -43 -50 -51 -72 0
-27 -28 -32 -34 -38 -42 -44 -50 -52 -73 0
-27 -28 -32 -35 -38 -42 -45 -50 -53 -74 0
-27 -28 -33 -38 -43 -51 -75 0
-27 -28 -33 -34 -38 -43 -44 -51 -52 -77 0
-27 -28 -33 -35 -38 -43 -45 -51 -53 -78 0
-27 -28 -34 -35 -38 -44 -45 -52 -53 -80 0
-27 -29 -30 -39 -40 -54 -55 0
-27 -29 -34 -39 -44 -54 -59 0
-27 -29 -30 -31 -39 -40 -41 -55 -56 -62 0
-27 -29 -30 -32 -39 -40 -42 -55 -57 -63 0
-27 -29 -30 -33 -39 -40 -43 -55 -58 -64 0
-27 -29 -30 -39 -40 -55 0
-27 -29 -30 -34 -39 -40 -44 -55 -59 -65 0
-27 -29 -30 -35 -39 -40 -45 -55 -60 -66 0
-27 -29 -31 -32 -39 -41 -42 -56 -57 -67 0
-27 -29 -31 -33 -39 -41 -43 -56 -58 -68 0
-27 -29 -31 -34 -39 -41 -44 -56 -59 -69 0
-27 -29 -31 -35 -39 -41 -45 -56 -60 -70 0
-27 -29 -32 -33 -39 -42 -43 -57 -58 -72 0
-27 -29 -32 -34 -39 -42 -44 -57 -59 -73 0
-27 -29 -32 -35 -39 -42 -45 -57 -60 -74 0
-27 -29 -33 -39 -43 -58 0
-27 -29 -33 -34 -39 -43 -44 -58 -59 -77 0
-27 -29 -33 -35 -39 -43 -45 -58 -60 -78 0
-27 -29 -34 -39 -44 -59 -79 0
-27 -29 -35 -39 -45 -60 0
-27 -29 -34 -35 -39 -44 -45 -59 -60 -80 0
-27 -30 -40 0
-27 -30 -34 -40 -44 -65 0
-27 -30 -33 -40 -43 -64 0
-27 -30 -40 0
-27 -30 -34 -40 -44 -65 0
-27 -30 -35 -40 -45 -66 0
-27 -33 -43 0
-27 -33 -34 -43 -44 -77 0
-27 -33 -35 -43 -45 -78 0
-27 -34 -44 -79 0
-27 -35 -45 0
-27 -34 -35 -44 -45 -80 0
-27 -30 -31 -32 -40 -41 -42 -62 -63 -67 0
-27 -30 -31 -33 -40 -41 -43 -62 -64 -68 0
-27 -30 -31 -34 -40 -41 -44 -62 -65 -69 0
-27 -30 -31 -35 -40 -41 -45 -62 -66 -70 0
-27 -30 -32 -33 -40 -42 -43 -63 -64 -72 0
-27 -30 -32 -34 -40 -42 -44 -63 -65 -73 0
-27 -30 -32 -35 -40 -42 -45 -63 -66 -74 0
-27 -30 -33 -40 -43 -64 -75 0
-27 -30 -33 -40 -43 -64 0
-27 -30 -33 -34 -40 -43 -44 -64 -65 -77 0
-27 -30 -33 -35 -40 -43 -45 -64 -66 -78 0
-27 -30 -34 -40 -44 -65 -79 0
-27 -30 -35 -40 -45 -66 0
-27 -30 -34 -35 -40 -44 -45 -65 -66 -80 0
-27 -31 -32 -33 -41 -42 -43 -67 -68 -72 0
-27 -31 -32 -34 -41 -42 -44 -67 -69 -73 0
-27 -31 -32 -35 -41 -42 -45 -67 -70 -74 0
-27 -31 -33 -34 -41 -43 -44 -68 -69 -77 0
-27 -31 -33 -35 -41 -43 -45 -68 -70 -78 0
-27 -31 -34 -35 -41 -44 -45 -69 -70 -80 0
-27 -32 -33 -34 -42 -43 -44 -72 -73 -77 0
-27 -32 -33 -35 -42 -43 -45 -72 -74 -78 0
-27 -32 -34 -35 -42 -44 -45 -73 -74 -80 0
-27 -33 -34 -43 -44 -77 -79 0
-27 -33 -35 -43 -45 -78 0
-27 -33 -34 -35 -43 -44 -45 -77 -78 -80 0
-27 -34 -35 -44 -45 -79 -80 0
-28 -30 -48 0
-28 -34 -52 0
-28 -30 -32 -48 -50 -63 0
-28 -30 -48 0
-28 -30 -34 -48 -52 -65 0
-28 -32 -50 0
-28 -32 -34 -50 -52 -73 0
-28 -34 -52 0
-34 0
-34 0
-30 -34 -65 0
-30 -32 -34 -63 -65 -73 0
-32 -34 -73 0
-31 0
-35 0
-31 -35 -70 0
-35 0
-30 -31 -61 -62 0
-30 -35 -61 -66 0
-31 -35 -70 0
-30 -31 -33 -62 -64 -68 0
-30 -31 -35 -62 -66 -70 0
-30 -33 -64 -75 0
-30 -33 -64 0
-30 -33 -35 -64 -66 -78 0
-30 -35 -66 0
-31 -33 -35 -68 -70 -78 0
-33 -35 -78 0
-28 -32 -46 -50 0
-28 -34 -46 -52 0
-28 -35 -46 -53 0
-32 -34 -73 0
-32 -35 -74 0
-34 -79 0
-35 0
-34 -35 -80 0
-28 -31 -32 -49 -50 -67 0
-28 -31 -34 -49 -52 -69 0
-28 -31 -35 -49 -53 -70 0
-28 -32 -34 -50 -52 -73 0
-28 -32 -35 -50 -53 -74 0
-28 -34 -35 -52 -53 -80 0
-31 -34 -69 0
-31 -35 -70 0
-34 -35 -80 0
-31 -32 -34 -67 -69 -73 0
-31 -32 -35 -67 -70 -74 0
-31 -34 -35 -69 -70 -80 0
-32 -34 -35 -73 -74 -80 0
-34 -35 -79 -80 0
-28 -29 -30 -46 -47 -48 -55 0
-28 -29 -32 -46 -47 -50 -57 0
-28 -29 -46 -47 0
-28 -29 -33 -46 -47 -51 -58 0
-28 -29 -34 -46 -47 -52 -59 0
-28 -29 -35 -46 -47 -53 -60 0
-28 -30 -32 -46 -48 -50 -63 0
-28 -30 -33 -46 -48 -51 -64 0
-28 -30 -34 -46 -48 -52 -65 0
-28 -30 -35 -46 -48 -53 -66 0
-28 -32 -46 -50 0
-28 -32 -33 -46 -50 -51 -72 0
-28 -32 -34 -46 -50 -52 -73 0
-28 -32 -35 -46 -50 -53 -74 0
-28 -34 -46 -52 0
-28 -33 -34 -46 -51 -52 -77 0
-28 -33 -35 -46 -51 -53 -78 0
-28 -34 -35 -46 -52 -53 -80 0
-29 -30 -32 -55 -57 -63 0
-29 -30 -33 -55 -58 -64 0
-29 -30 -55 0
-29 -30 -34 -55 -59 -65 0
-29 -30 -35 -55 -60 -66 0
-29 -32 -57 0
-29 -32 -33 -57 -58 -72 0
-29 -32 -34 -57 -59 -73 0
-29 -32 -35 -57 -60 -74 0
-29 0
-29 -34 -59 0
-29 -33 -58 0
-29 -33 -58 0
-29 -33 -34 -58 -59 -77 0
-29 -33 -35 -58 -60 -78 0
-29 -34 -59 -79 0
-29 -35 -60 0
-29 -34 -35 -59 -60 -80 0
-34 0
-34 -79 0
-30 -32 -33 -63 -64 -72 0
-30 -32 -34 -63 -65 -73 0
-30 -32 -35 -63 -66 -74 0
-30 -33 -64 0
-30 -33 -34 -64 -65 -77 0
-30 -33 -35 -64 -66 -78 0
-30 -34 -65 -79 0
-30 -35 -66 0
-30 -34 -35 -65 -66 -80 0
-32 -34 -73 0
-32 -33 -34 -72 -73 -77 0
-32 -33 -35 -72 -74 -78 0
-32 -34 -35 -73 -74 -80 0
-33 -34 -77 -79 0
-33 -35 -78 0
-33 -34 -35 -77 -78 -80 0
-34 -35 -79 -80 0
-28 -29 -30 -47 -48 -54 -55 0
-28 -29 -34 -47 -52 -54 -59 0
-28 -29 -30 -31 -47 -48 -49 -55 -56 -62 0
-28 -29 -30 -32 -47 -48 -50 -55 -57 -63 0
-28 -29 -30 -33 -47 -48 -51 -55 -58 -64 0
-28 -29 -30 -34 -47 -48 -52 -55 -59 -65 0
-28 -29 -30 -35 -47 -48 -53 -55 -60 -66 0
-28 -29 -31 -32 -47 -49 -50 -56 -57 -67 0
-28 -29 -31 -33 -47 -49 -51 -56 -58 -68 0
-28 -29 -31 -34 -47 -49 -52 -56 -59 -69 0
-28 -29 -31 -35 -47 -49 -53 -56 -60 -70 0
-28 -29 -32 -47 -50 -57 0
-28 -29 -32 -33 -47 -50 -51 -57 -58 -72 0
-28 -29 -32 -34 -47 -50 -52 -57 -59 -73 0
-28 -29 -32 -35 -47 -50 -53 -57 -60 -74 0
-28 -29 -34 -47 -52 -59 0
-28 -29 -33 -34 -47 -51 -52 -58 -59 -77 0
-28 -29 -33 -35 -47 -51 -53 -58 -60 -78 0
-28 -29 -34 -35 -47 -52 -53 -59 -60 -80 0
-28 -30 -48 0
-28 -30 -34 -48 -52 -65 0
-28 -30 -33 -48 -51 -64 0
-28 -30 -34 -48 -52 -65 0
-28 -30 -35 -48 -53 -66 0
-28 -33 -34 -51 -52 -77 0
-28 -33 -35 -51 -53 -78 0
-28 -34 -35 -52 -53 -80 0
-28 -30 -31 -32 -48 -49 -50 -62 -63 -67 0
-28 -30 -31 -33 -48 -49 -51 -62 -64 -68 0
-28 -30 -31 -34 -48 -49 -52 -62 -65 -69 0
-28 -30 -31 -35 -48 -49 -53 -62 -66 -70 0
-28 -30 -32 -33 -48 -50 -51 -63 -64 -72 0
-28 -30 -32 -34 -48 -50 -52 -63 -65 -73 0
-28 -30 -32 -35 -48 -50 -53 -63 -66 -74 0
-28 -30 -33 -48 -51 -64 -75 0
-28 -30 -33 -34 -48 -51 -52 -64 -65 -77 0
-28 -30 -33 -35 -48 -51 -53 -64 -66 -78 0
-28 -30 -34 -35 -48 -52 -53 -65 -66 -80 0
-28 -31 -32 -33 -49 -50 -51 -67 -68 -72 0
-28 -31 -32 -34 -49 -50 -52 -67 -69 -73 0
-28 -31 -32 -35 -49 -50 -53 -67 -70 -74 0
-28 -31 -33 -34 -49 -51 -52 -68 -69 -77 0
-28 -31 -33 -35 -49 -51 -53 -68 -70 -78 0
-28 -31 -34 -35 -49 -52 -53 -69 -70 -80 0
-28 -32 -34 -50 -52 -73 0
-28 -32 -33 -34 -50 -51 -52 -72 -73 -77 0
-28 -32 -33 -35 -50 -51 -53 -72 -74 -78 0
-28 -32 -34 -35 -50 -52 -53 -73 -74 -80 0
-28 -33 -34 -35 -51 -52 -53 -77 -78 -80 0
-29 -30 -34 -54 -55 -59 -65 0
-29 -30 -31 -55 -56 -61 -62 0
-29 -30 -34 -55 -59 -61 -65 0
-29 -30 -35 -55 -60 -61 -66 0
-29 -31 -34 -56 -59 -69 0
-29 -31 -35 -56 -60 -70 0
-29 -34 -35 -59 -60 -80 0
-29 -30 -31 -32 -55 -56 -57 -62 -63 -67 0
-29 -30 -31 -33 -55 -56 -58 -62 -64 -68 0
-29 -30 -31 -34 -55 -56 -59 -62 -65 -69 0
-29 -30 -31 -35 -55 -56 -60 -62 -66 -70 0
-29 -30 -32 -33 -55 -57 -58 -63 -64 -72 0
-29 -30 -32 -34 -55 -57 -59 -63 -65 -73 0
-29 -30 -32 -35 -55 -57 -60 -63 -66 -74 0
-29 -30 -33 -55 -58 -64 0
-29 -30 -33 -34 -55 -58 -59 -64 -65 -77 0
-29 -30 -33 -35 -55 -58 -60 -64 -66 -78 0
-29 -30 -34 -55 -59 -65 -79 0
-29 -30 -35 -55 -60 -66 0
-29 -30 -34 -35 -55 -59 -60 -65 -66 -80 0
-29 -31 -32 -33 -56 -57 -58 -67 -68 -72 0
-29 -31 -32 -34 -56 -57 -59 -67 -69 -73 0
-29 -31 -32 -35 -56 -57 -60 -67 -70 -74 0
-29 -31 -33 -34 -56 -58 -59 -68 -69 -77 0
-29 -31 -33 -35 -56 -58 -60 -68 -70 -78 0
-29 -31 -34 -35 -56 -59 -60 -69 -70 -80 0
-29 -32 -34 -57 -59 -73 0
-29 -32 -33 -34 -57 -58 -59 -72 -73 -77 0
-29 -32 -33 -35 -57 -58 -60 -72 -74 -78 0
-29 -32 -34 -35 -57 -59 -60 -73 -74 -80 0
-29 -33 -34 -58 -59 -77 -79 0
-29 -33 -35 -58 -60 -78 0
-29 -33 -34 -35 -58 -59 -60 -77 -78 -80 0
-29 -34 -35 -59 -60 -79 -80 0
-32 -33 -34 -72 -73 -77 0
-34 0
-34 -79 0
-30 -34 -61 -65 0
-30 -35 -61 -66 0
-34 -35 -80 0
-30 -33 -64 0
-30 -33 -34 -64 -65 -77 0
-30 -33 -35 -64 -66 -78 0
-30 -34 -65 -79 0
-30 -35 -66 0
-30 -34 -35 -65 -66 -80 0
-33 -34 -77 -79 0
-33 -35 -78 0
-33 -34 -35 -77 -78 -80 0
-34 -35 -79 -80 0
-30 -31 -34 -61 -62 -65 -69 0
-30 -31 -35 -61 -62 -66 -70 0
-30 -34 -35 -61 -65 -66 -80 0
-31 -34 -35 -69 -70 -80 0
-30 -31 -32 -33 -62 -63 -64 -67 -68 -72 0
-30 -31 -32 -34 -62 -63 -65 -67 -69 -73 0
-30 -31 -32 -35 -62 -63 -66 -67 -70 -74 0
-30 -31 -33 -34 -62 -64 -65 -68 -69 -77 0
-30 -31 -33 -35 -62 -64 -66 -68 -70 -78 0
-30 -31 -34 -35 -62 -65 -66 -69 -70 -80 0
-30 -32 -33 -34 -63 -64 -65 -72 -73 -77 0
-30 -32 -33 -35 -63 -64 -66 -72 -74 -78 0
-30 -32 -34 -35 -63 -65 -66 -73 -74 -80 0
-30 -33 -34 -64 -65 -77 -79 0
-30 -33 -35 -64 -66 -78 0
-30 -33 -34 -35 -64 -65 -66 -77 -78 -80 0
-30 -34 -35 -65 -66 -79 -80 0
-31 -32 -33 -34 -67 -68 -69 -72 -73 -77 0
-31 -32 -33 -35 -67 -68 -70 -72 -74 -78 0
-31 -32 -34 -35 -67 -69 -70 -73 -74 -80 0
-31 -33 -34 -35 -68 -69 -70 -77 -78 -80 0
-32 -33 -34 -35 -72 -73 -74 -77 -78 -80 0
-33 -34 -35 -77 -78 -79 -80 0
-36 -38 -39 -47 0
-36 -38 -40 -48 0
-36 -38 -41 -49 0
-36 -38 -43 -51 0
-36 -38 0
-36 -39 -40 -55 0
-36 -39 -41 -56 0
-36 -39 -43 -58 0
-36 -40 -41 -62 0
-36 -40 -43 -64 0
-36 -41 -43 -68 0
-36 -43 -76 0
-47 -48 -55 0
-47 -49 -56 0
-47 -51 -58 0
-48 -49 -62 0
-48 -51 -64 0
-49 -51 -68 0
-51 -76 0
-55 -61 0
-56 0
-55 -56 -62 0
-55 -58 -64 0
-56 -58 -68 0
-61 -62 0
-62 -64 -68 0
-38 -39 -46 -47 0
-38 -40 -46 -48 0
-38 -46 0
-38 -43 -46 -51 0
-38 -44 -46 -52 0
-39 -40 -55 0
-39 -43 -58 0
-39 -44 -59 0
-40 -43 -64 0
-40 -44 -65 0
-43 -44 -77 0
-38 -39 -40 -47 -48 -55 0
-38 -39 -41 -47 -49 -56 0
-38 -39 -47 0
-38 -39 -43 -47 -51 -58 0
-38 -39 -44 -47 -52 -59 0
-38 -40 -48 0
-38 0
-38 -43 -51 0
-38 -44 -52 0
-38 -40 -41 -48 -49 -62 0
-38 -40 -48 0
-38 -40 -43 -48 -51 -64 0
-38 -40 -44 -48 -52 -65 0
-38 -41 -49 0
-38 -41 -43 -49 -51 -68 0
-38 -41 -44 -49 -52 -69 0
-38 0
-38 0
-38 -43 -51 -75 0
-38 0
-38 -43 -51 -76 0
-38 -43 -44 -51 -52 -77 0
-38 -44 -52 0
-39 -41 -56 0
-39 -43 -58 0
-39 -40 -41 -55 -56 -62 0
-39 -40 -43 -55 -58 -64 0
-39 -40 -44 -55 -59 -65 0
-39 -41 -43 -56 -58 -68 0
-39 -41 -44 -56 -59 -69 0
-39 -43 -44 -58 -59 -77 0
-43 0
-41 -43 -68 0
-43 -75 0
-43 0
-43 -76 0
-40 -43 -64 0
-40 -44 -65 0
-43 -44 -77 0
-40 -41 -43 -62 -64 -68 0
-40 -41 -44 -62 -65 -69 0
-40 -43 -64 -75 0
-40 -43 -44 -64 -65 -77 0
-41 -43 -44 -68 -69 -77 0
-43 -75 -76 0
-43 -44 -76 -77 0
-56 0
-56 -58 -68 0
-64 0
-65 0
-77 0
-64 0
-65 0
-77 0
-62 -64 -68 0
-62 -65 -69 0
-64 -65 -77 0
-68 -69 -77 0
-76 -77 0
-46 -47 -48 -55 0
-46 -47 -51 -58 0
-46 -47 -52 -59 0
-46 -48 -51 -64 0
-46 -48 -52 -65 0
-46 -51 -52 -77 0
-55 -58 -64 0
-55 -59 -65 0
-58 -59 -77 0
-64 -65 -77 0
-47 -48 -49 -55 -56 -62 0
-47 -48 -51 -55 -58 -64 0
-47 -48 -52 -55 -59 -65 0
-47 -49 -51 -56 -58 -68 0
-47 -49 -52 -56 -59 -69 0
-47 -51 -52 -58 -59 -77 0
-48 -51 -64 0
-48 -52 -65 0
-51 -52 -77 0
-48 -49 -51 -62 -64 -68 0
-48 -49 -52 -62 -65 -69 0
-48 -51 -64 -75 0
-48 -51 -52 -64 -65 -77 0
-49 -51 -52 -68 -69 -77 0
-51 -75 -76 0
-51 -52 -76 -77 0
-56 -58 -68 0
-55 -56 -61 -62 0
-55 -59 -61 -65 0
-56 -59 -69 0
-55 -56 -58 -62 -64 -68 0
-55 -56 -59 -62 -65 -69 0
-55 -58 -59 -64 -65 -77 0
-56 -58 -59 -68 -69 -77 0
-61 -65 0
-64 -65 -77 0
-61 -62 -65 -69 0
-62 -64 -65 -68 -69 -77 0
-36 -37 -38 0
-36 -37 -38 -41 -49 0
-36 -37 -38 -42 -50 0
-36 -37 -38 -43 -51 0
-36 -37 -38 -45 -53 0
-36 -37 -41 -42 -67 0
-36 -37 -41 -43 -68 0
-36 -37 -41 -45 -70 0
-36 -37 -42 -43 -72 0
-36 -37 -42 -45 -74 0
-36 -37 -43 0
-36 -37 -43 -45 -78 0
-36 -37 -45 0
-36 -38 -39 -47 -54 0
-36 -38 -39 -40 -47 -48 -55 0
-36 -38 -39 -41 -47 -49 -56 0
-36 -38 -39 -42 -47 -50 -57 0
-36 -38 -39 -43 -47 -51 -58 0
-36 -38 -39 -45 -47 -53 -60 0
-36 -38 -40 -48 0
-36 -38 0
-36 -38 -40 -41 -48 -49 -62 0
-36 -38 -40 -42 -48 -50 -63 0
-36 -38 -40 -43 -48 -51 -64 0
-36 -38 -40 -45 -48 -53 -66 0
-36 -38 -41 -42 -49 -50 -67 0
-36 -38 -41 -43 -49 -51 -68 0
-36 -38 -41 -45 -49 -53 -70 0
-36 -38 -42 -43 -50 -51 -72 0
-36 -38 -42 -50 0
-36 -38 -42 -45 -50 -53 -74 0
-36 -38 -43 -51 -76 0
-36 -38 -43 -45 -51 -53 -78 0
-36 -39 -40 -54 -55 0
-36 -39 -40 -41 -55 -56 -62 0
-36 -39 -40 -42 -55 -57 -63 0
-36 -39 -40 -43 -55 -58 -64 0
-36 -39 -40 -55 0
-36 -39 -40 -45 -55 -60 -66 0
-36 -39 -41 -42 -56 -57 -67 0
-36 -39 -41 -43 -56 -58 -68 0
-36 -39 -41 -45 -56 -60 -70 0
-36 -39 -42 -43 -57 -58 -72 0
-36 -39 -42 -45 -57 -60 -74 0
-36 -39 -43 -58 0
-36 -39 -43 -45 -58 -60 -78 0
-36 -39 -45 -60 0
-36 -40 -41 -42 -62 -63 -67 0
-36 -40 -41 -43 -62 -64 -68 0
-36 -40 -41 -45 -62 -66 -70 0
-36 -40 -42 -43 -63 -64 -72 0
-36 -40 -42 -45 -63 -66 -74 0
-36 -40 -43 -64 0
-36 -40 -43 -45 -64 -66 -78 0
-36 -40 -45 -66 0
-36 -41 -42 -43 -67 -68 -72 0
-36 -41 -42 -45 -67 -70 -74 0
-36 -41 -43 -45 -68 -70 -78 0
-36 -42 -43 -72 -76 0
-36 -42 -43 -45 -72 -74 -78 0
-36 -43 -45 -78 0
-49 -50 -67 0
-49 -51 -68 0
-49 -53 -70 0
-50 0
-50 -51 -72 0
-50 -53 -74 0
-51 -53 -78 0
-72 0
-70 0
-67 -68 -72 0
-67 -70 -74 0
-68 -70 -78 0
-72 -74 -78 0
-78 0
-63 -64 -72 0
-72 -76 0
-49 -50 -67 0
-49 -53 -70 0
-50 0
-50 -53 -74 0
-70 0
-67 -70 -74 0
-47 -48 -54 -55 0
-47 -48 -49 -55 -56 -62 0
-47 -48 -50 -55 -57 -63 0
-47 -48 -51 -55 -58 -64 0
-47 -48 -53 -55 -60 -66 0
-47 -49 -50 -56 -57 -67 0
-47 -49 -51 -56 -58 -68 0
-47 -49 -53 -56 -60 -70 0
-47 -50 -57 0
-47 -50 -51 -57 -58 -72 0
-47 -50 -53 -57 -60 -74 0
-47 -51 -53 -58 -60 -78 0
-48 -49 -50 -62 -63 -67 0
-48 -49 -51 -62 -64 -68 0
-48 -49 -53 -62 -66 -70 0
-48 -50 -51 -63 -64 -72 0
-48 -50 -53 -63 -66 -74 0
-48 -51 -53 -64 -66 -78 0
-49 -50 -51 -67 -68 -72 0
-49 -50 -53 -67 -70 -74 0
-49 -51 -53 -68 -70 -78 0
-50 -51 -72 -76 0
-50 -51 -53 -72 -74 -78 0
-55 -56 -61 -62 0
-55 -60 -61 -66 0
-56 -60 -70 0
-55 -56 -57 -62 -63 -67 0
-55 -56 -58 -62 -64 -68 0
-55 -56 -60 -62 -66 -70 0
-55 -57 -58 -63 -64 -72 0
-55 -57 -60 -63 -66 -74 0
-55 -58 -64 0
-55 -58 -60 -64 -66 -78 0
-55 -60 -66 0
-56 -57 -58 -67 -68 -72 0
-56 -57 -60 -67 -70 -74 0
-56 -58 -60 -68 -70 -78 0
-57 -58 -60 -72 -74 -78 0
-58 -60 -78 0
-72 -76 0
-61 -62 -66 -70 0
-62 -63 -64 -67 -68 -72 0
-62 -63 -66 -67 -70 -74 0
-62 -64 -66 -68 -70 -78 0
-63 -64 -66 -72 -74 -78 0
-64 -66 -78 0
-67 -68 -70 -72 -74 -78 0
-37 -45 0
-37 -42 -71 0
-37 -42 -44 -73 0
-37 -42 -45 -74 0
-37 -44 -45 -80 0
-37 -38 0
-37 -38 -44 -52 0
-37 -38 -41 -42 -49 -50 -67 0
-37 -38 -41 -49 0
-37 -38 -41 -43 -49 -51 -68 0
-37 -38 -41 -44 -49 -52 -69 0
-37 -38 -41 -45 -49 -53 -70 0
-37 -38 -42 -50 -71 0
-37 -38 -42 -43 -50 -51 -72 0
-37 -38 -42 -44 -50 -52 -73 0
-37 -38 -42 -45 -50 -53 -74 0
-37 -38 -43 -44 -51 -52 -77 0
-37 -38 -43 -45 -51 -53 -78 0
-37 -38 -44 -45 -52 -53 -80 0
-37 -41 -43 -68 0
-37 -41 -45 -70 0
-37 -43 0
-37 -43 -45 -78 0
-37 -45 0
-37 -41 -42 -67 -71 0
-37 -41 -42 -43 -67 -68 -72 0
-37 -41 -42 -44 -67 -69 -73 0
-37 -41 -42 -45 -67 -70 -74 0
-37 -41 -43 -44 -68 -69 -77 0
-37 -41 -43 -45 -68 -70 -78 0
-37 -41 -44 -45 -69 -70 -80 0
-37 -42 -43 -44 -72 -73 -77 0
-37 -42 -43 -45 -72 -74 -78 0
-37 -42 -44 -45 -73 -74 -80 0
-37 -43 -44 -77 -79 0
-37 -43 -45 -78 0
-37 -43 -44 -45 -77 -78 -80 0
-37 -44 -45 -79 -80 0
-39 -45 -60 0
-39 -40 -42 -55 -57 -63 0
-39 -40 -44 -55 -59 -65 0
-39 -40 -45 -55 -60 -66 0
-39 -42 -44 -57 -59 -73 0
-39 -42 -45 -57 -60 -74 0
-39 -45 -60 0
-39 -44 -45 -59 -60 -80 0
-45 0
-45 0
-40 -44 -65 0
-40 -45 -66 0
-45 0
-44 -45 -80 0
-40 -42 -44 -63 -65 -73 0
-40 -42 -45 -63 -66 -74 0
-40 -44 -45 -65 -66 -80 0
-42 -44 -73 0
-42 -44 -45 -73 -74 -80 0
-41 -43 -68 0
-41 -45 -70 0
-43 -75 0
-43 0
-43 -45 -78 0
-45 0
-40 -41 -43 -62 -64 -68 0
-40 -41 -45 -62 -66 -70 0
-40 -43 -64 -75 0
-40 -43 -64 0
-40 -43 -45 -64 -66 -78 0
-40 -45 -66 0
-41 -43 -45 -68 -70 -78 0
-43 -75 -76 0
-43 -45 -78 0
-38 -39 -40 -46 -47 -48 -55 0
-38 -39 -42 -46 -47 -50 -57 0
-38 -39 -43 -46 -47 -51 -58 0
-38 -39 -44 -46 -47 -52 -59 0
-38 -39 -45 -46 -47 -53 -60 0
-38 -40 -42 -46 -48 -50 -63 0
-38 -40 -43 -46 -48 -51 -64 0
-38 -40 -44 -46 -48 -52 -65 0
-38 -40 -45 -46 -48 -53 -66 0
-38 -42 -46 -50 -71 0
-38 -42 -43 -46 -50 -51 -72 0
-38 -42 -44 -46 -50 -52 -73 0
-38 -42 -45 -46 -50 -53 -74 0
-38 -43 -44 -46 -51 -52 -77 0
-38 -43 -45 -46 -51 -53 -78 0
-38 -44 -45 -46 -52 -53 -80 0
-39 -40 -42 -55 -57 -63 0
-39 -40 -43 -55 -58 -64 0
-39 -40 -55 0
-39 -40 -44 -55 -59 -65 0
-39 -40 -45 -55 -60 -66 0
-39 -42 -43 -57 -58 -72 0
-39 -42 -44 -57 -59 -73 0
-39 -42 -45 -57 -60 -74 0
-39 -43 -58 0
-39 -43 -44 -58 -59 -77 0
-39 -43 -45 -58 -60 -78 0
-39 -44 -59 -79 0
-39 -45 -60 0
-39 -44 -45 -59 -60 -80 0
-40 -42 -43 -63 -64 -72 0
-40 -42 -44 -63 -65 -73 0
-40 -42 -45 -63 -66 -74 0
-40 -43 -64 0
-40 -43 -44 -64 -65 -77 0
-40 -43 -45 -64 -66 -78 0
-40 -44 -65 -79 0
-40 -45 -66 0
-40 -44 -45 -65 -66 -80 0
-42 -43 -44 -72 -73 -77 0
-42 -43 -45 -72 -74 -78 0
-42 -44 -45 -73 -74 -80 0
-43 -44 -77 -79 0
-43 -45 -78 0
-43 -44 -45 -77 -78 -80 0
-44 -45 -79 -80 0
-38 -39 -40 -47 -48 -54 -55 0
-38 -39 -47 -54 0
-38 -39 -44 -47 -52 -54 -59 0
-38 -39 -40 -41 -47 -48 -49 -55 -56 -62 0
-38 -39 -40 -42 -47 -48 -50 -55 -57 -63 0
-38 -39 -40 -43 -47 -48 -51 -55 -58 -64 0
-38 -39 -40 -44 -47 -48 -52 -55 -59 -65 0
-38 -39 -40 -45 -47 -48 -53 -55 -60 -66 0
-38 -39 -41 -42 -47 -49 -50 -56 -57 -67 0
-38 -39 -41 -43 -47 -49 -51 -56 -58 -68 0
-38 -39 -41 -44 -47 -49 -52 -56 -59 -69 0
-38 -39 -41 -45 -47 -49 -53 -56 -60 -70 0
-38 -39 -42 -43 -47 -50 -51 -57 -58 -72 0
-38 -39 -42 -44 -47 -50 -52 -57 -59 -73 0
-38 -39 -42 -45 -47 -50 -53 -57 -60 -74 0
-38 -39 -45 -47 -53 -60 0
-38 -39 -43 -44 -47 -51 -52 -58 -59 -77 0
-38 -39 -43 -45 -47 -51 -53 -58 -60 -78 0
-38 -39 -44 -45 -47 -52 -53 -59 -60 -80 0
-38 -40 -48 0
-38 -40 -44 -48 -52 -65 0
-38 0
-38 0
-38 0
-38 -44 -52 0
-38 -40 -43 -48 -51 -64 0
-38 -40 -44 -48 -52 -65 0
-38 -40 -45 -48 -53 -66 0
-38 -45 -53 0
-38 -43 -44 -51 -52 -77 0
-38 -43 -45 -51 -53 -78 0
-38 -44 -45 -52 -53 -80 0
-38 -40 -41 -42 -48 -49 -50 -62 -63 -67 0
-38 -40 -41 -43 -48 -49 -51 -62 -64 -68 0
-38 -40 -41 -44 -48 -49 -52 -62 -65 -69 0
-38 -40 -41 -45 -48 -49 -53 -62 -66 -70 0
-38 -40 -42 -43 -48 -50 -51 -63 -64 -72 0
-38 -40 -42 -44 -48 -50 -52 -63 -65 -73 0
-38 -40 -42 -45 -48 -50 -53 -63 -66 -74 0
-38 -40 -43 -48 -51 -64 -75 0
-38 -40 -43 -44 -48 -51 -52 -64 -65 -77 0
-38 -40 -43 -45 -48 -51 -53 -64 -66 -78 0
-38 -40 -44 -45 -48 -52 -53 -65 -66 -80 0
-38 -41 -42 -49 -50 -67 -71 0
-38 -41 -42 -43 -49 -50 -51 -67 -68 -72 0
-38 -41 -42 -44 -49 -50 -52 -67 -69 -73 0
-38 -41 -42 -45 -49 -50 -53 -67 -70 -74 0
-38 -41 -43 -44 -49 -51 -52 -68 -69 -77 0
-38 -41 -43 -45 -49 -51 -53 -68 -70 -78 0
-38 -41 -44 -45 -49 -52 -53 -69 -70 -80 0
-38 -42 -43 -50 -51 -72 -76 0
-38 -42 -43 -44 -50 -51 -52 -72 -73 -77 0
-38 -42 -43 -45 -50 -51 -53 -72 -74 -78 0
-38 -42 -44 -50 -52 -73 0
-38 -42 -44 -45 -50 -52 -53 -73 -74 -80 0
-38 -43 -51 -75 -76 0
-38 -43 -44 -51 -52 -76 -77 0
-38 -43 -44 -45 -51 -52 -53 -77 -78 -80 0
-39 -40 -44 -54 -55 -59 -65 0
-39 -41 -43 -56 -58 -68 0
-39 -41 -45 -56 -60 -70 0
-39 -43 -58 0
-39 -43 -45 -58 -60 -78 0
-39 -45 -60 0
-39 -40 -41 -42 -55 -56 -57 -62 -63 -67 0
-39 -40 -41 -43 -55 -56 -58 -62 -64 -68 0
-39 -40 -41 -44 -55 -56 -59 -62 -65 -69 0
-39 -40 -41 -45 -55 -56 -60 -62 -66 -70 0
-39 -40 -42 -43 -55 -57 -58 -63 -64 -72 0
-39 -40 -42 -44 -55 -57 -59 -63 -65 -73 0
-39 -40 -42 -45 -55 -57 -60 -63 -66 -74 0
-39 -40 -43 -55 -58 -64 0
-39 -40 -43 -44 -55 -58 -59 -64 -65 -77 0
-39 -40 -43 -45 -55 -58 -60 -64 -66 -78 0
-39 -40 -44 -55 -59 -65 -79 0
-39 -40 -45 -55 -60 -66 0
-39 -40 -44 -45 -55 -59 -60 -65 -66 -80 0
-39 -41 -42 -43 -56 -57 -58 -67 -68 -72 0
-39 -41 -42 -44 -56 -57 -59 -67 -69 -73 0
-39 -41 -42 -45 -56 -57 -60 -67 -70 -74 0
-39 -41 -43 -44 -56 -58 -59 -68 -69 -77 0
-39 -41 -43 -45 -56 -58 -60 -68 -70 -78 0
-39 -41 -44 -45 -56 -59 -60 -69 -70 -80 0
-39 -42 -43 -44 -57 -58 -59 -72 -73 -77 0
-39 -42 -43 -45 -57 -58 -60 -72 -74 -78 0
-39 -42 -44 -45 -57 -59 -60 -73 -74 -80 0
-39 -43 -44 -58 -59 -77 -79 0
-39 -43 -45 -58 -60 -78 0
-39 -43 -44 -45 -58 -59 -60 -77 -78 -80 0
-39 -44 -45 -59 -60 -79 -80 0
-43 0
-43 -45 -78 0
-45 0
-41 -43 -45 -68 -70 -78 0
-43 -45 -78 0
-43 0
-43 -45 -78 0
-45 0
-43 -45 -78 0
-40 -43 -64 0
-40 -43 -44 -64 -65 -77 0
-40 -43 -45 -64 -66 -78 0
-40 -44 -65 -79 0
-40 -45 -66 0
-40 -44 -45 -65 -66 -80 0
-43 -44 -77 -79 0
-43 -45 -78 0
-43 -44 -45 -77 -78 -80 0
-44 -45 -79 -80 0
-40 -41 -42 -43 -62 -63 -64 -67 -68 -72 0
-40 -41 -42 -44 -62 -63 -65 -67 -69 -73 0
-40 -41 -42 -45 -62 -63 -66 -67 -70 -74 0
-40 -41 -43 -44 -62 -64 -65 -68 -69 -77 0
-40 -41 -43 -45 -62 -64 -66 -68 -70 -78 0
-40 -41 -44 -45 -62 -65 -66 -69 -70 -80 0
-40 -42 -43 -44 -63 -64 -65 -72 -73 -77 0
-40 -42 -43 -45 -63 -64 -66 -72 -74 -78 0
-40 -42 -44 -45 -63 -65 -66 -73 -74 -80 0
-40 -43 -44 -64 -65 -77 -79 0
-40 -43 -45 -64 -66 -78 0
-40 -43 -44 -45 -64 -65 -66 -77 -78 -80 0
-40 -44 -45 -65 -66 -79 -80 0
-41 -42 -43 -44 -67 -68 -69 -72 -73 -77 0
-41 -42 -43 -45 -67 -68 -70 -72 -74 -78 0
-41 -42 -44 -45 -67 -69 -70 -73 -74 -80 0
-41 -43 -44 -45 -68 -69 -70 -77 -78 -80 0
-42 -43 -44 -72 -73 -76 -77 0
-42 -43 -44 -45 -72 -73 -74 -77 -78 -80 0
-43 -44 -45 -77 -78 -79 -80 0
-73 0
-71 0
-73 0
-73 -74 -80 0
-70 0
-68 -70 -78 0
-78 0
-72 0
-73 0
-77 0
-67 -68 -72 0
-67 -69 -73 0
-68 -69 -77 0
-73 0
-72 -73 -77 0
-77 -79 0
-49 -50 -67 -71 0
-49 -50 -51 -67 -68 -72 0
-49 -50 -52 -67 -69 -73 0
-49 -50 -53 -67 -70 -74 0
-49 -51 -52 -68 -69 -77 0
-49 -51 -53 -68 -70 -78 0
-49 -52 -53 -69 -70 -80 0
-50 -71 0
-50 -52 -73 0
-50 -51 -52 -72 -73 -77 0
-50 -51 -53 -72 -74 -78 0
-50 -52 -53 -73 -74 -80 0
-51 -52 -53 -77 -78 -80 0
-68 -70 -78 0
-78 0
-72 -73 -77 0
-69 -70 -80 0
-67 -68 -69 -72 -73 -77 0
-67 -68 -70 -72 -74 -78 0
-67 -69 -70 -73 -74 -80 0
-68 -69 -70 -77 -78 -80 0
-72 -73 -74 -77 -78 -80 0
-77 -78 -79 -80 0
-65 0
-63 -65 -73 0
-73 0
-73 0
-73 0
-73 -74 -80 0
-55 -57 -59 -63 -65 -73 0
-55 -57 -60 -63 -66 -74 0
-55 -59 -60 -65 -66 -80 0
-57 -59 -73 0
-57 -59 -60 -73 -74 -80 0
-73 0
-65 -66 -80 0
-63 -65 -66 -73 -74 -80 0
-70 0
-68 -70 -78 0
-78 0
-78 0
-78 0
-65 0
-63 -65 -73 0
-73 0
-73 0
-48 -52 -65 0
-48 -50 -52 -63 -65 -73 0
-50 -52 -73 0
-50 -52 -73 0
-70 0
-68 -70 -78 0
-78 0
-56 -60 -70 0
-56 -58 -60 -68 -70 -78 0
-58 -60 -78 0
-78 0
-64 0
-76 0
-64 -75 0
-75 -76 0
-64 0
-65 0
-77 0
-63 -64 -72 0
-63 -65 -73 0
-64 -65 -77 0
-73 0
-72 -76 0
-72 -73 -77 0
-73 0
-76 -77 0
-61 -65 0
-64 -65 -77 0
-63 -64 -65 -72 -73 -77 0
-72 -73 -76 -77 0
-62 -64 -68 0
-64 0
-70 0
-68 -70 -78 0
-78 0
-61 -62 -66 -70 0
-62 -64 -66 -68 -70 -78 0
-64 -66 -78 0
-73 0
-79 0
-67 -69 -73 0
-73 0
-63 -64 -72 0
-63 -65 -73 0
-64 0
-64 -65 -77 0
-65 -79 0
-73 0
-72 -73 -77 0
-77 -79 0
-72 -76 0
-72 -73 -77 0
-73 0
-76 -77 0
-64 0
-64 -65 -77 0
-65 -79 0
-77 -79 0
-62 -63 -64 -67 -68 -72 0
-62 -63 -65 -67 -69 -73 0
-62 -64 -65 -68 -69 -77 0
-63 -64 -65 -72 -73 -77 0
-64 -65 -77 -79 0
-67 -68 -69 -72 -73 -77 0
-72 -73 -76 -77 0
-46 -50 -71 0
-46 -50 -52 -73 0
-46 -50 -53 -74 0
-46 -52 -53 -80 0
-73 -74 -80 0
-79 -80 0
-49 -50 -67 -71 0
-49 -50 -52 -67 -69 -73 0
-49 -50 -53 -67 -70 -74 0
-49 -52 -53 -69 -70 -80 0
-50 -52 -73 0
-50 -52 -53 -73 -74 -80 0
-69 -70 -80 0
-67 -69 -70 -73 -74 -80 0
-46 -47 -48 -50 -55 -57 -63 0
-46 -47 -48 -51 -55 -58 -64 0
-46 -47 -48 -52 -55 -59 -65 0
-46 -47 -48 -53 -55 -60 -66 0
-46 -47 -50 -57 0
-46 -47 -50 -51 -57 -58 -72 0
-46 -47 -50 -52 -57 -59 -73 0
-46 -47 -50 -53 -57 -60 -74 0
-46 -47 -52 -59 0
-46 -47 -51 -52 -58 -59 -77 0
-46 -47 -51 -53 -58 -60 -78 0
-46 -47 -52 -53 -59 -60 -80 0
-46 -48 -50 -51 -63 -64 -72 0
-46 -48 -50 -52 -63 -65 -73 0
-46 -48 -50 -53 -63 -66 -74 0
-46 -48 -51 -52 -64 -65 -77 0
-46 -48 -51 -53 -64 -66 -78 0
-46 -48 -52 -53 -65 -66 -80 0
-46 -50 -71 0
-46 -50 -52 -73 0
-46 -50 -51 -52 -72 -73 -77 0
-46 -50 -51 -53 -72 -74 -78 0
-46 -50 -52 -53 -73 -74 -80 0
-46 -51 -52 -53 -77 -78 -80 0
-55 -57 -58 -63 -64 -72 0
-55 -57 -59 -63 -65 -73 0
-55 -57 -60 -63 -66 -74 0
-55 -58 -64 0
-55 -58 -59 -64 -65 -77 0
-55 -58 -60 -64 -66 -78 0
-55 -59 -65 -79 0
-55 -60 -66 0
-55 -59 -60 -65 -66 -80 0
-57 -59 -73 0
-57 -58 -59 -72 -73 -77 0
-57 -58 -60 -72 -74 -78 0
-57 -59 -60 -73 -74 -80 0
-58 -59 -77 -79 0
-58 -60 -78 0
-58 -59 -60 -77 -78 -80 0
-59 -60 -79 -80 0
-63 -64 -65 -72 -73 -77 0
-63 -64 -66 -72 -74 -78 0
-63 -65 -66 -73 -74 -80 0
-64 -65 -77 -79 0
-64 -66 -78 0
-64 -65 -66 -77 -78 -80 0
-65 -66 -79 -80 0
-72 -73 -74 -77 -78 -80 0
-77 -78 -79 -80 0
-47 -48 -52 -54 -55 -59 -65 0
-47 -48 -49 -50 -55 -56 -57 -62 -63 -67 0
-47 -48 -49 -51 -55 -56 -58 -62 -64 -68 0
-47 -48 -49 -52 -55 -56 -59 -62 -65 -69 0
-47 -48 -49 -53 -55 -56 -60 -62 -66 -70 0
-47 -48 -50 -51 -55 -57 -58 -63 -64 -72 0
-47 -48 -50 -52 -55 -57 -59 -63 -65 -73 0
-47 -48 -50 -53 -55 -57 -60 -63 -66 -74 0
-47 -48 -51 -52 -55 -58 -59 -64 -65 -77 0
-47 -48 -51 -53 -55 -58 -60 -64 -66 -78 0
-47 -48 -52 -53 -55 -59 -60 -65 -66 -80 0
-47 -49 -50 -51 -56 -57 -58 -67 -68 -72 0
-47 -49 -50 -52 -56 -57 -59 -67 -69 -73 0
-47 -49 -50 -53 -56 -57 -60 -67 -70 -74 0
-47 -49 -51 -52 -56 -58 -59 -68 -69 -77 0
-47 -49 -51 -53 -56 -58 -60 -68 -70 -78 0
-47 -49 -52 -53 -56 -59 -60 -69 -70 -80 0
-47 -50 -52 -57 -59 -73 0
-47 -50 -51 -52 -57 -58 -59 -72 -73 -77 0
-47 -50 -51 -53 -57 -58 -60 -72 -74 -78 0
-47 -50 -52 -53 -57 -59 -60 -73 -74 -80 0
-47 -51 -52 -53 -58 -59 -60 -77 -78 -80 0
-48 -51 -52 -64 -65 -77 0
-48 -51 -53 -64 -66 -78 0
-48 -52 -53 -65 -66 -80 0
-51 -52 -53 -77 -78 -80 0
-48 -49 -50 -51 -62 -63 -64 -67 -68 -72 0
-48 -49 -50 -52 -62 -63 -65 -67 -69 -73 0
-48 -49 -50 -53 -62 -63 -66 -67 -70 -74 0
-48 -49 -51 -52 -62 -64 -65 -68 -69 -77 0
-48 -49 -51 -53 -62 -64 -66 -68 -70 -78 0
-48 -49 -52 -53 -62 -65 -66 -69 -70 -80 0
-48 -50 -51 -52 -63 -64 -65 -72 -73 -77 0
-48 -50 -51 -53 -63 -64 -66 -72 -74 -78 0
-48 -50 -52 -53 -63 -65 -66 -73 -74 -80 0
-48 -51 -52 -53 -64 -65 -66 -77 -78 -80 0
-49 -50 -51 -52 -67 -68 -69 -72 -73 -77 0
-49 -50 -51 -53 -67 -68 -70 -72 -74 -78 0
-49 -50 -52 -53 -67 -69 -70 -73 -74 -80 0
-49 -51 -52 -53 -68 -69 -70 -77 -78 -80 0
-50 -51 -52 -72 -73 -76 -77 0
-50 -51 -52 -53 -72 -73 -74 -77 -78 -80 0
-56 -58 -60 -68 -70 -78 0
-58 -60 -78 0
-55 -56 -59 -61 -62 -65 -69 0
-55 -56 -60 -61 -62 -66 -70 0
-55 -59 -60 -61 -65 -66 -80 0
-56 -59 -60 -69 -70 -80 0
-55 -56 -57 -58 -62 -63 -64 -67 -68 -72 0
-55 -56 -57 -59 -62 -63 -65 -67 -69 -73 0
-55 -56 -57 -60 -62 -63 -66 -67 -70 -74 0
-55 -56 -58 -59 -62 -64 -65 -68 -69 -77 0
-55 -56 -58 -60 -62 -64 -66 -68 -70 -78 0
-55 -56 -59 -60 -62 -65 -66 -69 -70 -80 0
-55 -57 -58 -59 -63 -64 -65 -72 -73 -77 0
-55 -57 -58 -60 -63 -64 -66 -72 -74 -78 0
-55 -57 -59 -60 -63 -65 -66 -73 -74 -80 0
-55 -58 -59 -64 -65 -77 -79 0
-55 -58 -60 -64 -66 -78 0
-55 -58 -59 -60 -64 -65 -66 -77 -78 -80 0
-55 -59 -60 -65 -66 -79 -80 0
-56 -57 -58 -59 -67 -68 -69 -72 -73 -77 0
-56 -57 -58 -60 -67 -68 -70 -72 -74 -78 0
-56 -57 -59 -60 -67 -69 -70 -73 -74 -80 0
-56 -58 -59 -60 -68 -69 -70 -77 -78 -80 0
-57 -58 -59 -60 -72 -73 -74 -77 -78 -80 0
-58 -59 -60 -77 -78 -79 -80 0
-78 0
-72 -73 -76 -77 0
-78 0
-61 -65 -66 -80 0
-64 -65 -77 -79 0
-64 -66 -78 0
-64 -65 -66 -77 -78 -80 0
-65 -66 -79 -80 0
-77 -78 -79 -80 0
-61 -62 -65 -66 -69 -70 -80 0
-62 -63 -64 -65 -67 -68 -69 -72 -73 -77 0
-62 -63 -64 -66 -67 -68 -70 -72 -74 -78 0
-62 -63 -65 -66 -67 -69 -70 -73 -74 -80 0
-62 -64 -65 -66 -68 -69 -70 -77 -78 -80 0
-63 -64 -65 -66 -72 -73 -74 -77 -78 -80 0
-64 -65 -66 -77 -78 -79 -80 0
-67 -68 -69 -70 -72 -73 -74 -77 -78 -80 0
3 10 21 0
1 3 13 24 0
3 10 11 21 22 72 0
1 3 10 13 21 24 74 0
1 3 11 13 22 24 78 0
10 11 72 0
10 0
10 0
1 10 13 74 0
10 11 72 0
10 0
10 11 72 75 0
10 0
1 10 13 74 0
1 10 11 13 72 74 78 0
1 11 13 75 78 0
1 14 24 0
1 14 24 0
1 21 24 74 0
1 21 22 24 72 74 78 0
1 22 24 76 78 0
1 72 74 75 78 0
1 75 78 0
1 76 78 0
14 16 36 0
15 16 22 27 33 43 0
15 16 23 27 34 44 0
15 22 33 0
15 22 33 76 0
15 22 23 33 34 77 0
16 23 36 44 0
16 23 44 0
16 22 23 43 44 77 0
36 0
25 27 33 43 0
25 27 34 44 0
25 33 0
25 33 34 77 0
36 44 0
43 44 77 0
27 33 34 43 44 77 0
33 76 0
33 34 77 0
33 76 0
33 34 77 0
2 4 5 25 27 0
2 4 25 0
2 4 6 25 28 0
2 4 8 25 30 0
2 4 12 25 34 0
2 5 37 0
2 5 6 38 0
2 5 8 40 0
2 5 12 44 0
2 8 0
2 6 8 48 0
2 6 0
2 6 12 52 0
2 8 12 65 0
2 12 79 0
2 4 26 0
2 4 13 26 35 0
2 4 5 27 37 0
2 4 5 6 27 28 38 0
2 4 5 8 27 30 40 0
2 4 5 12 27 34 44 0
2 4 5 13 27 35 45 0
2 4 8 30 0
2 4 6 8 28 30 48 0
2 4 6 12 28 34 52 0
2 4 6 13 28 35 53 0
2 4 8 12 30 34 65 0
2 4 8 13 30 35 66 0
2 4 12 13 34 35 80 0
2 5 8 37 40 0
2 5 6 8 38 40 48 0
2 5 6 12 38 44 52 0
2 5 6 13 38 45 53 0
2 5 8 12 40 44 65 0
2 5 8 13 40 45 66 0
2 5 12 13 44 45 80 0
2 6 8 12 48 52 65 0
2 6 8 13 48 53 66 0
2 6 12 52 79 0
2 6 12 13 52 53 80 0
2 8 12 13 65 66 80 0
2 12 79 0
2 12 13 80 0
37 0
25 27 37 0
25 27 28 38 0
25 27 30 40 0
25 27 34 44 0
25 30 0
25 28 30 48 0
25 28 34 52 0
25 30 34 65 0
37 40 0
38 40 48 0
38 44 52 0
40 0
40 44 65 0
52 0
48 52 65 0
52 79 0
27 30 37 40 0
27 28 38 0
27 30 40 0
27 34 44 0
27 28 30 38 40 48 0
27 28 34 38 44 52 0
27 28 35 38 45 53 0
27 30 34 40 44 65 0
27 30 35 40 45 66 0
27 34 35 44 45 80 0
30 0
30 0
28 30 48 0
28 34 52 0
30 0
30 34 65 0
28 30 48 0
28 34 52 0
28 30 34 48 52 65 0
28 30 35 48 53 66 0
28 34 35 52 53 80 0
30 34 65 0
30 35 66 0
30 34 35 65 66 80 0
37 40 0
40 0
38 40 48 0
38 44 52 0
40 44 65 0
40 0
40 0
38 40 48 0
38 40 44 48 52 65 0
38 40 45 48 53 66 0
38 44 52 0
38 45 53 0
38 44 45 52 53 80 0
40 45 66 0
40 44 65 0
40 45 66 0
40 44 45 65 66 80 0
44 45 80 0
52 0
48 52 65 0
52 0
52 0
48 52 65 0
48 52 65 0
48 53 66 0
48 52 53 65 66 80 0
52 79 0
52 53 80 0
66 0
66 0
65 66 80 0
3 4 15 26 0
3 4 10 15 21 26 32 0
3 4 13 15 24 26 35 0
3 4 5 6 15 16 17 27 28 38 0
3 4 5 7 15 16 18 27 29 39 0
3 4 5 8 15 16 19 27 30 40 0
3 4 5 9 15 16 20 27 31 41 0
3 4 5 10 15 16 21 27 32 42 0
3 4 5 11 15 16 22 27 33 43 0
3 4 5 12 15 16 23 27 34 44 0
3 4 5 13 15 16 24 27 35 45 0
3 4 6 15 17 28 0
3 4 9 15 20 31 0
3 4 11 15 22 33 0
3 4 6 7 15 17 18 28 29 47 0
3 4 6 8 15 17 19 28 30 48 0
3 4 6 9 15 17 20 28 31 49 0
3 4 6 10 15 17 21 28 32 50 0
3 4 6 11 15 17 22 28 33 51 0
3 4 6 12 15 17 23 28 34 52 0
3 4 6 13 15 17 24 28 35 53 0
3 4 7 8 15 18 19 29 30 55 0
3 4 7 9 15 18 20 29 31 56 0
3 4 7 10 15 18 21 29 32 57 0
3 4 7 11 15 18 22 29 33 58 0
3 4 7 12 15 18 23 29 34 59 0
3 4 7 13 15 18 24 29 35 60 0
3 4 8 9 15 19 20 30 31 62 0
3 4 8 10 15 19 21 30 32 63 0
3 4 8 11 15 19 22 30 33 64 0
3 4 8 12 15 19 23 30 34 65 0
3 4 8 13 15 19 24 30 35 66 0
3 4 9 10 15 20 21 31 32 67 0
3 4 9 11 15 20 22 31 33 68 0
3 4 9 12 15 20 23 31 34 69 0
3 4 9 13 15 20 24 31 35 70 0
3 4 10 11 15 21 22 32 33 72 0
3 4 10 12 15 21 23 32 34 73 0
3 4 10 13 15 21 24 32 35 74 0
3 4 11 12 15 22 23 33 34 77 0
3 4 11 13 15 22 24 33 35 78 0
3 4 12 13 15 23 24 34 35 80 0
3 10 13 21 24 74 0
3 5 12 16 23 36 44 0
3 5 6 7 16 17 18 38 39 47 0
3 5 6 8 16 17 19 38 40 48 0
3 5 6 9 16 17 20 38 41 49 0
3 5 6 10 16 17 21 38 42 50 0
3 5 6 11 16 17 22 38 43 51 0
3 5 6 12 16 17 23 38 44 52 0
3 5 6 13 16 17 24 38 45 53 0
3 5 7 8 16 18 19 39 40 55 0
3 5 7 9 16 18 20 39 41 56 0
3 5 7 10 16 18 21 39 42 57 0
3 5 7 11 16 18 22 39 43 58 0
3 5 7 12 16 18 23 39 44 59 0
3 5 7 13 16 18 24 39 45 60 0
3 5 8 9 16 19 20 40 41 62 0
3 5 8 10 16 19 21 40 42 63 0
3 5 8 11 16 19 22 40 43 64 0
3 5 8 12 16 19 23 40 44 65 0
3 5 8 13 16 19 24 40 45 66 0
3 5 9 10 16 20 21 41 42 67 0
3 5 9 11 16 20 22 41 43 68 0
3 5 9 12 16 20 23 41 44 69 0
3 5 9 13 16 20 24 41 45 70 0
3 5 10 11 16 21 22 42 43 72 0
3 5 10 12 16 21 23 42 44 73 0
3 5 10 13 16 21 24 42 45 74 0
3 5 11 12 16 22 23 43 44 77 0
3 5 11 13 16 22 24 43 45 78 0
3 5 12 13 16 23 24 44 45 80 0
3 6 9 17 20 49 0
3 6 11 17 22 51 0
3 9 11 20 22 68 0
3 6 7 8 17 18 19 47 48 55 0
3 6 7 9 17 18 20 47 49 56 0
3 6 7 10 17 18 21 47 50 57 0
3 6 7 11 17 18 22 47 51 58 0
3 6 7 12 17 18 23 47 52 59 0
3 6 7 13 17 18 24 47 53 60 0
3 6 8 9 17 19 20 48 49 62 0
3 6 8 10 17 19 21 48 50 63 0
3 6 8 11 17 19 22 48 51 64 0
3 6 8 12 17 19 23 48 52 65 0
3 6 8 13 17 19 24 48 53 66 0
3 6 9 10 17 20 21 49 50 67 0
3 6 9 11 17 20 22 49 51 68 0
3 6 9 12 17 20 23 49 52 69 0
3 6 9 13 17 20 24 49 53 70 0
3 6 10 11 17 21 22 50 51 72 0
3 6 10 12 17 21 23 50 52 73 0
3 6 10 13 17 21 24 50 53 74 0
3 6 11 12 17 22 23 51 52 77 0
3 6 11 13 17 22 24 51 53 78 0
3 6 12 13 17 23 24 52 53 80 0
3 7 8 9 18 19 20 55 56 62 0
3 7 8 10 18 19 21 55 57 63 0
3 7 8 11 18 19 22 55 58 64 0
3 7 8 12 18 19 23 55 59 65 0
3 7 8 13 18 19 24 55 60 66 0
3 7 9 10 18 20 21 56 57 67 0
3 7 9 11 18 20 22 56 58 68 0
3 7 9 12 18 20 23 56 59 69 0
3 7 9 13 18 20 24 56 60 70 0
3 7 10 11 18 21 22 57 58 72 0
3 7 10 12 18 21 23 57 59 73 0
3 7 10 13 18 21 24 57 60 74 0
3 7 11 12 18 22 23 58 59 77 0
3 7 11 13 18 22 24 58 60 78 0
3 7 12 13 18 23 24 59 60 80 0
3 8 9 10 19 20 21 62 63 67 0
3 8 9 11 19 20 22 62 64 68 0
3 8 9 12 19 20 23 62 65 69 0
3 8 9 13 19 20 24 62 66 70 0
3 8 10 11 19 21 22 63 64 72 0
3 8 10 12 19 21 23 63 65 73 0
3 8 10 13 19 21 24 63 66 74 0
3 8 11 12 19 22 23 64 65 77 0
3 8 11 13 19 22 24 64 66 78 0
3 8 12 13 19 23 24 65 66 80 0
3 9 10 11 20 21 22 67 68 72 0
3 9 10 12 20 21 23 67 69 73 0
3 9 10 13 20 21 24 67 70 74 0
3 9 11 12 20 22 23 68 69 77 0
3 9 11 13 20 22 24 68 70 78 0
3 9 12 13 20 23 24 69 70 80 0
3 10 11 12 21 22 23 72 73 77 0
3 10 11 13 21 22 24 72 74 78 0
3 10 12 13 21 23 24 73 74 80 0
3 11 12 13 22 23 24 77 78 80 0
4 5 25 27 37 0
4 5 6 25 27 28 38 0
4 5 8 25 27 30 40 0
4 5 10 25 27 32 42 0
4 5 11 25 27 33 43 0
4 5 12 25 27 34 44 0
4 8 25 30 0
4 6 25 28 0
4 11 25 33 0
4 6 8 25 28 30 48 0
4 6 10 25 28 32 50 0
4 6 11 25 28 33 51 0
4 6 12 25 28 34 52 0
4 8 10 25 30 32 63 0
4 8 11 25 30 33 64 0
4 8 12 25 30 34 65 0
4 10 11 25 32 33 72 0
4 10 12 25 32 34 73 0
4 11 12 25 33 34 77 0
5 36 0
5 12 36 44 0
5 37 0
5 8 37 40 0
5 11 43 0
5 6 8 38 40 48 0
5 6 10 38 42 50 0
5 6 11 38 43 51 0
5 6 12 38 44 52 0
5 8 10 40 42 63 0
5 8 11 40 43 64 0
5 8 12 40 44 65 0
5 10 11 42 43 72 0
5 10 12 42 44 73 0
5 11 12 43 44 77 0
6 11 51 0
6 0
6 8 10 48 50 63 0
6 8 11 48 51 64 0
6 8 12 48 52 65 0
6 10 11 50 51 72 0
6 10 50 0
6 10 12 50 52 73 0
6 11 12 51 52 77 0
6 12 52 79 0
8 10 11 63 64 72 0
8 10 12 63 65 73 0
8 11 12 64 65 77 0
10 11 12 72 73 77 0
10 12 73 79 0
4 10 13 26 32 35 74 0
4 5 7 27 29 37 39 0
4 5 8 27 30 37 40 0
4 5 6 27 28 38 0
4 5 7 27 29 39 0
4 5 13 27 35 45 0
4 5 6 7 27 28 29 38 39 47 0
4 5 6 8 27 28 30 38 40 48 0
4 5 6 9 27 28 31 38 41 49 0
4 5 6 10 27 28 32 38 42 50 0
4 5 6 11 27 28 33 38 43 51 0
4 5 6 12 27 28 34 38 44 52 0
4 5 6 13 27 28 35 38 45 53 0
4 5 7 8 27 29 30 39 40 55 0
4 5 7 9 27 29 31 39 41 56 0
4 5 7 10 27 29 32 39 42 57 0
4 5 7 11 27 29 33 39 43 58 0
4 5 7 12 27 29 34 39 44 59 0
4 5 7 13 27 29 35 39 45 60 0
4 5 8 9 27 30 31 40 41 62 0
4 5 8 10 27 30 32 40 42 63 0
4 5 8 11 27 30 33 40 43 64 0
4 5 8 12 27 30 34 40 44 65 0
4 5 8 13 27 30 35 40 45 66 0
4 5 9 10 27 31 32 41 42 67 0
4 5 9 11 27 31 33 41 43 68 0
4 5 9 12 27 31 34 41 44 69 0
4 5 9 13 27 31 35 41 45 70 0
4 5 10 11 27 32 33 42 43 72 0
4 5 10 12 27 32 34 42 44 73 0
4 5 10 13 27 32 35 42 45 74 0
4 5 11 12 27 33 34 43 44 77 0
4 5 11 13 27 33 35 43 45 78 0
4 5 12 13 27 34 35 44 45 80 0
4 7 8 29 30 55 0
4 8 30 0
4 6 28 0
4 6 9 28 31 49 0
4 6 11 28 33 51 0
4 9 11 31 33 68 0
4 6 7 28 29 47 0
4 6 13 28 35 53 0
4 7 13 29 35 60 0
4 6 7 8 28 29 30 47 48 55 0
4 6 7 9 28 29 31 47 49 56 0
4 6 7 10 28 29 32 47 50 57 0
4 6 7 11 28 29 33 47 51 58 0
4 6 7 12 28 29 34 47 52 59 0
4 6 7 13 28 29 35 47 53 60 0
4 6 8 9 28 30 31 48 49 62 0
4 6 8 10 28 30 32 48 50 63 0
4 6 8 11 28 30 33 48 51 64 0
4 6 8 12 28 30 34 48 52 65 0
4 6 8 13 28 30 35 48 53 66 0
4 6 9 10 28 31 32 49 50 67 0
4 6 9 11 28 31 33 49 51 68 0
4 6 9 12 28 31 34 49 52 69 0
4 6 9 13 28 31 35 49 53 70 0
4 6 10 11 28 32 33 50 51 72 0
4 6 10 12 28 32 34 50 52 73 0
4 6 10 13 28 32 35 50 53 74 0
4 6 11 12 28 33 34 51 52 77 0
4 6 11 13 28 33 35 51 53 78 0
4 6 12 13 28 34 35 52 53 80 0
4 7 8 9 29 30 31 55 56 62 0
4 7 8 10 29 30 32 55 57 63 0
4 7 8 11 29 30 33 55 58 64 0
4 7 8 12 29 30 34 55 59 65 0
4 7 8 13 29 30 35 55 60 66 0
4 7 9 10 29 31 32 56 57 67 0
4 7 9 11 29 31 33 56 58 68 0
4 7 9 12 29 31 34 56 59 69 0
4 7 9 13 29 31 35 56 60 70 0
4 7 10 11 29 32 33 57 58 72 0
4 7 10 12 29 32 34 57 59 73 0
4 7 10 13 29 32 35 57 60 74 0
4 7 11 12 29 33 34 58 59 77 0
4 7 11 13 29 33 35 58 60 78 0
4 7 12 13 29 34 35 59 60 80 0
4 8 9 10 30 31 32 62 63 67 0
4 8 9 30 31 62 0
4 8 9 11 30 31 33 62 64 68 0
4 8 9 12 30 31 34 62 65 69 0
4 8 9 13 30 31 35 62 66 70 0
4 8 10 30 32 63 0
4 8 10 11 30 32 33 63 64 72 0
4 8 10 12 30 32 34 63 65 73 0
4 8 10 13 30 32 35 63 66 74 0
4 8 11 30 33 64 0
4 8 12 30 34 65 0
4 8 11 12 30 33 34 64 65 77 0
4 8 11 13 30 33 35 64 66 78 0
4 8 12 13 30 34 35 65 66 80 0
4 9 10 31 32 67 0
4 9 10 11 31 32 33 67 68 72 0
4 9 10 12 31 32 34 67 69 73 0
4 9 10 13 31 32 35 67 70 74 0
4 9 11 31 33 68 0
4 9 12 31 34 69 0
4 9 11 12 31 33 34 68 69 77 0
4 9 11 13 31 33 35 68 70 78 0
4 9 12 13 31 34 35 69 70 80 0
4 10 11 32 33 72 0
4 10 12 32 34 73 0
4 10 11 12 32 33 34 72 73 77 0
4 10 11 13 32 33 35 72 74 78 0
4 10 12 13 32 34 35 73 74 80 0
4 11 12 33 34 77 0
4 11 12 13 33 34 35 77 78 80 0
10 13 74 0
5 36 0
5 7 37 39 0
5 7 8 37 39 40 55 0
5 7 39 0
5 0
5 13 45 0
5 7 9 39 41 56 0
5 7 11 39 43 58 0
5 7 13 39 45 60 0
5 11 43 0
5 9 11 41 43 68 0
5 9 13 41 45 70 0
5 11 13 43 45 78 0
5 6 7 38 39 47 0
5 6 38 0
5 6 38 0
5 6 13 38 45 53 0
5 7 39 0
5 7 13 39 45 60 0
5 13 45 0
5 6 7 38 39 47 0
5 6 7 8 38 39 40 47 48 55 0
5 6 7 9 38 39 41 47 49 56 0
5 6 7 10 38 39 42 47 50 57 0
5 6 7 11 38 39 43 47 51 58 0
5 6 7 12 38 39 44 47 52 59 0
5 6 7 13 38 39 45 47 53 60 0
5 6 8 38 40 48 0
5 6 9 38 41 49 0
5 6 10 38 42 50 0
5 6 11 38 43 51 0
5 6 13 38 45 53 0
5 6 8 38 40 48 61 0
5 6 10 38 42 50 0
5 6 11 38 43 51 0
5 6 8 9 38 40 41 48 49 62 0
5 6 8 10 38 40 42 48 50 63 0
5 6 8 11 38 40 43 48 51 64 0
5 6 8 12 38 40 44 48 52 65 0
5 6 8 13 38 40 45 48 53 66 0
5 6 9 10 38 41 42 49 50 67 0
5 6 9 11 38 41 43 49 51 68 0
5 6 9 12 38 41 44 49 52 69 0
5 6 9 13 38 41 45 49 53 70 0
5 6 10 11 38 42 43 50 51 72 0
5 6 10 12 38 42 44 50 52 73 0
5 6 10 13 38 42 45 50 53 74 0
5 6 11 12 38 43 44 51 52 77 0
5 6 11 13 38 43 45 51 53 78 0
5 6 12 13 38 44 45 52 53 80 0
5 7 8 39 40 55 0
5 7 9 39 41 56 0
5 7 10 39 42 57 0
5 7 11 39 43 58 0
5 7 13 39 45 60 0
5 7 8 9 39 40 41 55 56 62 0
5 7 8 10 39 40 42 55 57 63 0
5 7 8 11 39 40 43 55 58 64 0
5 7 8 12 39 40 44 55 59 65 0
5 7 8 13 39 40 45 55 60 66 0
5 7 9 10 39 41 42 56 57 67 0
5 7 9 11 39 41 43 56 58 68 0
5 7 9 12 39 41 44 56 59 69 0
5 7 9 13 39 41 45 56 60 70 0
5 7 10 11 39 42 43 57 58 72 0
5 7 10 12 39 42 44 57 59 73 0
5 7 10 13 39 42 45 57 60 74 0
5 7 11 12 39 43 44 58 59 77 0
5 7 11 13 39 43 45 58 60 78 0
5 7 12 13 39 44 45 59 60 80 0
5 8 9 40 41 62 0
5 8 10 40 42 63 0
5 8 11 40 43 64 0
5 8 13 40 45 66 0
5 9 10 41 42 67 0
5 9 11 41 43 68 0
5 9 13 41 45 70 0
5 10 11 42 43 72 0
5 10 13 42 45 74 0
5 11 13 43 45 78 0
5 8 10 40 42 61 63 0
5 8 11 40 43 61 64 0
5 10 11 42 43 72 0
5 8 9 10 40 41 42 62 63 67 0
5 8 9 11 40 41 43 62 64 68 0
5 8 9 12 40 41 44 62 65 69 0
5 8 9 13 40 41 45 62 66 70 0
5 8 10 11 40 42 43 63 64 72 0
5 8 10 12 40 42 44 63 65 73 0
5 8 10 13 40 42 45 63 66 74 0
5 8 11 12 40 43 44 64 65 77 0
5 8 11 13 40 43 45 64 66 78 0
5 8 12 13 40 44 45 65 66 80 0
5 9 10 11 41 42 43 67 68 72 0
5 9 10 12 41 42 44 67 69 73 0
5 9 10 13 41 42 45 67 70 74 0
5 9 11 12 41 43 44 68 69 77 0
5 9 11 13 41 43 45 68 70 78 0
5 9 12 13 41 44 45 69 70 80 0
5 10 11 12 42 43 44 72 73 77 0
5 10 11 13 42 43 45 72 74 78 0
5 10 12 13 42 44 45 73 74 80 0
5 11 12 13 43 44 45 77 78 80 0
6 0
6 0
6 46 0
6 9 46 49 0
6 9 49 0
6 11 51 0
6 11 51 0
6 0
6 9 11 49 51 68 0
6 9 49 0
9 11 68 0
7 13 60 0
7 9 11 56 58 68 0
7 9 13 56 60 70 0
7 11 13 58 60 78 0
9 11 13 68 70 78 0
6 7 47 0
6 7 13 47 53 60 0
6 13 53 0
7 13 60 0
7 13 60 0
6 7 8 47 48 55 0
6 7 9 47 49 56 0
6 7 10 47 50 57 0
6 7 11 47 51 58 0
6 7 13 47 53 60 0
6 7 8 9 47 48 49 55 56 62 0
6 7 8 10 47 48 50 55 57 63 0
6 7 8 11 47 48 51 55 58 64 0
6 7 8 12 47 48 52 55 59 65 0
6 7 8 13 47 48 53 55 60 66 0
6 7 9 10 47 49 50 56 57 67 0
6 7 9 11 47 49 51 56 58 68 0
6 7 9 12 47 49 52 56 59 69 0
6 7 9 13 47 49 53 56 60 70 0
6 7 10 11 47 50 51 57 58 72 0
6 7 10 12 47 50 52 57 59 73 0
6 7 10 13 47 50 53 57 60 74 0
6 7 11 12 47 51 52 58 59 77 0
6 7 11 13 47 51 53 58 60 78 0
6 7 12 13 47 52 53 59 60 80 0
6 8 9 48 49 62 0
6 8 10 48 50 63 0
6 8 11 48 51 64 0
6 8 13 48 53 66 0
6 9 10 49 50 67 0
6 9 11 49 51 68 0
6 9 13 49 53 70 0
6 10 11 50 51 72 0
6 10 13 50 53 74 0
6 11 13 51 53 78 0
6 8 10 48 50 61 63 0
6 8 11 48 51 61 64 0
6 10 11 50 51 72 0
6 10 50 0
6 8 9 10 48 49 50 62 63 67 0
6 8 9 11 48 49 51 62 64 68 0
6 8 9 12 48 49 52 62 65 69 0
6 8 9 13 48 49 53 62 66 70 0
6 8 10 11 48 50 51 63 64 72 0
6 8 10 12 48 50 52 63 65 73 0
6 8 10 13 48 50 53 63 66 74 0
6 8 11 12 48 51 52 64 65 77 0
6 8 11 13 48 51 53 64 66 78 0
6 8 12 13 48 52 53 65 66 80 0
6 9 10 11 49 50 51 67 68 72 0
6 9 10 49 50 67 0
6 9 10 12 49 50 52 67 69 73 0
6 9 10 13 49 50 53 67 70 74 0
6 9 11 12 49 51 52 68 69 77 0
6 9 11 13 49 51 53 68 70 78 0
6 9 12 49 52 69 79 0
6 9 12 13 49 52 53 69 70 80 0
6 10 11 12 50 51 52 72 73 77 0
6 10 11 13 50 51 53 72 74 78 0
6 10 12 50 52 73 79 0
6 10 12 13 50 52 53 73 74 80 0
6 11 12 13 51 52 53 77 78 80 0
7 8 9 55 56 62 0
7 8 10 55 57 63 0
7 8 11 55 58 64 0
7 8 13 55 60 66 0
7 9 10 56 57 67 0
7 9 11 56 58 68 0
7 9 13 56 60 70 0
7 10 11 57 58 72 0
7 10 13 57 60 74 0
7 11 13 58 60 78 0
7 8 9 10 55 56 57 62 63 67 0
7 8 9 11 55 56 58 62 64 68 0
7 8 9 12 55 56 59 62 65 69 0
7 8 9 13 55 56 60 62 66 70 0
7 8 10 11 55 57 58 63 64 72 0
7 8 10 12 55 57 59 63 65 73 0
7 8 10 13 55 57 60 63 66 74 0
7 8 11 12 55 58 59 64 65 77 0
7 8 11 13 55 58 60 64 66 78 0
7 8 12 13 55 59 60 65 66 80 0
7 9 10 56 57 67 0
7 9 10 11 56 57 58 67 68 72 0
7 9 10 12 56 57 59 67 69 73 0
7 9 10 13 56 57 60 67 70 74 0
7 9 11 56 58 68 75 0
7 9 12 56 59 69 0
7 9 13 56 60 70 0
7 9 11 12 56 58 59 68 69 77 0
7 9 11 13 56 58 60 68 70 78 0
7 9 12 13 56 59 60 69 70 80 0
7 10 11 57 58 72 75 0
7 10 12 57 59 73 0
7 10 13 57 60 74 0
7 10 11 12 57 58 59 72 73 77 0
7 10 11 13 57 58 60 72 74 78 0
7 10 12 13 57 59 60 73 74 80 0
7 11 12 58 59 75 77 0
7 11 13 58 60 75 78 0
7 12 13 59 60 80 0
7 11 12 13 58 59 60 77 78 80 0
8 9 10 62 63 67 0
8 9 62 0
8 9 11 62 64 68 0
8 9 13 62 66 70 0
8 10 63 0
8 10 11 63 64 72 0
8 10 13 63 66 74 0
8 11 64 0
8 11 13 64 66 78 0
9 10 67 0
9 10 11 67 68 72 0
9 10 13 67 70 74 0
9 11 68 0
9 11 13 68 70 78 0
10 11 72 0
10 11 13 72 74 78 0
8 10 61 63 0
8 10 11 61 63 64 72 0
8 11 61 64 0
10 11 72 0
10 0
10 11 72 75 0
10 0
8 9 10 62 63 67 0
8 9 10 11 62 63 64 67 68 72 0
8 9 10 12 62 63 65 67 69 73 0
8 9 10 13 62 63 66 67 70 74 0
8 9 11 62 64 68 0
8 9 12 62 65 69 0
8 9 11 12 62 64 65 68 69 77 0
8 9 11 13 62 64 66 68 70 78 0
8 9 12 13 62 65 66 69 70 80 0
8 10 11 63 64 72 0
8 10 12 63 65 73 0
8 10 11 12 63 64 65 72 73 77 0
8 10 11 13 63 64 66 72 74 78 0
8 10 12 13 63 65 66 73 74 80 0
8 11 12 64 65 77 0
8 11 12 13 64 65 66 77 78 80 0
9 10 11 67 68 72 0
9 10 67 0
9 10 12 67 69 73 0
9 10 11 67 68 72 75 0
9 10 67 0
9 10 12 67 69 73 0
9 10 13 67 70 74 0
9 10 11 12 67 68 69 72 73 77 0
9 10 11 13 67 68 70 72 74 78 0
9 10 12 67 69 73 79 0
9 10 12 13 67 69 70 73 74 80 0
9 11 12 68 69 77 0
9 12 69 79 0
9 11 12 68 69 75 77 0
9 11 13 68 70 75 78 0
9 12 69 79 0
9 12 13 69 70 80 0
9 11 12 13 68 69 70 77 78 80 0
10 11 12 72 73 77 0
10 12 73 79 0
10 11 12 72 73 75 77 0
10 11 13 72 74 75 78 0
10 12 73 79 0
10 12 13 73 74 80 0
10 11 12 13 72 73 74 77 78 80 0
11 12 13 75 77 78 80 0
14 16 36 0
14 16 18 39 0
14 16 18 20 39 41 56 0
14 16 18 24 39 45 60 0
14 16 20 24 41 45 70 0
14 18 0
14 18 20 56 0
14 18 20 24 56 60 70 0
14 18 24 60 0
14 20 24 70 0
15 26 0
15 21 26 32 0
15 21 24 26 32 35 74 0
15 16 17 27 28 38 0
15 16 18 27 29 39 0
15 16 19 27 30 40 0
15 16 21 27 32 42 0
15 16 23 27 34 44 0
15 16 17 27 28 38 0
15 16 19 27 30 40 0
15 16 21 27 32 42 0
15 16 23 27 34 44 0
15 16 17 18 27 28 29 38 39 47 0
15 16 17 19 27 28 30 38 40 48 0
15 16 17 20 27 28 31 38 41 49 0
15 16 17 21 27 28 32 38 42 50 0
15 16 17 22 27 28 33 38 43 51 0
15 16 17 23 27 28 34 38 44 52 0
15 16 17 24 27 28 35 38 45 53 0
15 16 18 19 27 29 30 39 40 55 0
15 16 18 20 27 29 31 39 41 56 0
15 16 18 21 27 29 32 39 42 57 0
15 16 18 22 27 29 33 39 43 58 0
15 16 18 23 27 29 34 39 44 59 0
15 16 18 24 27 29 35 39 45 60 0
15 16 19 20 27 30 31 40 41 62 0
15 16 19 21 27 30 32 40 42 63 0
15 16 19 22 27 30 33 40 43 64 0
15 16 19 23 27 30 34 40 44 65 0
15 16 19 24 27 30 35 40 45 66 0
15 16 20 21 27 31 32 41 42 67 0
15 16 20 22 27 31 33 41 43 68 0
15 16 20 23 27 31 34 41 44 69 0
15 16 20 24 27 31 35 41 45 70 0
15 16 21 22 27 32 33 42 43 72 0
15 16 21 23 27 32 34 42 44 73 0
15 16 21 24 27 32 35 42 45 74 0
15 16 22 23 27 33 34 43 44 77 0
15 16 22 24 27 33 35 43 45 78 0
15 16 23 24 27 34 35 44 45 80 0
15 17 28 0
15 17 28 0
15 17 20 28 31 49 0
15 17 22 28 33 51 0
15 20 22 31 33 68 0
15 17 18 28 29 47 0
15 17 19 28 30 48 0
15 17 21 28 32 50 0
15 17 23 28 34 52 0
15 18 19 29 30 55 0
15 18 21 29 32 57 0
15 18 29 0
15 18 23 29 34 59 0
15 19 21 30 32 63 0
15 19 30 0
15 19 23 30 34 65 0
15 21 23 32 34 73 0
15 17 19 28 30 48 0
15 17 21 28 32 50 0
15 17 23 28 34 52 0
15 19 21 30 32 63 0
15 19 30 0
15 19 23 30 34 65 0
15 21 23 32 34 73 0
15 17 18 19 28 29 30 47 48 55 0
15 17 18 20 28 29 31 47 49 56 0
15 17 18 21 28 29 32 47 50 57 0
15 17 18 22 28 29 33 47 51 58 0
15 17 18 23 28 29 34 47 52 59 0
15 17 18 24 28 29 35 47 53 60 0
15 17 19 20 28 30 31 48 49 62 0
15 17 19 21 28 30 32 48 50 63 0
15 17 19 22 28 30 33 48 51 64 0
15 17 19 23 28 30 34 48 52 65 0
15 17 19 24 28 30 35 48 53 66 0
15 17 20 21 28 31 32 49 50 67 0
15 17 20 22 28 31 33 49 51 68 0
15 17 20 23 28 31 34 49 52 69 0
15 17 20 24 28 31 35 49 53 70 0
15 17 21 22 28 32 33 50 51 72 0
15 17 21 23 28 32 34 50 52 73 0
15 17 21 24 28 32 35 50 53 74 0
15 17 22 23 28 33 34 51 52 77 0
15 17 22 24 28 33 35 51 53 78 0
15 17 23 24 28 34 35 52 53 80 0
15 18 19 20 29 30 31 55 56 62 0
15 18 19 21 29 30 32 55 57 63 0
15 18 19 22 29 30 33 55 58 64 0
15 18 19 29 30 55 0
15 18 19 23 29 30 34 55 59 65 0
15 18 19 24 29 30 35 55 60 66 0
15 18 20 21 29 31 32 56 57 67 0
15 18 20 22 29 31 33 56 58 68 0
15 18 20 29 31 56 0
15 18 20 23 29 31 34 56 59 69 0
15 18 20 24 29 31 35 56 60 70 0
15 18 21 22 29 32 33 57 58 72 0
15 18 21 23 29 32 34 57 59 73 0
15 18 21 24 29 32 35 57 60 74 0
15 18 22 29 33 58 76 0
15 18 22 23 29 33 34 58 59 77 0
15 18 22 24 29 33 35 58 60 78 0
15 18 24 29 35 60 0
15 18 23 24 29 34 35 59 60 80 0
15 19 20 21 30 31 32 62 63 67 0
15 19 20 22 30 31 33 62 64 68 0
15 19 20 30 31 62 0
15 19 20 23 30 31 34 62 65 69 0
15 19 20 24 30 31 35 62 66 70 0
15 19 21 22 30 32 33 63 64 72 0
15 19 21 23 30 32 34 63 65 73 0
15 19 21 24 30 32 35 63 66 74 0
15 19 22 30 33 64 76 0
15 19 22 23 30 33 34 64 65 77 0
15 19 22 24 30 33 35 64 66 78 0
15 19 24 30 35 66 0
15 19 23 24 30 34 35 65 66 80 0
15 20 21 22 31 32 33 67 68 72 0
15 20 21 23 31 32 34 67 69 73 0
15 20 21 24 31 32 35 67 70 74 0
15 20 22 31 33 68 76 0
15 20 22 23 31 33 34 68 69 77 0
15 20 22 24 31 33 35 68 70 78 0
15 20 24 31 35 70 0
15 20 23 24 31 34 35 69 70 80 0
15 21 22 23 32 33 34 72 73 77 0
15 21 22 24 32 33 35 72 74 78 0
15 21 23 24 32 34 35 73 74 80 0
15 22 24 33 35 76 78 0
15 22 23 24 33 34 35 77 78 80 0
21 24 74 0
21 24 74 0
16 23 36 44 0
16 23 36 44 0
16 18 39 0
16 19 40 0
16 17 18 38 39 47 0
16 17 19 38 40 48 0
16 17 21 38 42 50 0
16 17 23 38 44 52 0
16 18 19 39 40 55 0
16 18 21 39 42 57 0
16 18 23 39 44 59 0
16 19 21 40 42 63 0
16 19 23 40 44 65 0
16 21 23 42 44 73 0
16 19 40 0
16 17 19 38 40 48 0
16 17 21 38 42 50 0
16 17 23 38 44 52 0
16 19 21 40 42 63 0
16 19 23 40 44 65 0
16 21 23 42 44 73 0
16 18 19 39 40 55 0
16 18 22 39 43 58 0
16 19 40 0
16 19 22 40 43 64 0
16 17 18 19 38 39 40 47 48 55 0
16 17 18 20 38 39 41 47 49 56 0
16 17 18 21 38 39 42 47 50 57 0
16 17 18 22 38 39 43 47 51 58 0
16 17 18 23 38 39 44 47 52 59 0
16 17 18 24 38 39 45 47 53 60 0
16 17 19 20 38 40 41 48 49 62 0
16 17 19 21 38 40 42 48 50 63 0
16 17 19 38 40 48 0
16 17 19 22 38 40 43 48 51 64 0
16 17 19 23 38 40 44 48 52 65 0
16 17 19 24 38 40 45 48 53 66 0
16 17 20 21 38 41 42 49 50 67 0
16 17 20 38 41 49 0
16 17 20 22 38 41 43 49 51 68 0
16 17 20 23 38 41 44 49 52 69 0
16 17 20 24 38 41 45 49 53 70 0
16 17 21 38 42 50 0
16 17 21 22 38 42 43 50 51 72 0
16 17 21 23 38 42 44 50 52 73 0
16 17 21 24 38 42 45 50 53 74 0
16 17 23 38 44 52 0
16 17 24 38 45 53 0
16 17 22 23 38 43 44 51 52 77 0
16 17 22 24 38 43 45 51 53 78 0
16 17 23 24 38 44 45 52 53 80 0
16 18 19 20 39 40 41 55 56 62 0
16 18 19 21 39 40 42 55 57 63 0
16 18 19 22 39 40 43 55 58 64 0
16 18 19 23 39 40 44 55 59 65 0
16 18 19 24 39 40 45 55 60 66 0
16 18 20 21 39 41 42 56 57 67 0
16 18 20 22 39 41 43 56 58 68 0
16 18 20 23 39 41 44 56 59 69 0
16 18 20 24 39 41 45 56 60 70 0
16 18 21 22 39 42 43 57 58 72 0
16 18 21 23 39 42 44 57 59 73 0
16 18 21 24 39 42 45 57 60 74 0
16 18 22 23 39 43 44 58 59 77 0
16 18 22 24 39 43 45 58 60 78 0
16 18 23 24 39 44 45 59 60 80 0
16 19 20 21 40 41 42 62 63 67 0
16 19 20 40 41 62 0
16 19 20 22 40 41 43 62 64 68 0
16 19 20 23 40 41 44 62 65 69 0
16 19 20 24 40 41 45 62 66 70 0
16 19 21 40 42 63 0
16 19 21 22 40 42 43 63 64 72 0
16 19 21 23 40 42 44 63 65 73 0
16 19 21 24 40 42 45 63 66 74 0
16 19 23 40 44 65 0
16 19 24 40 45 66 0
16 19 22 23 40 43 44 64 65 77 0
16 19 22 24 40 43 45 64 66 78 0
16 19 23 24 40 44 45 65 66 80 0
16 20 21 41 42 67 0
16 20 21 22 41 42 43 67 68 72 0
16 20 21 23 41 42 44 67 69 73 0
16 20 21 24 41 42 45 67 70 74 0
16 20 23 41 44 69 0
16 20 24 41 45 70 0
16 20 22 23 41 43 44 68 69 77 0
16 20 22 24 41 43 45 68 70 78 0
16 20 23 24 41 44 45 69 70 80 0
16 21 23 42 44 73 0
16 21 24 42 45 74 0
16 21 22 23 42 43 44 72 73 77 0
16 21 22 24 42 43 45 72 74 78 0
16 21 23 24 42 44 45 73 74 80 0
16 23 24 44 45 80 0
16 22 23 24 43 44 45 77 78 80 0
17 20 49 0
17 20 22 49 51 68 0
20 22 68 0
18 0
18 19 55 0
17 18 19 47 48 55 0
17 18 21 47 50 57 0
17 18 23 47 52 59 0
17 19 21 48 50 63 0
17 19 23 48 52 65 0
17 21 23 50 52 73 0
18 21 57 0
18 0
18 19 21 55 57 63 0
18 19 55 0
18 19 23 55 59 65 0
18 21 23 57 59 73 0
19 21 23 63 65 73 0
17 19 21 48 50 63 0
17 19 23 48 52 65 0
17 21 23 50 52 73 0
19 21 23 63 65 73 0
18 54 0
18 22 54 58 0
18 19 22 55 58 64 0
17 18 19 20 47 48 49 55 56 62 0
17 18 19 21 47 48 50 55 57 63 0
17 18 19 22 47 48 51 55 58 64 0
17 18 19 23 47 48 52 55 59 65 0
17 18 19 24 47 48 53 55 60 66 0
17 18 20 21 47 49 50 56 57 67 0
17 18 20 22 47 49 51 56 58 68 0
17 18 20 23 47 49 52 56 59 69 0
17 18 20 24 47 49 53 56 60 70 0
17 18 21 22 47 50 51 57 58 72 0
17 18 21 23 47 50 52 57 59 73 0
17 18 21 24 47 50 53 57 60 74 0
17 18 22 23 47 51 52 58 59 77 0
17 18 22 24 47 51 53 58 60 78 0
17 18 23 24 47 52 53 59 60 80 0
17 19 20 21 48 49 50 62 63 67 0
17 19 20 48 49 62 0
17 19 20 22 48 49 51 62 64 68 0
17 19 20 23 48 49 52 62 65 69 0
17 19 20 24 48 49 53 62 66 70 0
17 19 21 48 50 63 0
17 19 21 22 48 50 51 63 64 72 0
17 19 21 23 48 50 52 63 65 73 0
17 19 21 24 48 50 53 63 66 74 0
17 19 23 48 52 65 0
17 19 24 48 53 66 0
17 19 22 23 48 51 52 64 65 77 0
17 19 22 24 48 51 53 64 66 78 0
17 19 23 24 48 52 53 65 66 80 0
17 20 21 49 50 67 0
17 20 21 22 49 50 51 67 68 72 0
17 20 21 23 49 50 52 67 69 73 0
17 20 21 24 49 50 53 67 70 74 0
17 20 23 49 52 69 0
17 20 24 49 53 70 0
17 20 22 23 49 51 52 68 69 77 0
17 20 22 24 49 51 53 68 70 78 0
17 20 23 24 49 52 53 69 70 80 0
17 21 23 50 52 73 0
17 21 24 50 53 74 0
17 21 22 23 50 51 52 72 73 77 0
17 21 22 24 50 51 53 72 74 78 0
17 21 23 24 50 52 53 73 74 80 0
17 23 24 52 53 80 0
17 22 23 24 51 52 53 77 78 80 0
18 20 54 56 0
18 21 54 57 0
18 20 21 54 56 57 67 0
18 20 22 54 56 58 68 0
18 20 24 54 56 60 70 0
18 21 22 54 57 58 72 0
18 21 24 54 57 60 74 0
18 22 24 54 58 60 78 0
18 20 21 56 57 67 0
18 20 56 0
18 19 20 21 55 56 57 62 63 67 0
18 19 20 22 55 56 58 62 64 68 0
18 19 20 55 56 62 0
18 19 20 23 55 56 59 62 65 69 0
18 19 20 24 55 56 60 62 66 70 0
18 19 21 22 55 57 58 63 64 72 0
18 19 21 23 55 57 59 63 65 73 0
18 19 21 24 55 57 60 63 66 74 0
18 19 22 55 58 64 76 0
18 19 22 23 55 58 59 64 65 77 0
18 19 22 24 55 58 60 64 66 78 0
18 19 24 55 60 66 0
18 19 23 24 55 59 60 65 66 80 0
18 20 21 22 56 57 58 67 68 72 0
18 20 21 23 56 57 59 67 69 73 0
18 20 21 24 56 57 60 67 70 74 0
18 20 22 56 58 68 76 0
18 20 22 23 56 58 59 68 69 77 0
18 20 22 24 56 58 60 68 70 78 0
18 20 24 56 60 70 0
18 20 23 24 56 59 60 69 70 80 0
18 21 22 23 57 58 59 72 73 77 0
18 21 22 24 57 58 60 72 74 78 0
18 21 23 24 57 59 60 73 74 80 0
18 22 24 58 60 76 78 0
18 22 23 24 58 59 60 77 78 80 0
20 21 67 0
20 21 22 67 68 72 0
20 21 24 67 70 74 0
20 22 24 68 70 78 0
21 22 24 72 74 78 0
20 21 67 0
20 0
19 20 21 62 63 67 0
19 20 21 22 62 63 64 67 68 72 0
19 20 21 23 62 63 65 67 69 73 0
19 20 21 24 62 63 66 67 70 74 0
19 20 62 0
19 20 23 62 65 69 0
19 20 24 62 66 70 0
19 20 22 62 64 68 76 0
19 20 22 23 62 64 65 68 69 77 0
19 20 22 24 62 64 66 68 70 78 0
19 20 24 62 66 70 0
19 20 23 24 62 65 66 69 70 80 0
19 21 23 63 65 73 0
19 21 24 63 66 74 0
19 21 22 23 63 64 65 72 73 77 0
19 21 22 24 63 64 66 72 74 78 0
19 21 23 24 63 65 66 73 74 80 0
19 24 66 0
19 23 24 65 66 80 0
19 22 24 64 66 76 78 0
19 22 23 24 64 65 66 77 78 80 0
20 21 23 67 69 73 0
20 21 24 67 70 74 0
20 21 22 23 67 68 69 72 73 77 0
20 21 22 24 67 68 70 72 74 78 0
20 21 23 24 67 69 70 73 74 80 0
20 24 70 0
20 23 24 69 70 80 0
20 22 24 68 70 76 78 0
20 22 23 24 68 69 70 77 78 80 0
21 23 24 73 74 80 0
21 22 23 24 72 73 74 77 78 80 0
36 0
37 0
36 0
37 39 0
37 39 0
39 0
39 0
39 41 56 0
39 45 60 0
41 45 70 0
39 41 56 0
39 45 60 0
41 45 70 0
39 41 45 56 60 70 0
56 60 70 0
60 0
56 60 70 0
60 0
56 60 70 0
56 60 70 0
60 0
60 0
25 27 37 0
25 27 30 37 40 0
25 27 28 38 0
25 27 30 40 0
25 27 32 42 0
25 27 34 44 0
25 27 28 30 38 40 48 0
25 27 28 32 38 42 50 0
25 27 28 33 38 43 51 0
25 27 28 34 38 44 52 0
25 27 30 32 40 42 63 0
25 27 30 33 40 43 64 0
25 27 30 34 40 44 65 0
25 27 32 33 42 43 72 0
25 27 32 34 42 44 73 0
25 27 33 34 43 44 77 0
25 30 0
25 28 0
25 28 33 51 0
25 28 30 48 0
25 28 32 50 0
25 28 34 52 0
25 30 32 63 0
25 30 34 65 0
25 32 34 73 0
25 28 30 32 48 50 63 0
25 28 30 33 48 51 64 0
25 28 30 34 48 52 65 0
25 28 32 33 50 51 72 0
25 28 32 34 50 52 73 0
25 28 33 34 51 52 77 0
25 30 32 33 63 64 72 0
25 30 32 34 63 65 73 0
25 30 33 34 64 65 77 0
25 32 33 34 72 73 77 0
36 0
36 44 0
37 0
37 40 0
38 40 48 0
38 42 50 0
38 44 52 0
40 42 63 0
40 0
40 44 65 0
42 44 73 0
38 40 48 0
38 40 42 48 50 63 0
38 40 43 48 51 64 0
38 40 44 48 52 65 0
38 42 43 50 51 72 0
38 42 44 50 52 73 0
38 43 44 51 52 77 0
40 0
40 42 43 63 64 72 0
40 42 44 63 65 73 0
40 43 64 0
40 43 44 64 65 77 0
42 43 44 72 73 77 0
48 50 63 0
48 52 65 0
50 52 73 0
63 65 73 0
50 52 73 0
48 50 51 63 64 72 0
48 50 52 63 65 73 0
48 51 52 64 65 77 0
50 51 52 72 73 77 0
50 52 73 79 0
63 64 65 72 73 77 0
26 0
27 37 0
27 30 37 40 0
27 29 37 39 0
27 29 30 37 39 40 55 0
27 28 38 0
27 29 39 0
27 28 38 0
27 29 39 0
27 28 29 38 39 47 0
27 28 30 38 40 48 0
27 28 32 38 42 50 0
27 28 34 38 44 52 0
27 29 30 39 40 55 0
27 29 32 39 42 57 0
27 29 34 39 44 59 0
27 30 32 40 42 63 0
27 30 34 40 44 65 0
27 32 34 42 44 73 0
27 28 38 0
27 28 38 0
27 28 30 38 40 48 0
27 28 32 38 42 50 0
27 28 34 38 44 52 0
27 30 32 40 42 63 0
27 30 34 40 44 65 0
27 32 34 42 44 73 0
27 28 29 38 39 47 0
27 28 31 38 41 49 0
27 28 35 38 45 53 0
27 29 31 39 41 56 0
27 29 35 39 45 60 0
27 31 35 41 45 70 0
27 28 29 38 39 47 0
27 28 35 38 45 53 0
27 29 35 39 45 60 0
27 28 29 30 38 39 40 47 48 55 0
27 28 29 31 38 39 41 47 49 56 0
27 28 29 32 38 39 42 47 50 57 0
27 28 29 33 38 39 43 47 51 58 0
27 28 29 34 38 39 44 47 52 59 0
27 28 29 35 38 39 45 47 53 60 0
27 28 30 31 38 40 41 48 49 62 0
27 28 30 32 38 40 42 48 50 63 0
27 28 30 33 38 40 43 48 51 64 0
27 28 30 34 38 40 44 48 52 65 0
27 28 30 35 38 40 45 48 53 66 0
27 28 31 32 38 41 42 49 50 67 0
27 28 31 33 38 41 43 49 51 68 0
27 28 31 34 38 41 44 49 52 69 0
27 28 31 35 38 41 45 49 53 70 0
27 28 32 33 38 42 43 50 51 72 0
27 28 32 34 38 42 44 50 52 73 0
27 28 32 35 38 42 45 50 53 74 0
27 28 33 34 38 43 44 51 52 77 0
27 28 33 35 38 43 45 51 53 78 0
27 28 34 35 38 44 45 52 53 80 0
27 29 30 31 39 40 41 55 56 62 0
27 29 30 32 39 40 42 55 57 63 0
27 29 30 33 39 40 43 55 58 64 0
27 29 30 34 39 40 44 55 59 65 0
27 29 30 35 39 40 45 55 60 66 0
27 29 31 32 39 41 42 56 57 67 0
27 29 31 33 39 41 43 56 58 68 0
27 29 31 34 39 41 44 56 59 69 0
27 29 31 35 39 41 45 56 60 70 0
27 29 32 33 39 42 43 57 58 72 0
27 29 32 34 39 42 44 57 59 73 0
27 29 32 35 39 42 45 57 60 74 0
27 29 33 34 39 43 44 58 59 77 0
27 29 33 35 39 43 45 58 60 78 0
27 29 34 35 39 44 45 59 60 80 0
27 30 31 32 40 41 42 62 63 67 0
27 30 31 33 40 41 43 62 64 68 0
27 30 31 34 40 41 44 62 65 69 0
27 30 31 35 40 41 45 62 66 70 0
27 30 32 33 40 42 43 63 64 72 0
27 30 32 34 40 42 44 63 65 73 0
27 30 32 35 40 42 45 63 66 74 0
27 30 33 34 40 43 44 64 65 77 0
27 30 33 35 40 43 45 64 66 78 0
27 30 34 35 40 44 45 65 66 80 0
27 31 32 33 41 42 43 67 68 72 0
27 31 32 34 41 42 44 67 69 73 0
27 31 32 35 41 42 45 67 70 74 0
27 31 33 34 41 43 44 68 69 77 0
27 31 33 35 41 43 45 68 70 78 0
27 31 34 35 41 44 45 69 70 80 0
27 32 33 34 42 43 44 72 73 77 0
27 32 33 35 42 43 45 72 74 78 0
27 32 34 35 42 44 45 73 74 80 0
27 33 34 35 43 44 45 77 78 80 0
30 0
30 0
29 30 55 0
29 30 55 0
30 0
30 0
28 0
28 0
28 0
28 0
28 31 49 0
28 31 33 49 51 68 0
28 29 47 0
28 0
28 29 47 0
28 0
28 29 30 47 48 55 0
28 29 32 47 50 57 0
28 29 34 47 52 59 0
28 30 48 0
28 32 50 0
28 34 52 0
28 30 32 48 50 63 0
28 30 34 48 52 65 0
28 32 34 50 52 73 0
29 30 32 55 57 63 0
29 30 55 0
29 30 34 55 59 65 0
29 32 34 57 59 73 0
30 32 63 0
30 0
30 34 65 0
32 34 73 0
30 32 34 63 65 73 0
28 0
28 0
28 0
28 30 48 0
28 32 50 0
28 34 52 0
28 30 48 0
28 32 50 0
28 34 52 0
28 30 32 48 50 63 0
28 30 34 48 52 65 0
28 32 34 50 52 73 0
30 32 63 0
30 0
30 34 65 0
32 34 73 0
30 32 63 0
30 34 65 0
32 34 73 0
30 32 34 63 65 73 0
28 29 31 47 49 56 0
28 29 35 47 53 60 0
28 31 35 49 53 70 0
29 31 35 56 60 70 0
29 35 60 0
28 29 47 0
28 29 35 47 53 60 0
29 35 60 0
28 29 30 47 48 55 0
28 29 31 47 49 56 0
28 29 32 47 50 57 0
28 29 34 47 52 59 0
28 29 30 31 47 48 49 55 56 62 0
28 29 30 32 47 48 50 55 57 63 0
28 29 30 33 47 48 51 55 58 64 0
28 29 30 34 47 48 52 55 59 65 0
28 29 30 35 47 48 53 55 60 66 0
28 29 31 32 47 49 50 56 57 67 0
28 29 31 33 47 49 51 56 58 68 0
28 29 31 34 47 49 52 56 59 69 0
28 29 31 35 47 49 53 56 60 70 0
28 29 32 33 47 50 51 57 58 72 0
28 29 32 34 47 50 52 57 59 73 0
28 29 32 35 47 50 53 57 60 74 0
28 29 33 34 47 51 52 58 59 77 0
28 29 33 35 47 51 53 58 60 78 0
28 29 34 35 47 52 53 59 60 80 0
28 30 32 48 50 63 0
28 30 34 48 52 65 0
28 32 34 50 52 73 0
28 30 31 48 49 62 0
28 30 32 48 50 63 0
28 30 34 48 52 65 0
28 31 32 49 50 67 0
28 31 34 49 52 69 0
28 32 34 50 52 73 0
28 30 31 32 48 49 50 62 63 67 0
28 30 31 33 48 49 51 62 64 68 0
28 30 31 34 48 49 52 62 65 69 0
28 30 31 35 48 49 53 62 66 70 0
28 30 32 33 48 50 51 63 64 72 0
28 30 32 34 48 50 52 63 65 73 0
28 30 32 35 48 50 53 63 66 74 0
28 30 33 34 48 51 52 64 65 77 0
28 30 33 35 48 51 53 64 66 78 0
28 30 34 35 48 52 53 65 66 80 0
28 31 32 33 49 50 51 67 68 72 0
28 31 32 34 49 50 52 67 69 73 0
28 31 32 35 49 50 53 67 70 74 0
28 31 33 34 49 51 52 68 69 77 0
28 31 33 35 49 51 53 68 70 78 0
28 31 34 35 49 52 53 69 70 80 0
28 32 33 34 50 51 52 72 73 77 0
28 32 33 35 50 51 53 72 74 78 0
28 32 34 35 50 52 53 73 74 80 0
28 33 34 35 51 52 53 77 78 80 0
29 30 31 55 56 62 0
29 30 32 55 57 63 0
29 30 34 55 59 65 0
29 31 32 56 57 67 0
29 31 34 56 59 69 0
29 32 34 57 59 73 0
29 30 31 32 55 56 57 62 63 67 0
29 30 31 33 55 56 58 62 64 68 0
29 30 31 55 56 62 0
29 30 31 34 55 56 59 62 65 69 0
29 30 31 35 55 56 60 62 66 70 0
29 30 32 55 57 63 71 0
29 30 32 33 55 57 58 63 64 72 0
29 30 32 34 55 57 59 63 65 73 0
29 30 32 35 55 57 60 63 66 74 0
29 30 33 55 58 64 0
29 30 55 0
29 30 34 55 59 65 0
29 30 35 55 60 66 0
29 30 33 55 58 64 76 0
29 30 33 34 55 58 59 64 65 77 0
29 30 33 35 55 58 60 64 66 78 0
29 30 35 55 60 66 0
29 30 34 35 55 59 60 65 66 80 0
29 31 32 33 56 57 58 67 68 72 0
29 31 32 34 56 57 59 67 69 73 0
29 31 32 35 56 57 60 67 70 74 0
29 31 33 56 58 68 76 0
29 31 33 34 56 58 59 68 69 77 0
29 31 33 35 56 58 60 68 70 78 0
29 31 35 56 60 70 0
29 31 34 35 56 59 60 69 70 80 0
29 32 33 57 58 71 72 0
29 32 34 57 59 71 73 0
29 32 35 57 60 71 74 0
29 32 33 34 57 58 59 72 73 77 0
29 32 33 35 57 58 60 72 74 78 0
29 32 34 35 57 59 60 73 74 80 0
29 33 58 76 0
29 33 34 58 59 77 0
29 33 35 58 60 78 0
29 35 60 0
29 34 35 59 60 80 0
29 33 35 58 60 76 78 0
29 33 34 35 58 59 60 77 78 80 0
30 32 63 71 0
30 32 63 0
30 32 34 63 65 73 0
30 0
30 34 65 0
30 0
30 34 65 0
32 34 71 73 0
32 34 73 0
30 31 32 62 63 67 0
30 31 62 0
30 31 34 62 65 69 0
30 32 63 0
30 32 34 63 65 73 0
30 34 65 0
31 32 67 0
31 32 34 67 69 73 0
31 34 69 0
32 34 73 0
30 31 32 62 63 67 0
30 31 32 33 62 63 64 67 68 72 0
30 31 32 34 62 63 65 67 69 73 0
30 31 32 35 62 63 66 67 70 74 0
30 31 33 62 64 68 0
30 31 62 0
30 31 34 62 65 69 0
30 31 33 62 64 68 76 0
30 31 33 34 62 64 65 68 69 77 0
30 31 33 35 62 64 66 68 70 78 0
30 31 35 62 66 70 0
30 31 34 35 62 65 66 69 70 80 0
30 32 33 63 64 71 72 0
30 32 34 63 65 71 73 0
30 32 35 63 66 71 74 0
30 32 33 63 64 72 0
30 32 34 63 65 73 0
30 32 33 34 63 64 65 72 73 77 0
30 32 33 35 63 64 66 72 74 78 0
30 32 34 35 63 65 66 73 74 80 0
30 33 64 76 0
30 33 34 64 65 77 0
30 33 35 64 66 78 0
30 35 66 0
30 34 35 65 66 80 0
30 33 64 76 0
30 33 34 64 65 77 0
30 33 35 64 66 76 78 0
30 33 34 35 64 65 66 77 78 80 0
31 32 33 67 68 72 0
31 32 34 67 69 73 0
31 32 33 34 67 68 69 72 73 77 0
31 32 33 35 67 68 70 72 74 78 0
31 32 34 35 67 69 70 73 74 80 0
31 33 68 76 0
31 33 34 68 69 77 0
31 33 35 68 70 76 78 0
31 33 34 35 68 69 70 77 78 80 0
32 33 34 71 72 73 77 0
32 33 35 71 72 74 78 0
32 34 35 71 73 74 80 0
32 33 34 72 73 77 0
32 33 34 35 72 73 74 77 78 80 0
33 35 76 78 0
33 34 35 77 78 80 0
74 0
74 0
36 0
36 0
37 0
37 39 0
37 0
37 40 0
37 39 0
37 39 40 55 0
39 0
39 0
39 0
38 39 47 0
38 39 47 0
39 40 55 0
38 39 40 47 48 55 0
38 39 42 47 50 57 0
38 39 44 47 52 59 0
38 40 42 48 50 63 0
38 40 44 48 52 65 0
38 42 44 50 52 73 0
39 40 42 55 57 63 0
39 40 44 55 59 65 0
39 42 44 57 59 73 0
40 42 44 63 65 73 0
39 45 60 0
39 0
39 43 58 0
39 41 56 0
39 45 60 0
39 41 43 56 58 68 0
39 41 45 56 60 70 0
39 43 45 58 60 78 0
41 45 70 0
41 43 45 68 70 78 0
40 0
38 40 42 48 50 63 0
38 40 44 48 52 65 0
38 42 44 50 52 73 0
40 42 44 63 65 73 0
39 0
39 0
38 39 47 0
38 39 47 0
38 39 41 47 49 56 0
38 39 45 47 53 60 0
38 41 49 0
38 45 53 0
38 41 49 0
38 45 53 0
38 41 45 49 53 70 0
39 41 56 0
39 45 60 0
39 41 56 0
39 45 60 0
39 41 45 56 60 70 0
41 45 70 0
41 45 70 0
38 39 47 0
38 39 45 47 53 60 0
38 45 53 0
39 45 60 0
39 40 55 0
39 40 55 0
39 43 58 0
39 40 43 55 58 64 0
40 0
40 0
40 0
40 43 64 0
40 43 64 0
38 39 40 47 48 55 0
38 39 41 47 49 56 0
38 39 45 47 53 60 0
38 39 40 47 48 55 0
38 39 41 47 49 56 0
38 39 42 47 50 57 0
38 39 43 47 51 58 0
38 39 45 47 53 60 0
38 39 40 41 47 48 49 55 56 62 0
38 39 40 42 47 48 50 55 57 63 0
38 39 40 43 47 48 51 55 58 64 0
38 39 40 44 47 48 52 55 59 65 0
38 39 40 45 47 48 53 55 60 66 0
38 39 41 42 47 49 50 56 57 67 0
38 39 41 43 47 49 51 56 58 68 0
38 39 41 44 47 49 52 56 59 69 0
38 39 41 45 47 49 53 56 60 70 0
38 39 42 43 47 50 51 57 58 72 0
38 39 42 44 47 50 52 57 59 73 0
38 39 42 45 47 50 53 57 60 74 0
38 39 43 44 47 51 52 58 59 77 0
38 39 43 45 47 51 53 58 60 78 0
38 39 44 45 47 52 53 59 60 80 0
38 40 48 61 0
38 40 41 48 49 62 0
38 40 48 0
38 40 45 48 53 66 0
38 41 49 0
38 41 45 49 53 70 0
38 45 53 0
38 40 41 48 49 62 0
38 40 42 48 50 63 0
38 40 48 0
38 40 43 48 51 64 0
38 40 45 48 53 66 0
38 41 42 49 50 67 0
38 41 49 0
38 41 43 49 51 68 0
38 41 45 49 53 70 0
38 42 50 0
38 42 43 50 51 72 0
38 42 45 50 53 74 0
38 45 53 0
38 43 45 51 53 78 0
38 40 42 48 50 61 63 0
38 40 43 48 51 61 64 0
38 42 43 50 51 72 0
38 40 41 42 48 49 50 62 63 67 0
38 40 41 48 49 62 0
38 40 41 43 48 49 51 62 64 68 0
38 40 41 44 48 49 52 62 65 69 0
38 40 41 45 48 49 53 62 66 70 0
38 40 42 48 50 63 0
38 40 42 43 48 50 51 63 64 72 0
38 40 42 44 48 50 52 63 65 73 0
38 40 42 45 48 50 53 63 66 74 0
38 40 44 48 52 65 0
38 40 45 48 53 66 0
38 40 43 44 48 51 52 64 65 77 0
38 40 43 45 48 51 53 64 66 78 0
38 40 44 45 48 52 53 65 66 80 0
38 41 42 49 50 67 0
38 41 42 43 49 50 51 67 68 72 0
38 41 42 44 49 50 52 67 69 73 0
38 41 42 45 49 50 53 67 70 74 0
38 41 44 49 52 69 0
38 41 45 49 53 70 0
38 41 43 44 49 51 52 68 69 77 0
38 41 43 45 49 51 53 68 70 78 0
38 41 44 45 49 52 53 69 70 80 0
38 42 44 50 52 73 0
38 42 45 50 53 74 0
38 42 43 44 50 51 52 72 73 77 0
38 42 43 45 50 51 53 72 74 78 0
38 42 44 45 50 52 53 73 74 80 0
38 44 45 52 53 80 0
38 43 44 45 51 52 53 77 78 80 0
39 40 41 55 56 62 0
39 40 45 55 60 66 0
39 41 45 56 60 70 0
39 40 41 55 56 62 0
39 40 42 55 57 63 0
39 40 43 55 58 64 0
39 40 45 55 60 66 0
39 41 42 56 57 67 0
39 41 43 56 58 68 0
39 41 45 56 60 70 0
39 42 43 57 58 72 0
39 42 45 57 60 74 0
39 43 45 58 60 78 0
39 40 41 42 55 56 57 62 63 67 0
39 40 41 43 55 56 58 62 64 68 0
39 40 41 44 55 56 59 62 65 69 0
39 40 41 45 55 56 60 62 66 70 0
39 40 42 43 55 57 58 63 64 72 0
39 40 42 44 55 57 59 63 65 73 0
39 40 42 45 55 57 60 63 66 74 0
39 40 43 44 55 58 59 64 65 77 0
39 40 43 45 55 58 60 64 66 78 0
39 40 44 45 55 59 60 65 66 80 0
39 41 42 43 56 57 58 67 68 72 0
39 41 42 44 56 57 59 67 69 73 0
39 41 42 45 56 57 60 67 70 74 0
39 41 43 44 56 58 59 68 69 77 0
39 41 43 45 56 58 60 68 70 78 0
39 41 44 45 56 59 60 69 70 80 0
39 42 43 44 57 58 59 72 73 77 0
39 42 43 45 57 58 60 72 74 78 0
39 42 44 45 57 59 60 73 74 80 0
39 43 44 45 58 59 60 77 78 80 0
40 61 0
40 41 62 0
40 41 62 0
40 41 45 62 66 70 0
40 45 66 0
40 45 66 0
41 45 70 0
41 45 70 0
40 41 42 62 63 67 0
40 41 62 0
40 41 43 62 64 68 0
40 41 45 62 66 70 0
40 42 63 0
40 42 43 63 64 72 0
40 42 45 63 66 74 0
40 45 66 0
40 43 45 64 66 78 0
41 42 67 0
41 42 43 67 68 72 0
41 42 45 67 70 74 0
41 45 70 0
41 43 45 68 70 78 0
42 45 74 0
42 43 45 72 74 78 0
40 42 43 61 63 64 72 0
40 43 61 64 0
40 41 42 62 63 67 0
40 41 42 43 62 63 64 67 68 72 0
40 41 42 44 62 63 65 67 69 73 0
40 41 42 45 62 63 66 67 70 74 0
40 41 43 62 64 68 0
40 41 45 62 66 70 0
40 41 44 62 65 69 0
40 41 45 62 66 70 0
40 41 43 44 62 64 65 68 69 77 0
40 41 43 45 62 64 66 68 70 78 0
40 41 44 45 62 65 66 69 70 80 0
40 42 44 63 65 73 0
40 42 45 63 66 74 0
40 42 43 44 63 64 65 72 73 77 0
40 42 43 45 63 64 66 72 74 78 0
40 42 44 45 63 65 66 73 74 80 0
40 43 45 64 66 78 0
40 44 45 65 66 80 0
40 43 44 45 64 65 66 77 78 80 0
41 42 44 67 69 73 0
41 42 45 67 70 74 0
41 42 43 44 67 68 69 72 73 77 0
41 42 43 45 67 68 70 72 74 78 0
41 42 44 45 67 69 70 73 74 80 0
41 43 45 68 70 78 0
41 44 45 69 70 80 0
41 43 44 45 68 69 70 77 78 80 0
42 44 45 73 74 80 0
42 43 44 45 72 73 74 77 78 80 0
46 0
46 49 0
49 0
49 0
49 0
49 51 68 0
49 0
68 0
47 50 57 0
47 52 59 0
50 52 73 0
57 0
57 59 73 0
47 48 50 55 57 63 0
47 48 52 55 59 65 0
47 50 52 57 59 73 0
48 50 63 0
48 52 65 0
50 52 73 0
48 50 52 63 65 73 0
57 0
55 57 59 63 65 73 0
57 59 73 0
63 65 73 0
54 60 0
60 0
54 58 0
54 56 58 68 0
54 56 60 70 0
54 58 60 78 0
56 60 70 0
60 0
56 58 60 68 70 78 0
58 60 78 0
68 70 78 0
46 0
48 50 63 0
48 52 65 0
50 52 73 0
48 50 63 0
48 52 65 0
50 52 73 0
48 50 52 63 65 73 0
63 65 73 0
63 65 73 0
46 49 0
47 49 56 0
47 53 60 0
47 49 56 0
47 53 60 0
47 49 53 56 60 70 0
49 0
49 53 70 0
49 53 70 0
56 60 70 0
60 0
56 60 70 0
60 0
47 50 57 0
47 52 59 0
47 50 52 57 59 73 0
50 52 73 0
50 52 73 0
54 57 0
54 57 0
57 59 73 0
47 53 60 0
54 60 0
60 0
60 0
54 58 0
55 58 64 0
47 48 49 55 56 62 0
47 48 53 55 60 66 0
47 49 53 56 60 70 0
47 48 49 55 56 62 0
47 48 50 55 57 63 0
47 48 52 55 59 65 0
47 49 50 56 57 67 0
47 49 52 56 59 69 0
47 50 52 57 59 73 0
47 48 49 55 56 62 0
47 48 50 55 57 63 0
47 48 51 55 58 64 0
47 48 53 55 60 66 0
47 49 50 56 57 67 0
47 49 51 56 58 68 0
47 49 53 56 60 70 0
47 50 51 57 58 72 0
47 50 53 57 60 74 0
47 51 53 58 60 78 0
47 48 49 50 55 56 57 62 63 67 0
47 48 49 51 55 56 58 62 64 68 0
47 48 49 52 55 56 59 62 65 69 0
47 48 49 53 55 56 60 62 66 70 0
47 48 50 51 55 57 58 63 64 72 0
47 48 50 52 55 57 59 63 65 73 0
47 48 50 53 55 57 60 63 66 74 0
47 48 51 52 55 58 59 64 65 77 0
47 48 51 53 55 58 60 64 66 78 0
47 48 52 53 55 59 60 65 66 80 0
47 49 50 51 56 57 58 67 68 72 0
47 49 50 52 56 57 59 67 69 73 0
47 49 50 53 56 57 60 67 70 74 0
47 49 51 52 56 58 59 68 69 77 0
47 49 51 53 56 58 60 68 70 78 0
47 49 52 53 56 59 60 69 70 80 0
47 50 51 52 57 58 59 72 73 77 0
47 50 51 53 57 58 60 72 74 78 0
47 50 52 53 57 59 60 73 74 80 0
47 51 52 53 58 59 60 77 78 80 0
48 50 63 0
48 50 61 63 0
48 50 52 63 65 73 0
48 49 62 0
48 49 53 62 66 70 0
48 53 66 0
49 0
49 53 70 0
48 50 61 63 0
48 49 50 62 63 67 0
48 49 52 62 65 69 0
48 50 52 63 65 73 0
49 50 52 67 69 73 0
48 49 50 62 63 67 0
48 49 62 0
48 49 51 62 64 68 0
48 49 53 62 66 70 0
48 50 63 0
48 50 51 63 64 72 0
48 50 53 63 66 74 0
48 53 66 0
48 51 53 64 66 78 0
49 50 67 0
49 50 51 67 68 72 0
49 50 53 67 70 74 0
49 53 70 0
49 51 53 68 70 78 0
50 53 74 0
50 51 53 72 74 78 0
48 50 51 61 63 64 72 0
48 49 50 62 63 67 0
48 49 50 51 62 63 64 67 68 72 0
48 49 50 52 62 63 65 67 69 73 0
48 49 50 53 62 63 66 67 70 74 0
48 49 52 62 65 69 0
48 49 53 62 66 70 0
48 49 51 52 62 64 65 68 69 77 0
48 49 51 53 62 64 66 68 70 78 0
48 49 52 53 62 65 66 69 70 80 0
48 50 52 63 65 73 0
48 50 53 63 66 74 0
48 50 51 52 63 64 65 72 73 77 0
48 50 51 53 63 64 66 72 74 78 0
48 50 52 53 63 65 66 73 74 80 0
48 52 53 65 66 80 0
48 51 52 53 64 65 66 77 78 80 0
49 50 67 0
49 50 52 67 69 73 0
49 50 53 67 70 74 0
49 50 51 52 67 68 69 72 73 77 0
49 50 51 53 67 68 70 72 74 78 0
49 50 52 67 69 73 79 0
49 50 52 53 67 69 70 73 74 80 0
49 52 69 79 0
49 52 53 69 70 80 0
49 51 52 53 68 69 70 77 78 80 0
50 52 73 79 0
50 52 53 73 74 80 0
50 51 52 53 72 73 74 77 78 80 0
54 56 57 67 0
54 56 57 67 0
54 56 58 68 0
54 56 60 70 0
54 57 58 72 0
54 57 60 74 0
54 58 60 78 0
54 56 57 67 0
54 56 57 58 67 68 72 0
54 56 57 60 67 70 74 0
54 56 58 60 68 70 78 0
54 57 58 60 72 74 78 0
55 56 60 62 66 70 0
55 60 66 0
55 56 57 62 63 67 0
55 56 59 62 65 69 0
55 57 59 63 65 73 0
56 57 67 0
56 57 59 67 69 73 0
56 59 69 0
57 59 73 0
55 56 57 62 63 67 0
55 56 58 62 64 68 0
55 56 60 62 66 70 0
55 57 63 71 0
55 57 58 63 64 72 0
55 57 60 63 66 74 0
55 58 64 0
55 60 66 0
55 58 60 64 66 78 0
56 57 58 67 68 72 0
56 57 60 67 70 74 0
56 58 60 68 70 78 0
57 58 71 72 0
57 60 71 74 0
57 58 60 72 74 78 0
58 60 78 0
56 57 67 0
57 71 0
55 56 57 58 62 63 64 67 68 72 0
55 56 57 59 62 63 65 67 69 73 0
55 56 57 60 62 63 66 67 70 74 0
55 56 58 62 64 68 76 0
55 56 58 59 62 64 65 68 69 77 0
55 56 58 60 62 64 66 68 70 78 0
55 56 60 62 66 70 0
55 56 59 60 62 65 66 69 70 80 0
55 57 58 63 64 71 72 0
55 57 59 63 65 71 73 0
55 57 60 63 66 71 74 0
55 57 58 59 63 64 65 72 73 77 0
55 57 58 60 63 64 66 72 74 78 0
55 57 59 60 63 65 66 73 74 80 0
55 58 64 76 0
55 58 59 64 65 77 0
55 58 60 64 66 78 0
55 60 66 0
55 59 60 65 66 80 0
55 58 60 64 66 76 78 0
55 58 59 60 64 65 66 77 78 80 0
56 57 58 67 68 72 75 0
56 57 59 67 69 73 0
56 57 60 67 70 74 0
56 57 58 59 67 68 69 72 73 77 0
56 57 58 60 67 68 70 72 74 78 0
56 57 59 60 67 69 70 73 74 80 0
56 58 59 68 69 75 77 0
56 58 60 68 70 75 78 0
56 59 60 69 70 80 0
56 58 60 68 70 76 78 0
56 58 59 60 68 69 70 77 78 80 0
57 58 71 72 75 0
57 59 71 73 0
57 60 71 74 0
57 58 59 71 72 73 77 0
57 58 60 71 72 74 78 0
57 59 60 71 73 74 80 0
57 58 59 72 73 75 77 0
57 58 60 72 74 75 78 0
57 59 60 73 74 80 0
57 58 59 60 72 73 74 77 78 80 0
58 59 75 77 0
58 60 75 78 0
59 60 80 0
58 60 76 78 0
58 59 60 77 78 80 0
58 59 60 75 77 78 80 0
67 68 72 0
67 70 74 0
68 70 78 0
72 74 78 0
67 68 70 72 74 78 0
68 70 78 0
63 71 0
63 0
61 63 71 0
61 63 0
63 65 71 73 0
63 65 73 0
62 66 70 0
62 66 70 0
66 0
61 63 0
62 63 67 0
62 63 65 67 69 73 0
62 65 69 0
63 65 73 0
67 69 73 0
67 69 73 0
62 63 67 0
62 63 67 0
62 63 64 67 68 72 0
62 63 66 67 70 74 0
62 64 68 0
62 66 70 0
62 64 66 68 70 78 0
63 71 0
63 64 71 72 0
63 66 71 74 0
63 64 72 0
63 66 74 0
63 64 66 72 74 78 0
66 0
64 66 78 0
67 68 72 0
67 70 74 0
67 68 70 72 74 78 0
71 74 0
71 72 74 78 0
61 63 64 71 72 0
61 63 64 72 0
71 72 75 0
62 63 64 67 68 72 0
62 63 65 67 69 73 0
62 63 65 67 69 73 0
62 63 66 67 70 74 0
62 63 64 65 67 68 69 72 73 77 0
62 63 64 66 67 68 70 72 74 78 0
62 63 65 66 67 69 70 73 74 80 0
62 64 68 76 0
62 64 66 68 70 78 0
62 66 70 0
62 64 68 76 0
62 64 65 68 69 77 0
62 66 70 0
62 65 66 69 70 80 0
62 64 66 68 70 76 78 0
62 64 65 66 68 69 70 77 78 80 0
63 65 71 73 0
63 66 71 74 0
63 64 65 71 72 73 77 0
63 64 66 71 72 74 78 0
63 65 66 71 73 74 80 0
63 64 65 72 73 77 0
63 65 66 73 74 80 0
63 64 65 66 72 73 74 77 78 80 0
66 0
65 66 80 0
64 66 76 78 0
64 65 66 77 78 80 0
64 66 76 78 0
67 68 69 72 73 77 0
67 69 73 79 0
67 69 73 79 0
67 69 70 73 74 80 0
67 68 69 72 73 75 77 0
67 68 70 72 74 75 78 0
67 69 73 79 0
67 69 70 73 74 80 0
67 68 69 70 72 73 74 77 78 80 0
68 70 75 78 0
68 70 76 78 0
68 69 70 75 77 78 80 0
71 73 74 80 0
71 72 73 75 77 0
71 72 74 75 78 0
71 73 74 80 0
71 72 73 74 77 78 80 0
72 73 74 75 77 78 80 0
75 77 78 80 0
