c generator ramsey55_fixed_boundary_free_edge_cnf_v1
c base_file_sha256 f5adf13e5791bb8fe4c58941e3d797c283223013290a2376935f1e1eef4ef31a
c base_graph6 jzGOSHBG[`hBhBs`\GRhAmcH\G\\GYmcMjhBt\G^Ts`]jhA]jhAnTs`jt\G\]jhBTymcMjt\G]jt\GVTymcHt]jhAmjt\GQynTs`dt]jhBdt]jhBQynTs`cmjt\GWdt]jhAAVTymcICmjt\GUCmjt\GO
c fixed_boundary all unlisted edges equal the base graph
c variable true means the named free edge is present
c clause order: lexicographic 5-subset clique-prevention clauses, then lexicographic 5-subset independent-prevention clauses
c forbidden_size 5 clique_clauses 322 independent_clauses 34
c var 1 edge 3 4
c var 2 edge 3 7
c var 3 edge 3 38
c var 4 edge 3 41
c var 5 edge 3 42
c var 6 edge 4 7
c var 7 edge 4 38
c var 8 edge 4 41
c var 9 edge 4 42
c var 10 edge 7 38
c var 11 edge 7 41
c var 12 edge 7 42
c var 13 edge 10 31
c var 14 edge 21 22
c var 15 edge 30 31
c var 16 edge 31 32
c var 17 edge 38 41
c var 18 edge 38 42
c var 19 edge 41 42
p cnf 19 356
-14 0
-11 0
-11 0
-11 0
-12 0
-11 0
-12 0
-11 -12 -19 0
-11 0
-11 -12 -19 0
-11 0
-11 0
-11 0
-11 -12 -19 0
-14 0
-19 0
-5 0
-5 0
-5 0
-5 0
-5 0
-5 0
-5 0
-5 0
-5 0
-5 0
-5 0
-5 0
-5 0
-5 0
-5 0
-1 -3 -7 0
-1 0
-1 -3 -7 0
-1 -3 -7 0
-3 0
-3 0
-7 0
-7 0
-7 0
-7 0
-7 0
-7 0
-7 0
-7 0
-1 -2 -3 -6 -7 -10 0
-1 -2 -5 -6 -9 -12 0
-1 -2 -3 -6 -7 -10 0
-1 -2 -4 -6 -8 -11 0
-1 -2 -4 -6 -8 -11 0
-1 -2 -3 -4 -6 -7 -8 -10 -11 -17 0
-1 -2 -3 -5 -6 -7 -9 -10 -12 -18 0
-1 -2 -4 -5 -6 -8 -9 -11 -12 -19 0
-1 -3 -7 0
-1 -3 -7 0
-1 -4 -8 0
-1 -3 -4 -7 -8 -17 0
-1 -3 -7 0
-1 -5 -9 0
-1 -3 -5 -7 -9 -18 0
-1 0
-1 -3 -7 0
-1 -3 -7 0
-1 -5 -9 0
-1 -3 -5 -7 -9 -18 0
-1 -3 -7 0
-1 -3 -4 -7 -8 -17 0
-1 -3 -5 -7 -9 -18 0
-1 -3 -4 -5 -7 -8 -9 -17 -18 -19 0
-2 0
-2 0
-2 -3 -10 0
-2 0
-2 0
-2 -4 -11 0
-2 0
-2 0
-2 0
-2 -4 -11 0
-2 0
-2 0
-2 0
-2 -4 -11 0
-2 0
-2 -3 -10 0
-2 -4 -11 0
-2 0
-2 -3 -10 0
-2 -4 -11 0
-2 0
-2 0
-2 0
-2 -4 -11 0
-2 -3 -10 0
-2 -3 -4 -10 -11 -17 0
-3 0
-3 0
-3 0
-3 0
-4 0
-4 0
-4 0
-4 0
-4 0
-3 0
-3 -4 -17 0
-3 0
-3 0
-3 -4 -17 0
-2 -5 -12 0
-2 -5 -12 0
-2 -3 -5 -10 -12 -18 0
-2 -4 -11 0
-2 -5 -12 0
-2 -5 -12 0
-2 -4 -5 -11 -12 -19 0
-2 -4 -11 0
-2 -4 -11 0
-2 -5 -12 0
-2 -4 -11 0
-2 -4 -5 -11 -12 -19 0
-2 -4 -11 0
-2 -3 -4 -10 -11 -17 0
-2 -5 -12 0
-2 -3 -4 -10 -11 -17 0
-2 -3 -5 -10 -12 -18 0
-2 -4 -5 -11 -12 -19 0
-2 -5 -12 0
-2 -3 -4 -5 -10 -11 -12 -17 -18 -19 0
-4 0
-3 0
-3 0
-3 -5 -18 0
-3 0
-3 0
-3 -5 -18 0
-3 -5 -18 0
-3 -5 -18 0
-4 0
-3 0
-3 0
-3 -4 -17 0
-3 -5 -18 0
-4 0
-4 -5 -19 0
-4 0
-4 -5 -19 0
-4 0
-3 0
-3 0
-3 -5 -18 0
-3 -5 -18 0
-3 -4 -5 -17 -18 -19 0
-9 0
-9 0
-9 0
-9 0
-9 0
-6 0
-6 0
-6 -8 -11 0
-6 -8 -11 0
-6 0
-6 0
-6 0
-6 -9 -12 0
-6 -7 -10 0
-6 -7 -10 0
-6 -7 -9 -10 -12 -18 0
-6 -9 -12 0
-6 0
-6 0
-6 -8 -11 0
-6 -8 -11 0
-6 -7 -10 0
-6 -7 -8 -10 -11 -17 0
-6 -7 -9 -10 -12 -18 0
-6 -9 -12 0
-6 -8 -9 -11 -12 -19 0
-6 0
-6 -8 -11 0
-6 -7 -10 0
-6 -7 -8 -10 -11 -17 0
-6 -8 -11 0
-6 -8 -11 0
-6 -8 -9 -11 -12 -19 0
-6 -7 -9 -10 -12 -18 0
-6 -7 -8 -9 -10 -11 -12 -17 -18 -19 0
-7 0
-8 0
-7 0
-8 0
-8 0
-7 0
-7 -8 -17 0
-7 0
-7 0
-7 0
-7 -9 -18 0
-9 0
-8 0
-7 -8 -17 0
-8 0
-8 0
-8 0
-8 -9 -19 0
-7 -8 -17 0
-7 -9 -18 0
-7 -8 -9 -17 -18 -19 0
-8 0
-8 0
-7 0
-7 0
-8 0
-7 -8 -17 0
-7 0
-7 0
-7 0
-7 0
-7 0
-7 -9 -18 0
-9 0
-7 -9 -18 0
-8 0
-7 0
-7 -8 -17 0
-7 -8 -17 0
-7 -8 -17 0
-7 0
-7 -9 -18 0
-9 0
-8 0
-7 -9 -18 0
-7 -8 -9 -17 -18 -19 0
-7 0
-7 -9 -18 0
-9 0
-7 -9 -18 0
-7 0
-7 0
-7 0
-7 -9 -18 0
-9 0
-7 -9 -18 0
-7 -9 -18 0
-11 0
-11 0
-11 0
-11 0
-11 0
-11 0
-10 -11 -17 0
-11 0
-11 0
-10 -11 -17 0
-17 0
-17 0
-11 0
-10 -11 -17 0
-11 0
-11 0
-10 -11 -17 0
-12 0
-12 0
-12 0
-12 0
-12 0
-12 0
-10 -12 -18 0
-11 0
-11 0
-11 0
-11 0
-12 0
-12 0
-12 0
-10 -12 -18 0
-11 0
-12 0
-12 0
-12 0
-11 -12 -19 0
-11 -12 -19 0
-11 -12 -19 0
-11 0
-11 -12 -19 0
-11 0
-12 0
-12 0
-10 -12 -18 0
-10 -11 -12 -17 -18 -19 0
-11 -12 -19 0
-11 0
-11 -12 -19 0
-12 0
-10 -12 -18 0
-10 -11 -12 -17 -18 -19 0
-13 -15 0
-17 0
-17 0
-17 0
-13 -16 0
-13 -15 -16 0
-18 0
-18 0
-18 0
-17 0
-17 0
-18 0
-18 0
-18 0
-18 0
-18 0
-18 0
-18 0
-17 0
-18 0
-19 0
-18 0
-18 0
-18 0
-18 0
6 7 10 0
6 7 10 0
6 7 10 0
6 7 8 10 11 17 0
10 0
10 0
10 11 17 0
10 0
10 11 17 0
10 0
10 11 17 0
1 2 3 6 7 10 0
1 2 3 4 6 7 8 10 11 17 0
1 2 3 5 6 7 9 10 12 18 0
1 2 4 5 6 8 9 11 12 19 0
1 3 4 5 7 8 9 17 18 19 0
2 3 10 0
2 3 4 10 11 17 0
2 3 4 10 11 17 0
2 3 4 5 10 11 12 17 18 19 0
6 7 9 10 12 18 0
6 7 9 10 12 18 0
6 7 8 9 10 11 12 17 18 19 0
13 0
13 0
12 13 0
10 12 18 0
10 11 12 17 18 19 0
13 0
13 0
13 0
13 0
13 0
13 0
