c generator ramsey55_fixed_boundary_free_edge_cnf_v1
c base_file_sha256 f5adf13e5791bb8fe4c58941e3d797c283223013290a2376935f1e1eef4ef31a
c base_graph6 jzGOSHBG[`hBhBs`\GRhAmcH\G\\GYmcMjhBt\G^Ts`]jhA]jhAnTs`jt\G\]jhBTymcMjt\G]jt\GVTymcHt]jhAmjt\GQynTs`dt]jhBdt]jhBQynTs`cmjt\GWdt]jhAAVTymcICmjt\GUCmjt\GO
c fixed_boundary all unlisted edges equal the base graph
c variable true means the named free edge is present
c clause order: lexicographic 5-subset clique-prevention clauses, then lexicographic 5-subset independent-prevention clauses
c forbidden_size 5 clique_clauses 3367 independent_clauses 2408
c var 1 edge 0 30
c var 2 edge 0 42
c var 3 edge 2 3
c var 4 edge 2 4
c var 5 edge 2 21
c var 6 edge 3 4
c var 7 edge 3 7
c var 8 edge 3 10
c var 9 edge 3 15
c var 10 edge 3 21
c var 11 edge 3 22
c var 12 edge 3 30
c var 13 edge 3 31
c var 14 edge 3 32
c var 15 edge 3 38
c var 16 edge 3 41
c var 17 edge 3 42
c var 18 edge 4 5
c var 19 edge 4 7
c var 20 edge 4 10
c var 21 edge 4 21
c var 22 edge 4 22
c var 23 edge 4 30
c var 24 edge 4 31
c var 25 edge 4 32
c var 26 edge 4 38
c var 27 edge 4 41
c var 28 edge 4 42
c var 29 edge 6 7
c var 30 edge 7 8
c var 31 edge 7 10
c var 32 edge 7 21
c var 33 edge 7 22
c var 34 edge 7 30
c var 35 edge 7 31
c var 36 edge 7 32
c var 37 edge 7 38
c var 38 edge 7 41
c var 39 edge 7 42
c var 40 edge 9 10
c var 41 edge 9 42
c var 42 edge 10 11
c var 43 edge 10 21
c var 44 edge 10 22
c var 45 edge 10 30
c var 46 edge 10 31
c var 47 edge 10 32
c var 48 edge 10 38
c var 49 edge 10 41
c var 50 edge 10 42
c var 51 edge 20 21
c var 52 edge 21 22
c var 53 edge 21 30
c var 54 edge 21 31
c var 55 edge 21 32
c var 56 edge 21 38
c var 57 edge 21 41
c var 58 edge 21 42
c var 59 edge 22 23
c var 60 edge 22 30
c var 61 edge 22 31
c var 62 edge 22 32
c var 63 edge 22 38
c var 64 edge 22 41
c var 65 edge 22 42
c var 66 edge 25 41
c var 67 edge 29 30
c var 68 edge 30 31
c var 69 edge 30 32
c var 70 edge 30 38
c var 71 edge 30 41
c var 72 edge 30 42
c var 73 edge 31 32
c var 74 edge 31 38
c var 75 edge 31 41
c var 76 edge 31 42
c var 77 edge 32 33
c var 78 edge 32 38
c var 79 edge 32 41
c var 80 edge 32 42
c var 81 edge 37 38
c var 82 edge 38 39
c var 83 edge 38 41
c var 84 edge 38 42
c var 85 edge 40 41
c var 86 edge 41 42
p cnf 86 5775
-5 0
-5 -52 0
-5 0
-5 -54 0
-59 0
-61 0
-2 -76 0
-1 -53 0
-52 -59 0
-1 -52 -53 -60 0
-52 -54 -61 0
-2 -52 -58 -65 0
-1 -53 0
-1 -53 -54 -68 0
-1 -2 -53 -58 -72 0
-2 -54 -58 -76 0
-1 -59 -60 0
-1 -60 -61 -68 0
-1 -2 -60 -65 -72 0
-2 -61 -65 -76 0
-1 -2 -68 -72 -76 0
-5 -51 -52 0
-5 -51 0
-5 -52 -59 0
-5 -52 -54 -61 0
-5 0
-5 -54 0
-61 0
-31 -32 -43 -51 0
-31 -33 -44 0
-1 -31 -34 -45 0
-31 -38 -49 0
-2 -31 -39 -50 0
-31 -32 -33 -43 -44 -52 0
-31 -32 -43 0
-1 -31 -32 -34 -43 -45 -53 0
-31 -32 -35 -43 -46 -54 0
-31 -32 -38 -43 -49 -57 0
-2 -31 -32 -39 -43 -50 -58 0
-31 -33 -44 -59 0
-1 -31 -33 -34 -44 -45 -60 0
-31 -33 -35 -44 -46 -61 0
-31 -33 -38 -44 -49 -64 0
-2 -31 -33 -39 -44 -50 -65 0
-1 -31 -34 -45 0
-31 -38 -49 0
-1 -31 -34 -35 -45 -46 -68 0
-1 -31 -34 -38 -45 -49 -71 0
-1 -2 -31 -34 -39 -45 -50 -72 0
-31 -35 -38 -46 -49 -75 0
-2 -31 -35 -39 -46 -50 -76 0
-2 -31 -38 -39 -49 -50 -86 0
-1 -32 -34 -53 0
-32 -38 -57 0
-38 0
-1 -34 -38 -71 0
-32 -33 -51 -52 0
-1 -32 -34 -51 -53 0
-32 -38 -51 -57 0
-2 -32 -39 -51 -58 0
-1 -33 -34 -60 0
-33 0
-33 -38 -64 0
-2 -33 -39 -65 0
-38 0
-1 -34 -38 -71 0
-1 -2 -34 -39 -72 0
-2 -38 -39 -86 0
-32 -33 -52 -59 0
-1 -32 -33 -34 -52 -53 -60 0
-32 -33 -35 -52 -54 -61 0
-32 -33 -38 -52 -57 -64 0
-2 -32 -33 -39 -52 -58 -65 0
-1 -32 -34 -53 0
-32 -38 -57 0
-1 -32 -34 -35 -53 -54 -68 0
-1 -32 -34 -38 -53 -57 -71 0
-1 -2 -32 -34 -39 -53 -58 -72 0
-32 -35 -38 -54 -57 -75 0
-2 -32 -35 -39 -54 -58 -76 0
-2 -32 -38 -39 -57 -58 -86 0
-1 -33 -34 -59 -60 0
-33 -59 0
-33 -38 -59 -64 0
-1 -33 -34 -60 -67 0
-33 -35 -61 0
-33 0
-33 -38 -64 0
-2 -33 -39 -65 0
-1 -33 -34 -35 -60 -61 -68 0
-1 -33 -34 -38 -60 -64 -71 0
-1 -2 -33 -34 -39 -60 -65 -72 0
-33 -35 -38 -61 -64 -75 0
-2 -33 -35 -39 -61 -65 -76 0
-2 -33 -38 -39 -64 -65 -86 0
-38 -66 0
-1 -34 -38 -71 0
-38 -66 0
-38 0
-1 -34 -35 -67 -68 0
-1 -34 -38 -67 -71 0
-1 -2 -34 -39 -67 -72 0
-35 -38 -75 0
-2 -35 -39 -76 0
-2 -38 -39 -86 0
-1 -34 -35 -38 -68 -71 -75 0
-1 -2 -34 -35 -39 -68 -72 -76 0
-1 -2 -34 -38 -39 -71 -72 -86 0
-2 -35 -38 -39 -75 -76 -86 0
-1 -44 -45 -60 0
-44 -49 -64 0
-2 -44 -50 -65 0
-1 -45 -49 -71 0
-1 -2 -45 -50 -72 0
-2 -49 -50 -86 0
-43 -44 -51 -52 0
-1 -43 -45 -51 -53 0
-43 -51 0
-43 -49 -51 -57 0
-2 -43 -50 -51 -58 0
-1 -44 -45 -60 0
-44 -49 -64 0
-2 -44 -50 -65 0
-1 -45 -49 -71 0
-1 -2 -45 -50 -72 0
-2 -49 -50 -86 0
-43 -44 -52 -59 0
-1 -43 -44 -45 -52 -53 -60 0
-43 -44 -46 -52 -54 -61 0
-43 -44 -49 -52 -57 -64 0
-2 -43 -44 -50 -52 -58 -65 0
-1 -43 -45 -53 0
-43 0
-43 -49 -57 0
-1 -43 -45 -46 -53 -54 -68 0
-1 -43 -45 -49 -53 -57 -71 0
-1 -2 -43 -45 -50 -53 -58 -72 0
-43 -46 -54 0
-43 -46 -49 -54 -57 -75 0
-2 -43 -46 -50 -54 -58 -76 0
-2 -43 -49 -50 -57 -58 -86 0
-1 -44 -45 -59 -60 0
-44 -49 -59 -64 0
-1 -44 -45 -46 -60 -61 -68 0
-1 -44 -45 -49 -60 -64 -71 0
-1 -2 -44 -45 -50 -60 -65 -72 0
-44 -46 -49 -61 -64 -75 0
-2 -44 -46 -50 -61 -65 -76 0
-2 -44 -49 -50 -64 -65 -86 0
-1 -45 -49 -71 0
-1 -45 -46 -49 -68 -71 -75 0
-1 -2 -45 -46 -50 -68 -72 -76 0
-1 -2 -45 -49 -50 -71 -72 -86 0
-2 -46 -49 -50 -75 -76 -86 0
-1 -71 0
-1 -60 -64 -71 0
-1 -2 -60 -65 -72 0
-2 -64 -65 -86 0
-1 -2 -71 -72 -86 0
-2 -76 0
-1 -71 0
-1 -53 -57 -71 0
-1 -71 0
-1 -71 0
-1 -67 -71 0
-1 -71 0
-1 -68 -71 -75 0
-1 -51 -52 -53 -60 0
-51 -52 -57 -64 0
-2 -51 -52 -58 -65 0
-1 -51 -53 -57 -71 0
-1 -2 -51 -53 -58 -72 0
-2 -51 -57 -58 -86 0
-1 -60 -64 -71 0
-1 -2 -60 -65 -72 0
-2 -64 -65 -86 0
-1 -2 -71 -72 -86 0
-1 -52 -53 -59 -60 0
-52 -57 -59 -64 0
-1 -52 -53 -54 -60 -61 -68 0
-1 -52 -53 -57 -60 -64 -71 0
-1 -2 -52 -53 -58 -60 -65 -72 0
-52 -54 -57 -61 -64 -75 0
-2 -52 -54 -58 -61 -65 -76 0
-2 -52 -57 -58 -64 -65 -86 0
-1 -53 -57 -71 0
-1 -53 -54 -57 -68 -71 -75 0
-1 -2 -53 -54 -58 -68 -72 -76 0
-1 -2 -53 -57 -58 -71 -72 -86 0
-2 -54 -57 -58 -75 -76 -86 0
-1 -59 -60 -64 -71 0
-1 -60 -61 -67 -68 0
-1 -60 -64 -67 -71 0
-1 -2 -60 -65 -67 -72 0
-61 -64 -75 0
-2 -61 -65 -76 0
-2 -64 -65 -86 0
-1 -60 -61 -64 -68 -71 -75 0
-1 -2 -60 -61 -65 -68 -72 -76 0
-1 -2 -60 -64 -65 -71 -72 -86 0
-2 -61 -64 -65 -75 -76 -86 0
-1 -67 -68 -71 -75 0
-1 -2 -67 -68 -72 -76 0
-1 -2 -67 -71 -72 -86 0
-2 -75 -76 -86 0
-1 -2 -68 -71 -72 -75 -76 -86 0
-3 -9 -11 0
-3 -9 -13 0
-3 -5 -10 -11 -52 0
-3 -5 -10 0
-3 -5 -10 -13 -54 0
-3 -5 -10 -14 -55 0
-3 -11 -59 0
-3 -11 0
-3 -11 -13 -61 0
-3 -11 -14 -62 0
-3 -13 0
-3 -13 -14 -73 0
-5 -55 0
-61 0
-5 -52 -59 0
-5 -52 -54 -61 0
-5 -52 -55 -62 0
-5 -54 -55 -73 0
-61 0
-61 -62 -73 0
-9 -13 0
-9 -17 0
-17 0
-13 -17 -76 0
-9 -13 0
-9 -17 0
-9 -11 -13 -61 0
-9 -11 -17 -65 0
-9 -17 0
-9 -13 -17 -76 0
-13 0
-17 0
-13 0
-17 0
-12 -13 -68 0
-12 -17 -72 0
-13 -17 -76 0
-10 -13 -54 0
-10 -14 -55 0
-10 -17 -58 0
-17 0
-13 -14 -73 0
-13 -17 -76 0
-14 -17 -80 0
-10 -11 -52 -59 0
-10 -11 -12 -52 -53 -60 0
-10 -11 -13 -52 -54 -61 0
-10 -11 -14 -52 -55 -62 0
-10 -11 -52 0
-10 -11 -17 -52 -58 -65 0
-10 -12 -53 0
-10 -12 -53 0
-10 -17 -58 0
-10 -12 -13 -53 -54 -68 0
-10 -12 -14 -53 -55 -69 0
-10 -12 -17 -53 -58 -72 0
-10 -13 -14 -54 -55 -73 0
-10 -13 -17 -54 -58 -76 0
-10 -14 -55 0
-10 -14 -17 -55 -58 -80 0
-11 -12 -59 -60 0
-11 -13 -61 0
-11 0
-11 -17 -65 0
-11 -12 -13 -60 -61 -68 0
-11 -12 -14 -60 -62 -69 0
-11 -12 -17 -60 -65 -72 0
-11 -13 -14 -61 -62 -73 0
-11 -13 -17 -61 -65 -76 0
-11 -14 -62 0
-11 -14 -17 -62 -65 -80 0
-17 0
-13 -17 -76 0
-17 0
-12 -17 -72 0
-12 -13 -14 -68 -69 -73 0
-12 -13 -17 -68 -72 -76 0
-12 -14 -17 -69 -72 -80 0
-13 -14 -17 -73 -76 -80 0
-61 0
-52 -53 -60 0
-52 -54 -61 0
-53 0
-53 -54 -68 0
-53 0
-61 0
-60 -61 -68 0
-76 0
-54 -55 -73 0
-54 -58 -76 0
-55 0
-55 -58 -80 0
-76 0
-73 -76 -80 0
-76 0
-53 0
-53 -55 -69 0
-53 0
-55 0
-76 0
-61 -65 -76 0
-76 0
-76 0
-68 -72 -76 0
-54 -55 -73 0
-54 -58 -76 0
-55 -58 -80 0
-73 -76 -80 0
-52 -53 -59 -60 0
-52 -53 -54 -60 -61 -68 0
-52 -53 -55 -60 -62 -69 0
-52 -53 -58 -60 -65 -72 0
-52 -54 -55 -61 -62 -73 0
-52 -54 -58 -61 -65 -76 0
-52 -55 -62 0
-52 -55 -58 -62 -65 -80 0
-53 0
-53 -58 -72 0
-53 -54 -55 -68 -69 -73 0
-53 -54 -58 -68 -72 -76 0
-53 -55 -58 -69 -72 -80 0
-54 -55 -58 -73 -76 -80 0
-61 -65 -76 0
-60 -61 -62 -68 -69 -73 0
-60 -61 -65 -68 -72 -76 0
-60 -62 -65 -69 -72 -80 0
-61 -62 -65 -73 -76 -80 0
-68 -69 -72 -73 -76 -80 0
-3 -4 -6 -14 -25 0
-3 -4 -6 -15 -26 0
-3 -4 -5 -6 -10 -11 -21 -22 -52 0
-3 -4 -5 -6 -10 -13 -21 -24 -54 0
-3 -4 -5 -6 -10 -14 -21 -25 -55 0
-3 -4 -5 -6 -10 -21 0
-3 -4 -5 -6 -10 -15 -21 -26 -56 0
-3 -4 -6 -11 -22 0
-3 -4 -6 -11 -13 -22 -24 -61 0
-3 -4 -6 -11 -14 -22 -25 -62 0
-3 -4 -6 -11 -15 -22 -26 -63 0
-3 -4 -6 0
-3 -4 -6 -13 -24 0
-3 -4 -6 -15 -26 0
-3 -4 -6 -14 -25 0
-3 -4 -6 -15 -26 0
-3 -4 -6 -13 -14 -24 -25 -73 0
-3 -4 -6 -13 -24 0
-3 -4 -6 -13 -15 -24 -26 -74 0
-3 -4 -6 -14 -25 -77 0
-3 -4 -6 -14 -15 -25 -26 -78 0
-3 -9 -11 -13 -61 0
-3 -9 -11 -15 -63 0
-3 -9 -15 0
-3 -9 -13 0
-3 -9 -13 -15 -74 0
-3 -14 -15 -78 0
-3 -5 -10 -11 -52 -59 0
-3 -5 -10 -11 -13 -52 -54 -61 0
-3 -5 -10 -11 -14 -52 -55 -62 0
-3 -5 -10 -11 -15 -52 -56 -63 0
-3 -5 -10 0
-3 -5 -10 -13 -14 -54 -55 -73 0
-3 -5 -10 -13 -54 0
-3 -5 -10 -13 -15 -54 -56 -74 0
-3 -5 -10 -14 -55 -77 0
-3 -5 -10 -14 -15 -55 -56 -78 0
-3 -11 -13 -61 0
-3 -11 -15 -63 0
-3 -11 -13 -14 -61 -62 -73 0
-3 -11 -13 -15 -61 -63 -74 0
-3 -11 -14 -15 -62 -63 -78 0
-3 -15 0
-3 -13 -15 -74 0
-3 -14 -15 -78 0
-3 -13 -14 -73 -77 0
-3 -13 -14 -15 -73 -74 -78 0
-4 -25 0
-4 -5 -21 -25 -55 0
-4 -5 -21 0
-4 -25 0
-4 -26 0
-4 -25 -26 -78 0
-4 -25 0
-4 -26 0
-4 -25 0
-4 -26 0
-4 -24 -25 -73 0
-4 -24 -26 -74 0
-4 -25 -26 -78 0
-4 -5 -21 -22 -51 -52 0
-4 -5 -21 -25 -51 -55 0
-4 -5 -21 -51 0
-4 -5 -21 -26 -51 -56 0
-4 -22 -25 -62 0
-4 -22 -26 -63 0
-4 -25 -77 0
-4 -25 -26 -78 0
-4 -5 -21 -22 -24 -52 -54 -61 0
-4 -5 -21 -22 -25 -52 -55 -62 0
-4 -5 -21 -22 -52 0
-4 -5 -21 -22 -26 -52 -56 -63 0
-4 -5 -21 -24 -25 -54 -55 -73 0
-4 -5 -21 -24 -54 0
-4 -5 -21 -24 -26 -54 -56 -74 0
-4 -5 -21 -25 -55 -77 0
-4 -5 -21 -25 -26 -55 -56 -78 0
-4 -5 -21 0
-4 -22 -24 -61 0
-4 -22 -26 -63 0
-4 -22 -24 -61 0
-4 -22 -24 -25 -61 -62 -73 0
-4 -22 -24 -26 -61 -63 -74 0
-4 -22 -25 -26 -62 -63 -78 0
-4 -26 0
-4 -24 -26 -74 0
-4 -25 -26 -78 0
-4 -24 -25 -73 -77 0
-4 -24 -25 -26 -73 -74 -78 0
-78 0
-5 -52 -59 0
-5 -52 -54 -61 0
-5 -52 -55 -62 0
-5 -52 -56 -63 0
-5 -54 -55 -73 0
-5 -54 -56 -74 0
-5 -55 -56 -78 0
-61 0
-61 -62 -73 0
-61 -63 -74 0
-62 -63 -78 0
-78 0
-73 -74 -78 0
-61 0
-61 -63 -74 0
-78 0
-78 0
-78 0
-73 -74 -78 0
-5 -51 -52 -55 -62 0
-5 -51 -52 -56 -63 0
-5 -51 -55 -77 0
-5 -51 -55 -56 -78 0
-62 -63 -78 0
-5 -52 -59 0
-5 -52 -54 -55 -61 -62 -73 0
-5 -52 -54 -56 -61 -63 -74 0
-5 -52 -55 -56 -62 -63 -78 0
-5 0
-5 -54 -55 -73 -77 0
-5 -54 -55 -56 -73 -74 -78 0
-61 -63 -74 0
-61 -62 -63 -73 -74 -78 0
-6 -7 -18 -19 0
-6 -7 -10 -18 -19 -21 -32 0
-6 -7 -18 -19 0
-6 -7 -12 -18 -19 -23 -34 0
-6 -7 -14 -18 -19 -25 -36 0
-6 -7 -18 -19 0
-6 -7 -15 -18 -19 -26 -37 0
-6 -7 -16 -18 -19 -27 -38 0
-6 -12 -18 -23 0
-6 -15 -18 -26 0
-6 -10 -12 -18 -21 -23 -53 0
-6 -10 -14 -18 -21 -25 -55 0
-6 -10 -18 -21 0
-6 -10 -15 -18 -21 -26 -56 0
-6 -10 -16 -18 -21 -27 -57 0
-6 -18 0
-6 -14 -18 -25 0
-6 -15 -18 -26 0
-6 -16 -18 -27 -66 0
-6 -15 -18 -26 0
-6 -12 -14 -18 -23 -25 -69 0
-6 -12 -15 -18 -23 -26 -70 0
-6 -12 -16 -18 -23 -27 -71 0
-6 -14 -18 -25 0
-6 -14 -15 -18 -25 -26 -78 0
-6 -14 -16 -18 -25 -27 -79 0
-6 -16 -18 -27 0
-6 -15 -16 -18 -26 -27 -83 0
-6 -7 -8 -19 -20 -31 0
-6 -7 -8 -10 -19 -20 -21 -31 -32 -43 0
-6 -7 -8 -11 -19 -20 -22 -31 -33 -44 0
-6 -7 -8 -12 -19 -20 -23 -31 -34 -45 0
-6 -7 -8 -13 -19 -20 -24 -31 -35 -46 0
-6 -7 -8 -14 -19 -20 -25 -31 -36 -47 0
-6 -7 -8 -15 -19 -20 -26 -31 -37 -48 0
-6 -7 -8 -16 -19 -20 -27 -31 -38 -49 0
-6 -7 -8 -17 -19 -20 -28 -31 -39 -50 0
-6 -7 -12 -19 -23 -34 0
-6 -7 -13 -19 -24 -35 0
-6 -7 -15 -19 -26 -37 0
-6 -7 -17 -19 -28 -39 0
-6 -7 -10 -11 -19 -21 -22 -32 -33 -52 0
-6 -7 -10 -12 -19 -21 -23 -32 -34 -53 0
-6 -7 -10 -13 -19 -21 -24 -32 -35 -54 0
-6 -7 -10 -14 -19 -21 -25 -32 -36 -55 0
-6 -7 -10 -19 -21 -32 0
-6 -7 -10 -15 -19 -21 -26 -32 -37 -56 0
-6 -7 -10 -16 -19 -21 -27 -32 -38 -57 0
-6 -7 -10 -17 -19 -21 -28 -32 -39 -58 0
-6 -7 -11 -12 -19 -22 -23 -33 -34 -60 0
-6 -7 -11 -13 -19 -22 -24 -33 -35 -61 0
-6 -7 -11 -14 -19 -22 -25 -33 -36 -62 0
-6 -7 -11 -19 -22 -33 0
-6 -7 -11 -15 -19 -22 -26 -33 -37 -63 0
-6 -7 -11 -16 -19 -22 -27 -33 -38 -64 0
-6 -7 -11 -17 -19 -22 -28 -33 -39 -65 0
-6 -7 -14 -19 -25 -36 0
-6 -7 -15 -19 -26 -37 0
-6 -7 -16 -19 -27 -38 -66 0
-6 -7 -12 -13 -19 -23 -24 -34 -35 -68 0
-6 -7 -12 -14 -19 -23 -25 -34 -36 -69 0
-6 -7 -12 -15 -19 -23 -26 -34 -37 -70 0
-6 -7 -12 -16 -19 -23 -27 -34 -38 -71 0
-6 -7 -12 -17 -19 -23 -28 -34 -39 -72 0
-6 -7 -13 -14 -19 -24 -25 -35 -36 -73 0
-6 -7 -13 -15 -19 -24 -26 -35 -37 -74 0
-6 -7 -13 -16 -19 -24 -27 -35 -38 -75 0
-6 -7 -13 -17 -19 -24 -28 -35 -39 -76 0
-6 -7 -14 -19 -25 -36 0
-6 -7 -14 -15 -19 -25 -26 -36 -37 -78 0
-6 -7 -14 -16 -19 -25 -27 -36 -38 -79 0
-6 -7 -14 -17 -19 -25 -28 -36 -39 -80 0
-6 -7 -16 -19 -27 -38 0
-6 -7 -15 -16 -19 -26 -27 -37 -38 -83 0
-6 -7 -15 -17 -19 -26 -28 -37 -39 -84 0
-6 -7 -16 -17 -19 -27 -28 -38 -39 -86 0
-6 -8 -20 0
-6 -8 -12 -20 -23 -45 0
-6 -8 -13 -20 -24 -46 0
-6 -8 -20 0
-6 -8 -15 -20 -26 -48 0
-6 -8 -17 -20 -28 -50 0
-6 -8 -10 -11 -20 -21 -22 -43 -44 -52 0
-6 -8 -10 -12 -20 -21 -23 -43 -45 -53 0
-6 -8 -10 -13 -20 -21 -24 -43 -46 -54 0
-6 -8 -10 -14 -20 -21 -25 -43 -47 -55 0
-6 -8 -10 -20 -21 -43 0
-6 -8 -10 -15 -20 -21 -26 -43 -48 -56 0
-6 -8 -10 -16 -20 -21 -27 -43 -49 -57 0
-6 -8 -10 -17 -20 -21 -28 -43 -50 -58 0
-6 -8 -11 -20 -22 -44 0
-6 -8 -11 -12 -20 -22 -23 -44 -45 -60 0
-6 -8 -11 -13 -20 -22 -24 -44 -46 -61 0
-6 -8 -11 -14 -20 -22 -25 -44 -47 -62 0
-6 -8 -11 -15 -20 -22 -26 -44 -48 -63 0
-6 -8 -11 -16 -20 -22 -27 -44 -49 -64 0
-6 -8 -11 -17 -20 -22 -28 -44 -50 -65 0
-6 -8 -20 0
-6 -8 -13 -20 -24 -46 0
-6 -8 -15 -20 -26 -48 0
-6 -8 -17 -20 -28 -50 0
-6 -8 -20 0
-6 -8 -15 -20 -26 -48 0
-6 -8 -17 -20 -28 -50 0
-6 -8 -12 -13 -20 -23 -24 -45 -46 -68 0
-6 -8 -12 -14 -20 -23 -25 -45 -47 -69 0
-6 -8 -12 -15 -20 -23 -26 -45 -48 -70 0
-6 -8 -12 -16 -20 -23 -27 -45 -49 -71 0
-6 -8 -12 -17 -20 -23 -28 -45 -50 -72 0
-6 -8 -13 -14 -20 -24 -25 -46 -47 -73 0
-6 -8 -13 -20 -24 -46 0
-6 -8 -13 -15 -20 -24 -26 -46 -48 -74 0
-6 -8 -13 -16 -20 -24 -27 -46 -49 -75 0
-6 -8 -13 -17 -20 -24 -28 -46 -50 -76 0
-6 -8 -14 -20 -25 -47 -77 0
-6 -8 -14 -15 -20 -25 -26 -47 -48 -78 0
-6 -8 -14 -16 -20 -25 -27 -47 -49 -79 0
-6 -8 -14 -17 -20 -25 -28 -47 -50 -80 0
-6 -8 -15 -16 -20 -26 -27 -48 -49 -83 0
-6 -8 -15 -17 -20 -26 -28 -48 -50 -84 0
-6 -8 -16 -17 -20 -27 -28 -49 -50 -86 0
-6 -12 -23 0
-6 -15 -26 0
-6 -15 -26 0
-6 -12 -14 -23 -25 -69 0
-6 -12 -15 -23 -26 -70 0
-6 -12 -16 -23 -27 -71 0
-6 -14 -25 0
-6 -14 -15 -25 -26 -78 0
-6 -14 -16 -25 -27 -79 0
-6 -16 -27 0
-6 -15 -16 -26 -27 -83 0
-6 -13 -24 0
-6 -15 -26 0
-6 -17 -28 0
-6 -12 -13 -23 -24 -68 0
-6 -12 -15 -23 -26 -70 0
-6 -12 -17 -23 -28 -72 0
-6 -13 -24 0
-6 -13 -15 -24 -26 -74 0
-6 -13 -17 -24 -28 -76 0
-6 -15 -17 -26 -28 -84 0
-6 -10 -11 -12 -21 -22 -23 -52 -53 -60 0
-6 -10 -11 -13 -21 -22 -24 -52 -54 -61 0
-6 -10 -11 -14 -21 -22 -25 -52 -55 -62 0
-6 -10 -11 -21 -22 -52 0
-6 -10 -11 -15 -21 -22 -26 -52 -56 -63 0
-6 -10 -11 -16 -21 -22 -27 -52 -57 -64 0
-6 -10 -11 -17 -21 -22 -28 -52 -58 -65 0
-6 -10 -12 -13 -21 -23 -24 -53 -54 -68 0
-6 -10 -12 -14 -21 -23 -25 -53 -55 -69 0
-6 -10 -12 -15 -21 -23 -26 -53 -56 -70 0
-6 -10 -12 -16 -21 -23 -27 -53 -57 -71 0
-6 -10 -12 -17 -21 -23 -28 -53 -58 -72 0
-6 -10 -13 -14 -21 -24 -25 -54 -55 -73 0
-6 -10 -13 -21 -24 -54 0
-6 -10 -13 -15 -21 -24 -26 -54 -56 -74 0
-6 -10 -13 -16 -21 -24 -27 -54 -57 -75 0
-6 -10 -13 -17 -21 -24 -28 -54 -58 -76 0
-6 -10 -14 -21 -25 -55 -77 0
-6 -10 -14 -21 -25 -55 0
-6 -10 -14 -15 -21 -25 -26 -55 -56 -78 0
-6 -10 -14 -16 -21 -25 -27 -55 -57 -79 0
-6 -10 -14 -17 -21 -25 -28 -55 -58 -80 0
-6 -10 -21 0
-6 -10 -16 -21 -27 -57 0
-6 -10 -15 -16 -21 -26 -27 -56 -57 -83 0
-6 -10 -15 -17 -21 -26 -28 -56 -58 -84 0
-6 -10 -16 -17 -21 -27 -28 -57 -58 -86 0
-6 -11 -13 -22 -24 -61 0
-6 -11 -22 0
-6 -11 -15 -22 -26 -63 0
-6 -11 -17 -22 -28 -65 0
-6 -11 -12 -13 -22 -23 -24 -60 -61 -68 0
-6 -11 -12 -14 -22 -23 -25 -60 -62 -69 0
-6 -11 -12 -15 -22 -23 -26 -60 -63 -70 0
-6 -11 -12 -16 -22 -23 -27 -60 -64 -71 0
-6 -11 -12 -17 -22 -23 -28 -60 -65 -72 0
-6 -11 -13 -14 -22 -24 -25 -61 -62 -73 0
-6 -11 -13 -15 -22 -24 -26 -61 -63 -74 0
-6 -11 -13 -16 -22 -24 -27 -61 -64 -75 0
-6 -11 -13 -17 -22 -24 -28 -61 -65 -76 0
-6 -11 -14 -22 -25 -62 0
-6 -11 -14 -15 -22 -25 -26 -62 -63 -78 0
-6 -11 -14 -16 -22 -25 -27 -62 -64 -79 0
-6 -11 -14 -17 -22 -25 -28 -62 -65 -80 0
-6 -11 -16 -22 -27 -64 0
-6 -11 -15 -16 -22 -26 -27 -63 -64 -83 0
-6 -11 -15 -17 -22 -26 -28 -63 -65 -84 0
-6 -11 -16 -17 -22 -27 -28 -64 -65 -86 0
-6 0
-6 -15 -26 0
-6 -15 -26 0
-6 -17 -28 0
-6 -13 -15 -24 -26 -74 0
-6 -13 -17 -24 -28 -76 0
-6 -15 -17 -26 -28 -84 0
-6 -15 -26 0
-6 -14 -15 -25 -26 -78 0
-6 -14 -16 -25 -27 -66 -79 0
-6 -15 -16 -26 -27 -66 -83 0
-6 -15 -17 -26 -28 -84 0
-6 -12 -13 -14 -23 -24 -25 -68 -69 -73 0
-6 -12 -13 -15 -23 -24 -26 -68 -70 -74 0
-6 -12 -13 -16 -23 -24 -27 -68 -71 -75 0
-6 -12 -13 -17 -23 -24 -28 -68 -72 -76 0
-6 -12 -14 -15 -23 -25 -26 -69 -70 -78 0
-6 -12 -14 -16 -23 -25 -27 -69 -71 -79 0
-6 -12 -14 -17 -23 -25 -28 -69 -72 -80 0
-6 -12 -15 -16 -23 -26 -27 -70 -71 -83 0
-6 -12 -15 -17 -23 -26 -28 -70 -72 -84 0
-6 -12 -16 -17 -23 -27 -28 -71 -72 -86 0
-6 -13 -14 -24 -25 -73 -77 0
-6 -13 -14 -15 -24 -25 -26 -73 -74 -78 0
-6 -13 -14 -16 -24 -25 -27 -73 -75 -79 0
-6 -13 -14 -17 -24 -25 -28 -73 -76 -80 0
-6 -13 -15 -16 -24 -26 -27 -74 -75 -83 0
-6 -13 -15 -17 -24 -26 -28 -74 -76 -84 0
-6 -13 -16 -17 -24 -27 -28 -75 -76 -86 0
-6 -14 -25 -77 0
-6 -14 -16 -25 -27 -79 0
-6 -14 -15 -16 -25 -26 -27 -78 -79 -83 0
-6 -14 -15 -17 -25 -26 -28 -78 -80 -84 0
-6 -14 -16 -17 -25 -27 -28 -79 -80 -86 0
-6 -15 -16 -17 -26 -27 -28 -83 -84 -86 0
-7 0
-7 -12 -34 0
-7 -15 -37 0
-7 -10 -32 0
-7 -14 -36 0
-7 -16 -38 0
-7 -10 -32 0
-7 -10 -32 0
-7 -10 -12 -32 -34 -53 0
-7 -10 -14 -32 -36 -55 0
-7 -10 -32 0
-7 -10 -15 -32 -37 -56 0
-7 -10 -16 -32 -38 -57 0
-7 0
-7 -12 -34 0
-7 0
-7 -16 -38 0
-7 -14 -36 0
-7 -15 -37 0
-7 -16 -38 -66 0
-7 -12 -34 0
-7 -15 -37 0
-7 -16 -38 0
-7 -12 -14 -34 -36 -69 0
-7 -12 -15 -34 -37 -70 0
-7 -12 -16 -34 -38 -71 0
-7 -14 -36 0
-7 -14 -15 -36 -37 -78 0
-7 -14 -16 -36 -38 -79 0
-7 0
-7 -16 -38 0
-7 -15 -37 0
-7 -15 -16 -37 -38 -83 0
-9 -15 0
-9 -15 0
-9 -15 0
-9 -15 0
-12 -15 -70 0
-10 -14 -55 0
-10 -16 -57 0
-14 -16 -79 0
-10 -12 -53 0
-10 -16 -57 0
-10 -12 -53 0
-10 -15 -56 0
-10 -16 -57 0
-10 -12 -14 -53 -55 -69 0
-10 -12 -15 -53 -56 -70 0
-10 -12 -16 -53 -57 -71 0
-10 -14 -55 0
-10 -14 -15 -55 -56 -78 0
-10 -14 -16 -55 -57 -79 0
-10 -16 -57 0
-10 -15 -16 -56 -57 -83 0
-16 -66 0
-12 -16 -71 0
-15 0
-14 -15 -78 0
-14 -16 -66 -79 0
-15 -16 -66 -83 0
-15 0
-15 0
-12 -15 -70 0
-12 -16 -71 0
-15 -16 -83 0
-12 -14 -15 -69 -70 -78 0
-12 -14 -16 -69 -71 -79 0
-12 -15 -16 -70 -71 -83 0
-14 -16 -79 0
-14 -15 -16 -78 -79 -83 0
-7 -8 -12 -31 -34 -45 0
-7 -8 -13 -31 -35 -46 0
-7 -8 -15 -31 -37 -48 0
-7 -8 -17 -31 -39 -50 0
-7 -8 -10 -11 -31 -32 -33 -43 -44 -52 0
-7 -8 -10 -31 -32 -43 0
-7 -8 -10 -31 -32 -43 0
-7 -8 -10 -12 -31 -32 -34 -43 -45 -53 0
-7 -8 -10 -13 -31 -32 -35 -43 -46 -54 0
-7 -8 -10 -14 -31 -32 -36 -43 -47 -55 0
-7 -8 -10 -15 -31 -32 -37 -43 -48 -56 0
-7 -8 -10 -16 -31 -32 -38 -43 -49 -57 0
-7 -8 -10 -17 -31 -32 -39 -43 -50 -58 0
-7 -8 -11 -31 -33 -44 -59 0
-7 -8 -11 -12 -31 -33 -34 -44 -45 -60 0
-7 -8 -11 -13 -31 -33 -35 -44 -46 -61 0
-7 -8 -11 -14 -31 -33 -36 -44 -47 -62 0
-7 -8 -11 -15 -31 -33 -37 -44 -48 -63 0
-7 -8 -11 -16 -31 -33 -38 -44 -49 -64 0
-7 -8 -11 -17 -31 -33 -39 -44 -50 -65 0
-7 -8 -12 -31 -34 -45 0
-7 -8 -16 -31 -38 -49 0
-7 -8 -12 -31 -34 -45 0
-7 -8 -15 -31 -37 -48 0
-7 -8 -16 -31 -38 -49 0
-7 -8 -17 -31 -39 -50 0
-7 -8 -12 -13 -31 -34 -35 -45 -46 -68 0
-7 -8 -12 -14 -31 -34 -36 -45 -47 -69 0
-7 -8 -12 -15 -31 -34 -37 -45 -48 -70 0
-7 -8 -12 -16 -31 -34 -38 -45 -49 -71 0
-7 -8 -12 -17 -31 -34 -39 -45 -50 -72 0
-7 -8 -13 -14 -31 -35 -36 -46 -47 -73 0
-7 -8 -13 -15 -31 -35 -37 -46 -48 -74 0
-7 -8 -13 -16 -31 -35 -38 -46 -49 -75 0
-7 -8 -13 -17 -31 -35 -39 -46 -50 -76 0
-7 -8 -14 -15 -31 -36 -37 -47 -48 -78 0
-7 -8 -14 -16 -31 -36 -38 -47 -49 -79 0
-7 -8 -14 -17 -31 -36 -39 -47 -50 -80 0
-7 -8 -15 -16 -31 -37 -38 -48 -49 -83 0
-7 -8 -15 -17 -31 -37 -39 -48 -50 -84 0
-7 -8 -16 -17 -31 -38 -39 -49 -50 -86 0
-7 -13 -35 0
-7 -17 -39 0
-7 -12 -13 -34 -35 -68 0
-7 -12 -15 -34 -37 -70 0
-7 -12 -17 -34 -39 -72 0
-7 -13 -15 -35 -37 -74 0
-7 -13 -17 -35 -39 -76 0
-7 -15 -17 -37 -39 -84 0
-7 -10 -13 -32 -35 -54 0
-7 -10 -14 -32 -36 -55 0
-7 -10 -16 -32 -38 -57 0
-7 -10 -17 -32 -39 -58 0
-7 -13 -14 -35 -36 -73 0
-7 -13 -16 -35 -38 -75 0
-7 -13 -17 -35 -39 -76 0
-7 -14 -16 -36 -38 -79 0
-7 -14 -17 -36 -39 -80 0
-7 -16 -17 -38 -39 -86 0
-7 -10 -11 -32 -33 -52 -59 0
-7 -10 -11 -12 -32 -33 -34 -52 -53 -60 0
-7 -10 -11 -13 -32 -33 -35 -52 -54 -61 0
-7 -10 -11 -14 -32 -33 -36 -52 -55 -62 0
-7 -10 -11 -32 -33 -52 0
-7 -10 -11 -15 -32 -33 -37 -52 -56 -63 0
-7 -10 -11 -16 -32 -33 -38 -52 -57 -64 0
-7 -10 -11 -17 -32 -33 -39 -52 -58 -65 0
-7 -10 -12 -32 -34 -53 0
-7 -10 -16 -32 -38 -57 0
-7 -10 -12 -32 -34 -53 0
-7 -10 -15 -32 -37 -56 0
-7 -10 -16 -32 -38 -57 0
-7 -10 -17 -32 -39 -58 0
-7 -10 -12 -13 -32 -34 -35 -53 -54 -68 0
-7 -10 -12 -14 -32 -34 -36 -53 -55 -69 0
-7 -10 -12 -15 -32 -34 -37 -53 -56 -70 0
-7 -10 -12 -16 -32 -34 -38 -53 -57 -71 0
-7 -10 -12 -17 -32 -34 -39 -53 -58 -72 0
-7 -10 -13 -14 -32 -35 -36 -54 -55 -73 0
-7 -10 -13 -15 -32 -35 -37 -54 -56 -74 0
-7 -10 -13 -16 -32 -35 -38 -54 -57 -75 0
-7 -10 -13 -17 -32 -35 -39 -54 -58 -76 0
-7 -10 -14 -32 -36 -55 0
-7 -10 -14 -15 -32 -36 -37 -55 -56 -78 0
-7 -10 -14 -16 -32 -36 -38 -55 -57 -79 0
-7 -10 -14 -17 -32 -36 -39 -55 -58 -80 0
-7 -10 -16 -32 -38 -57 0
-7 -10 -15 -16 -32 -37 -38 -56 -57 -83 0
-7 -10 -15 -17 -32 -37 -39 -56 -58 -84 0
-7 -10 -16 -17 -32 -38 -39 -57 -58 -86 0
-7 -11 -12 -33 -34 -59 -60 0
-7 -11 -33 -59 0
-7 -11 -16 -33 -38 -59 -64 0
-7 -11 -12 -13 -33 -34 -35 -60 -61 -68 0
-7 -11 -12 -14 -33 -34 -36 -60 -62 -69 0
-7 -11 -12 -15 -33 -34 -37 -60 -63 -70 0
-7 -11 -12 -16 -33 -34 -38 -60 -64 -71 0
-7 -11 -12 -17 -33 -34 -39 -60 -65 -72 0
-7 -11 -13 -14 -33 -35 -36 -61 -62 -73 0
-7 -11 -13 -15 -33 -35 -37 -61 -63 -74 0
-7 -11 -13 -16 -33 -35 -38 -61 -64 -75 0
-7 -11 -13 -17 -33 -35 -39 -61 -65 -76 0
-7 -11 -14 -33 -36 -62 0
-7 -11 -14 -15 -33 -36 -37 -62 -63 -78 0
-7 -11 -14 -16 -33 -36 -38 -62 -64 -79 0
-7 -11 -14 -17 -33 -36 -39 -62 -65 -80 0
-7 -11 -33 0
-7 -11 -16 -33 -38 -64 0
-7 -11 -15 -33 -37 -63 0
-7 -11 -15 -16 -33 -37 -38 -63 -64 -83 0
-7 -11 -15 -17 -33 -37 -39 -63 -65 -84 0
-7 -11 -16 -17 -33 -38 -39 -64 -65 -86 0
-7 -16 -38 -66 0
-7 -12 -16 -34 -38 -71 0
-7 -14 -15 -36 -37 -78 0
-7 -14 -16 -36 -38 -66 -79 0
-7 -15 -16 -37 -38 -66 -83 0
-7 -12 -15 -34 -37 -70 0
-7 -12 -16 -34 -38 -71 0
-7 -12 -17 -34 -39 -72 0
-7 -15 -16 -37 -38 -83 0
-7 -15 -17 -37 -39 -84 0
-7 -16 -17 -38 -39 -86 0
-7 -12 -13 -14 -34 -35 -36 -68 -69 -73 0
-7 -12 -13 -15 -34 -35 -37 -68 -70 -74 0
-7 -12 -13 -16 -34 -35 -38 -68 -71 -75 0
-7 -12 -13 -17 -34 -35 -39 -68 -72 -76 0
-7 -12 -14 -15 -34 -36 -37 -69 -70 -78 0
-7 -12 -14 -16 -34 -36 -38 -69 -71 -79 0
-7 -12 -14 -17 -34 -36 -39 -69 -72 -80 0
-7 -12 -15 -16 -34 -37 -38 -70 -71 -83 0
-7 -12 -15 -17 -34 -37 -39 -70 -72 -84 0
-7 -12 -16 -17 -34 -38 -39 -71 -72 -86 0
-7 -13 -14 -15 -35 -36 -37 -73 -74 -78 0
-7 -13 -14 -16 -35 -36 -38 -73 -75 -79 0
-7 -13 -14 -17 -35 -36 -39 -73 -76 -80 0
-7 -13 -15 -16 -35 -37 -38 -74 -75 -83 0
-7 -13 -15 -17 -35 -37 -39 -74 -76 -84 0
-7 -13 -16 -17 -35 -38 -39 -75 -76 -86 0
-7 -14 -16 -36 -38 -79 0
-7 -14 -15 -16 -36 -37 -38 -78 -79 -83 0
-7 -14 -15 -17 -36 -37 -39 -78 -80 -84 0
-7 -14 -16 -17 -36 -38 -39 -79 -80 -86 0
-7 -15 -16 -17 -37 -38 -39 -83 -84 -86 0
-8 -13 -46 0
-8 -15 -48 0
-8 -17 -50 0
-8 -12 -13 -45 -46 -68 0
-8 -12 -15 -45 -48 -70 0
-8 -12 -17 -45 -50 -72 0
-8 -13 -46 0
-8 -13 -15 -46 -48 -74 0
-8 -13 -17 -46 -50 -76 0
-8 -15 -48 -82 0
-8 -15 -17 -48 -50 -84 0
-8 -10 -11 -43 -44 -52 -59 0
-8 -10 -11 -12 -43 -44 -45 -52 -53 -60 0
-8 -10 -11 -13 -43 -44 -46 -52 -54 -61 0
-8 -10 -11 -14 -43 -44 -47 -52 -55 -62 0
-8 -10 -11 -15 -43 -44 -48 -52 -56 -63 0
-8 -10 -11 -16 -43 -44 -49 -52 -57 -64 0
-8 -10 -11 -17 -43 -44 -50 -52 -58 -65 0
-8 -10 -12 -43 -45 -53 0
-8 -10 -43 0
-8 -10 -43 0
-8 -10 -16 -43 -49 -57 0
-8 -10 -12 -43 -45 -53 0
-8 -10 -15 -43 -48 -56 0
-8 -10 -16 -43 -49 -57 0
-8 -10 -17 -43 -50 -58 0
-8 -10 -12 -13 -43 -45 -46 -53 -54 -68 0
-8 -10 -12 -14 -43 -45 -47 -53 -55 -69 0
-8 -10 -12 -15 -43 -45 -48 -53 -56 -70 0
-8 -10 -12 -16 -43 -45 -49 -53 -57 -71 0
-8 -10 -12 -17 -43 -45 -50 -53 -58 -72 0
-8 -10 -13 -14 -43 -46 -47 -54 -55 -73 0
-8 -10 -13 -43 -46 -54 0
-8 -10 -13 -15 -43 -46 -48 -54 -56 -74 0
-8 -10 -13 -16 -43 -46 -49 -54 -57 -75 0
-8 -10 -13 -17 -43 -46 -50 -54 -58 -76 0
-8 -10 -14 -43 -47 -55 -77 0
-8 -10 -14 -15 -43 -47 -48 -55 -56 -78 0
-8 -10 -14 -43 -47 -55 0
-8 -10 -14 -16 -43 -47 -49 -55 -57 -79 0
-8 -10 -14 -17 -43 -47 -50 -55 -58 -80 0
-8 -10 -15 -43 -48 -56 -82 0
-8 -10 -15 -16 -43 -48 -49 -56 -57 -83 0
-8 -10 -15 -17 -43 -48 -50 -56 -58 -84 0
-8 -10 -16 -43 -49 -57 0
-8 -10 -16 -17 -43 -49 -50 -57 -58 -86 0
-8 -11 -12 -44 -45 -59 -60 0
-8 -11 -16 -44 -49 -59 -64 0
-8 -11 -13 -44 -46 -61 0
-8 -11 -15 -44 -48 -63 0
-8 -11 -17 -44 -50 -65 0
-8 -11 -12 -13 -44 -45 -46 -60 -61 -68 0
-8 -11 -12 -14 -44 -45 -47 -60 -62 -69 0
-8 -11 -12 -15 -44 -45 -48 -60 -63 -70 0
-8 -11 -12 -16 -44 -45 -49 -60 -64 -71 0
-8 -11 -12 -17 -44 -45 -50 -60 -65 -72 0
-8 -11 -13 -14 -44 -46 -47 -61 -62 -73 0
-8 -11 -13 -15 -44 -46 -48 -61 -63 -74 0
-8 -11 -13 -16 -44 -46 -49 -61 -64 -75 0
-8 -11 -13 -17 -44 -46 -50 -61 -65 -76 0
-8 -11 -14 -15 -44 -47 -48 -62 -63 -78 0
-8 -11 -14 -16 -44 -47 -49 -62 -64 -79 0
-8 -11 -14 -17 -44 -47 -50 -62 -65 -80 0
-8 -11 -15 -16 -44 -48 -49 -63 -64 -83 0
-8 -11 -15 -17 -44 -48 -50 -63 -65 -84 0
-8 -11 -16 -17 -44 -49 -50 -64 -65 -86 0
-8 -12 -16 -45 -49 -71 0
-8 -16 -49 0
-8 -15 -48 0
-8 -17 -50 0
-8 -13 -15 -46 -48 -74 0
-8 -13 -17 -46 -50 -76 0
-8 -15 -17 -48 -50 -84 0
-8 -15 -48 0
-8 -17 -50 0
-8 -15 -48 -82 0
-8 -15 -17 -48 -50 -84 0
-8 -12 -15 -45 -48 -70 0
-8 -12 -16 -45 -49 -71 0
-8 -12 -17 -45 -50 -72 0
-8 -15 -16 -48 -49 -83 0
-8 -15 -17 -48 -50 -84 0
-8 -16 -17 -49 -50 -86 0
-8 -12 -13 -14 -45 -46 -47 -68 -69 -73 0
-8 -12 -13 -15 -45 -46 -48 -68 -70 -74 0
-8 -12 -13 -16 -45 -46 -49 -68 -71 -75 0
-8 -12 -13 -17 -45 -46 -50 -68 -72 -76 0
-8 -12 -14 -15 -45 -47 -48 -69 -70 -78 0
-8 -12 -14 -16 -45 -47 -49 -69 -71 -79 0
-8 -12 -14 -17 -45 -47 -50 -69 -72 -80 0
-8 -12 -15 -16 -45 -48 -49 -70 -71 -83 0
-8 -12 -15 -17 -45 -48 -50 -70 -72 -84 0
-8 -12 -16 -17 -45 -49 -50 -71 -72 -86 0
-8 -13 -14 -46 -47 -73 -77 0
-8 -13 -14 -15 -46 -47 -48 -73 -74 -78 0
-8 -13 -14 -16 -46 -47 -49 -73 -75 -79 0
-8 -13 -14 -17 -46 -47 -50 -73 -76 -80 0
-8 -13 -15 -16 -46 -48 -49 -74 -75 -83 0
-8 -13 -15 -17 -46 -48 -50 -74 -76 -84 0
-8 -13 -16 -17 -46 -49 -50 -75 -76 -86 0
-8 -14 -15 -47 -48 -78 -82 0
-8 -14 -15 -16 -47 -48 -49 -78 -79 -83 0
-8 -14 -15 -17 -47 -48 -50 -78 -80 -84 0
-8 -14 -16 -47 -49 -79 0
-8 -14 -16 -17 -47 -49 -50 -79 -80 -86 0
-8 -15 -16 -48 -49 -82 -83 0
-8 -15 -16 -17 -48 -49 -50 -83 -84 -86 0
-9 -15 0
-9 -13 0
-9 -13 -15 -74 0
-9 -13 -17 -76 0
-9 -15 0
-9 -15 -17 -84 0
-15 0
-15 0
-15 -17 -84 0
-13 -15 -17 -74 -76 -84 0
-9 -13 0
-9 -13 -15 -74 0
-9 -13 -17 -76 0
-9 -15 -17 -84 0
-9 -11 -13 -15 -61 -63 -74 0
-9 -11 -13 -17 -61 -65 -76 0
-9 -11 -15 -63 0
-9 -11 -15 -17 -63 -65 -84 0
-9 -15 -17 -84 0
-9 -13 -15 -17 -74 -76 -84 0
-12 -15 -70 0
-15 -82 0
-12 -16 -71 0
-16 0
-15 0
-15 0
-15 -82 0
-12 -15 -70 0
-12 -16 -71 0
-15 -16 -83 0
-12 -14 -15 -69 -70 -78 0
-12 -14 -16 -69 -71 -79 0
-12 -15 -16 -70 -71 -83 0
-14 -16 -79 0
-14 -15 -78 -82 0
-14 -15 -16 -78 -79 -83 0
-14 -16 -79 0
-15 -16 -82 -83 0
-13 0
-13 -17 -76 0
-13 -15 -74 0
-13 -17 -76 0
-15 -17 -84 0
-12 -13 -15 -68 -70 -74 0
-12 -13 -17 -68 -72 -76 0
-12 -15 -17 -70 -72 -84 0
-13 -15 -17 -74 -76 -84 0
-10 -13 -14 -54 -55 -73 0
-10 -13 -54 0
-10 -13 -16 -54 -57 -75 0
-10 -13 -17 -54 -58 -76 0
-10 -14 -55 -77 0
-10 -14 -55 0
-10 -14 -16 -55 -57 -79 0
-10 -14 -17 -55 -58 -80 0
-10 -16 -57 0
-10 -16 -17 -57 -58 -86 0
-13 -14 -73 -77 0
-13 -14 -16 -73 -75 -79 0
-13 -14 -17 -73 -76 -80 0
-13 -16 -17 -75 -76 -86 0
-14 -16 -79 0
-14 -16 -17 -79 -80 -86 0
-10 -11 -12 -52 -53 -59 -60 0
-10 -11 -16 -52 -57 -59 -64 0
-10 -11 -12 -13 -52 -53 -54 -60 -61 -68 0
-10 -11 -12 -14 -52 -53 -55 -60 -62 -69 0
-10 -11 -12 -15 -52 -53 -56 -60 -63 -70 0
-10 -11 -12 -16 -52 -53 -57 -60 -64 -71 0
-10 -11 -12 -17 -52 -53 -58 -60 -65 -72 0
-10 -11 -13 -14 -52 -54 -55 -61 -62 -73 0
-10 -11 -13 -15 -52 -54 -56 -61 -63 -74 0
-10 -11 -13 -16 -52 -54 -57 -61 -64 -75 0
-10 -11 -13 -17 -52 -54 -58 -61 -65 -76 0
-10 -11 -14 -52 -55 -62 0
-10 -11 -14 -15 -52 -55 -56 -62 -63 -78 0
-10 -11 -14 -16 -52 -55 -57 -62 -64 -79 0
-10 -11 -14 -17 -52 -55 -58 -62 -65 -80 0
-10 -11 -16 -52 -57 -64 0
-10 -11 -15 -16 -52 -56 -57 -63 -64 -83 0
-10 -11 -15 -17 -52 -56 -58 -63 -65 -84 0
-10 -11 -16 -17 -52 -57 -58 -64 -65 -86 0
-10 -12 -16 -53 -57 -71 0
-10 -16 -57 0
-10 -12 -15 -53 -56 -70 0
-10 -12 -16 -53 -57 -71 0
-10 -12 -17 -53 -58 -72 0
-10 -15 -16 -56 -57 -83 0
-10 -15 -17 -56 -58 -84 0
-10 -16 -17 -57 -58 -86 0
-10 -12 -13 -14 -53 -54 -55 -68 -69 -73 0
-10 -12 -13 -15 -53 -54 -56 -68 -70 -74 0
-10 -12 -13 -16 -53 -54 -57 -68 -71 -75 0
-10 -12 -13 -17 -53 -54 -58 -68 -72 -76 0
-10 -12 -14 -15 -53 -55 -56 -69 -70 -78 0
-10 -12 -14 -16 -53 -55 -57 -69 -71 -79 0
-10 -12 -14 -17 -53 -55 -58 -69 -72 -80 0
-10 -12 -15 -16 -53 -56 -57 -70 -71 -83 0
-10 -12 -15 -17 -53 -56 -58 -70 -72 -84 0
-10 -12 -16 -17 -53 -57 -58 -71 -72 -86 0
-10 -13 -14 -54 -55 -73 -77 0
-10 -13 -14 -15 -54 -55 -56 -73 -74 -78 0
-10 -13 -14 -16 -54 -55 -57 -73 -75 -79 0
-10 -13 -14 -17 -54 -55 -58 -73 -76 -80 0
-10 -13 -15 -16 -54 -56 -57 -74 -75 -83 0
-10 -13 -15 -17 -54 -56 -58 -74 -76 -84 0
-10 -13 -16 -17 -54 -57 -58 -75 -76 -86 0
-10 -14 -55 -77 0
-10 -14 -16 -55 -57 -79 0
-10 -14 -15 -55 -56 -78 -82 0
-10 -14 -15 -16 -55 -56 -57 -78 -79 -83 0
-10 -14 -15 -17 -55 -56 -58 -78 -80 -84 0
-10 -14 -16 -55 -57 -79 0
-10 -14 -16 -17 -55 -57 -58 -79 -80 -86 0
-10 -15 -16 -56 -57 -82 -83 0
-10 -15 -16 -17 -56 -57 -58 -83 -84 -86 0
-11 -12 -16 -59 -60 -64 -71 0
-11 -13 -15 -61 -63 -74 0
-11 -13 -17 -61 -65 -76 0
-11 0
-11 -15 -63 0
-11 -15 -17 -63 -65 -84 0
-11 -12 -13 -14 -60 -61 -62 -68 -69 -73 0
-11 -12 -13 -15 -60 -61 -63 -68 -70 -74 0
-11 -12 -13 -16 -60 -61 -64 -68 -71 -75 0
-11 -12 -13 -17 -60 -61 -65 -68 -72 -76 0
-11 -12 -14 -15 -60 -62 -63 -69 -70 -78 0
-11 -12 -14 -16 -60 -62 -64 -69 -71 -79 0
-11 -12 -14 -17 -60 -62 -65 -69 -72 -80 0
-11 -12 -15 -16 -60 -63 -64 -70 -71 -83 0
-11 -12 -15 -17 -60 -63 -65 -70 -72 -84 0
-11 -12 -16 -17 -60 -64 -65 -71 -72 -86 0
-11 -13 -14 -15 -61 -62 -63 -73 -74 -78 0
-11 -13 -14 -16 -61 -62 -64 -73 -75 -79 0
-11 -13 -14 -17 -61 -62 -65 -73 -76 -80 0
-11 -13 -15 -16 -61 -63 -64 -74 -75 -83 0
-11 -13 -15 -17 -61 -63 -65 -74 -76 -84 0
-11 -13 -16 -17 -61 -64 -65 -75 -76 -86 0
-11 -14 -16 -62 -64 -79 0
-11 -14 -15 -16 -62 -63 -64 -78 -79 -83 0
-11 -14 -15 -17 -62 -63 -65 -78 -80 -84 0
-11 -14 -16 -17 -62 -64 -65 -79 -80 -86 0
-11 -15 -16 -17 -63 -64 -65 -83 -84 -86 0
-16 -66 0
-15 0
-15 0
-15 -17 -84 0
-13 -15 -17 -74 -76 -84 0
-15 -82 0
-14 -15 -78 -82 0
-14 -15 -16 -66 -78 -79 -83 0
-14 -16 -66 -79 0
-15 -16 -66 -82 -83 0
-15 -17 -84 0
-12 -15 -16 -70 -71 -83 0
-12 -15 -17 -70 -72 -84 0
-12 -16 -17 -71 -72 -86 0
-15 -16 -17 -83 -84 -86 0
-12 -13 -14 -15 -68 -69 -70 -73 -74 -78 0
-12 -13 -14 -16 -68 -69 -71 -73 -75 -79 0
-12 -13 -14 -17 -68 -69 -72 -73 -76 -80 0
-12 -13 -15 -16 -68 -70 -71 -74 -75 -83 0
-12 -13 -15 -17 -68 -70 -72 -74 -76 -84 0
-12 -13 -16 -17 -68 -71 -72 -75 -76 -86 0
-12 -14 -15 -16 -69 -70 -71 -78 -79 -83 0
-12 -14 -15 -17 -69 -70 -72 -78 -80 -84 0
-12 -14 -16 -17 -69 -71 -72 -79 -80 -86 0
-12 -15 -16 -17 -70 -71 -72 -83 -84 -86 0
-13 -14 -15 -16 -73 -74 -75 -78 -79 -83 0
-13 -14 -15 -17 -73 -74 -76 -78 -80 -84 0
-13 -14 -16 -17 -73 -75 -76 -79 -80 -86 0
-13 -15 -16 -17 -74 -75 -76 -83 -84 -86 0
-14 -15 -16 -78 -79 -82 -83 0
-14 -15 -16 -17 -78 -79 -80 -83 -84 -86 0
-18 -19 0
-18 -19 -23 -34 0
-18 -19 -26 -37 0
-18 -19 -21 -23 -32 -34 -53 0
-18 -19 -21 -25 -32 -36 -55 0
-18 -19 -21 -32 0
-18 -19 -21 -26 -32 -37 -56 0
-18 -19 -21 -27 -32 -38 -57 0
-18 -19 0
-18 -19 -25 -36 0
-18 -19 -26 -37 0
-18 -19 -27 -38 -66 0
-18 -19 0
-18 -19 -27 -38 0
-18 -19 -23 -25 -34 -36 -69 0
-18 -19 -23 -26 -34 -37 -70 0
-18 -19 -23 -27 -34 -38 -71 0
-18 -19 -25 -36 0
-18 -19 -25 -26 -36 -37 -78 0
-18 -19 -25 -27 -36 -38 -79 0
-18 -19 -27 -38 0
-18 -19 -26 -27 -37 -38 -83 0
-18 -23 0
-18 -26 0
-18 -23 -26 -70 0
-18 -25 0
-18 -26 0
-18 -27 -66 0
-18 -23 -25 -69 0
-18 -23 -26 -70 0
-18 -23 -27 -71 0
-18 -25 0
-18 -25 -26 -78 0
-18 -25 -27 -79 0
-18 -27 0
-18 -26 -27 -83 0
-18 -21 -23 -25 -53 -55 -69 0
-18 -21 -23 -26 -53 -56 -70 0
-18 -21 -23 -27 -53 -57 -71 0
-18 -21 -25 -55 0
-18 -21 -25 -26 -55 -56 -78 0
-18 -21 -25 -27 -55 -57 -79 0
-18 -21 0
-18 -21 -27 -57 0
-18 -21 -26 -27 -56 -57 -83 0
-18 0
-18 -26 0
-18 -27 -66 0
-18 -25 -26 -78 0
-18 -25 -27 -66 -79 0
-18 -26 -27 -66 -83 0
-18 -27 0
-18 -23 -25 -26 -69 -70 -78 0
-18 -23 -25 -27 -69 -71 -79 0
-18 -23 -26 -27 -70 -71 -83 0
-18 -25 -27 -79 0
-18 -25 -26 -27 -78 -79 -83 0
-19 -22 -29 -33 0
-19 -29 0
-19 -28 -29 -39 0
-19 -22 -29 -33 0
-19 -22 -24 -29 -33 -35 -61 0
-19 -22 -28 -29 -33 -39 -65 0
-19 -29 0
-19 -29 0
-19 -24 -29 -35 0
-19 -28 -29 -39 0
-19 -24 -28 -29 -35 -39 -76 0
-22 -28 -65 0
-22 -24 -61 0
-22 -28 -65 0
-22 -24 -61 0
-22 -28 -65 0
-22 -24 -28 -61 -65 -76 0
-22 -28 -65 0
-28 0
-24 -28 -76 0
-24 -28 -76 0
-19 -20 -23 -31 -34 -45 0
-19 -20 -24 -31 -35 -46 0
-19 -20 -31 0
-19 -20 -26 -31 -37 -48 0
-19 -20 -31 0
-19 -20 -28 -31 -39 -50 0
-19 -20 -21 -31 -32 -43 -51 0
-19 -20 -22 -31 -33 -44 0
-19 -20 -23 -31 -34 -45 0
-19 -20 -25 -31 -36 -47 0
-19 -20 -26 -31 -37 -48 0
-19 -20 -31 0
-19 -20 -27 -31 -38 -49 0
-19 -20 -28 -31 -39 -50 0
-19 -20 -21 -22 -31 -32 -33 -43 -44 -52 0
-19 -20 -21 -23 -31 -32 -34 -43 -45 -53 0
-19 -20 -21 -24 -31 -32 -35 -43 -46 -54 0
-19 -20 -21 -25 -31 -32 -36 -43 -47 -55 0
-19 -20 -21 -31 -32 -43 0
-19 -20 -21 -26 -31 -32 -37 -43 -48 -56 0
-19 -20 -21 -27 -31 -32 -38 -43 -49 -57 0
-19 -20 -21 -28 -31 -32 -39 -43 -50 -58 0
-19 -20 -22 -23 -31 -33 -34 -44 -45 -60 0
-19 -20 -22 -24 -31 -33 -35 -44 -46 -61 0
-19 -20 -22 -25 -31 -33 -36 -44 -47 -62 0
-19 -20 -22 -26 -31 -33 -37 -44 -48 -63 0
-19 -20 -22 -31 -33 -44 0
-19 -20 -22 -27 -31 -33 -38 -44 -49 -64 0
-19 -20 -22 -28 -31 -33 -39 -44 -50 -65 0
-19 -20 -23 -24 -31 -34 -35 -45 -46 -68 0
-19 -20 -23 -25 -31 -34 -36 -45 -47 -69 0
-19 -20 -23 -31 -34 -45 0
-19 -20 -23 -26 -31 -34 -37 -45 -48 -70 0
-19 -20 -23 -31 -34 -45 0
-19 -20 -23 -27 -31 -34 -38 -45 -49 -71 0
-19 -20 -23 -28 -31 -34 -39 -45 -50 -72 0
-19 -20 -24 -25 -31 -35 -36 -46 -47 -73 0
-19 -20 -24 -26 -31 -35 -37 -46 -48 -74 0
-19 -20 -24 -27 -31 -35 -38 -46 -49 -75 0
-19 -20 -24 -28 -31 -35 -39 -46 -50 -76 0
-19 -20 -25 -26 -31 -36 -37 -47 -48 -78 0
-19 -20 -25 -27 -31 -36 -38 -47 -49 -79 0
-19 -20 -25 -28 -31 -36 -39 -47 -50 -80 0
-19 -20 -26 -31 -37 -48 -81 0
-19 -20 -26 -31 -37 -48 0
-19 -20 -26 -27 -31 -37 -38 -48 -49 -83 0
-19 -20 -26 -28 -31 -37 -39 -48 -50 -84 0
-19 -20 -27 -31 -38 -49 -85 0
-19 -20 -28 -31 -39 -50 0
-19 -20 -27 -28 -31 -38 -39 -49 -50 -86 0
-19 -21 -23 -32 -34 -53 0
-19 -21 -25 -32 -36 -55 0
-19 -21 -32 0
-19 -21 -32 0
-19 -21 -27 -32 -38 -57 0
-19 0
-19 0
-19 -27 -38 0
-19 -23 -25 -34 -36 -69 0
-19 -23 -34 0
-19 -23 -27 -34 -38 -71 0
-19 -25 -36 0
-19 -25 -27 -36 -38 -79 0
-19 -27 -38 0
-19 0
-19 0
-19 0
-19 -23 -34 -67 0
-19 -24 -35 0
-19 -28 -39 0
-19 -23 -24 -34 -35 -68 0
-19 -23 -34 0
-19 -23 -26 -34 -37 -70 0
-19 -23 -34 0
-19 -23 -28 -34 -39 -72 0
-19 -24 -26 -35 -37 -74 0
-19 -24 -28 -35 -39 -76 0
-19 -26 -37 -81 0
-19 -26 -37 0
-19 -26 -28 -37 -39 -84 0
-19 -28 -39 0
-19 -21 -22 -32 -33 -51 -52 0
-19 -21 -23 -32 -34 -51 -53 0
-19 -21 -25 -32 -36 -51 -55 0
-19 -21 -32 -51 0
-19 -21 -26 -32 -37 -51 -56 0
-19 -21 -27 -32 -38 -51 -57 0
-19 -21 -28 -32 -39 -51 -58 0
-19 -22 -23 -33 -34 -60 0
-19 -22 -25 -33 -36 -62 0
-19 -22 -33 0
-19 -22 -26 -33 -37 -63 0
-19 -22 -33 0
-19 -22 -27 -33 -38 -64 0
-19 -22 -28 -33 -39 -65 0
-19 0
-19 0
-19 -27 -38 0
-19 -23 -25 -34 -36 -69 0
-19 -23 -26 -34 -37 -70 0
-19 -23 -34 0
-19 -23 -27 -34 -38 -71 0
-19 -23 -28 -34 -39 -72 0
-19 -25 -36 0
-19 -25 -26 -36 -37 -78 0
-19 -25 -27 -36 -38 -79 0
-19 -25 -28 -36 -39 -80 0
-19 -27 -38 0
-19 -26 -37 0
-19 -26 -27 -37 -38 -83 0
-19 -26 -28 -37 -39 -84 0
-19 -27 -38 -85 0
-19 -28 -39 0
-19 -27 -28 -38 -39 -86 0
-19 -21 -22 -23 -32 -33 -34 -52 -53 -60 0
-19 -21 -22 -24 -32 -33 -35 -52 -54 -61 0
-19 -21 -22 -25 -32 -33 -36 -52 -55 -62 0
-19 -21 -22 -32 -33 -52 0
-19 -21 -22 -26 -32 -33 -37 -52 -56 -63 0
-19 -21 -22 -27 -32 -33 -38 -52 -57 -64 0
-19 -21 -22 -28 -32 -33 -39 -52 -58 -65 0
-19 -21 -23 -24 -32 -34 -35 -53 -54 -68 0
-19 -21 -23 -25 -32 -34 -36 -53 -55 -69 0
-19 -21 -23 -32 -34 -53 0
-19 -21 -23 -26 -32 -34 -37 -53 -56 -70 0
-19 -21 -23 -27 -32 -34 -38 -53 -57 -71 0
-19 -21 -23 -28 -32 -34 -39 -53 -58 -72 0
-19 -21 -24 -25 -32 -35 -36 -54 -55 -73 0
-19 -21 -24 -26 -32 -35 -37 -54 -56 -74 0
-19 -21 -24 -27 -32 -35 -38 -54 -57 -75 0
-19 -21 -24 -28 -32 -35 -39 -54 -58 -76 0
-19 -21 -25 -32 -36 -55 0
-19 -21 -25 -26 -32 -36 -37 -55 -56 -78 0
-19 -21 -25 -27 -32 -36 -38 -55 -57 -79 0
-19 -21 -25 -28 -32 -36 -39 -55 -58 -80 0
-19 -21 -27 -32 -38 -57 0
-19 -21 -26 -32 -37 -56 -81 0
-19 -21 -26 -27 -32 -37 -38 -56 -57 -83 0
-19 -21 -26 -28 -32 -37 -39 -56 -58 -84 0
-19 -21 -27 -28 -32 -38 -39 -57 -58 -86 0
-19 -22 -23 -33 -34 -60 -67 0
-19 -22 -24 -33 -35 -61 0
-19 -22 -27 -33 -38 -64 0
-19 -22 -28 -33 -39 -65 0
-19 -22 -23 -24 -33 -34 -35 -60 -61 -68 0
-19 -22 -23 -25 -33 -34 -36 -60 -62 -69 0
-19 -22 -23 -26 -33 -34 -37 -60 -63 -70 0
-19 -22 -23 -33 -34 -60 0
-19 -22 -23 -27 -33 -34 -38 -60 -64 -71 0
-19 -22 -23 -28 -33 -34 -39 -60 -65 -72 0
-19 -22 -24 -25 -33 -35 -36 -61 -62 -73 0
-19 -22 -24 -26 -33 -35 -37 -61 -63 -74 0
-19 -22 -24 -27 -33 -35 -38 -61 -64 -75 0
-19 -22 -24 -28 -33 -35 -39 -61 -65 -76 0
-19 -22 -25 -33 -36 -62 0
-19 -22 -25 -26 -33 -36 -37 -62 -63 -78 0
-19 -22 -25 -27 -33 -36 -38 -62 -64 -79 0
-19 -22 -25 -28 -33 -36 -39 -62 -65 -80 0
-19 -22 -27 -33 -38 -64 0
-19 -22 -26 -33 -37 -63 0
-19 -22 -26 -27 -33 -37 -38 -63 -64 -83 0
-19 -22 -26 -28 -33 -37 -39 -63 -65 -84 0
-19 -22 -27 -33 -38 -64 -85 0
-19 -22 -28 -33 -39 -65 0
-19 -22 -27 -28 -33 -38 -39 -64 -65 -86 0
-19 0
-19 -27 -38 -66 0
-19 -25 -26 -36 -37 -78 0
-19 -25 -27 -36 -38 -66 -79 0
-19 -26 -37 -81 0
-19 -26 -27 -37 -38 -66 -83 0
-19 -27 -38 0
-19 -27 -38 0
-19 -27 -38 -85 0
-19 -23 -24 -34 -35 -67 -68 0
-19 -23 -27 -34 -38 -67 -71 0
-19 -23 -28 -34 -39 -67 -72 0
-19 -24 -27 -35 -38 -75 0
-19 -24 -28 -35 -39 -76 0
-19 -27 -28 -38 -39 -86 0
-19 -23 -24 -25 -34 -35 -36 -68 -69 -73 0
-19 -23 -24 -26 -34 -35 -37 -68 -70 -74 0
-19 -23 -24 -27 -34 -35 -38 -68 -71 -75 0
-19 -23 -24 -28 -34 -35 -39 -68 -72 -76 0
-19 -23 -25 -26 -34 -36 -37 -69 -70 -78 0
-19 -23 -25 -27 -34 -36 -38 -69 -71 -79 0
-19 -23 -25 -28 -34 -36 -39 -69 -72 -80 0
-19 -23 -26 -34 -37 -70 -81 0
-19 -23 -26 -34 -37 -70 0
-19 -23 -26 -27 -34 -37 -38 -70 -71 -83 0
-19 -23 -26 -28 -34 -37 -39 -70 -72 -84 0
-19 -23 -27 -34 -38 -71 -85 0
-19 -23 -28 -34 -39 -72 0
-19 -23 -27 -28 -34 -38 -39 -71 -72 -86 0
-19 -24 -25 -26 -35 -36 -37 -73 -74 -78 0
-19 -24 -25 -27 -35 -36 -38 -73 -75 -79 0
-19 -24 -25 -28 -35 -36 -39 -73 -76 -80 0
-19 -24 -26 -27 -35 -37 -38 -74 -75 -83 0
-19 -24 -26 -28 -35 -37 -39 -74 -76 -84 0
-19 -24 -27 -28 -35 -38 -39 -75 -76 -86 0
-19 -25 -27 -36 -38 -79 0
-19 -25 -26 -27 -36 -37 -38 -78 -79 -83 0
-19 -25 -26 -28 -36 -37 -39 -78 -80 -84 0
-19 -25 -27 -28 -36 -38 -39 -79 -80 -86 0
-19 -26 -27 -37 -38 -83 -85 0
-19 -26 -28 -37 -39 -84 0
-19 -26 -27 -28 -37 -38 -39 -83 -84 -86 0
-19 -27 -28 -38 -39 -85 -86 0
-20 -21 -24 -42 -43 -46 -54 0
-20 -21 -25 -42 -43 -47 -55 0
-20 -21 -42 -43 0
-20 -21 -26 -42 -43 -48 -56 0
-20 -21 -27 -42 -43 -49 -57 0
-20 -21 -28 -42 -43 -50 -58 0
-20 -24 -42 -46 0
-20 -26 -42 -48 0
-20 -42 0
-20 -28 -42 -50 0
-20 -24 -25 -42 -46 -47 -73 0
-20 -24 -42 -46 0
-20 -24 -26 -42 -46 -48 -74 0
-20 -24 -27 -42 -46 -49 -75 0
-20 -24 -28 -42 -46 -50 -76 0
-20 -25 -42 -47 -77 0
-20 -25 -26 -42 -47 -48 -78 0
-20 -25 -27 -42 -47 -49 -79 0
-20 -25 -28 -42 -47 -50 -80 0
-20 -42 0
-20 -26 -42 -48 0
-20 -26 -27 -42 -48 -49 -83 0
-20 -26 -28 -42 -48 -50 -84 0
-20 -27 -42 -49 -85 0
-20 -28 -42 -50 0
-20 -27 -28 -42 -49 -50 -86 0
-20 -24 -46 0
-20 0
-20 -26 -48 0
-20 0
-20 -28 -50 0
-20 -23 -24 -45 -46 -68 0
-20 -23 -45 0
-20 -23 -26 -45 -48 -70 0
-20 -23 -45 0
-20 -23 -28 -45 -50 -72 0
-20 -24 -46 0
-20 -24 -26 -46 -48 -74 0
-20 -24 -28 -46 -50 -76 0
-20 0
-20 0
-20 0
-20 -28 -50 0
-20 -26 -48 -81 0
-20 -26 -48 0
-20 -26 -28 -48 -50 -84 0
-20 -28 -50 0
-20 -21 -22 -43 -44 -51 -52 0
-20 -21 -23 -43 -45 -51 -53 0
-20 -21 -25 -43 -47 -51 -55 0
-20 -21 -43 -51 0
-20 -21 -26 -43 -48 -51 -56 0
-20 -21 -27 -43 -49 -51 -57 0
-20 -21 -28 -43 -50 -51 -58 0
-20 -22 -23 -44 -45 -60 0
-20 -22 -25 -44 -47 -62 0
-20 -22 -26 -44 -48 -63 0
-20 -22 -44 0
-20 -22 -27 -44 -49 -64 0
-20 -22 -28 -44 -50 -65 0
-20 -23 -25 -45 -47 -69 0
-20 -23 -26 -45 -48 -70 0
-20 -23 -45 0
-20 -23 -27 -45 -49 -71 0
-20 -23 -28 -45 -50 -72 0
-20 -25 -47 -77 0
-20 -25 -26 -47 -48 -78 0
-20 -25 -27 -47 -49 -79 0
-20 -25 -28 -47 -50 -80 0
-20 0
-20 -26 -48 0
-20 -26 -27 -48 -49 -83 0
-20 -26 -28 -48 -50 -84 0
-20 -27 -49 -85 0
-20 -28 -50 0
-20 -27 -28 -49 -50 -86 0
-20 -21 -22 -23 -43 -44 -45 -52 -53 -60 0
-20 -21 -22 -24 -43 -44 -46 -52 -54 -61 0
-20 -21 -22 -25 -43 -44 -47 -52 -55 -62 0
-20 -21 -22 -43 -44 -52 0
-20 -21 -22 -26 -43 -44 -48 -52 -56 -63 0
-20 -21 -22 -27 -43 -44 -49 -52 -57 -64 0
-20 -21 -22 -28 -43 -44 -50 -52 -58 -65 0
-20 -21 -23 -24 -43 -45 -46 -53 -54 -68 0
-20 -21 -23 -25 -43 -45 -47 -53 -55 -69 0
-20 -21 -23 -43 -45 -53 0
-20 -21 -23 -26 -43 -45 -48 -53 -56 -70 0
-20 -21 -23 -27 -43 -45 -49 -53 -57 -71 0
-20 -21 -23 -28 -43 -45 -50 -53 -58 -72 0
-20 -21 -24 -25 -43 -46 -47 -54 -55 -73 0
-20 -21 -24 -43 -46 -54 0
-20 -21 -24 -26 -43 -46 -48 -54 -56 -74 0
-20 -21 -24 -27 -43 -46 -49 -54 -57 -75 0
-20 -21 -24 -28 -43 -46 -50 -54 -58 -76 0
-20 -21 -25 -43 -47 -55 -77 0
-20 -21 -25 -26 -43 -47 -48 -55 -56 -78 0
-20 -21 -25 -27 -43 -47 -49 -55 -57 -79 0
-20 -21 -25 -28 -43 -47 -50 -55 -58 -80 0
-20 -21 -43 0
-20 -21 -43 0
-20 -21 -28 -43 -50 -58 0
-20 -21 -26 -43 -48 -56 -81 0
-20 -21 -26 -27 -43 -48 -49 -56 -57 -83 0
-20 -21 -26 -28 -43 -48 -50 -56 -58 -84 0
-20 -21 -27 -28 -43 -49 -50 -57 -58 -86 0
-20 -22 -24 -44 -46 -61 0
-20 -22 -26 -44 -48 -63 0
-20 -22 -44 0
-20 -22 -28 -44 -50 -65 0
-20 -22 -23 -24 -44 -45 -46 -60 -61 -68 0
-20 -22 -23 -25 -44 -45 -47 -60 -62 -69 0
-20 -22 -23 -26 -44 -45 -48 -60 -63 -70 0
-20 -22 -23 -44 -45 -60 0
-20 -22 -23 -27 -44 -45 -49 -60 -64 -71 0
-20 -22 -23 -28 -44 -45 -50 -60 -65 -72 0
-20 -22 -24 -25 -44 -46 -47 -61 -62 -73 0
-20 -22 -24 -26 -44 -46 -48 -61 -63 -74 0
-20 -22 -24 -27 -44 -46 -49 -61 -64 -75 0
-20 -22 -24 -28 -44 -46 -50 -61 -65 -76 0
-20 -22 -25 -26 -44 -47 -48 -62 -63 -78 0
-20 -22 -25 -27 -44 -47 -49 -62 -64 -79 0
-20 -22 -25 -28 -44 -47 -50 -62 -65 -80 0
-20 -22 -28 -44 -50 -65 0
-20 -22 -26 -44 -48 -63 0
-20 -22 -26 -27 -44 -48 -49 -63 -64 -83 0
-20 -22 -26 -28 -44 -48 -50 -63 -65 -84 0
-20 -22 -27 -44 -49 -64 -85 0
-20 -22 -28 -44 -50 -65 0
-20 -22 -27 -28 -44 -49 -50 -64 -65 -86 0
-20 -26 -48 0
-20 0
-20 -28 -50 0
-20 -24 -26 -46 -48 -74 0
-20 -24 -28 -46 -50 -76 0
-20 -26 -48 -81 0
-20 -26 -48 0
-20 -26 -28 -48 -50 -84 0
-20 -28 -50 0
-20 0
-20 -26 -48 0
-20 -26 -28 -48 -50 -84 0
-20 -28 -50 0
-20 -23 -24 -25 -45 -46 -47 -68 -69 -73 0
-20 -23 -24 -26 -45 -46 -48 -68 -70 -74 0
-20 -23 -24 -27 -45 -46 -49 -68 -71 -75 0
-20 -23 -24 -28 -45 -46 -50 -68 -72 -76 0
-20 -23 -25 -26 -45 -47 -48 -69 -70 -78 0
-20 -23 -25 -27 -45 -47 -49 -69 -71 -79 0
-20 -23 -25 -28 -45 -47 -50 -69 -72 -80 0
-20 -23 -26 -45 -48 -70 -81 0
-20 -23 -26 -45 -48 -70 0
-20 -23 -26 -27 -45 -48 -49 -70 -71 -83 0
-20 -23 -26 -28 -45 -48 -50 -70 -72 -84 0
-20 -23 -27 -45 -49 -71 -85 0
-20 -23 -28 -45 -50 -72 0
-20 -23 -27 -28 -45 -49 -50 -71 -72 -86 0
-20 -24 -25 -46 -47 -73 -77 0
-20 -24 -25 -26 -46 -47 -48 -73 -74 -78 0
-20 -24 -25 -27 -46 -47 -49 -73 -75 -79 0
-20 -24 -25 -28 -46 -47 -50 -73 -76 -80 0
-20 -24 -26 -27 -46 -48 -49 -74 -75 -83 0
-20 -24 -26 -28 -46 -48 -50 -74 -76 -84 0
-20 -24 -27 -28 -46 -49 -50 -75 -76 -86 0
-20 -25 -26 -27 -47 -48 -49 -78 -79 -83 0
-20 -25 -26 -28 -47 -48 -50 -78 -80 -84 0
-20 -25 -27 -28 -47 -49 -50 -79 -80 -86 0
-20 -26 -27 -48 -49 -83 -85 0
-20 -26 -28 -48 -50 -84 0
-20 -26 -27 -28 -48 -49 -50 -83 -84 -86 0
-20 -27 -28 -49 -50 -85 -86 0
-25 0
-26 0
-27 -66 0
-24 -25 -73 0
-24 -26 -74 0
-24 -27 -75 0
-25 0
-25 -26 -78 0
-25 -27 -79 0
-27 0
-26 0
-26 -27 -83 0
-27 -85 0
-21 -24 -25 -54 -55 -73 0
-21 -24 -54 0
-21 -24 -26 -54 -56 -74 0
-21 -24 -27 -54 -57 -75 0
-21 -24 -28 -54 -58 -76 0
-21 -25 -55 -77 0
-21 -25 -55 0
-21 -25 -26 -55 -56 -78 0
-21 -25 -27 -55 -57 -79 0
-21 -25 -28 -55 -58 -80 0
-21 0
-21 -27 -57 0
-21 -26 -27 -56 -57 -83 0
-21 -26 -28 -56 -58 -84 0
-21 -27 -28 -57 -58 -86 0
-26 0
-24 -26 -74 0
-24 -28 -76 0
-26 0
-26 -28 -84 0
-28 0
-27 -66 0
-25 -26 -78 0
-25 -27 -66 -79 0
-26 -27 -66 -83 0
-27 0
-27 0
-27 -85 0
-24 -27 -75 0
-24 -28 -76 0
-27 -28 -86 0
-24 -25 -73 -77 0
-24 -25 -26 -73 -74 -78 0
-24 -25 -27 -73 -75 -79 0
-24 -25 -28 -73 -76 -80 0
-24 -26 -27 -74 -75 -83 0
-24 -26 -28 -74 -76 -84 0
-24 -27 -28 -75 -76 -86 0
-25 -77 0
-25 -27 -79 0
-25 -26 -27 -78 -79 -83 0
-25 -26 -28 -78 -80 -84 0
-25 -27 -28 -79 -80 -86 0
-26 -27 -83 -85 0
-26 -28 -84 0
-26 -27 -28 -83 -84 -86 0
-27 -28 -85 -86 0
-23 -25 -69 0
-23 0
-23 -27 -71 0
-25 0
-25 -27 -79 0
-27 0
-21 -23 -25 -53 -55 -69 0
-21 -23 -53 0
-21 -23 -27 -53 -57 -71 0
-21 -25 -55 0
-21 -25 -27 -55 -57 -79 0
-21 0
-21 -27 -57 0
-21 0
-27 0
-23 -25 -27 -69 -71 -79 0
-25 -27 -79 0
-23 0
-26 0
-23 -67 0
-23 0
-23 -26 -70 0
-26 -81 0
-23 -25 -69 0
-23 -26 -70 0
-23 -27 -71 0
-25 0
-25 -26 -78 0
-25 -27 -79 0
-27 0
-26 -27 -83 0
-23 -27 -67 -71 0
-23 -25 -26 -69 -70 -78 0
-23 -25 -27 -69 -71 -79 0
-23 -26 -70 -81 0
-23 -26 -27 -70 -71 -83 0
-25 -27 -79 0
-25 -26 -27 -78 -79 -83 0
-23 -24 -68 0
-23 -26 -70 0
-23 0
-24 -26 -74 0
-26 0
-24 -26 -74 0
-24 -28 -76 0
-26 -81 0
-26 0
-26 -28 -84 0
-28 0
-23 -24 -67 -68 0
-23 -28 -67 -72 0
-24 -28 -76 0
-23 -24 -26 -68 -70 -74 0
-23 -24 -28 -68 -72 -76 0
-23 -26 -70 -81 0
-23 -26 -70 0
-23 -26 -28 -70 -72 -84 0
-23 -28 -72 0
-24 -26 -28 -74 -76 -84 0
-26 -28 -84 0
-23 -25 -69 0
-23 -26 -70 0
-23 0
-23 -27 -71 0
-25 0
-25 -26 -78 0
-25 -27 -79 0
-27 0
-26 0
-26 -27 -83 0
-27 -85 0
-25 -26 -78 0
-25 -27 -66 -79 0
-26 -27 -66 -83 0
-23 -24 -25 -68 -69 -73 0
-23 -24 -26 -68 -70 -74 0
-23 -24 -27 -68 -71 -75 0
-23 -25 -26 -69 -70 -78 0
-23 -25 -27 -69 -71 -79 0
-23 -26 -70 0
-23 -26 -27 -70 -71 -83 0
-23 -27 -71 -85 0
-24 -25 -26 -73 -74 -78 0
-24 -25 -27 -73 -75 -79 0
-24 -26 -27 -74 -75 -83 0
-25 -27 -79 0
-25 -26 -27 -78 -79 -83 0
-26 -27 -83 -85 0
-21 -22 -23 -51 -52 -53 -60 0
-21 -22 -25 -51 -52 -55 -62 0
-21 -22 -51 -52 0
-21 -22 -26 -51 -52 -56 -63 0
-21 -22 -27 -51 -52 -57 -64 0
-21 -22 -28 -51 -52 -58 -65 0
-21 -23 -25 -51 -53 -55 -69 0
-21 -23 -26 -51 -53 -56 -70 0
-21 -23 -27 -51 -53 -57 -71 0
-21 -23 -28 -51 -53 -58 -72 0
-21 -25 -51 -55 -77 0
-21 -25 -51 -55 0
-21 -25 -26 -51 -55 -56 -78 0
-21 -25 -27 -51 -55 -57 -79 0
-21 -25 -28 -51 -55 -58 -80 0
-21 -51 0
-21 -27 -51 -57 0
-21 -26 -27 -51 -56 -57 -83 0
-21 -26 -28 -51 -56 -58 -84 0
-21 -27 -28 -51 -57 -58 -86 0
-22 -23 -25 -60 -62 -69 0
-22 -23 -26 -60 -63 -70 0
-22 -23 -60 0
-22 -23 -27 -60 -64 -71 0
-22 -23 -28 -60 -65 -72 0
-22 -25 -62 0
-22 -25 -26 -62 -63 -78 0
-22 -25 -27 -62 -64 -79 0
-22 -25 -28 -62 -65 -80 0
-22 -27 -64 0
-22 -26 -63 0
-22 -26 -27 -63 -64 -83 0
-22 -26 -28 -63 -65 -84 0
-22 -27 -64 -85 0
-22 -28 -65 0
-22 -27 -28 -64 -65 -86 0
-27 0
-27 -85 0
-23 -25 -26 -69 -70 -78 0
-23 -25 -27 -69 -71 -79 0
-23 -25 -28 -69 -72 -80 0
-23 -26 -70 0
-23 -26 -27 -70 -71 -83 0
-23 -26 -28 -70 -72 -84 0
-23 -27 -71 -85 0
-23 -28 -72 0
-23 -27 -28 -71 -72 -86 0
-25 -77 0
-25 -27 -79 0
-25 -26 -27 -78 -79 -83 0
-25 -26 -28 -78 -80 -84 0
-25 -27 -28 -79 -80 -86 0
-26 -27 -83 -85 0
-26 -28 -84 0
-26 -27 -28 -83 -84 -86 0
-27 -28 -85 -86 0
-21 -22 -23 -24 -52 -53 -54 -60 -61 -68 0
-21 -22 -23 -25 -52 -53 -55 -60 -62 -69 0
-21 -22 -23 -26 -52 -53 -56 -60 -63 -70 0
-21 -22 -23 -27 -52 -53 -57 -60 -64 -71 0
-21 -22 -23 -28 -52 -53 -58 -60 -65 -72 0
-21 -22 -24 -25 -52 -54 -55 -61 -62 -73 0
-21 -22 -24 -26 -52 -54 -56 -61 -63 -74 0
-21 -22 -24 -27 -52 -54 -57 -61 -64 -75 0
-21 -22 -24 -28 -52 -54 -58 -61 -65 -76 0
-21 -22 -25 -52 -55 -62 0
-21 -22 -25 -26 -52 -55 -56 -62 -63 -78 0
-21 -22 -25 -27 -52 -55 -57 -62 -64 -79 0
-21 -22 -25 -28 -52 -55 -58 -62 -65 -80 0
-21 -22 -52 0
-21 -22 -27 -52 -57 -64 0
-21 -22 -28 -52 -58 -65 0
-21 -22 -26 -27 -52 -56 -57 -63 -64 -83 0
-21 -22 -26 -28 -52 -56 -58 -63 -65 -84 0
-21 -22 -27 -28 -52 -57 -58 -64 -65 -86 0
-21 -23 -24 -25 -53 -54 -55 -68 -69 -73 0
-21 -23 -24 -26 -53 -54 -56 -68 -70 -74 0
-21 -23 -24 -27 -53 -54 -57 -68 -71 -75 0
-21 -23 -24 -28 -53 -54 -58 -68 -72 -76 0
-21 -23 -25 -26 -53 -55 -56 -69 -70 -78 0
-21 -23 -25 -27 -53 -55 -57 -69 -71 -79 0
-21 -23 -25 -28 -53 -55 -58 -69 -72 -80 0
-21 -23 -26 -53 -56 -70 -81 0
-21 -23 -26 -27 -53 -56 -57 -70 -71 -83 0
-21 -23 -26 -28 -53 -56 -58 -70 -72 -84 0
-21 -23 -27 -28 -53 -57 -58 -71 -72 -86 0
-21 -24 -25 -54 -55 -73 -77 0
-21 -24 -25 -26 -54 -55 -56 -73 -74 -78 0
-21 -24 -25 -27 -54 -55 -57 -73 -75 -79 0
-21 -24 -25 -28 -54 -55 -58 -73 -76 -80 0
-21 -24 -26 -27 -54 -56 -57 -74 -75 -83 0
-21 -24 -26 -28 -54 -56 -58 -74 -76 -84 0
-21 -24 -27 -28 -54 -57 -58 -75 -76 -86 0
-21 -25 -55 -77 0
-21 -25 -27 -55 -57 -79 0
-21 -25 -26 -27 -55 -56 -57 -78 -79 -83 0
-21 -25 -26 -28 -55 -56 -58 -78 -80 -84 0
-21 -25 -27 -28 -55 -57 -58 -79 -80 -86 0
-21 0
-21 -26 -27 -28 -56 -57 -58 -83 -84 -86 0
-22 -24 -26 -61 -63 -74 0
-22 -24 -28 -61 -65 -76 0
-22 -26 -63 0
-22 -26 -28 -63 -65 -84 0
-22 -28 -65 0
-22 -23 -24 -60 -61 -67 -68 0
-22 -23 -27 -60 -64 -67 -71 0
-22 -23 -28 -60 -65 -67 -72 0
-22 -24 -27 -61 -64 -75 0
-22 -24 -28 -61 -65 -76 0
-22 -27 -28 -64 -65 -86 0
-22 -23 -24 -25 -60 -61 -62 -68 -69 -73 0
-22 -23 -24 -26 -60 -61 -63 -68 -70 -74 0
-22 -23 -24 -27 -60 -61 -64 -68 -71 -75 0
-22 -23 -24 -28 -60 -61 -65 -68 -72 -76 0
-22 -23 -25 -26 -60 -62 -63 -69 -70 -78 0
-22 -23 -25 -27 -60 -62 -64 -69 -71 -79 0
-22 -23 -25 -28 -60 -62 -65 -69 -72 -80 0
-22 -23 -26 -60 -63 -70 0
-22 -23 -26 -27 -60 -63 -64 -70 -71 -83 0
-22 -23 -26 -28 -60 -63 -65 -70 -72 -84 0
-22 -23 -27 -60 -64 -71 -85 0
-22 -23 -28 -60 -65 -72 0
-22 -23 -27 -28 -60 -64 -65 -71 -72 -86 0
-22 -24 -25 -26 -61 -62 -63 -73 -74 -78 0
-22 -24 -25 -27 -61 -62 -64 -73 -75 -79 0
-22 -24 -25 -28 -61 -62 -65 -73 -76 -80 0
-22 -24 -26 -27 -61 -63 -64 -74 -75 -83 0
-22 -24 -26 -28 -61 -63 -65 -74 -76 -84 0
-22 -24 -27 -28 -61 -64 -65 -75 -76 -86 0
-22 -25 -27 -62 -64 -79 0
-22 -25 -26 -27 -62 -63 -64 -78 -79 -83 0
-22 -25 -26 -28 -62 -63 -65 -78 -80 -84 0
-22 -25 -27 -28 -62 -64 -65 -79 -80 -86 0
-22 -26 -27 -63 -64 -83 -85 0
-22 -26 -28 -63 -65 -84 0
-22 -26 -27 -28 -63 -64 -65 -83 -84 -86 0
-22 -27 -28 -64 -65 -85 -86 0
-26 0
-26 -81 0
-26 0
-26 -28 -84 0
-28 0
-24 -26 -28 -74 -76 -84 0
-26 -28 -84 0
-25 -26 -27 -66 -78 -79 -83 0
-26 -28 -84 0
-23 -24 -27 -67 -68 -71 -75 0
-23 -24 -28 -67 -68 -72 -76 0
-23 -27 -28 -67 -71 -72 -86 0
-24 -27 -28 -75 -76 -86 0
-23 -24 -25 -26 -68 -69 -70 -73 -74 -78 0
-23 -24 -25 -27 -68 -69 -71 -73 -75 -79 0
-23 -24 -25 -28 -68 -69 -72 -73 -76 -80 0
-23 -24 -26 -27 -68 -70 -71 -74 -75 -83 0
-23 -24 -26 -28 -68 -70 -72 -74 -76 -84 0
-23 -24 -27 -28 -68 -71 -72 -75 -76 -86 0
-23 -25 -26 -27 -69 -70 -71 -78 -79 -83 0
-23 -25 -26 -28 -69 -70 -72 -78 -80 -84 0
-23 -25 -27 -28 -69 -71 -72 -79 -80 -86 0
-23 -26 -27 -70 -71 -83 -85 0
-23 -26 -28 -70 -72 -84 0
-23 -26 -27 -28 -70 -71 -72 -83 -84 -86 0
-23 -27 -28 -71 -72 -85 -86 0
-24 -25 -26 -27 -73 -74 -75 -78 -79 -83 0
-24 -25 -26 -28 -73 -74 -76 -78 -80 -84 0
-24 -25 -27 -28 -73 -75 -76 -79 -80 -86 0
-24 -26 -27 -28 -74 -75 -76 -83 -84 -86 0
-25 -26 -27 -28 -78 -79 -80 -83 -84 -86 0
-26 -27 -28 -83 -84 -85 -86 0
-34 -37 -70 0
-32 -36 -55 0
-32 -38 -57 0
-36 -38 -79 0
-32 -34 -53 0
-32 -38 -57 0
-32 -34 -53 0
-32 -37 -56 0
-32 -38 -57 0
-32 -34 -36 -53 -55 -69 0
-32 -34 -37 -53 -56 -70 0
-32 -34 -38 -53 -57 -71 0
-32 -36 -55 0
-32 -36 -37 -55 -56 -78 0
-32 -36 -38 -55 -57 -79 0
-32 -38 -57 0
-32 -37 -38 -56 -57 -83 0
-38 -66 0
-34 -38 -71 0
-38 -66 0
-36 -37 -78 0
-36 -38 -66 -79 0
-37 -38 -66 -83 0
-38 0
-38 0
-34 -37 -70 0
-34 -38 -71 0
-37 -38 -83 0
-34 -36 -37 -69 -70 -78 0
-34 -36 -38 -69 -71 -79 0
-34 -37 -38 -70 -71 -83 0
-36 -38 -79 0
-36 -37 -38 -78 -79 -83 0
-79 0
-66 -79 0
-71 0
-69 -71 -79 0
-79 0
-70 0
-79 0
-78 0
-66 -79 0
-66 -83 0
-70 0
-71 0
-83 0
-69 -70 -78 0
-69 -71 -79 0
-70 -71 -83 0
-79 0
-78 -79 -83 0
-55 -57 -79 0
-53 -57 -71 0
-53 -56 -70 0
-53 -57 -71 0
-56 -57 -83 0
-53 -55 -56 -69 -70 -78 0
-53 -55 -57 -69 -71 -79 0
-53 -56 -57 -70 -71 -83 0
-55 -57 -79 0
-55 -56 -57 -78 -79 -83 0
-66 -78 -79 -83 0
-70 -71 -83 0
-69 -70 -71 -78 -79 -83 0
-29 -30 -33 0
-29 -30 -33 0
-29 -30 -33 -35 -61 0
-29 -30 0
-29 -30 -35 0
-29 -39 0
-29 -35 0
-29 -39 0
-29 -35 -39 -76 0
-29 -33 0
-29 -33 -39 -65 0
-29 -33 -35 -61 0
-29 -33 0
-29 -33 -39 -65 0
-29 -33 -35 -39 -61 -65 -76 0
-29 0
-29 -39 0
-29 -35 -39 -76 0
-61 0
-61 0
-76 0
-76 0
-61 -65 -76 0
-61 -65 -76 0
-30 -31 -32 -40 -43 0
-30 -31 -33 -40 -44 0
-30 -31 -34 -40 -45 0
-30 -31 -35 -40 -46 0
-30 -31 -37 -40 -48 0
-30 -32 -33 -52 0
-30 -32 -34 -53 0
-30 -32 -35 -54 0
-30 -32 -37 -56 0
-30 -33 0
-30 -33 -34 -60 0
-30 -33 -35 -61 0
-30 -33 -37 -63 0
-30 -34 -67 0
-30 -35 0
-30 -34 -35 -68 0
-30 -34 -37 -70 0
-30 -35 -37 -74 0
-30 -31 -32 -43 -51 0
-30 -31 -33 -44 0
-30 -31 -34 -45 0
-30 -31 -37 -48 0
-30 -31 -38 -49 0
-30 -31 -32 -33 -43 -44 -52 0
-30 -31 -32 -43 0
-30 -31 -32 -34 -43 -45 -53 0
-30 -31 -32 -35 -43 -46 -54 0
-30 -31 -32 -43 0
-30 -31 -32 -37 -43 -48 -56 0
-30 -31 -32 -38 -43 -49 -57 0
-30 -31 -33 -34 -44 -45 -60 0
-30 -31 -33 -35 -44 -46 -61 0
-30 -31 -33 -37 -44 -48 -63 0
-30 -31 -33 -38 -44 -49 -64 0
-30 -31 -34 -45 0
-30 -31 -37 -48 0
-30 -31 -38 -49 0
-30 -31 -34 -35 -45 -46 -68 0
-30 -31 -34 -45 0
-30 -31 -34 -37 -45 -48 -70 0
-30 -31 -34 -38 -45 -49 -71 0
-30 -31 -35 -37 -46 -48 -74 0
-30 -31 -35 -38 -46 -49 -75 0
-30 -31 -37 -48 -81 0
-30 -31 -37 -38 -48 -49 -83 0
-30 -32 -33 -51 -52 0
-30 -32 -34 -51 -53 0
-30 -32 -37 -51 -56 0
-30 -32 -38 -51 -57 0
-30 -33 -34 -60 0
-30 -33 -37 -63 0
-30 -33 -38 -64 0
-30 -34 -37 -70 0
-30 -34 -38 -71 0
-30 -37 -38 -83 0
-30 -32 -33 -34 -52 -53 -60 0
-30 -32 -33 -35 -52 -54 -61 0
-30 -32 -33 -37 -52 -56 -63 0
-30 -32 -33 -38 -52 -57 -64 0
-30 -32 -34 -53 0
-30 -32 -37 -56 0
-30 -32 -38 -57 0
-30 -32 -34 -35 -53 -54 -68 0
-30 -32 -34 -53 0
-30 -32 -34 -37 -53 -56 -70 0
-30 -32 -34 -38 -53 -57 -71 0
-30 -32 -35 -37 -54 -56 -74 0
-30 -32 -35 -38 -54 -57 -75 0
-30 -32 -37 -56 -81 0
-30 -32 -37 -38 -56 -57 -83 0
-30 -33 -34 -60 -67 0
-30 -33 -35 -61 0
-30 -33 -38 -64 0
-30 -33 -34 -35 -60 -61 -68 0
-30 -33 -34 -37 -60 -63 -70 0
-30 -33 -34 -38 -60 -64 -71 0
-30 -33 -35 -37 -61 -63 -74 0
-30 -33 -35 -38 -61 -64 -75 0
-30 -33 -37 -38 -63 -64 -83 0
-30 -34 -67 0
-30 -38 0
-30 -34 -37 -70 0
-30 -34 -38 -71 0
-30 -37 -38 -83 0
-30 -34 -35 -67 -68 0
-30 -34 -38 -67 -71 0
-30 -35 -38 -75 0
-30 -34 -35 -37 -68 -70 -74 0
-30 -34 -35 -38 -68 -71 -75 0
-30 -34 -37 -70 -81 0
-30 -34 -37 -38 -70 -71 -83 0
-30 -35 -37 -38 -74 -75 -83 0
-31 -32 -33 -40 -43 -44 -52 0
-31 -32 -40 -43 0
-31 -32 -34 -40 -43 -45 -53 0
-31 -32 -35 -40 -43 -46 -54 0
-31 -32 -36 -40 -43 -47 -55 0
-31 -32 -37 -40 -43 -48 -56 0
-31 -32 -39 -40 -41 -43 -50 -58 0
-31 -33 -40 -44 -59 0
-31 -33 -34 -40 -44 -45 -60 0
-31 -33 -35 -40 -44 -46 -61 0
-31 -33 -36 -40 -44 -47 -62 0
-31 -33 -37 -40 -44 -48 -63 0
-31 -33 -40 -44 0
-31 -33 -39 -40 -41 -44 -50 -65 0
-31 -34 -40 -45 0
-31 -34 -35 -40 -45 -46 -68 0
-31 -34 -36 -40 -45 -47 -69 0
-31 -34 -37 -40 -45 -48 -70 0
-31 -34 -40 -45 0
-31 -34 -39 -40 -41 -45 -50 -72 0
-31 -35 -36 -40 -46 -47 -73 0
-31 -35 -37 -40 -46 -48 -74 0
-31 -35 -39 -40 -41 -46 -50 -76 0
-31 -36 -37 -40 -47 -48 -78 0
-31 -36 -39 -40 -41 -47 -50 -80 0
-31 -37 -40 -48 0
-31 -37 -39 -40 -41 -48 -50 -84 0
-31 -39 -40 -41 -50 0
-32 -35 -54 0
-32 -36 -55 0
-32 -39 -41 -58 0
-35 0
-39 -41 0
-35 -36 -73 0
-35 -39 -41 -76 0
-36 -39 -41 -80 0
-39 -41 0
-32 -33 -52 -59 0
-32 -33 -34 -52 -53 -60 0
-32 -33 -35 -52 -54 -61 0
-32 -33 -36 -52 -55 -62 0
-32 -33 -52 0
-32 -33 -37 -52 -56 -63 0
-32 -33 -39 -41 -52 -58 -65 0
-32 -34 -53 0
-32 -34 -35 -53 -54 -68 0
-32 -34 -36 -53 -55 -69 0
-32 -34 -37 -53 -56 -70 0
-32 -34 -39 -41 -53 -58 -72 0
-32 -35 -36 -54 -55 -73 0
-32 -35 -37 -54 -56 -74 0
-32 -35 -39 -41 -54 -58 -76 0
-32 -36 -55 0
-32 -36 -37 -55 -56 -78 0
-32 -36 -39 -41 -55 -58 -80 0
-32 -37 -39 -41 -56 -58 -84 0
-33 -34 -59 -60 0
-33 -59 0
-33 -34 -60 -67 0
-33 -35 -61 0
-33 0
-33 -39 -41 -65 0
-33 -34 -35 -60 -61 -68 0
-33 -34 -36 -60 -62 -69 0
-33 -34 -37 -60 -63 -70 0
-33 -34 -60 0
-33 -34 -39 -41 -60 -65 -72 0
-33 -35 -36 -61 -62 -73 0
-33 -35 -37 -61 -63 -74 0
-33 -35 -39 -41 -61 -65 -76 0
-33 -36 -62 0
-33 -36 -37 -62 -63 -78 0
-33 -36 -39 -41 -62 -65 -80 0
-33 0
-33 -37 -63 0
-33 -37 -63 0
-33 -37 -39 -41 -63 -65 -84 0
-33 -39 -41 -65 0
-36 -37 -78 0
-34 -35 -67 -68 0
-34 -39 -41 -67 -72 0
-35 -39 -41 -76 0
-34 -35 -36 -68 -69 -73 0
-34 -35 -37 -68 -70 -74 0
-34 -35 -39 -41 -68 -72 -76 0
-34 -36 -37 -69 -70 -78 0
-34 -36 -39 -41 -69 -72 -80 0
-34 -37 -70 0
-34 -37 -39 -41 -70 -72 -84 0
-34 -39 -41 -72 0
-35 -36 -37 -73 -74 -78 0
-35 -36 -39 -41 -73 -76 -80 0
-35 -37 -39 -41 -74 -76 -84 0
-36 -37 -39 -41 -78 -80 -84 0
-37 -39 -41 -84 0
-31 -34 -35 -45 -46 -68 0
-31 -34 -45 0
-31 -34 -37 -45 -48 -70 0
-31 -34 -45 0
-31 -34 -39 -45 -50 -72 0
-31 -35 -37 -46 -48 -74 0
-31 -35 -39 -46 -50 -76 0
-31 -37 -48 -81 0
-31 -37 -48 0
-31 -37 -39 -48 -50 -84 0
-31 -39 -50 0
-31 -32 -33 -43 -44 -51 -52 0
-31 -32 -34 -43 -45 -51 -53 0
-31 -32 -36 -43 -47 -51 -55 0
-31 -32 -37 -43 -48 -51 -56 0
-31 -32 -38 -43 -49 -51 -57 0
-31 -32 -39 -43 -50 -51 -58 0
-31 -33 -34 -44 -45 -60 0
-31 -33 -36 -44 -47 -62 0
-31 -33 -37 -44 -48 -63 0
-31 -33 -44 0
-31 -33 -38 -44 -49 -64 0
-31 -33 -39 -44 -50 -65 0
-31 -34 -36 -45 -47 -69 0
-31 -34 -37 -45 -48 -70 0
-31 -34 -45 0
-31 -34 -38 -45 -49 -71 0
-31 -34 -39 -45 -50 -72 0
-31 -36 -37 -47 -48 -78 0
-31 -36 -38 -47 -49 -79 0
-31 -36 -39 -47 -50 -80 0
-31 -37 -48 0
-31 -37 -38 -48 -49 -83 0
-31 -37 -39 -48 -50 -84 0
-31 -38 -49 -85 0
-31 -39 -50 0
-31 -38 -39 -49 -50 -86 0
-31 -32 -33 -43 -44 -52 -59 0
-31 -32 -33 -34 -43 -44 -45 -52 -53 -60 0
-31 -32 -33 -35 -43 -44 -46 -52 -54 -61 0
-31 -32 -33 -36 -43 -44 -47 -52 -55 -62 0
-31 -32 -33 -37 -43 -44 -48 -52 -56 -63 0
-31 -32 -33 -38 -43 -44 -49 -52 -57 -64 0
-31 -32 -33 -39 -43 -44 -50 -52 -58 -65 0
-31 -32 -34 -43 -45 -53 0
-31 -32 -43 0
-31 -32 -38 -43 -49 -57 0
-31 -32 -34 -43 -45 -53 0
-31 -32 -37 -43 -48 -56 0
-31 -32 -38 -43 -49 -57 0
-31 -32 -39 -43 -50 -58 0
-31 -32 -34 -35 -43 -45 -46 -53 -54 -68 0
-31 -32 -34 -36 -43 -45 -47 -53 -55 -69 0
-31 -32 -34 -43 -45 -53 0
-31 -32 -34 -37 -43 -45 -48 -53 -56 -70 0
-31 -32 -34 -38 -43 -45 -49 -53 -57 -71 0
-31 -32 -34 -39 -43 -45 -50 -53 -58 -72 0
-31 -32 -35 -36 -43 -46 -47 -54 -55 -73 0
-31 -32 -35 -37 -43 -46 -48 -54 -56 -74 0
-31 -32 -35 -38 -43 -46 -49 -54 -57 -75 0
-31 -32 -35 -39 -43 -46 -50 -54 -58 -76 0
-31 -32 -36 -37 -43 -47 -48 -55 -56 -78 0
-31 -32 -36 -38 -43 -47 -49 -55 -57 -79 0
-31 -32 -36 -39 -43 -47 -50 -55 -58 -80 0
-31 -32 -37 -43 -48 -56 -81 0
-31 -32 -37 -38 -43 -48 -49 -56 -57 -83 0
-31 -32 -37 -39 -43 -48 -50 -56 -58 -84 0
-31 -32 -38 -39 -43 -49 -50 -57 -58 -86 0
-31 -33 -34 -44 -45 -59 -60 0
-31 -33 -38 -44 -49 -59 -64 0
-31 -33 -34 -35 -44 -45 -46 -60 -61 -68 0
-31 -33 -34 -36 -44 -45 -47 -60 -62 -69 0
-31 -33 -34 -37 -44 -45 -48 -60 -63 -70 0
-31 -33 -34 -44 -45 -60 0
-31 -33 -34 -38 -44 -45 -49 -60 -64 -71 0
-31 -33 -34 -39 -44 -45 -50 -60 -65 -72 0
-31 -33 -35 -36 -44 -46 -47 -61 -62 -73 0
-31 -33 -35 -37 -44 -46 -48 -61 -63 -74 0
-31 -33 -35 -38 -44 -46 -49 -61 -64 -75 0
-31 -33 -35 -39 -44 -46 -50 -61 -65 -76 0
-31 -33 -36 -37 -44 -47 -48 -62 -63 -78 0
-31 -33 -36 -38 -44 -47 -49 -62 -64 -79 0
-31 -33 -36 -39 -44 -47 -50 -62 -65 -80 0
-31 -33 -37 -44 -48 -63 0
-31 -33 -37 -38 -44 -48 -49 -63 -64 -83 0
-31 -33 -37 -39 -44 -48 -50 -63 -65 -84 0
-31 -33 -38 -44 -49 -64 -85 0
-31 -33 -39 -44 -50 -65 0
-31 -33 -38 -39 -44 -49 -50 -64 -65 -86 0
-31 -34 -45 0
-31 -34 -38 -45 -49 -71 0
-31 -34 -37 -45 -48 -70 0
-31 -34 -45 0
-31 -34 -38 -45 -49 -71 0
-31 -34 -39 -45 -50 -72 0
-31 -37 -48 0
-31 -37 -38 -48 -49 -83 0
-31 -37 -39 -48 -50 -84 0
-31 -38 -49 -85 0
-31 -39 -50 0
-31 -38 -39 -49 -50 -86 0
-31 -34 -35 -36 -45 -46 -47 -68 -69 -73 0
-31 -34 -35 -37 -45 -46 -48 -68 -70 -74 0
-31 -34 -35 -38 -45 -46 -49 -68 -71 -75 0
-31 -34 -35 -39 -45 -46 -50 -68 -72 -76 0
-31 -34 -36 -37 -45 -47 -48 -69 -70 -78 0
-31 -34 -36 -38 -45 -47 -49 -69 -71 -79 0
-31 -34 -36 -39 -45 -47 -50 -69 -72 -80 0
-31 -34 -37 -45 -48 -70 -81 0
-31 -34 -37 -45 -48 -70 0
-31 -34 -37 -38 -45 -48 -49 -70 -71 -83 0
-31 -34 -37 -39 -45 -48 -50 -70 -72 -84 0
-31 -34 -38 -45 -49 -71 -85 0
-31 -34 -39 -45 -50 -72 0
-31 -34 -38 -39 -45 -49 -50 -71 -72 -86 0
-31 -35 -36 -37 -46 -47 -48 -73 -74 -78 0
-31 -35 -36 -38 -46 -47 -49 -73 -75 -79 0
-31 -35 -36 -39 -46 -47 -50 -73 -76 -80 0
-31 -35 -37 -38 -46 -48 -49 -74 -75 -83 0
-31 -35 -37 -39 -46 -48 -50 -74 -76 -84 0
-31 -35 -38 -39 -46 -49 -50 -75 -76 -86 0
-31 -36 -37 -38 -47 -48 -49 -78 -79 -83 0
-31 -36 -37 -39 -47 -48 -50 -78 -80 -84 0
-31 -36 -38 -39 -47 -49 -50 -79 -80 -86 0
-31 -37 -38 -48 -49 -83 -85 0
-31 -37 -39 -48 -50 -84 0
-31 -37 -38 -39 -48 -49 -50 -83 -84 -86 0
-31 -38 -39 -49 -50 -85 -86 0
-32 -34 -53 0
-32 -38 -57 0
-32 -34 -36 -53 -55 -69 0
-32 -34 -53 0
-32 -34 -38 -53 -57 -71 0
-32 -36 -55 0
-32 -36 -38 -55 -57 -79 0
-32 -38 -57 0
-38 0
-38 0
-34 -38 -71 0
-34 -36 -38 -69 -71 -79 0
-36 -38 -79 0
-35 0
-39 0
-35 -39 -76 0
-39 0
-34 -35 -67 -68 0
-34 -39 -67 -72 0
-35 -39 -76 0
-34 -35 -37 -68 -70 -74 0
-34 -35 -39 -68 -72 -76 0
-34 -37 -70 -81 0
-34 -37 -70 0
-34 -37 -39 -70 -72 -84 0
-34 -39 -72 0
-35 -37 -39 -74 -76 -84 0
-37 -39 -84 0
-32 -36 -51 -55 0
-32 -38 -51 -57 0
-32 -39 -51 -58 0
-36 -38 -79 0
-36 -39 -80 0
-38 -85 0
-39 0
-38 -39 -86 0
-32 -35 -36 -54 -55 -73 0
-32 -35 -38 -54 -57 -75 0
-32 -35 -39 -54 -58 -76 0
-32 -36 -38 -55 -57 -79 0
-32 -36 -39 -55 -58 -80 0
-32 -38 -39 -57 -58 -86 0
-35 -38 -75 0
-35 -39 -76 0
-38 -39 -86 0
-35 -36 -38 -73 -75 -79 0
-35 -36 -39 -73 -76 -80 0
-35 -38 -39 -75 -76 -86 0
-36 -38 -39 -79 -80 -86 0
-38 -39 -85 -86 0
-32 -33 -34 -51 -52 -53 -60 0
-32 -33 -36 -51 -52 -55 -62 0
-32 -33 -51 -52 0
-32 -33 -37 -51 -52 -56 -63 0
-32 -33 -38 -51 -52 -57 -64 0
-32 -33 -39 -51 -52 -58 -65 0
-32 -34 -36 -51 -53 -55 -69 0
-32 -34 -37 -51 -53 -56 -70 0
-32 -34 -38 -51 -53 -57 -71 0
-32 -34 -39 -51 -53 -58 -72 0
-32 -36 -51 -55 0
-32 -36 -37 -51 -55 -56 -78 0
-32 -36 -38 -51 -55 -57 -79 0
-32 -36 -39 -51 -55 -58 -80 0
-32 -38 -51 -57 0
-32 -37 -38 -51 -56 -57 -83 0
-32 -37 -39 -51 -56 -58 -84 0
-32 -38 -39 -51 -57 -58 -86 0
-33 -34 -36 -60 -62 -69 0
-33 -34 -37 -60 -63 -70 0
-33 -34 -60 0
-33 -34 -38 -60 -64 -71 0
-33 -34 -39 -60 -65 -72 0
-33 -36 -62 0
-33 -36 -37 -62 -63 -78 0
-33 -36 -38 -62 -64 -79 0
-33 -36 -39 -62 -65 -80 0
-33 0
-33 -38 -64 0
-33 -37 -63 0
-33 -37 -63 0
-33 -37 -38 -63 -64 -83 0
-33 -37 -39 -63 -65 -84 0
-33 -38 -64 -85 0
-33 -39 -65 0
-33 -38 -39 -64 -65 -86 0
-38 0
-38 -85 0
-34 -36 -37 -69 -70 -78 0
-34 -36 -38 -69 -71 -79 0
-34 -36 -39 -69 -72 -80 0
-34 -37 -70 0
-34 -37 -38 -70 -71 -83 0
-34 -37 -39 -70 -72 -84 0
-34 -38 -71 -85 0
-34 -39 -72 0
-34 -38 -39 -71 -72 -86 0
-36 -38 -79 0
-36 -37 -38 -78 -79 -83 0
-36 -37 -39 -78 -80 -84 0
-36 -38 -39 -79 -80 -86 0
-37 -38 -83 -85 0
-37 -39 -84 0
-37 -38 -39 -83 -84 -86 0
-38 -39 -85 -86 0
-32 -33 -34 -52 -53 -59 -60 0
-32 -33 -38 -52 -57 -59 -64 0
-32 -33 -34 -35 -52 -53 -54 -60 -61 -68 0
-32 -33 -34 -36 -52 -53 -55 -60 -62 -69 0
-32 -33 -34 -37 -52 -53 -56 -60 -63 -70 0
-32 -33 -34 -38 -52 -53 -57 -60 -64 -71 0
-32 -33 -34 -39 -52 -53 -58 -60 -65 -72 0
-32 -33 -35 -36 -52 -54 -55 -61 -62 -73 0
-32 -33 -35 -37 -52 -54 -56 -61 -63 -74 0
-32 -33 -35 -38 -52 -54 -57 -61 -64 -75 0
-32 -33 -35 -39 -52 -54 -58 -61 -65 -76 0
-32 -33 -36 -52 -55 -62 0
-32 -33 -36 -37 -52 -55 -56 -62 -63 -78 0
-32 -33 -36 -38 -52 -55 -57 -62 -64 -79 0
-32 -33 -36 -39 -52 -55 -58 -62 -65 -80 0
-32 -33 -38 -52 -57 -64 0
-32 -33 -37 -38 -52 -56 -57 -63 -64 -83 0
-32 -33 -37 -39 -52 -56 -58 -63 -65 -84 0
-32 -33 -38 -39 -52 -57 -58 -64 -65 -86 0
-32 -34 -53 0
-32 -34 -38 -53 -57 -71 0
-32 -34 -37 -53 -56 -70 0
-32 -34 -38 -53 -57 -71 0
-32 -34 -39 -53 -58 -72 0
-32 -37 -38 -56 -57 -83 0
-32 -37 -39 -56 -58 -84 0
-32 -38 -39 -57 -58 -86 0
-32 -34 -35 -36 -53 -54 -55 -68 -69 -73 0
-32 -34 -35 -37 -53 -54 -56 -68 -70 -74 0
-32 -34 -35 -38 -53 -54 -57 -68 -71 -75 0
-32 -34 -35 -39 -53 -54 -58 -68 -72 -76 0
-32 -34 -36 -37 -53 -55 -56 -69 -70 -78 0
-32 -34 -36 -38 -53 -55 -57 -69 -71 -79 0
-32 -34 -36 -39 -53 -55 -58 -69 -72 -80 0
-32 -34 -37 -53 -56 -70 -81 0
-32 -34 -37 -38 -53 -56 -57 -70 -71 -83 0
-32 -34 -37 -39 -53 -56 -58 -70 -72 -84 0
-32 -34 -38 -39 -53 -57 -58 -71 -72 -86 0
-32 -35 -36 -37 -54 -55 -56 -73 -74 -78 0
-32 -35 -36 -38 -54 -55 -57 -73 -75 -79 0
-32 -35 -36 -39 -54 -55 -58 -73 -76 -80 0
-32 -35 -37 -38 -54 -56 -57 -74 -75 -83 0
-32 -35 -37 -39 -54 -56 -58 -74 -76 -84 0
-32 -35 -38 -39 -54 -57 -58 -75 -76 -86 0
-32 -36 -38 -55 -57 -79 0
-32 -36 -37 -38 -55 -56 -57 -78 -79 -83 0
-32 -36 -37 -39 -55 -56 -58 -78 -80 -84 0
-32 -36 -38 -39 -55 -57 -58 -79 -80 -86 0
-32 -37 -38 -39 -56 -57 -58 -83 -84 -86 0
-33 -34 -38 -59 -60 -64 -71 0
-33 -34 -35 -60 -61 -67 -68 0
-33 -34 -38 -60 -64 -67 -71 0
-33 -34 -39 -60 -65 -67 -72 0
-33 -35 -38 -61 -64 -75 0
-33 -35 -39 -61 -65 -76 0
-33 -38 -39 -64 -65 -86 0
-33 -34 -35 -36 -60 -61 -62 -68 -69 -73 0
-33 -34 -35 -37 -60 -61 -63 -68 -70 -74 0
-33 -34 -35 -38 -60 -61 -64 -68 -71 -75 0
-33 -34 -35 -39 -60 -61 -65 -68 -72 -76 0
-33 -34 -36 -37 -60 -62 -63 -69 -70 -78 0
-33 -34 -36 -38 -60 -62 -64 -69 -71 -79 0
-33 -34 -36 -39 -60 -62 -65 -69 -72 -80 0
-33 -34 -37 -60 -63 -70 0
-33 -34 -37 -38 -60 -63 -64 -70 -71 -83 0
-33 -34 -37 -39 -60 -63 -65 -70 -72 -84 0
-33 -34 -38 -60 -64 -71 -85 0
-33 -34 -39 -60 -65 -72 0
-33 -34 -38 -39 -60 -64 -65 -71 -72 -86 0
-33 -35 -36 -37 -61 -62 -63 -73 -74 -78 0
-33 -35 -36 -38 -61 -62 -64 -73 -75 -79 0
-33 -35 -36 -39 -61 -62 -65 -73 -76 -80 0
-33 -35 -37 -38 -61 -63 -64 -74 -75 -83 0
-33 -35 -37 -39 -61 -63 -65 -74 -76 -84 0
-33 -35 -38 -39 -61 -64 -65 -75 -76 -86 0
-33 -36 -38 -62 -64 -79 0
-33 -36 -37 -38 -62 -63 -64 -78 -79 -83 0
-33 -36 -37 -39 -62 -63 -65 -78 -80 -84 0
-33 -36 -38 -39 -62 -64 -65 -79 -80 -86 0
-33 -37 -38 -63 -64 -83 -85 0
-33 -37 -39 -63 -65 -84 0
-33 -37 -38 -39 -63 -64 -65 -83 -84 -86 0
-33 -38 -39 -64 -65 -85 -86 0
-36 -37 -38 -66 -78 -79 -83 0
-38 0
-38 -85 0
-34 -38 -67 -71 0
-34 -39 -67 -72 0
-38 -39 -86 0
-34 -37 -70 0
-34 -37 -38 -70 -71 -83 0
-34 -37 -39 -70 -72 -84 0
-34 -38 -71 -85 0
-34 -39 -72 0
-34 -38 -39 -71 -72 -86 0
-37 -38 -83 -85 0
-37 -39 -84 0
-37 -38 -39 -83 -84 -86 0
-38 -39 -85 -86 0
-34 -35 -38 -67 -68 -71 -75 0
-34 -35 -39 -67 -68 -72 -76 0
-34 -38 -39 -67 -71 -72 -86 0
-35 -38 -39 -75 -76 -86 0
-34 -35 -36 -37 -68 -69 -70 -73 -74 -78 0
-34 -35 -36 -38 -68 -69 -71 -73 -75 -79 0
-34 -35 -36 -39 -68 -69 -72 -73 -76 -80 0
-34 -35 -37 -38 -68 -70 -71 -74 -75 -83 0
-34 -35 -37 -39 -68 -70 -72 -74 -76 -84 0
-34 -35 -38 -39 -68 -71 -72 -75 -76 -86 0
-34 -36 -37 -38 -69 -70 -71 -78 -79 -83 0
-34 -36 -37 -39 -69 -70 -72 -78 -80 -84 0
-34 -36 -38 -39 -69 -71 -72 -79 -80 -86 0
-34 -37 -38 -70 -71 -83 -85 0
-34 -37 -39 -70 -72 -84 0
-34 -37 -38 -39 -70 -71 -72 -83 -84 -86 0
-34 -38 -39 -71 -72 -85 -86 0
-35 -36 -37 -38 -73 -74 -75 -78 -79 -83 0
-35 -36 -37 -39 -73 -74 -76 -78 -80 -84 0
-35 -36 -38 -39 -73 -75 -76 -79 -80 -86 0
-35 -37 -38 -39 -74 -75 -76 -83 -84 -86 0
-36 -37 -38 -39 -78 -79 -80 -83 -84 -86 0
-37 -38 -39 -83 -84 -85 -86 0
-40 -43 -44 -52 0
-40 -43 -45 -53 0
-40 -43 -46 -54 0
-40 -43 -48 -56 0
-40 -43 0
-40 -44 -45 -60 0
-40 -44 -46 -61 0
-40 -44 -48 -63 0
-40 -45 -46 -68 0
-40 -45 -48 -70 0
-40 -46 -48 -74 0
-40 -48 -82 0
-52 -53 -60 0
-52 -54 -61 0
-52 -56 -63 0
-53 -54 -68 0
-53 -56 -70 0
-54 -56 -74 0
-56 -82 0
-60 -67 0
-61 0
-60 -61 -68 0
-60 -63 -70 0
-61 -63 -74 0
-67 -68 0
-68 -70 -74 0
-43 -44 -51 -52 0
-43 -45 -51 -53 0
-43 -51 0
-43 -48 -51 -56 0
-43 -49 -51 -57 0
-44 -45 -60 0
-44 -48 -63 0
-44 -49 -64 0
-45 -48 -70 0
-45 -49 -71 0
-48 -49 -83 0
-43 -44 -45 -52 -53 -60 0
-43 -44 -46 -52 -54 -61 0
-43 -44 -52 0
-43 -44 -48 -52 -56 -63 0
-43 -44 -49 -52 -57 -64 0
-43 -45 -53 0
-43 0
-43 -48 -56 0
-43 -49 -57 0
-43 -45 -46 -53 -54 -68 0
-43 -45 -53 0
-43 -45 -48 -53 -56 -70 0
-43 -45 -49 -53 -57 -71 0
-43 -46 -54 0
-43 -46 -48 -54 -56 -74 0
-43 -46 -49 -54 -57 -75 0
-43 0
-43 0
-43 -48 -56 -81 0
-43 0
-43 -48 -56 -82 0
-43 -48 -49 -56 -57 -83 0
-43 -49 -57 0
-44 -46 -61 0
-44 -48 -63 0
-44 -45 -46 -60 -61 -68 0
-44 -45 -48 -60 -63 -70 0
-44 -45 -49 -60 -64 -71 0
-44 -46 -48 -61 -63 -74 0
-44 -46 -49 -61 -64 -75 0
-44 -48 -49 -63 -64 -83 0
-48 0
-46 -48 -74 0
-48 -81 0
-48 0
-48 -82 0
-45 -48 -70 0
-45 -49 -71 0
-48 -49 -83 0
-45 -46 -48 -68 -70 -74 0
-45 -46 -49 -68 -71 -75 0
-45 -48 -70 -81 0
-45 -48 -49 -70 -71 -83 0
-46 -48 -49 -74 -75 -83 0
-48 -81 -82 0
-48 -49 -82 -83 0
-61 0
-61 -63 -74 0
-70 0
-71 0
-83 0
-70 0
-71 0
-83 0
-68 -70 -74 0
-68 -71 -75 0
-70 -71 -83 0
-74 -75 -83 0
-82 -83 0
-51 -52 -53 -60 0
-51 -52 -56 -63 0
-51 -52 -57 -64 0
-51 -53 -56 -70 0
-51 -53 -57 -71 0
-51 -56 -57 -83 0
-60 -63 -70 0
-60 -64 -71 0
-63 -64 -83 0
-70 -71 -83 0
-52 -53 -54 -60 -61 -68 0
-52 -53 -56 -60 -63 -70 0
-52 -53 -57 -60 -64 -71 0
-52 -54 -56 -61 -63 -74 0
-52 -54 -57 -61 -64 -75 0
-52 -56 -57 -63 -64 -83 0
-53 -56 -70 0
-53 -57 -71 0
-56 -57 -83 0
-53 -54 -56 -68 -70 -74 0
-53 -54 -57 -68 -71 -75 0
-53 -56 -70 -81 0
-53 -56 -57 -70 -71 -83 0
-54 -56 -57 -74 -75 -83 0
-56 -81 -82 0
-56 -57 -82 -83 0
-61 -63 -74 0
-60 -61 -67 -68 0
-60 -64 -67 -71 0
-61 -64 -75 0
-60 -61 -63 -68 -70 -74 0
-60 -61 -64 -68 -71 -75 0
-60 -63 -64 -70 -71 -83 0
-61 -63 -64 -74 -75 -83 0
-67 -71 0
-70 -71 -83 0
-67 -68 -71 -75 0
-68 -70 -71 -74 -75 -83 0
-40 -42 -43 0
-40 -42 -43 -46 -54 0
-40 -42 -43 -47 -55 0
-40 -42 -43 -48 -56 0
-40 -41 -42 -43 -50 -58 0
-40 -42 -46 -47 -73 0
-40 -42 -46 -48 -74 0
-40 -41 -42 -46 -50 -76 0
-40 -42 -47 -48 -78 0
-40 -41 -42 -47 -50 -80 0
-40 -42 -48 0
-40 -41 -42 -48 -50 -84 0
-40 -41 -42 -50 0
-40 -43 -44 -52 -59 0
-40 -43 -44 -45 -52 -53 -60 0
-40 -43 -44 -46 -52 -54 -61 0
-40 -43 -44 -47 -52 -55 -62 0
-40 -43 -44 -48 -52 -56 -63 0
-40 -41 -43 -44 -50 -52 -58 -65 0
-40 -43 -45 -53 0
-40 -43 0
-40 -43 -45 -46 -53 -54 -68 0
-40 -43 -45 -47 -53 -55 -69 0
-40 -43 -45 -48 -53 -56 -70 0
-40 -41 -43 -45 -50 -53 -58 -72 0
-40 -43 -46 -47 -54 -55 -73 0
-40 -43 -46 -48 -54 -56 -74 0
-40 -41 -43 -46 -50 -54 -58 -76 0
-40 -43 -47 -48 -55 -56 -78 0
-40 -43 -47 -55 0
-40 -41 -43 -47 -50 -55 -58 -80 0
-40 -43 -48 -56 -82 0
-40 -41 -43 -48 -50 -56 -58 -84 0
-40 -44 -45 -59 -60 0
-40 -44 -45 -46 -60 -61 -68 0
-40 -44 -45 -47 -60 -62 -69 0
-40 -44 -45 -48 -60 -63 -70 0
-40 -44 -45 -60 0
-40 -41 -44 -45 -50 -60 -65 -72 0
-40 -44 -46 -47 -61 -62 -73 0
-40 -44 -46 -48 -61 -63 -74 0
-40 -41 -44 -46 -50 -61 -65 -76 0
-40 -44 -47 -48 -62 -63 -78 0
-40 -41 -44 -47 -50 -62 -65 -80 0
-40 -44 -48 -63 0
-40 -41 -44 -48 -50 -63 -65 -84 0
-40 -41 -44 -50 -65 0
-40 -45 -46 -47 -68 -69 -73 0
-40 -45 -46 -48 -68 -70 -74 0
-40 -41 -45 -46 -50 -68 -72 -76 0
-40 -45 -47 -48 -69 -70 -78 0
-40 -41 -45 -47 -50 -69 -72 -80 0
-40 -45 -48 -70 0
-40 -41 -45 -48 -50 -70 -72 -84 0
-40 -41 -45 -50 -72 0
-40 -46 -47 -48 -73 -74 -78 0
-40 -41 -46 -47 -50 -73 -76 -80 0
-40 -41 -46 -48 -50 -74 -76 -84 0
-40 -47 -48 -78 -82 0
-40 -41 -47 -48 -50 -78 -80 -84 0
-40 -41 -48 -50 -84 0
-54 -55 -73 0
-54 -56 -74 0
-41 -54 -58 -76 0
-55 0
-55 -56 -78 0
-41 -55 -58 -80 0
-41 -56 -58 -84 0
-78 0
-41 -76 0
-73 -74 -78 0
-41 -73 -76 -80 0
-41 -74 -76 -84 0
-41 -78 -80 -84 0
-41 -84 0
-69 -70 -78 0
-78 -82 0
-54 -55 -73 0
-41 -54 -58 -76 0
-55 0
-41 -55 -58 -80 0
-41 -76 0
-41 -73 -76 -80 0
-52 -53 -59 -60 0
-52 -53 -54 -60 -61 -68 0
-52 -53 -55 -60 -62 -69 0
-52 -53 -56 -60 -63 -70 0
-41 -52 -53 -58 -60 -65 -72 0
-52 -54 -55 -61 -62 -73 0
-52 -54 -56 -61 -63 -74 0
-41 -52 -54 -58 -61 -65 -76 0
-52 -55 -62 0
-52 -55 -56 -62 -63 -78 0
-41 -52 -55 -58 -62 -65 -80 0
-41 -52 -56 -58 -63 -65 -84 0
-53 -54 -55 -68 -69 -73 0
-53 -54 -56 -68 -70 -74 0
-41 -53 -54 -58 -68 -72 -76 0
-53 -55 -56 -69 -70 -78 0
-41 -53 -55 -58 -69 -72 -80 0
-41 -53 -56 -58 -70 -72 -84 0
-54 -55 -56 -73 -74 -78 0
-41 -54 -55 -58 -73 -76 -80 0
-41 -54 -56 -58 -74 -76 -84 0
-55 -56 -78 -82 0
-41 -55 -56 -58 -78 -80 -84 0
-60 -61 -67 -68 0
-41 -60 -65 -67 -72 0
-41 -61 -65 -76 0
-60 -61 -62 -68 -69 -73 0
-60 -61 -63 -68 -70 -74 0
-41 -60 -61 -65 -68 -72 -76 0
-60 -62 -63 -69 -70 -78 0
-41 -60 -62 -65 -69 -72 -80 0
-60 -63 -70 0
-41 -60 -63 -65 -70 -72 -84 0
-41 -60 -65 -72 0
-61 -62 -63 -73 -74 -78 0
-41 -61 -62 -65 -73 -76 -80 0
-41 -61 -63 -65 -74 -76 -84 0
-41 -62 -63 -65 -78 -80 -84 0
-41 -63 -65 -84 0
-78 -82 0
-41 -67 -68 -72 -76 0
-68 -69 -70 -73 -74 -78 0
-41 -68 -69 -72 -73 -76 -80 0
-41 -68 -70 -72 -74 -76 -84 0
-41 -69 -70 -72 -78 -80 -84 0
-41 -70 -72 -84 0
-41 -73 -74 -76 -78 -80 -84 0
-42 -50 0
-42 -47 -77 0
-42 -47 -49 -79 0
-42 -47 -50 -80 0
-42 -49 -50 -86 0
-42 -43 0
-42 -43 -49 -57 0
-42 -43 -46 -47 -54 -55 -73 0
-42 -43 -46 -54 0
-42 -43 -46 -48 -54 -56 -74 0
-42 -43 -46 -49 -54 -57 -75 0
-42 -43 -46 -50 -54 -58 -76 0
-42 -43 -47 -55 -77 0
-42 -43 -47 -48 -55 -56 -78 0
-42 -43 -47 -49 -55 -57 -79 0
-42 -43 -47 -50 -55 -58 -80 0
-42 -43 -48 -49 -56 -57 -83 0
-42 -43 -48 -50 -56 -58 -84 0
-42 -43 -49 -50 -57 -58 -86 0
-42 -46 -48 -74 0
-42 -46 -50 -76 0
-42 -48 0
-42 -48 -50 -84 0
-42 -50 0
-42 -46 -47 -73 -77 0
-42 -46 -47 -48 -73 -74 -78 0
-42 -46 -47 -49 -73 -75 -79 0
-42 -46 -47 -50 -73 -76 -80 0
-42 -46 -48 -49 -74 -75 -83 0
-42 -46 -48 -50 -74 -76 -84 0
-42 -46 -49 -50 -75 -76 -86 0
-42 -47 -48 -49 -78 -79 -83 0
-42 -47 -48 -50 -78 -80 -84 0
-42 -47 -49 -50 -79 -80 -86 0
-42 -48 -49 -83 -85 0
-42 -48 -50 -84 0
-42 -48 -49 -50 -83 -84 -86 0
-42 -49 -50 -85 -86 0
-44 -50 -65 0
-44 -45 -47 -60 -62 -69 0
-44 -45 -49 -60 -64 -71 0
-44 -45 -50 -60 -65 -72 0
-44 -47 -49 -62 -64 -79 0
-44 -47 -50 -62 -65 -80 0
-44 -50 -65 0
-44 -49 -50 -64 -65 -86 0
-50 0
-50 0
-45 -49 -71 0
-45 -50 -72 0
-50 0
-49 -50 -86 0
-45 -47 -49 -69 -71 -79 0
-45 -47 -50 -69 -72 -80 0
-45 -49 -50 -71 -72 -86 0
-47 -49 -79 0
-47 -49 -50 -79 -80 -86 0
-46 -48 -74 0
-46 -50 -76 0
-48 -81 0
-48 0
-48 -50 -84 0
-50 0
-45 -46 -48 -68 -70 -74 0
-45 -46 -50 -68 -72 -76 0
-45 -48 -70 -81 0
-45 -48 -70 0
-45 -48 -50 -70 -72 -84 0
-45 -50 -72 0
-46 -48 -50 -74 -76 -84 0
-48 -81 -82 0
-48 -50 -84 0
-43 -44 -45 -51 -52 -53 -60 0
-43 -44 -47 -51 -52 -55 -62 0
-43 -44 -48 -51 -52 -56 -63 0
-43 -44 -49 -51 -52 -57 -64 0
-43 -44 -50 -51 -52 -58 -65 0
-43 -45 -47 -51 -53 -55 -69 0
-43 -45 -48 -51 -53 -56 -70 0
-43 -45 -49 -51 -53 -57 -71 0
-43 -45 -50 -51 -53 -58 -72 0
-43 -47 -51 -55 -77 0
-43 -47 -48 -51 -55 -56 -78 0
-43 -47 -49 -51 -55 -57 -79 0
-43 -47 -50 -51 -55 -58 -80 0
-43 -48 -49 -51 -56 -57 -83 0
-43 -48 -50 -51 -56 -58 -84 0
-43 -49 -50 -51 -57 -58 -86 0
-44 -45 -47 -60 -62 -69 0
-44 -45 -48 -60 -63 -70 0
-44 -45 -60 0
-44 -45 -49 -60 -64 -71 0
-44 -45 -50 -60 -65 -72 0
-44 -47 -48 -62 -63 -78 0
-44 -47 -49 -62 -64 -79 0
-44 -47 -50 -62 -65 -80 0
-44 -48 -63 0
-44 -48 -49 -63 -64 -83 0
-44 -48 -50 -63 -65 -84 0
-44 -49 -64 -85 0
-44 -50 -65 0
-44 -49 -50 -64 -65 -86 0
-45 -47 -48 -69 -70 -78 0
-45 -47 -49 -69 -71 -79 0
-45 -47 -50 -69 -72 -80 0
-45 -48 -70 0
-45 -48 -49 -70 -71 -83 0
-45 -48 -50 -70 -72 -84 0
-45 -49 -71 -85 0
-45 -50 -72 0
-45 -49 -50 -71 -72 -86 0
-47 -48 -49 -78 -79 -83 0
-47 -48 -50 -78 -80 -84 0
-47 -49 -50 -79 -80 -86 0
-48 -49 -83 -85 0
-48 -50 -84 0
-48 -49 -50 -83 -84 -86 0
-49 -50 -85 -86 0
-43 -44 -45 -52 -53 -59 -60 0
-43 -44 -52 -59 0
-43 -44 -49 -52 -57 -59 -64 0
-43 -44 -45 -46 -52 -53 -54 -60 -61 -68 0
-43 -44 -45 -47 -52 -53 -55 -60 -62 -69 0
-43 -44 -45 -48 -52 -53 -56 -60 -63 -70 0
-43 -44 -45 -49 -52 -53 -57 -60 -64 -71 0
-43 -44 -45 -50 -52 -53 -58 -60 -65 -72 0
-43 -44 -46 -47 -52 -54 -55 -61 -62 -73 0
-43 -44 -46 -48 -52 -54 -56 -61 -63 -74 0
-43 -44 -46 -49 -52 -54 -57 -61 -64 -75 0
-43 -44 -46 -50 -52 -54 -58 -61 -65 -76 0
-43 -44 -47 -48 -52 -55 -56 -62 -63 -78 0
-43 -44 -47 -49 -52 -55 -57 -62 -64 -79 0
-43 -44 -47 -50 -52 -55 -58 -62 -65 -80 0
-43 -44 -50 -52 -58 -65 0
-43 -44 -48 -49 -52 -56 -57 -63 -64 -83 0
-43 -44 -48 -50 -52 -56 -58 -63 -65 -84 0
-43 -44 -49 -50 -52 -57 -58 -64 -65 -86 0
-43 -45 -53 0
-43 -45 -49 -53 -57 -71 0
-43 0
-43 0
-43 0
-43 -49 -57 0
-43 -45 -48 -53 -56 -70 0
-43 -45 -49 -53 -57 -71 0
-43 -45 -50 -53 -58 -72 0
-43 -50 -58 0
-43 -48 -49 -56 -57 -83 0
-43 -48 -50 -56 -58 -84 0
-43 -49 -50 -57 -58 -86 0
-43 -45 -46 -47 -53 -54 -55 -68 -69 -73 0
-43 -45 -46 -48 -53 -54 -56 -68 -70 -74 0
-43 -45 -46 -49 -53 -54 -57 -68 -71 -75 0
-43 -45 -46 -50 -53 -54 -58 -68 -72 -76 0
-43 -45 -47 -48 -53 -55 -56 -69 -70 -78 0
-43 -45 -47 -49 -53 -55 -57 -69 -71 -79 0
-43 -45 -47 -50 -53 -55 -58 -69 -72 -80 0
-43 -45 -48 -53 -56 -70 -81 0
-43 -45 -48 -49 -53 -56 -57 -70 -71 -83 0
-43 -45 -48 -50 -53 -56 -58 -70 -72 -84 0
-43 -45 -49 -50 -53 -57 -58 -71 -72 -86 0
-43 -46 -47 -54 -55 -73 -77 0
-43 -46 -47 -48 -54 -55 -56 -73 -74 -78 0
-43 -46 -47 -49 -54 -55 -57 -73 -75 -79 0
-43 -46 -47 -50 -54 -55 -58 -73 -76 -80 0
-43 -46 -48 -49 -54 -56 -57 -74 -75 -83 0
-43 -46 -48 -50 -54 -56 -58 -74 -76 -84 0
-43 -46 -49 -50 -54 -57 -58 -75 -76 -86 0
-43 -47 -48 -55 -56 -78 -82 0
-43 -47 -48 -49 -55 -56 -57 -78 -79 -83 0
-43 -47 -48 -50 -55 -56 -58 -78 -80 -84 0
-43 -47 -49 -55 -57 -79 0
-43 -47 -49 -50 -55 -57 -58 -79 -80 -86 0
-43 -48 -56 -81 -82 0
-43 -48 -49 -56 -57 -82 -83 0
-43 -48 -49 -50 -56 -57 -58 -83 -84 -86 0
-44 -45 -49 -59 -60 -64 -71 0
-44 -46 -48 -61 -63 -74 0
-44 -46 -50 -61 -65 -76 0
-44 -48 -63 0
-44 -48 -50 -63 -65 -84 0
-44 -50 -65 0
-44 -45 -46 -47 -60 -61 -62 -68 -69 -73 0
-44 -45 -46 -48 -60 -61 -63 -68 -70 -74 0
-44 -45 -46 -49 -60 -61 -64 -68 -71 -75 0
-44 -45 -46 -50 -60 -61 -65 -68 -72 -76 0
-44 -45 -47 -48 -60 -62 -63 -69 -70 -78 0
-44 -45 -47 -49 -60 -62 -64 -69 -71 -79 0
-44 -45 -47 -50 -60 -62 -65 -69 -72 -80 0
-44 -45 -48 -60 -63 -70 0
-44 -45 -48 -49 -60 -63 -64 -70 -71 -83 0
-44 -45 -48 -50 -60 -63 -65 -70 -72 -84 0
-44 -45 -49 -60 -64 -71 -85 0
-44 -45 -50 -60 -65 -72 0
-44 -45 -49 -50 -60 -64 -65 -71 -72 -86 0
-44 -46 -47 -48 -61 -62 -63 -73 -74 -78 0
-44 -46 -47 -49 -61 -62 -64 -73 -75 -79 0
-44 -46 -47 -50 -61 -62 -65 -73 -76 -80 0
-44 -46 -48 -49 -61 -63 -64 -74 -75 -83 0
-44 -46 -48 -50 -61 -63 -65 -74 -76 -84 0
-44 -46 -49 -50 -61 -64 -65 -75 -76 -86 0
-44 -47 -48 -49 -62 -63 -64 -78 -79 -83 0
-44 -47 -48 -50 -62 -63 -65 -78 -80 -84 0
-44 -47 -49 -50 -62 -64 -65 -79 -80 -86 0
-44 -48 -49 -63 -64 -83 -85 0
-44 -48 -50 -63 -65 -84 0
-44 -48 -49 -50 -63 -64 -65 -83 -84 -86 0
-44 -49 -50 -64 -65 -85 -86 0
-48 0
-48 -50 -84 0
-50 0
-46 -48 -50 -74 -76 -84 0
-48 -50 -84 0
-48 0
-48 -50 -84 0
-50 0
-48 -50 -84 0
-45 -48 -70 0
-45 -48 -49 -70 -71 -83 0
-45 -48 -50 -70 -72 -84 0
-45 -49 -71 -85 0
-45 -50 -72 0
-45 -49 -50 -71 -72 -86 0
-48 -49 -83 -85 0
-48 -50 -84 0
-48 -49 -50 -83 -84 -86 0
-49 -50 -85 -86 0
-45 -46 -47 -48 -68 -69 -70 -73 -74 -78 0
-45 -46 -47 -49 -68 -69 -71 -73 -75 -79 0
-45 -46 -47 -50 -68 -69 -72 -73 -76 -80 0
-45 -46 -48 -49 -68 -70 -71 -74 -75 -83 0
-45 -46 -48 -50 -68 -70 -72 -74 -76 -84 0
-45 -46 -49 -50 -68 -71 -72 -75 -76 -86 0
-45 -47 -48 -49 -69 -70 -71 -78 -79 -83 0
-45 -47 -48 -50 -69 -70 -72 -78 -80 -84 0
-45 -47 -49 -50 -69 -71 -72 -79 -80 -86 0
-45 -48 -49 -70 -71 -83 -85 0
-45 -48 -50 -70 -72 -84 0
-45 -48 -49 -50 -70 -71 -72 -83 -84 -86 0
-45 -49 -50 -71 -72 -85 -86 0
-46 -47 -48 -49 -73 -74 -75 -78 -79 -83 0
-46 -47 -48 -50 -73 -74 -76 -78 -80 -84 0
-46 -47 -49 -50 -73 -75 -76 -79 -80 -86 0
-46 -48 -49 -50 -74 -75 -76 -83 -84 -86 0
-47 -48 -49 -78 -79 -82 -83 0
-47 -48 -49 -50 -78 -79 -80 -83 -84 -86 0
-48 -49 -50 -83 -84 -85 -86 0
-66 -79 0
-77 0
-79 0
-79 -80 -86 0
-76 0
-74 -76 -84 0
-84 0
-78 0
-66 -79 0
-66 -83 0
-73 -74 -78 0
-73 -75 -79 0
-74 -75 -83 0
-79 0
-78 -79 -83 0
-83 -85 0
-54 -55 -73 -77 0
-54 -55 -56 -73 -74 -78 0
-54 -55 -57 -73 -75 -79 0
-54 -55 -58 -73 -76 -80 0
-54 -56 -57 -74 -75 -83 0
-54 -56 -58 -74 -76 -84 0
-54 -57 -58 -75 -76 -86 0
-55 -77 0
-55 -57 -79 0
-55 -56 -57 -78 -79 -83 0
-55 -56 -58 -78 -80 -84 0
-55 -57 -58 -79 -80 -86 0
-56 -57 -58 -83 -84 -86 0
-74 -76 -84 0
-84 0
-66 -78 -79 -83 0
-75 -76 -86 0
-73 -74 -75 -78 -79 -83 0
-73 -74 -76 -78 -80 -84 0
-73 -75 -76 -79 -80 -86 0
-74 -75 -76 -83 -84 -86 0
-78 -79 -80 -83 -84 -86 0
-83 -84 -85 -86 0
-71 0
-69 -71 -79 0
-79 0
-79 0
-79 0
-79 -80 -86 0
-60 -62 -64 -69 -71 -79 0
-60 -62 -65 -69 -72 -80 0
-60 -64 -65 -71 -72 -86 0
-62 -64 -79 0
-62 -64 -65 -79 -80 -86 0
-66 -79 0
-71 -72 -86 0
-69 -71 -72 -79 -80 -86 0
-76 0
-74 -76 -84 0
-84 0
-84 0
-84 0
-71 0
-69 -71 -79 0
-79 0
-79 0
-53 -57 -71 0
-53 -55 -57 -69 -71 -79 0
-55 -57 -79 0
-55 -57 -79 0
-76 0
-74 -76 -84 0
-84 0
-61 -65 -76 0
-61 -63 -65 -74 -76 -84 0
-63 -65 -84 0
-84 0
-70 0
-82 0
-70 -81 0
-81 -82 0
-70 0
-71 0
-83 0
-69 -70 -78 0
-69 -71 -79 0
-70 -71 -83 0
-79 0
-78 -82 0
-78 -79 -83 0
-79 0
-82 -83 0
-67 -71 0
-70 -71 -83 0
-69 -70 -71 -78 -79 -83 0
-78 -79 -82 -83 0
-68 -70 -74 0
-70 0
-76 0
-74 -76 -84 0
-84 0
-67 -68 -72 -76 0
-68 -70 -72 -74 -76 -84 0
-70 -72 -84 0
-79 0
-85 0
-73 -75 -79 0
-79 0
-69 -70 -78 0
-69 -71 -79 0
-70 0
-70 -71 -83 0
-71 -85 0
-79 0
-78 -79 -83 0
-83 -85 0
-78 -82 0
-66 -78 -79 -83 0
-66 -79 0
-66 -82 -83 0
-70 0
-70 -71 -83 0
-71 -85 0
-83 -85 0
-68 -69 -70 -73 -74 -78 0
-68 -69 -71 -73 -75 -79 0
-68 -70 -71 -74 -75 -83 0
-69 -70 -71 -78 -79 -83 0
-70 -71 -83 -85 0
-73 -74 -75 -78 -79 -83 0
-78 -79 -82 -83 0
-51 -55 -77 0
-51 -55 -57 -79 0
-51 -55 -58 -80 0
-51 -57 -58 -86 0
-79 -80 -86 0
-85 -86 0
-54 -55 -73 -77 0
-54 -55 -57 -73 -75 -79 0
-54 -55 -58 -73 -76 -80 0
-54 -57 -58 -75 -76 -86 0
-55 -57 -79 0
-55 -57 -58 -79 -80 -86 0
-75 -76 -86 0
-73 -75 -76 -79 -80 -86 0
-51 -52 -53 -55 -60 -62 -69 0
-51 -52 -53 -56 -60 -63 -70 0
-51 -52 -53 -57 -60 -64 -71 0
-51 -52 -53 -58 -60 -65 -72 0
-51 -52 -55 -62 0
-51 -52 -55 -56 -62 -63 -78 0
-51 -52 -55 -57 -62 -64 -79 0
-51 -52 -55 -58 -62 -65 -80 0
-51 -52 -57 -64 0
-51 -52 -56 -57 -63 -64 -83 0
-51 -52 -56 -58 -63 -65 -84 0
-51 -52 -57 -58 -64 -65 -86 0
-51 -53 -55 -56 -69 -70 -78 0
-51 -53 -55 -57 -69 -71 -79 0
-51 -53 -55 -58 -69 -72 -80 0
-51 -53 -56 -57 -70 -71 -83 0
-51 -53 -56 -58 -70 -72 -84 0
-51 -53 -57 -58 -71 -72 -86 0
-51 -55 -77 0
-51 -55 -57 -79 0
-51 -55 -56 -57 -78 -79 -83 0
-51 -55 -56 -58 -78 -80 -84 0
-51 -55 -57 -58 -79 -80 -86 0
-51 -56 -57 -58 -83 -84 -86 0
-60 -62 -63 -69 -70 -78 0
-60 -62 -64 -69 -71 -79 0
-60 -62 -65 -69 -72 -80 0
-60 -63 -70 0
-60 -63 -64 -70 -71 -83 0
-60 -63 -65 -70 -72 -84 0
-60 -64 -71 -85 0
-60 -65 -72 0
-60 -64 -65 -71 -72 -86 0
-62 -64 -79 0
-62 -63 -64 -78 -79 -83 0
-62 -63 -65 -78 -80 -84 0
-62 -64 -65 -79 -80 -86 0
-63 -64 -83 -85 0
-63 -65 -84 0
-63 -64 -65 -83 -84 -86 0
-64 -65 -85 -86 0
-69 -70 -71 -78 -79 -83 0
-69 -70 -72 -78 -80 -84 0
-69 -71 -72 -79 -80 -86 0
-70 -71 -83 -85 0
-70 -72 -84 0
-70 -71 -72 -83 -84 -86 0
-71 -72 -85 -86 0
-78 -79 -80 -83 -84 -86 0
-83 -84 -85 -86 0
-52 -53 -57 -59 -60 -64 -71 0
-52 -53 -54 -55 -60 -61 -62 -68 -69 -73 0
-52 -53 -54 -56 -60 -61 -63 -68 -70 -74 0
-52 -53 -54 -57 -60 -61 -64 -68 -71 -75 0
-52 -53 -54 -58 -60 -61 -65 -68 -72 -76 0
-52 -53 -55 -56 -60 -62 -63 -69 -70 -78 0
-52 -53 -55 -57 -60 -62 -64 -69 -71 -79 0
-52 -53 -55 -58 -60 -62 -65 -69 -72 -80 0
-52 -53 -56 -57 -60 -63 -64 -70 -71 -83 0
-52 -53 -56 -58 -60 -63 -65 -70 -72 -84 0
-52 -53 -57 -58 -60 -64 -65 -71 -72 -86 0
-52 -54 -55 -56 -61 -62 -63 -73 -74 -78 0
-52 -54 -55 -57 -61 -62 -64 -73 -75 -79 0
-52 -54 -55 -58 -61 -62 -65 -73 -76 -80 0
-52 -54 -56 -57 -61 -63 -64 -74 -75 -83 0
-52 -54 -56 -58 -61 -63 -65 -74 -76 -84 0
-52 -54 -57 -58 -61 -64 -65 -75 -76 -86 0
-52 -55 -57 -62 -64 -79 0
-52 -55 -56 -57 -62 -63 -64 -78 -79 -83 0
-52 -55 -56 -58 -62 -63 -65 -78 -80 -84 0
-52 -55 -57 -58 -62 -64 -65 -79 -80 -86 0
-52 -56 -57 -58 -63 -64 -65 -83 -84 -86 0
-53 -56 -57 -70 -71 -83 0
-53 -56 -58 -70 -72 -84 0
-53 -57 -58 -71 -72 -86 0
-56 -57 -58 -83 -84 -86 0
-53 -54 -55 -56 -68 -69 -70 -73 -74 -78 0
-53 -54 -55 -57 -68 -69 -71 -73 -75 -79 0
-53 -54 -55 -58 -68 -69 -72 -73 -76 -80 0
-53 -54 -56 -57 -68 -70 -71 -74 -75 -83 0
-53 -54 -56 -58 -68 -70 -72 -74 -76 -84 0
-53 -54 -57 -58 -68 -71 -72 -75 -76 -86 0
-53 -55 -56 -57 -69 -70 -71 -78 -79 -83 0
-53 -55 -56 -58 -69 -70 -72 -78 -80 -84 0
-53 -55 -57 -58 -69 -71 -72 -79 -80 -86 0
-53 -56 -57 -58 -70 -71 -72 -83 -84 -86 0
-54 -55 -56 -57 -73 -74 -75 -78 -79 -83 0
-54 -55 -56 -58 -73 -74 -76 -78 -80 -84 0
-54 -55 -57 -58 -73 -75 -76 -79 -80 -86 0
-54 -56 -57 -58 -74 -75 -76 -83 -84 -86 0
-55 -56 -57 -78 -79 -82 -83 0
-55 -56 -57 -58 -78 -79 -80 -83 -84 -86 0
-61 -63 -65 -74 -76 -84 0
-63 -65 -84 0
-60 -61 -64 -67 -68 -71 -75 0
-60 -61 -65 -67 -68 -72 -76 0
-60 -64 -65 -67 -71 -72 -86 0
-61 -64 -65 -75 -76 -86 0
-60 -61 -62 -63 -68 -69 -70 -73 -74 -78 0
-60 -61 -62 -64 -68 -69 -71 -73 -75 -79 0
-60 -61 -62 -65 -68 -69 -72 -73 -76 -80 0
-60 -61 -63 -64 -68 -70 -71 -74 -75 -83 0
-60 -61 -63 -65 -68 -70 -72 -74 -76 -84 0
-60 -61 -64 -65 -68 -71 -72 -75 -76 -86 0
-60 -62 -63 -64 -69 -70 -71 -78 -79 -83 0
-60 -62 -63 -65 -69 -70 -72 -78 -80 -84 0
-60 -62 -64 -65 -69 -71 -72 -79 -80 -86 0
-60 -63 -64 -70 -71 -83 -85 0
-60 -63 -65 -70 -72 -84 0
-60 -63 -64 -65 -70 -71 -72 -83 -84 -86 0
-60 -64 -65 -71 -72 -85 -86 0
-61 -62 -63 -64 -73 -74 -75 -78 -79 -83 0
-61 -62 -63 -65 -73 -74 -76 -78 -80 -84 0
-61 -62 -64 -65 -73 -75 -76 -79 -80 -86 0
-61 -63 -64 -65 -74 -75 -76 -83 -84 -86 0
-62 -63 -64 -65 -78 -79 -80 -83 -84 -86 0
-63 -64 -65 -83 -84 -85 -86 0
-84 0
-66 -78 -79 -82 -83 0
-84 0
-67 -71 -72 -86 0
-70 -71 -83 -85 0
-70 -72 -84 0
-70 -71 -72 -83 -84 -86 0
-71 -72 -85 -86 0
-83 -84 -85 -86 0
-67 -68 -71 -72 -75 -76 -86 0
-68 -69 -70 -71 -73 -74 -75 -78 -79 -83 0
-68 -69 -70 -72 -73 -74 -76 -78 -80 -84 0
-68 -69 -71 -72 -73 -75 -76 -79 -80 -86 0
-68 -70 -71 -72 -74 -75 -76 -83 -84 -86 0
-69 -70 -71 -72 -78 -79 -80 -83 -84 -86 0
-70 -71 -72 -83 -84 -85 -86 0
-73 -74 -75 -76 -78 -79 -80 -83 -84 -86 0
6 14 25 0
2 6 17 28 0
6 9 0
2 6 17 28 41 0
1 6 9 12 23 0
6 9 14 25 0
1 6 12 14 23 25 69 0
1 6 12 15 23 26 70 0
1 2 6 12 17 23 28 72 0
6 14 15 25 26 78 0
2 6 14 17 25 28 80 0
2 6 15 17 26 28 84 0
9 0
9 0
1 12 0
1 9 12 0
9 14 0
1 12 14 69 0
1 12 15 70 0
14 15 78 0
14 0
14 0
2 14 17 80 0
2 17 41 0
1 9 12 0
1 12 0
1 9 12 14 69 0
1 12 14 69 0
1 12 14 15 69 70 78 0
1 2 12 14 17 69 72 80 0
1 12 15 70 0
1 2 12 15 17 70 72 84 0
14 15 78 0
14 0
14 15 78 81 0
14 0
2 14 17 80 0
2 14 15 17 78 80 84 0
2 15 17 81 84 0
2 18 28 0
2 18 28 41 0
2 18 28 0
2 25 28 80 0
1 23 0
1 23 25 69 0
1 23 0
1 23 26 70 0
1 23 25 26 69 70 78 0
1 2 23 25 28 69 72 80 0
1 23 26 70 82 0
1 2 23 26 28 70 72 84 0
1 2 23 28 72 0
2 25 26 28 78 80 84 0
2 26 28 82 84 0
2 41 0
1 0
1 69 0
1 0
1 69 70 78 0
1 70 0
1 0
1 0
1 0
1 0
1 0
1 0
1 0
1 69 0
1 0
1 69 0
1 0
1 0
1 70 0
1 69 0
1 0
1 69 0
1 69 70 78 0
1 2 69 70 72 78 80 84 0
1 70 82 0
1 2 70 72 84 0
1 2 72 0
1 70 82 0
1 2 70 72 82 84 0
2 78 80 81 84 0
2 81 84 0
2 82 84 0
18 20 40 0
19 20 26 31 37 48 0
19 20 27 31 38 49 0
19 26 37 0
19 26 37 82 0
19 26 27 37 38 83 0
20 27 40 49 0
20 27 49 0
20 26 27 48 49 83 0
40 0
29 31 37 48 0
29 31 38 49 0
29 37 0
29 37 38 83 0
40 49 0
49 66 0
48 49 83 0
66 85 0
31 37 38 48 49 83 0
37 82 0
37 38 83 0
37 82 0
37 38 83 0
49 66 0
66 0
66 85 0
3 4 6 7 19 30 0
3 4 6 7 8 19 20 31 0
3 4 5 6 7 10 19 21 32 0
3 4 6 7 12 19 23 34 0
3 4 6 7 16 19 27 38 0
3 4 6 7 17 19 28 39 0
3 4 6 17 28 0
3 4 5 6 8 10 20 21 43 0
3 4 6 8 12 20 23 45 0
3 4 6 8 16 20 27 49 0
3 4 6 8 17 20 28 50 0
3 4 5 6 10 12 21 23 53 0
3 4 5 6 10 16 21 27 57 0
3 4 5 6 10 17 21 28 58 0
3 4 6 12 16 23 27 71 0
3 4 6 12 17 23 28 72 0
3 4 6 16 17 27 28 86 0
3 7 8 29 31 0
3 7 29 0
3 5 7 10 29 32 0
3 7 12 29 34 0
3 7 16 29 38 0
3 8 42 0
3 5 8 10 43 0
3 8 12 45 0
3 8 16 49 0
3 12 0
3 5 10 12 53 0
3 5 10 0
3 5 10 16 57 0
3 12 16 71 0
3 16 85 0
3 7 30 0
3 7 17 30 39 0
3 7 8 31 42 0
3 5 7 8 10 31 32 43 0
3 7 8 12 31 34 45 0
3 7 8 16 31 38 49 0
3 7 8 17 31 39 50 0
3 7 12 34 0
3 5 7 10 12 32 34 53 0
3 5 7 10 16 32 38 57 0
3 5 7 10 17 32 39 58 0
3 7 12 16 34 38 71 0
3 7 12 17 34 39 72 0
3 7 16 17 38 39 86 0
3 8 12 42 45 0
3 5 8 10 12 43 45 53 0
3 5 8 10 16 43 49 57 0
3 5 8 10 17 43 50 58 0
3 8 12 16 45 49 71 0
3 8 12 17 45 50 72 0
3 8 16 17 49 50 86 0
3 5 10 12 16 53 57 71 0
3 5 10 12 17 53 58 72 0
3 5 10 16 57 85 0
3 5 10 16 17 57 58 86 0
3 12 16 17 71 72 86 0
3 16 85 0
3 16 17 86 0
4 18 0
4 18 28 0
4 18 20 0
4 18 20 28 50 0
4 18 0
4 18 28 0
4 19 30 0
4 19 28 30 39 0
4 19 20 31 0
4 5 19 20 21 31 32 43 0
4 19 20 23 31 34 45 0
4 19 20 27 31 38 49 0
4 19 20 28 31 39 50 0
4 5 19 21 32 0
4 19 23 34 0
4 19 0
4 19 27 38 0
4 5 19 21 23 32 34 53 0
4 5 19 21 27 32 38 57 0
4 5 19 21 28 32 39 58 0
4 19 23 34 0
4 19 23 27 34 38 71 0
4 19 23 28 34 39 72 0
4 19 28 39 0
4 19 27 28 38 39 86 0
4 0
4 0
4 28 0
4 20 0
4 5 20 21 43 0
4 20 23 45 0
4 20 27 49 0
4 20 23 45 0
4 20 0
4 5 20 21 23 43 45 53 0
4 5 20 21 43 0
4 5 20 21 27 43 49 57 0
4 5 20 21 28 43 50 58 0
4 20 23 45 0
4 20 23 27 45 49 71 0
4 20 23 28 45 50 72 0
4 20 27 49 0
4 20 28 50 0
4 20 27 28 49 50 86 0
4 0
4 23 0
4 5 21 23 53 0
4 5 21 27 57 0
4 0
4 23 0
4 23 27 71 0
4 0
4 23 0
4 5 21 23 53 0
4 5 21 23 27 53 57 71 0
4 5 21 23 28 53 58 72 0
4 5 21 27 57 0
4 5 21 28 58 0
4 5 21 27 28 57 58 86 0
4 0
4 23 0
4 23 27 71 0
4 23 28 72 0
4 23 28 72 0
4 23 27 28 71 72 86 0
4 28 0
4 27 28 86 0
42 0
29 31 42 0
5 29 31 32 43 0
29 31 34 45 0
29 31 38 49 0
29 34 0
5 29 32 34 53 0
5 29 32 38 57 0
29 34 38 71 0
42 45 0
5 43 45 53 0
5 43 49 57 0
45 0
45 49 71 0
5 57 0
5 53 57 71 0
5 57 85 0
31 34 42 45 0
5 31 32 43 0
31 34 45 0
31 38 49 0
5 31 32 34 43 45 53 0
5 31 32 38 43 49 57 0
5 31 32 39 43 50 58 0
31 34 38 45 49 71 0
31 34 39 45 50 72 0
31 38 39 49 50 86 0
34 0
34 0
5 32 34 53 0
5 32 38 57 0
34 0
34 38 71 0
5 32 34 53 0
5 32 38 57 0
5 32 34 38 53 57 71 0
5 32 34 39 53 58 72 0
5 32 38 39 57 58 86 0
34 38 71 0
34 39 72 0
34 38 39 71 72 86 0
42 45 0
45 0
5 43 45 53 0
5 43 49 57 0
45 49 71 0
45 0
45 0
5 43 45 53 0
5 43 45 49 53 57 71 0
5 43 45 50 53 58 72 0
5 43 49 57 0
5 43 50 58 0
5 43 49 50 57 58 86 0
45 50 72 0
45 49 71 0
45 50 72 0
45 49 50 71 72 86 0
49 50 86 0
5 57 0
5 53 57 71 0
5 57 0
5 57 0
5 53 57 71 0
5 53 57 71 0
5 53 58 72 0
5 53 57 58 71 72 86 0
5 57 85 0
5 57 58 86 0
72 0
72 0
71 72 86 0
6 7 19 30 0
6 7 14 19 25 30 36 0
6 7 17 19 28 30 39 0
6 7 8 9 19 20 31 0
6 7 8 10 19 20 21 31 32 43 0
6 7 8 11 19 20 22 31 33 44 0
6 7 8 12 19 20 23 31 34 45 0
6 7 8 13 19 20 24 31 35 46 0
6 7 8 14 19 20 25 31 36 47 0
6 7 8 15 19 20 26 31 37 48 0
6 7 8 16 19 20 27 31 38 49 0
6 7 8 17 19 20 28 31 39 50 0
6 7 9 19 0
6 7 10 19 21 32 0
6 7 13 19 24 35 0
6 7 15 19 26 37 0
6 7 9 10 19 21 32 0
6 7 9 12 19 23 34 0
6 7 9 14 19 25 36 0
6 7 9 16 19 27 38 0
6 7 10 11 19 21 22 32 33 52 0
6 7 10 12 19 21 23 32 34 53 0
6 7 10 13 19 21 24 32 35 54 0
6 7 10 14 19 21 25 32 36 55 0
6 7 10 15 19 21 26 32 37 56 0
6 7 10 16 19 21 27 32 38 57 0
6 7 10 17 19 21 28 32 39 58 0
6 7 11 12 19 22 23 33 34 60 0
6 7 11 13 19 22 24 33 35 61 0
6 7 11 14 19 22 25 33 36 62 0
6 7 11 15 19 22 26 33 37 63 0
6 7 11 16 19 22 27 33 38 64 0
6 7 11 17 19 22 28 33 39 65 0
6 7 12 13 19 23 24 34 35 68 0
6 7 12 14 19 23 25 34 36 69 0
6 7 12 15 19 23 26 34 37 70 0
6 7 12 16 19 23 27 34 38 71 0
6 7 12 17 19 23 28 34 39 72 0
6 7 13 14 19 24 25 35 36 73 0
6 7 13 15 19 24 26 35 37 74 0
6 7 13 16 19 24 27 35 38 75 0
6 7 13 17 19 24 28 35 39 76 0
6 7 14 15 19 25 26 36 37 78 0
6 7 14 16 19 25 27 36 38 79 0
6 7 14 17 19 25 28 36 39 80 0
6 7 15 16 19 26 27 37 38 83 0
6 7 15 17 19 26 28 37 39 84 0
6 7 16 17 19 27 28 38 39 86 0
6 14 17 25 28 80 0
6 8 9 20 40 0
6 8 16 20 27 40 49 0
6 8 17 20 28 40 41 50 0
6 9 0
6 9 16 27 0
6 16 17 27 28 41 86 0
6 8 9 10 20 21 43 0
6 8 9 12 20 23 45 0
6 8 9 14 20 25 47 0
6 8 9 16 20 27 49 0
6 8 10 11 20 21 22 43 44 52 0
6 8 10 12 20 21 23 43 45 53 0
6 8 10 13 20 21 24 43 46 54 0
6 8 10 14 20 21 25 43 47 55 0
6 8 10 15 20 21 26 43 48 56 0
6 8 10 16 20 21 27 43 49 57 0
6 8 10 17 20 21 28 43 50 58 0
6 8 11 12 20 22 23 44 45 60 0
6 8 11 13 20 22 24 44 46 61 0
6 8 11 14 20 22 25 44 47 62 0
6 8 11 15 20 22 26 44 48 63 0
6 8 11 16 20 22 27 44 49 64 0
6 8 11 17 20 22 28 44 50 65 0
6 8 12 13 20 23 24 45 46 68 0
6 8 12 14 20 23 25 45 47 69 0
6 8 12 15 20 23 26 45 48 70 0
6 8 12 16 20 23 27 45 49 71 0
6 8 12 17 20 23 28 45 50 72 0
6 8 13 14 20 24 25 46 47 73 0
6 8 13 15 20 24 26 46 48 74 0
6 8 13 16 20 24 27 46 49 75 0
6 8 13 17 20 24 28 46 50 76 0
6 8 14 15 20 25 26 47 48 78 0
6 8 14 16 20 25 27 47 49 79 0
6 8 14 17 20 25 28 47 50 80 0
6 8 15 16 20 26 27 48 49 83 0
6 8 15 17 20 26 28 48 50 84 0
6 8 16 17 20 27 28 49 50 86 0
6 9 10 21 0
6 10 13 21 24 54 0
6 10 15 21 26 56 0
6 13 15 24 26 74 0
6 9 10 12 21 23 53 0
6 9 10 14 21 25 55 0
6 9 10 16 21 27 57 0
6 9 12 14 23 25 69 0
6 9 12 16 23 27 71 0
6 9 14 16 25 27 79 0
6 10 11 12 21 22 23 52 53 60 0
6 10 11 13 21 22 24 52 54 61 0
6 10 11 14 21 22 25 52 55 62 0
6 10 11 15 21 22 26 52 56 63 0
6 10 11 16 21 22 27 52 57 64 0
6 10 11 17 21 22 28 52 58 65 0
6 10 12 13 21 23 24 53 54 68 0
6 10 12 14 21 23 25 53 55 69 0
6 10 12 15 21 23 26 53 56 70 0
6 10 12 16 21 23 27 53 57 71 0
6 10 12 17 21 23 28 53 58 72 0
6 10 13 14 21 24 25 54 55 73 0
6 10 13 15 21 24 26 54 56 74 0
6 10 13 16 21 24 27 54 57 75 0
6 10 13 17 21 24 28 54 58 76 0
6 10 14 15 21 25 26 55 56 78 0
6 10 14 16 21 25 27 55 57 79 0
6 10 14 17 21 25 28 55 58 80 0
6 10 15 16 21 26 27 56 57 83 0
6 10 15 17 21 26 28 56 58 84 0
6 10 16 17 21 27 28 57 58 86 0
6 11 12 13 22 23 24 60 61 68 0
6 11 12 14 22 23 25 60 62 69 0
6 11 12 15 22 23 26 60 63 70 0
6 11 12 16 22 23 27 60 64 71 0
6 11 12 17 22 23 28 60 65 72 0
6 11 13 14 22 24 25 61 62 73 0
6 11 13 15 22 24 26 61 63 74 0
6 11 13 16 22 24 27 61 64 75 0
6 11 13 17 22 24 28 61 65 76 0
6 11 14 15 22 25 26 62 63 78 0
6 11 14 16 22 25 27 62 64 79 0
6 11 14 17 22 25 28 62 65 80 0
6 11 15 16 22 26 27 63 64 83 0
6 11 15 17 22 26 28 63 65 84 0
6 11 16 17 22 27 28 64 65 86 0
6 12 13 14 23 24 25 68 69 73 0
6 12 13 15 23 24 26 68 70 74 0
6 12 13 16 23 24 27 68 71 75 0
6 12 13 17 23 24 28 68 72 76 0
6 12 14 15 23 25 26 69 70 78 0
6 12 14 16 23 25 27 69 71 79 0
6 12 14 17 23 25 28 69 72 80 0
6 12 15 16 23 26 27 70 71 83 0
6 12 15 17 23 26 28 70 72 84 0
6 12 16 17 23 27 28 71 72 86 0
6 13 14 15 24 25 26 73 74 78 0
6 13 14 16 24 25 27 73 75 79 0
6 13 14 17 24 25 28 73 76 80 0
6 13 15 16 24 26 27 74 75 83 0
6 13 15 17 24 26 28 74 76 84 0
6 13 16 17 24 27 28 75 76 86 0
6 14 15 16 25 26 27 78 79 83 0
6 14 15 17 25 26 28 78 80 84 0
6 14 16 17 25 27 28 79 80 86 0
6 15 16 17 26 27 28 83 84 86 0
7 8 29 31 42 0
7 8 9 29 31 0
7 8 10 29 31 32 43 0
7 8 12 29 31 34 45 0
7 8 14 29 31 36 47 0
7 8 15 29 31 37 48 0
7 8 16 29 31 38 49 0
7 9 29 0
7 12 29 34 0
7 9 29 0
7 10 29 32 0
7 15 29 37 0
7 9 10 29 32 0
7 9 12 29 34 0
7 9 14 29 36 0
7 9 16 29 38 0
7 10 12 29 32 34 53 0
7 10 14 29 32 36 55 0
7 10 15 29 32 37 56 0
7 10 16 29 32 38 57 0
7 12 14 29 34 36 69 0
7 12 15 29 34 37 70 0
7 12 16 29 34 38 71 0
7 14 15 29 36 37 78 0
7 14 16 29 36 38 79 0
7 15 16 29 37 38 83 0
8 40 0
8 9 40 0
8 16 40 49 0
9 0
9 0
9 16 0
8 42 0
8 9 42 0
8 12 42 45 0
8 9 0
8 15 48 0
8 9 10 43 0
8 9 12 45 0
8 9 14 47 0
8 9 16 49 0
8 10 12 43 45 53 0
8 10 14 43 47 55 0
8 10 15 43 48 56 0
8 10 16 43 49 57 0
8 12 14 45 47 69 0
8 12 15 45 48 70 0
8 12 16 45 49 71 0
8 14 15 47 48 78 0
8 14 16 47 49 79 0
8 15 16 48 49 83 0
9 0
9 12 0
9 10 0
10 15 56 0
10 0
9 10 12 53 0
9 10 14 55 0
9 10 16 57 0
9 12 14 69 0
9 12 16 71 0
9 14 16 79 0
10 12 14 53 55 69 0
10 12 15 53 56 70 0
10 12 16 53 57 71 0
10 14 15 55 56 78 0
10 14 55 0
10 14 16 55 57 79 0
10 15 16 56 57 83 0
10 16 57 85 0
12 14 15 69 70 78 0
12 14 16 69 71 79 0
12 15 16 70 71 83 0
14 15 16 78 79 83 0
14 16 79 85 0
7 14 17 30 36 39 80 0
7 8 9 31 42 0
7 8 11 31 33 42 44 0
7 8 12 31 34 42 45 0
7 8 9 31 0
7 8 9 10 31 32 43 0
7 8 9 12 31 34 45 0
7 8 9 14 31 36 47 0
7 8 9 16 31 38 49 0
7 8 10 31 32 43 0
7 8 11 31 33 44 0
7 8 17 31 39 50 0
7 8 10 11 31 32 33 43 44 52 0
7 8 10 12 31 32 34 43 45 53 0
7 8 10 13 31 32 35 43 46 54 0
7 8 10 14 31 32 36 43 47 55 0
7 8 10 15 31 32 37 43 48 56 0
7 8 10 16 31 32 38 43 49 57 0
7 8 10 17 31 32 39 43 50 58 0
7 8 11 12 31 33 34 44 45 60 0
7 8 11 13 31 33 35 44 46 61 0
7 8 11 14 31 33 36 44 47 62 0
7 8 11 15 31 33 37 44 48 63 0
7 8 11 16 31 33 38 44 49 64 0
7 8 11 17 31 33 39 44 50 65 0
7 8 12 13 31 34 35 45 46 68 0
7 8 12 14 31 34 36 45 47 69 0
7 8 12 15 31 34 37 45 48 70 0
7 8 12 16 31 34 38 45 49 71 0
7 8 12 17 31 34 39 45 50 72 0
7 8 13 14 31 35 36 46 47 73 0
7 8 13 15 31 35 37 46 48 74 0
7 8 13 16 31 35 38 46 49 75 0
7 8 13 17 31 35 39 46 50 76 0
7 8 14 15 31 36 37 47 48 78 0
7 8 14 16 31 36 38 47 49 79 0
7 8 14 17 31 36 39 47 50 80 0
7 8 15 16 31 37 38 48 49 83 0
7 8 15 17 31 37 39 48 50 84 0
7 8 16 17 31 38 39 49 50 86 0
7 9 12 34 0
7 11 12 33 34 60 0
7 12 34 0
7 9 0
7 9 10 32 0
7 10 32 0
7 10 13 32 35 54 0
7 10 15 32 37 56 0
7 13 15 35 37 74 0
7 9 10 32 0
7 9 10 12 32 34 53 0
7 9 10 14 32 36 55 0
7 9 10 16 32 38 57 0
7 9 12 14 34 36 69 0
7 9 12 16 34 38 71 0
7 9 14 16 36 38 79 0
7 10 11 32 33 52 0
7 10 17 32 39 58 0
7 11 17 33 39 65 0
7 10 11 12 32 33 34 52 53 60 0
7 10 11 13 32 33 35 52 54 61 0
7 10 11 14 32 33 36 52 55 62 0
7 10 11 15 32 33 37 52 56 63 0
7 10 11 16 32 33 38 52 57 64 0
7 10 11 17 32 33 39 52 58 65 0
7 10 12 13 32 34 35 53 54 68 0
7 10 12 14 32 34 36 53 55 69 0
7 10 12 15 32 34 37 53 56 70 0
7 10 12 16 32 34 38 53 57 71 0
7 10 12 17 32 34 39 53 58 72 0
7 10 13 14 32 35 36 54 55 73 0
7 10 13 15 32 35 37 54 56 74 0
7 10 13 16 32 35 38 54 57 75 0
7 10 13 17 32 35 39 54 58 76 0
7 10 14 15 32 36 37 55 56 78 0
7 10 14 16 32 36 38 55 57 79 0
7 10 14 17 32 36 39 55 58 80 0
7 10 15 16 32 37 38 56 57 83 0
7 10 15 17 32 37 39 56 58 84 0
7 10 16 17 32 38 39 57 58 86 0
7 11 12 13 33 34 35 60 61 68 0
7 11 12 14 33 34 36 60 62 69 0
7 11 12 15 33 34 37 60 63 70 0
7 11 12 16 33 34 38 60 64 71 0
7 11 12 17 33 34 39 60 65 72 0
7 11 13 14 33 35 36 61 62 73 0
7 11 13 15 33 35 37 61 63 74 0
7 11 13 16 33 35 38 61 64 75 0
7 11 13 17 33 35 39 61 65 76 0
7 11 14 15 33 36 37 62 63 78 0
7 11 14 16 33 36 38 62 64 79 0
7 11 14 17 33 36 39 62 65 80 0
7 11 15 16 33 37 38 63 64 83 0
7 11 15 17 33 37 39 63 65 84 0
7 11 16 17 33 38 39 64 65 86 0
7 12 13 14 34 35 36 68 69 73 0
7 12 13 34 35 68 0
7 12 13 15 34 35 37 68 70 74 0
7 12 13 16 34 35 38 68 71 75 0
7 12 13 17 34 35 39 68 72 76 0
7 12 14 34 36 69 0
7 12 14 15 34 36 37 69 70 78 0
7 12 14 16 34 36 38 69 71 79 0
7 12 14 17 34 36 39 69 72 80 0
7 12 15 34 37 70 0
7 12 16 34 38 71 0
7 12 15 16 34 37 38 70 71 83 0
7 12 15 17 34 37 39 70 72 84 0
7 12 16 17 34 38 39 71 72 86 0
7 13 14 35 36 73 0
7 13 14 15 35 36 37 73 74 78 0
7 13 14 16 35 36 38 73 75 79 0
7 13 14 17 35 36 39 73 76 80 0
7 13 15 35 37 74 0
7 13 16 35 38 75 0
7 13 15 16 35 37 38 74 75 83 0
7 13 15 17 35 37 39 74 76 84 0
7 13 16 17 35 38 39 75 76 86 0
7 14 15 36 37 78 0
7 14 16 36 38 79 0
7 14 15 16 36 37 38 78 79 83 0
7 14 15 17 36 37 39 78 80 84 0
7 14 16 17 36 38 39 79 80 86 0
7 15 16 37 38 83 0
7 15 16 17 37 38 39 83 84 86 0
14 17 80 0
8 9 40 0
8 40 0
8 17 40 41 50 0
8 9 40 0
8 9 16 40 49 0
8 17 40 41 50 0
8 16 17 40 41 49 50 86 0
9 0
9 0
9 0
9 0
17 41 0
17 41 0
16 17 41 86 0
8 9 42 0
8 11 42 44 0
8 9 12 42 45 0
8 11 12 42 44 45 60 0
8 9 0
8 11 44 0
8 0
8 17 50 0
8 11 13 44 46 61 0
8 11 15 44 48 63 0
8 11 17 44 50 65 0
8 15 48 0
8 13 15 46 48 74 0
8 13 17 46 50 76 0
8 15 17 48 50 84 0
8 9 10 43 0
8 9 10 12 43 45 53 0
8 9 10 14 43 47 55 0
8 9 10 16 43 49 57 0
8 9 12 14 45 47 69 0
8 9 12 16 45 49 71 0
8 9 14 16 47 49 79 0
8 10 11 43 44 52 0
8 10 43 0
8 10 43 0
8 10 17 43 50 58 0
8 11 44 0
8 11 17 44 50 65 0
8 17 50 0
8 10 11 43 44 52 0
8 10 11 12 43 44 45 52 53 60 0
8 10 11 13 43 44 46 52 54 61 0
8 10 11 14 43 44 47 52 55 62 0
8 10 11 15 43 44 48 52 56 63 0
8 10 11 16 43 44 49 52 57 64 0
8 10 11 17 43 44 50 52 58 65 0
8 10 12 43 45 53 0
8 10 13 43 46 54 0
8 10 14 43 47 55 0
8 10 15 43 48 56 0
8 10 17 43 50 58 0
8 10 12 43 45 53 67 0
8 10 14 43 47 55 0
8 10 15 43 48 56 0
8 10 12 13 43 45 46 53 54 68 0
8 10 12 14 43 45 47 53 55 69 0
8 10 12 15 43 45 48 53 56 70 0
8 10 12 16 43 45 49 53 57 71 0
8 10 12 17 43 45 50 53 58 72 0
8 10 13 14 43 46 47 54 55 73 0
8 10 13 15 43 46 48 54 56 74 0
8 10 13 16 43 46 49 54 57 75 0
8 10 13 17 43 46 50 54 58 76 0
8 10 14 15 43 47 48 55 56 78 0
8 10 14 16 43 47 49 55 57 79 0
8 10 14 17 43 47 50 55 58 80 0
8 10 15 16 43 48 49 56 57 83 0
8 10 15 17 43 48 50 56 58 84 0
8 10 16 17 43 49 50 57 58 86 0
8 11 12 44 45 60 0
8 11 13 44 46 61 0
8 11 14 44 47 62 0
8 11 15 44 48 63 0
8 11 17 44 50 65 0
8 11 12 13 44 45 46 60 61 68 0
8 11 12 14 44 45 47 60 62 69 0
8 11 12 15 44 45 48 60 63 70 0
8 11 12 16 44 45 49 60 64 71 0
8 11 12 17 44 45 50 60 65 72 0
8 11 13 14 44 46 47 61 62 73 0
8 11 13 15 44 46 48 61 63 74 0
8 11 13 16 44 46 49 61 64 75 0
8 11 13 17 44 46 50 61 65 76 0
8 11 14 15 44 47 48 62 63 78 0
8 11 14 16 44 47 49 62 64 79 0
8 11 14 17 44 47 50 62 65 80 0
8 11 15 16 44 48 49 63 64 83 0
8 11 15 17 44 48 50 63 65 84 0
8 11 16 17 44 49 50 64 65 86 0
8 12 13 45 46 68 0
8 12 14 45 47 69 0
8 12 15 45 48 70 0
8 12 17 45 50 72 0
8 13 14 46 47 73 0
8 13 15 46 48 74 0
8 13 17 46 50 76 0
8 14 15 47 48 78 0
8 14 17 47 50 80 0
8 15 17 48 50 84 0
8 12 14 45 47 67 69 0
8 12 15 45 48 67 70 0
8 14 15 47 48 78 0
8 12 13 14 45 46 47 68 69 73 0
8 12 13 15 45 46 48 68 70 74 0
8 12 13 16 45 46 49 68 71 75 0
8 12 13 17 45 46 50 68 72 76 0
8 12 14 15 45 47 48 69 70 78 0
8 12 14 16 45 47 49 69 71 79 0
8 12 14 17 45 47 50 69 72 80 0
8 12 15 16 45 48 49 70 71 83 0
8 12 15 17 45 48 50 70 72 84 0
8 12 16 17 45 49 50 71 72 86 0
8 13 14 15 46 47 48 73 74 78 0
8 13 14 16 46 47 49 73 75 79 0
8 13 14 17 46 47 50 73 76 80 0
8 13 15 16 46 48 49 74 75 83 0
8 13 15 17 46 48 50 74 76 84 0
8 13 16 17 46 49 50 75 76 86 0
8 14 15 16 47 48 49 78 79 83 0
8 14 15 17 47 48 50 78 80 84 0
8 14 16 17 47 49 50 79 80 86 0
8 15 16 17 48 49 50 83 84 86 0
9 0
9 10 0
9 10 51 0
10 0
10 0
10 51 0
10 13 51 54 0
10 13 54 0
10 15 56 0
10 15 56 0
10 0
10 13 15 54 56 74 0
10 13 54 0
13 15 74 0
11 17 65 0
11 13 15 61 63 74 0
11 13 17 61 65 76 0
11 15 17 63 65 84 0
13 15 17 74 76 84 0
9 10 12 14 53 55 69 0
9 10 12 16 53 57 71 0
9 10 14 16 55 57 79 0
9 12 14 16 69 71 79 0
10 11 52 0
10 11 17 52 58 65 0
10 17 58 0
11 17 65 0
11 17 65 0
10 11 12 52 53 60 0
10 11 13 52 54 61 0
10 11 14 52 55 62 0
10 11 15 52 56 63 0
10 11 17 52 58 65 0
10 11 12 13 52 53 54 60 61 68 0
10 11 12 14 52 53 55 60 62 69 0
10 11 12 15 52 53 56 60 63 70 0
10 11 12 16 52 53 57 60 64 71 0
10 11 12 17 52 53 58 60 65 72 0
10 11 13 14 52 54 55 61 62 73 0
10 11 13 15 52 54 56 61 63 74 0
10 11 13 16 52 54 57 61 64 75 0
10 11 13 17 52 54 58 61 65 76 0
10 11 14 15 52 55 56 62 63 78 0
10 11 14 16 52 55 57 62 64 79 0
10 11 14 17 52 55 58 62 65 80 0
10 11 15 16 52 56 57 63 64 83 0
10 11 15 17 52 56 58 63 65 84 0
10 11 16 17 52 57 58 64 65 86 0
10 12 13 53 54 68 0
10 12 14 53 55 69 0
10 12 15 53 56 70 0
10 12 17 53 58 72 0
10 13 14 54 55 73 0
10 13 15 54 56 74 0
10 13 17 54 58 76 0
10 14 15 55 56 78 0
10 14 17 55 58 80 0
10 15 17 56 58 84 0
10 12 14 53 55 67 69 0
10 12 15 53 56 67 70 0
10 14 15 55 56 78 0
10 14 55 0
10 12 13 14 53 54 55 68 69 73 0
10 12 13 15 53 54 56 68 70 74 0
10 12 13 16 53 54 57 68 71 75 0
10 12 13 17 53 54 58 68 72 76 0
10 12 14 15 53 55 56 69 70 78 0
10 12 14 16 53 55 57 69 71 79 0
10 12 14 17 53 55 58 69 72 80 0
10 12 15 16 53 56 57 70 71 83 0
10 12 15 17 53 56 58 70 72 84 0
10 12 16 17 53 57 58 71 72 86 0
10 13 14 15 54 55 56 73 74 78 0
10 13 14 54 55 73 0
10 13 14 16 54 55 57 73 75 79 0
10 13 14 17 54 55 58 73 76 80 0
10 13 15 16 54 56 57 74 75 83 0
10 13 15 17 54 56 58 74 76 84 0
10 13 16 54 57 75 85 0
10 13 16 17 54 57 58 75 76 86 0
10 14 15 16 55 56 57 78 79 83 0
10 14 15 17 55 56 58 78 80 84 0
10 14 16 55 57 79 85 0
10 14 16 17 55 57 58 79 80 86 0
10 15 16 17 56 57 58 83 84 86 0
11 12 13 60 61 68 0
11 12 14 60 62 69 0
11 12 15 60 63 70 0
11 12 17 60 65 72 0
11 13 14 61 62 73 0
11 13 15 61 63 74 0
11 13 17 61 65 76 0
11 14 15 62 63 78 0
11 14 17 62 65 80 0
11 15 17 63 65 84 0
11 12 13 14 60 61 62 68 69 73 0
11 12 13 15 60 61 63 68 70 74 0
11 12 13 16 60 61 64 68 71 75 0
11 12 13 17 60 61 65 68 72 76 0
11 12 14 15 60 62 63 69 70 78 0
11 12 14 16 60 62 64 69 71 79 0
11 12 14 17 60 62 65 69 72 80 0
11 12 15 16 60 63 64 70 71 83 0
11 12 15 17 60 63 65 70 72 84 0
11 12 16 17 60 64 65 71 72 86 0
11 13 14 61 62 73 0
11 13 14 15 61 62 63 73 74 78 0
11 13 14 16 61 62 64 73 75 79 0
11 13 14 17 61 62 65 73 76 80 0
11 13 15 61 63 74 81 0
11 13 16 61 64 75 0
11 13 17 61 65 76 0
11 13 15 16 61 63 64 74 75 83 0
11 13 15 17 61 63 65 74 76 84 0
11 13 16 17 61 64 65 75 76 86 0
11 14 15 62 63 78 81 0
11 14 16 62 64 79 0
11 14 17 62 65 80 0
11 14 15 16 62 63 64 78 79 83 0
11 14 15 17 62 63 65 78 80 84 0
11 14 16 17 62 64 65 79 80 86 0
11 15 16 63 64 81 83 0
11 15 17 63 65 81 84 0
11 16 17 64 65 86 0
11 15 16 17 63 64 65 83 84 86 0
12 13 14 68 69 73 0
12 13 68 0
12 13 15 68 70 74 0
12 13 17 68 72 76 0
12 14 69 0
12 14 15 69 70 78 0
12 14 17 69 72 80 0
12 15 70 0
12 15 17 70 72 84 0
13 14 73 0
13 14 15 73 74 78 0
13 14 17 73 76 80 0
13 15 74 0
13 15 17 74 76 84 0
14 15 78 0
14 15 17 78 80 84 0
12 14 67 69 0
12 14 15 67 69 70 78 0
12 15 67 70 0
14 15 78 0
14 0
14 15 78 81 0
14 0
12 13 14 68 69 73 0
12 13 14 15 68 69 70 73 74 78 0
12 13 14 16 68 69 71 73 75 79 0
12 13 14 17 68 69 72 73 76 80 0
12 13 15 68 70 74 0
12 13 16 68 71 75 0
12 13 15 16 68 70 71 74 75 83 0
12 13 15 17 68 70 72 74 76 84 0
12 13 16 17 68 71 72 75 76 86 0
12 14 15 69 70 78 0
12 14 16 69 71 79 0
12 14 15 16 69 70 71 78 79 83 0
12 14 15 17 69 70 72 78 80 84 0
12 14 16 17 69 71 72 79 80 86 0
12 15 16 70 71 83 0
12 15 16 17 70 71 72 83 84 86 0
13 14 15 73 74 78 0
13 14 73 0
13 14 16 73 75 79 0
13 14 15 73 74 78 81 0
13 14 73 0
13 14 16 73 75 79 0
13 14 17 73 76 80 0
13 14 15 16 73 74 75 78 79 83 0
13 14 15 17 73 74 76 78 80 84 0
13 14 16 73 75 79 85 0
13 14 16 17 73 75 76 79 80 86 0
13 15 16 74 75 83 0
13 16 75 85 0
13 15 16 74 75 81 83 0
13 15 17 74 76 81 84 0
13 16 75 85 0
13 16 17 75 76 86 0
13 15 16 17 74 75 76 83 84 86 0
14 15 16 78 79 83 0
14 16 79 85 0
14 15 16 78 79 81 83 0
14 15 17 78 80 81 84 0
14 16 79 85 0
14 16 17 79 80 86 0
14 15 16 17 78 79 80 83 84 86 0
15 16 17 81 83 84 86 0
18 20 40 0
18 20 28 40 41 50 0
18 20 22 44 0
18 20 22 24 44 46 61 0
18 20 22 28 44 50 65 0
18 20 24 28 46 50 76 0
18 22 0
18 22 24 61 0
18 22 24 28 61 65 76 0
18 22 28 65 0
18 24 28 76 0
19 30 0
19 25 30 36 0
19 25 28 30 36 39 80 0
19 20 21 31 32 43 0
19 20 22 31 33 44 0
19 20 23 31 34 45 0
19 20 25 31 36 47 0
19 20 27 31 38 49 0
19 20 21 31 32 43 0
19 20 23 31 34 45 0
19 20 25 31 36 47 0
19 20 27 31 38 49 0
19 20 21 22 31 32 33 43 44 52 0
19 20 21 23 31 32 34 43 45 53 0
19 20 21 24 31 32 35 43 46 54 0
19 20 21 25 31 32 36 43 47 55 0
19 20 21 26 31 32 37 43 48 56 0
19 20 21 27 31 32 38 43 49 57 0
19 20 21 28 31 32 39 43 50 58 0
19 20 22 23 31 33 34 44 45 60 0
19 20 22 24 31 33 35 44 46 61 0
19 20 22 25 31 33 36 44 47 62 0
19 20 22 26 31 33 37 44 48 63 0
19 20 22 27 31 33 38 44 49 64 0
19 20 22 28 31 33 39 44 50 65 0
19 20 23 24 31 34 35 45 46 68 0
19 20 23 25 31 34 36 45 47 69 0
19 20 23 26 31 34 37 45 48 70 0
19 20 23 27 31 34 38 45 49 71 0
19 20 23 28 31 34 39 45 50 72 0
19 20 24 25 31 35 36 46 47 73 0
19 20 24 26 31 35 37 46 48 74 0
19 20 24 27 31 35 38 46 49 75 0
19 20 24 28 31 35 39 46 50 76 0
19 20 25 26 31 36 37 47 48 78 0
19 20 25 27 31 36 38 47 49 79 0
19 20 25 28 31 36 39 47 50 80 0
19 20 26 27 31 37 38 48 49 83 0
19 20 26 28 31 37 39 48 50 84 0
19 20 27 28 31 38 39 49 50 86 0
19 21 32 0
19 21 32 0
19 21 24 32 35 54 0
19 21 26 32 37 56 0
19 24 26 35 37 74 0
19 21 22 32 33 52 0
19 21 23 32 34 53 0
19 21 25 32 36 55 0
19 21 27 32 38 57 0
19 22 23 33 34 60 0
19 22 25 33 36 62 0
19 22 33 0
19 22 27 33 38 64 0
19 23 25 34 36 69 0
19 23 34 0
19 23 27 34 38 71 0
19 25 27 36 38 79 0
19 21 23 32 34 53 0
19 21 25 32 36 55 0
19 21 27 32 38 57 0
19 23 25 34 36 69 0
19 23 34 0
19 23 27 34 38 71 0
19 25 27 36 38 79 0
19 21 22 23 32 33 34 52 53 60 0
19 21 22 24 32 33 35 52 54 61 0
19 21 22 25 32 33 36 52 55 62 0
19 21 22 26 32 33 37 52 56 63 0
19 21 22 27 32 33 38 52 57 64 0
19 21 22 28 32 33 39 52 58 65 0
19 21 23 24 32 34 35 53 54 68 0
19 21 23 25 32 34 36 53 55 69 0
19 21 23 26 32 34 37 53 56 70 0
19 21 23 27 32 34 38 53 57 71 0
19 21 23 28 32 34 39 53 58 72 0
19 21 24 25 32 35 36 54 55 73 0
19 21 24 26 32 35 37 54 56 74 0
19 21 24 27 32 35 38 54 57 75 0
19 21 24 28 32 35 39 54 58 76 0
19 21 25 26 32 36 37 55 56 78 0
19 21 25 27 32 36 38 55 57 79 0
19 21 25 28 32 36 39 55 58 80 0
19 21 26 27 32 37 38 56 57 83 0
19 21 26 28 32 37 39 56 58 84 0
19 21 27 28 32 38 39 57 58 86 0
19 22 23 24 33 34 35 60 61 68 0
19 22 23 25 33 34 36 60 62 69 0
19 22 23 26 33 34 37 60 63 70 0
19 22 23 33 34 60 0
19 22 23 27 33 34 38 60 64 71 0
19 22 23 28 33 34 39 60 65 72 0
19 22 24 25 33 35 36 61 62 73 0
19 22 24 26 33 35 37 61 63 74 0
19 22 24 33 35 61 0
19 22 24 27 33 35 38 61 64 75 0
19 22 24 28 33 35 39 61 65 76 0
19 22 25 26 33 36 37 62 63 78 0
19 22 25 27 33 36 38 62 64 79 0
19 22 25 28 33 36 39 62 65 80 0
19 22 26 33 37 63 82 0
19 22 26 27 33 37 38 63 64 83 0
19 22 26 28 33 37 39 63 65 84 0
19 22 28 33 39 65 0
19 22 27 28 33 38 39 64 65 86 0
19 23 24 25 34 35 36 68 69 73 0
19 23 24 26 34 35 37 68 70 74 0
19 23 24 34 35 68 0
19 23 24 27 34 35 38 68 71 75 0
19 23 24 28 34 35 39 68 72 76 0
19 23 25 26 34 36 37 69 70 78 0
19 23 25 27 34 36 38 69 71 79 0
19 23 25 28 34 36 39 69 72 80 0
19 23 26 34 37 70 82 0
19 23 26 27 34 37 38 70 71 83 0
19 23 26 28 34 37 39 70 72 84 0
19 23 28 34 39 72 0
19 23 27 28 34 38 39 71 72 86 0
19 24 25 26 35 36 37 73 74 78 0
19 24 25 27 35 36 38 73 75 79 0
19 24 25 28 35 36 39 73 76 80 0
19 24 26 35 37 74 82 0
19 24 26 27 35 37 38 74 75 83 0
19 24 26 28 35 37 39 74 76 84 0
19 24 28 35 39 76 0
19 24 27 28 35 38 39 75 76 86 0
19 25 26 27 36 37 38 78 79 83 0
19 25 26 28 36 37 39 78 80 84 0
19 25 27 28 36 38 39 79 80 86 0
19 26 28 37 39 82 84 0
19 26 27 28 37 38 39 83 84 86 0
25 28 80 0
25 28 80 0
20 27 40 49 0
20 27 40 49 0
20 27 28 40 41 49 50 86 0
20 22 44 0
20 23 45 0
20 21 22 43 44 52 0
20 21 23 43 45 53 0
20 21 25 43 47 55 0
20 21 27 43 49 57 0
20 22 23 44 45 60 0
20 22 25 44 47 62 0
20 22 27 44 49 64 0
20 23 25 45 47 69 0
20 23 27 45 49 71 0
20 25 27 47 49 79 0
20 23 45 0
20 21 23 43 45 53 0
20 21 25 43 47 55 0
20 21 27 43 49 57 0
20 23 25 45 47 69 0
20 23 27 45 49 71 0
20 25 27 47 49 79 0
20 22 23 44 45 60 0
20 22 26 44 48 63 0
20 23 45 0
20 23 26 45 48 70 0
20 21 22 23 43 44 45 52 53 60 0
20 21 22 24 43 44 46 52 54 61 0
20 21 22 25 43 44 47 52 55 62 0
20 21 22 26 43 44 48 52 56 63 0
20 21 22 27 43 44 49 52 57 64 0
20 21 22 28 43 44 50 52 58 65 0
20 21 23 24 43 45 46 53 54 68 0
20 21 23 25 43 45 47 53 55 69 0
20 21 23 43 45 53 0
20 21 23 26 43 45 48 53 56 70 0
20 21 23 27 43 45 49 53 57 71 0
20 21 23 28 43 45 50 53 58 72 0
20 21 24 25 43 46 47 54 55 73 0
20 21 24 43 46 54 0
20 21 24 26 43 46 48 54 56 74 0
20 21 24 27 43 46 49 54 57 75 0
20 21 24 28 43 46 50 54 58 76 0
20 21 25 43 47 55 0
20 21 25 26 43 47 48 55 56 78 0
20 21 25 27 43 47 49 55 57 79 0
20 21 25 28 43 47 50 55 58 80 0
20 21 27 43 49 57 0
20 21 28 43 50 58 0
20 21 26 27 43 48 49 56 57 83 0
20 21 26 28 43 48 50 56 58 84 0
20 21 27 28 43 49 50 57 58 86 0
20 22 23 24 44 45 46 60 61 68 0
20 22 23 25 44 45 47 60 62 69 0
20 22 23 26 44 45 48 60 63 70 0
20 22 23 27 44 45 49 60 64 71 0
20 22 23 28 44 45 50 60 65 72 0
20 22 24 25 44 46 47 61 62 73 0
20 22 24 26 44 46 48 61 63 74 0
20 22 24 27 44 46 49 61 64 75 0
20 22 24 28 44 46 50 61 65 76 0
20 22 25 26 44 47 48 62 63 78 0
20 22 25 27 44 47 49 62 64 79 0
20 22 25 28 44 47 50 62 65 80 0
20 22 26 27 44 48 49 63 64 83 0
20 22 26 28 44 48 50 63 65 84 0
20 22 27 28 44 49 50 64 65 86 0
20 23 24 25 45 46 47 68 69 73 0
20 23 24 45 46 68 0
20 23 24 26 45 46 48 68 70 74 0
20 23 24 27 45 46 49 68 71 75 0
20 23 24 28 45 46 50 68 72 76 0
20 23 25 45 47 69 0
20 23 25 26 45 47 48 69 70 78 0
20 23 25 27 45 47 49 69 71 79 0
20 23 25 28 45 47 50 69 72 80 0
20 23 27 45 49 71 0
20 23 28 45 50 72 0
20 23 26 27 45 48 49 70 71 83 0
20 23 26 28 45 48 50 70 72 84 0
20 23 27 28 45 49 50 71 72 86 0
20 24 25 46 47 73 0
20 24 25 26 46 47 48 73 74 78 0
20 24 25 27 46 47 49 73 75 79 0
20 24 25 28 46 47 50 73 76 80 0
20 24 27 46 49 75 0
20 24 28 46 50 76 0
20 24 26 27 46 48 49 74 75 83 0
20 24 26 28 46 48 50 74 76 84 0
20 24 27 28 46 49 50 75 76 86 0
20 25 27 47 49 79 0
20 25 28 47 50 80 0
20 25 26 27 47 48 49 78 79 83 0
20 25 26 28 47 48 50 78 80 84 0
20 25 27 28 47 49 50 79 80 86 0
20 27 28 49 50 86 0
20 26 27 28 48 49 50 83 84 86 0
21 24 54 0
21 24 26 54 56 74 0
24 26 74 0
22 0
22 23 60 0
21 22 23 52 53 60 0
21 22 25 52 55 62 0
21 22 27 52 57 64 0
21 23 25 53 55 69 0
21 23 27 53 57 71 0
21 25 27 55 57 79 0
22 25 62 0
22 0
22 23 25 60 62 69 0
22 23 60 0
22 23 27 60 64 71 0
22 25 27 62 64 79 0
23 25 27 69 71 79 0
21 23 25 53 55 69 0
21 23 27 53 57 71 0
21 25 27 55 57 79 0
23 25 27 69 71 79 0
22 59 0
22 26 59 63 0
22 23 26 60 63 70 0
21 22 23 24 52 53 54 60 61 68 0
21 22 23 25 52 53 55 60 62 69 0
21 22 23 26 52 53 56 60 63 70 0
21 22 23 27 52 53 57 60 64 71 0
21 22 23 28 52 53 58 60 65 72 0
21 22 24 25 52 54 55 61 62 73 0
21 22 24 26 52 54 56 61 63 74 0
21 22 24 27 52 54 57 61 64 75 0
21 22 24 28 52 54 58 61 65 76 0
21 22 25 26 52 55 56 62 63 78 0
21 22 25 27 52 55 57 62 64 79 0
21 22 25 28 52 55 58 62 65 80 0
21 22 26 27 52 56 57 63 64 83 0
21 22 26 28 52 56 58 63 65 84 0
21 22 27 28 52 57 58 64 65 86 0
21 23 24 25 53 54 55 68 69 73 0
21 23 24 53 54 68 0
21 23 24 26 53 54 56 68 70 74 0
21 23 24 27 53 54 57 68 71 75 0
21 23 24 28 53 54 58 68 72 76 0
21 23 25 53 55 69 0
21 23 25 26 53 55 56 69 70 78 0
21 23 25 27 53 55 57 69 71 79 0
21 23 25 28 53 55 58 69 72 80 0
21 23 27 53 57 71 0
21 23 28 53 58 72 0
21 23 26 27 53 56 57 70 71 83 0
21 23 26 28 53 56 58 70 72 84 0
21 23 27 28 53 57 58 71 72 86 0
21 24 25 54 55 73 0
21 24 25 26 54 55 56 73 74 78 0
21 24 25 27 54 55 57 73 75 79 0
21 24 25 28 54 55 58 73 76 80 0
21 24 27 54 57 75 0
21 24 28 54 58 76 0
21 24 26 27 54 56 57 74 75 83 0
21 24 26 28 54 56 58 74 76 84 0
21 24 27 28 54 57 58 75 76 86 0
21 25 27 55 57 79 0
21 25 28 55 58 80 0
21 25 26 27 55 56 57 78 79 83 0
21 25 26 28 55 56 58 78 80 84 0
21 25 27 28 55 57 58 79 80 86 0
21 27 28 57 58 86 0
21 26 27 28 56 57 58 83 84 86 0
22 24 59 61 0
22 25 59 62 0
22 24 25 59 61 62 73 0
22 24 26 59 61 63 74 0
22 24 28 59 61 65 76 0
22 25 26 59 62 63 78 0
22 25 28 59 62 65 80 0
22 26 28 59 63 65 84 0
22 24 25 61 62 73 0
22 24 61 0
22 23 24 25 60 61 62 68 69 73 0
22 23 24 26 60 61 63 68 70 74 0
22 23 24 60 61 68 0
22 23 24 27 60 61 64 68 71 75 0
22 23 24 28 60 61 65 68 72 76 0
22 23 25 26 60 62 63 69 70 78 0
22 23 25 27 60 62 64 69 71 79 0
22 23 25 28 60 62 65 69 72 80 0
22 23 26 60 63 70 82 0
22 23 26 27 60 63 64 70 71 83 0
22 23 26 28 60 63 65 70 72 84 0
22 23 28 60 65 72 0
22 23 27 28 60 64 65 71 72 86 0
22 24 25 26 61 62 63 73 74 78 0
22 24 25 27 61 62 64 73 75 79 0
22 24 25 28 61 62 65 73 76 80 0
22 24 26 61 63 74 82 0
22 24 26 27 61 63 64 74 75 83 0
22 24 26 28 61 63 65 74 76 84 0
22 24 28 61 65 76 0
22 24 27 28 61 64 65 75 76 86 0
22 25 26 27 62 63 64 78 79 83 0
22 25 26 28 62 63 65 78 80 84 0
22 25 27 28 62 64 65 79 80 86 0
22 26 28 63 65 82 84 0
22 26 27 28 63 64 65 83 84 86 0
24 25 73 0
24 25 26 73 74 78 0
24 25 28 73 76 80 0
24 26 28 74 76 84 0
25 26 28 78 80 84 0
24 25 73 0
24 0
23 24 25 68 69 73 0
23 24 25 26 68 69 70 73 74 78 0
23 24 25 27 68 69 71 73 75 79 0
23 24 25 28 68 69 72 73 76 80 0
23 24 68 0
23 24 27 68 71 75 0
23 24 28 68 72 76 0
23 24 26 68 70 74 82 0
23 24 26 27 68 70 71 74 75 83 0
23 24 26 28 68 70 72 74 76 84 0
23 24 28 68 72 76 0
23 24 27 28 68 71 72 75 76 86 0
23 25 27 69 71 79 0
23 25 28 69 72 80 0
23 25 26 27 69 70 71 78 79 83 0
23 25 26 28 69 70 72 78 80 84 0
23 25 27 28 69 71 72 79 80 86 0
23 28 72 0
23 27 28 71 72 86 0
23 26 28 70 72 82 84 0
23 26 27 28 70 71 72 83 84 86 0
24 25 27 73 75 79 0
24 25 28 73 76 80 0
24 25 26 27 73 74 75 78 79 83 0
24 25 26 28 73 74 76 78 80 84 0
24 25 27 28 73 75 76 79 80 86 0
24 28 76 0
24 27 28 75 76 86 0
24 26 28 74 76 82 84 0
24 26 27 28 74 75 76 83 84 86 0
25 27 28 79 80 86 0
25 26 27 28 78 79 80 83 84 86 0
40 0
42 0
40 0
40 41 50 0
41 0
41 0
42 44 0
42 44 0
44 0
44 0
44 46 61 0
44 50 65 0
46 50 76 0
44 46 61 0
44 50 65 0
46 50 76 0
44 46 50 61 65 76 0
61 65 76 0
65 0
61 65 76 0
65 0
61 65 76 0
61 65 76 0
65 0
65 0
29 31 42 0
29 31 34 42 45 0
29 31 32 43 0
29 31 34 45 0
29 31 36 47 0
29 31 38 49 0
29 31 32 34 43 45 53 0
29 31 32 36 43 47 55 0
29 31 32 37 43 48 56 0
29 31 32 38 43 49 57 0
29 31 34 36 45 47 69 0
29 31 34 37 45 48 70 0
29 31 34 38 45 49 71 0
29 31 36 37 47 48 78 0
29 31 36 38 47 49 79 0
29 31 37 38 48 49 83 0
29 34 0
29 32 0
29 32 37 56 0
29 32 34 53 0
29 32 36 55 0
29 32 38 57 0
29 34 36 69 0
29 34 38 71 0
29 36 38 79 0
29 32 34 36 53 55 69 0
29 32 34 37 53 56 70 0
29 32 34 38 53 57 71 0
29 32 36 37 55 56 78 0
29 32 36 38 55 57 79 0
29 32 37 38 56 57 83 0
29 34 36 37 69 70 78 0
29 34 36 38 69 71 79 0
29 34 37 38 70 71 83 0
29 36 37 38 78 79 83 0
40 0
40 49 0
42 0
42 45 0
43 45 53 0
43 47 55 0
43 49 57 0
45 47 69 0
45 0
45 49 71 0
47 49 79 0
43 45 53 0
43 49 57 66 0
43 45 47 53 55 69 0
43 45 48 53 56 70 0
43 45 49 53 57 71 0
43 47 48 55 56 78 0
43 47 49 55 57 79 0
43 48 49 56 57 83 0
45 0
45 49 66 71 0
45 47 48 69 70 78 0
45 47 49 69 71 79 0
45 48 70 0
45 48 49 70 71 83 0
47 48 49 78 79 83 0
53 55 69 0
53 57 71 0
55 57 79 0
69 71 79 0
57 66 0
55 57 79 0
53 57 66 71 0
57 66 85 0
53 55 56 69 70 78 0
53 55 57 69 71 79 0
53 56 57 70 71 83 0
55 56 57 78 79 83 0
55 57 79 85 0
69 70 71 78 79 83 0
30 0
31 42 0
31 34 42 45 0
31 33 42 44 0
31 33 34 42 44 45 60 0
31 32 43 0
31 33 44 0
31 32 43 0
31 33 44 0
31 32 33 43 44 52 0
31 32 34 43 45 53 0
31 32 36 43 47 55 0
31 32 38 43 49 57 0
31 33 34 44 45 60 0
31 33 36 44 47 62 0
31 33 38 44 49 64 0
31 34 36 45 47 69 0
31 34 38 45 49 71 0
31 36 38 47 49 79 0
31 32 43 0
31 32 43 0
31 32 34 43 45 53 0
31 32 36 43 47 55 0
31 32 38 43 49 57 0
31 34 36 45 47 69 0
31 34 38 45 49 71 0
31 36 38 47 49 79 0
31 32 33 43 44 52 0
31 32 35 43 46 54 0
31 32 39 43 50 58 0
31 33 35 44 46 61 0
31 33 39 44 50 65 0
31 35 39 46 50 76 0
31 32 33 43 44 52 0
31 32 39 43 50 58 0
31 33 39 44 50 65 0
31 32 33 34 43 44 45 52 53 60 0
31 32 33 35 43 44 46 52 54 61 0
31 32 33 36 43 44 47 52 55 62 0
31 32 33 37 43 44 48 52 56 63 0
31 32 33 38 43 44 49 52 57 64 0
31 32 33 39 43 44 50 52 58 65 0
31 32 34 35 43 45 46 53 54 68 0
31 32 34 36 43 45 47 53 55 69 0
31 32 34 37 43 45 48 53 56 70 0
31 32 34 38 43 45 49 53 57 71 0
31 32 34 39 43 45 50 53 58 72 0
31 32 35 36 43 46 47 54 55 73 0
31 32 35 37 43 46 48 54 56 74 0
31 32 35 38 43 46 49 54 57 75 0
31 32 35 39 43 46 50 54 58 76 0
31 32 36 37 43 47 48 55 56 78 0
31 32 36 38 43 47 49 55 57 79 0
31 32 36 39 43 47 50 55 58 80 0
31 32 37 38 43 48 49 56 57 83 0
31 32 37 39 43 48 50 56 58 84 0
31 32 38 39 43 49 50 57 58 86 0
31 33 34 35 44 45 46 60 61 68 0
31 33 34 36 44 45 47 60 62 69 0
31 33 34 37 44 45 48 60 63 70 0
31 33 34 38 44 45 49 60 64 71 0
31 33 34 39 44 45 50 60 65 72 0
31 33 35 36 44 46 47 61 62 73 0
31 33 35 37 44 46 48 61 63 74 0
31 33 35 38 44 46 49 61 64 75 0
31 33 35 39 44 46 50 61 65 76 0
31 33 36 37 44 47 48 62 63 78 0
31 33 36 38 44 47 49 62 64 79 0
31 33 36 39 44 47 50 62 65 80 0
31 33 37 38 44 48 49 63 64 83 0
31 33 37 39 44 48 50 63 65 84 0
31 33 38 39 44 49 50 64 65 86 0
31 34 35 36 45 46 47 68 69 73 0
31 34 35 37 45 46 48 68 70 74 0
31 34 35 38 45 46 49 68 71 75 0
31 34 35 39 45 46 50 68 72 76 0
31 34 36 37 45 47 48 69 70 78 0
31 34 36 38 45 47 49 69 71 79 0
31 34 36 39 45 47 50 69 72 80 0
31 34 37 38 45 48 49 70 71 83 0
31 34 37 39 45 48 50 70 72 84 0
31 34 38 39 45 49 50 71 72 86 0
31 35 36 37 46 47 48 73 74 78 0
31 35 36 38 46 47 49 73 75 79 0
31 35 36 39 46 47 50 73 76 80 0
31 35 37 38 46 48 49 74 75 83 0
31 35 37 39 46 48 50 74 76 84 0
31 35 38 39 46 49 50 75 76 86 0
31 36 37 38 47 48 49 78 79 83 0
31 36 37 39 47 48 50 78 80 84 0
31 36 38 39 47 49 50 79 80 86 0
31 37 38 39 48 49 50 83 84 86 0
34 0
34 0
33 34 60 0
33 34 60 0
34 0
34 0
32 0
32 0
32 0
32 0
32 35 54 0
32 35 37 54 56 74 0
32 33 52 0
32 0
32 33 52 0
32 0
32 33 34 52 53 60 0
32 33 36 52 55 62 0
32 33 38 52 57 64 0
32 34 53 0
32 36 55 0
32 38 57 0
32 34 36 53 55 69 0
32 34 38 53 57 71 0
32 36 38 55 57 79 0
33 34 36 60 62 69 0
33 34 60 0
33 34 38 60 64 71 0
33 36 38 62 64 79 0
34 36 69 0
34 0
34 38 71 0
36 38 79 0
34 36 38 69 71 79 0
32 0
32 0
32 0
32 34 53 0
32 36 55 0
32 38 57 0
32 34 53 0
32 36 55 0
32 38 57 0
32 34 36 53 55 69 0
32 34 38 53 57 71 0
32 36 38 55 57 79 0
34 36 69 0
34 0
34 38 71 0
36 38 79 0
34 36 69 0
34 38 71 0
36 38 79 0
34 36 38 69 71 79 0
32 33 35 52 54 61 0
32 33 39 52 58 65 0
32 35 39 54 58 76 0
33 35 39 61 65 76 0
33 39 65 0
32 33 52 0
32 33 39 52 58 65 0
33 39 65 0
32 33 34 52 53 60 0
32 33 35 52 54 61 0
32 33 36 52 55 62 0
32 33 38 52 57 64 0
32 33 34 35 52 53 54 60 61 68 0
32 33 34 36 52 53 55 60 62 69 0
32 33 34 37 52 53 56 60 63 70 0
32 33 34 38 52 53 57 60 64 71 0
32 33 34 39 52 53 58 60 65 72 0
32 33 35 36 52 54 55 61 62 73 0
32 33 35 37 52 54 56 61 63 74 0
32 33 35 38 52 54 57 61 64 75 0
32 33 35 39 52 54 58 61 65 76 0
32 33 36 37 52 55 56 62 63 78 0
32 33 36 38 52 55 57 62 64 79 0
32 33 36 39 52 55 58 62 65 80 0
32 33 37 38 52 56 57 63 64 83 0
32 33 37 39 52 56 58 63 65 84 0
32 33 38 39 52 57 58 64 65 86 0
32 34 36 53 55 69 0
32 34 38 53 57 71 0
32 36 38 55 57 79 0
32 34 35 53 54 68 0
32 34 36 53 55 69 0
32 34 38 53 57 71 0
32 35 36 54 55 73 0
32 35 38 54 57 75 0
32 36 38 55 57 79 0
32 34 35 36 53 54 55 68 69 73 0
32 34 35 37 53 54 56 68 70 74 0
32 34 35 38 53 54 57 68 71 75 0
32 34 35 39 53 54 58 68 72 76 0
32 34 36 37 53 55 56 69 70 78 0
32 34 36 38 53 55 57 69 71 79 0
32 34 36 39 53 55 58 69 72 80 0
32 34 37 38 53 56 57 70 71 83 0
32 34 37 39 53 56 58 70 72 84 0
32 34 38 39 53 57 58 71 72 86 0
32 35 36 37 54 55 56 73 74 78 0
32 35 36 38 54 55 57 73 75 79 0
32 35 36 39 54 55 58 73 76 80 0
32 35 37 38 54 56 57 74 75 83 0
32 35 37 39 54 56 58 74 76 84 0
32 35 38 39 54 57 58 75 76 86 0
32 36 37 38 55 56 57 78 79 83 0
32 36 37 39 55 56 58 78 80 84 0
32 36 38 39 55 57 58 79 80 86 0
32 37 38 39 56 57 58 83 84 86 0
33 34 35 60 61 68 0
33 34 36 60 62 69 0
33 34 38 60 64 71 0
33 35 36 61 62 73 0
33 35 38 61 64 75 0
33 36 38 62 64 79 0
33 34 35 36 60 61 62 68 69 73 0
33 34 35 37 60 61 63 68 70 74 0
33 34 35 60 61 68 0
33 34 35 38 60 61 64 68 71 75 0
33 34 35 39 60 61 65 68 72 76 0
33 34 36 60 62 69 77 0
33 34 36 37 60 62 63 69 70 78 0
33 34 36 38 60 62 64 69 71 79 0
33 34 36 39 60 62 65 69 72 80 0
33 34 37 60 63 70 0
33 34 60 0
33 34 38 60 64 71 0
33 34 39 60 65 72 0
33 34 37 60 63 70 82 0
33 34 37 38 60 63 64 70 71 83 0
33 34 37 39 60 63 65 70 72 84 0
33 34 39 60 65 72 0
33 34 38 39 60 64 65 71 72 86 0
33 35 36 37 61 62 63 73 74 78 0
33 35 36 38 61 62 64 73 75 79 0
33 35 36 39 61 62 65 73 76 80 0
33 35 37 61 63 74 82 0
33 35 37 38 61 63 64 74 75 83 0
33 35 37 39 61 63 65 74 76 84 0
33 35 39 61 65 76 0
33 35 38 39 61 64 65 75 76 86 0
33 36 37 62 63 77 78 0
33 36 38 62 64 77 79 0
33 36 39 62 65 77 80 0
33 36 37 38 62 63 64 78 79 83 0
33 36 37 39 62 63 65 78 80 84 0
33 36 38 39 62 64 65 79 80 86 0
33 37 63 82 0
33 37 38 63 64 83 0
33 37 39 63 65 84 0
33 39 65 0
33 38 39 64 65 86 0
33 37 39 63 65 82 84 0
33 37 38 39 63 64 65 83 84 86 0
34 36 69 77 0
34 36 69 0
34 36 38 69 71 79 0
34 0
34 38 71 0
34 0
34 38 71 0
36 38 77 79 0
36 38 79 0
34 35 36 68 69 73 0
34 35 68 0
34 35 38 68 71 75 0
34 36 69 0
34 36 38 69 71 79 0
34 38 71 0
35 36 73 0
35 36 38 73 75 79 0
35 38 75 0
36 38 79 0
34 35 36 68 69 73 0
34 35 36 37 68 69 70 73 74 78 0
34 35 36 38 68 69 71 73 75 79 0
34 35 36 39 68 69 72 73 76 80 0
34 35 37 68 70 74 0
34 35 68 0
34 35 38 68 71 75 0
34 35 37 68 70 74 82 0
34 35 37 38 68 70 71 74 75 83 0
34 35 37 39 68 70 72 74 76 84 0
34 35 39 68 72 76 0
34 35 38 39 68 71 72 75 76 86 0
34 36 37 69 70 77 78 0
34 36 38 69 71 77 79 0
34 36 39 69 72 77 80 0
34 36 37 69 70 78 0
34 36 38 69 71 79 0
34 36 37 38 69 70 71 78 79 83 0
34 36 37 39 69 70 72 78 80 84 0
34 36 38 39 69 71 72 79 80 86 0
34 37 70 82 0
34 37 38 70 71 83 0
34 37 39 70 72 84 0
34 39 72 0
34 38 39 71 72 86 0
34 37 70 82 0
34 37 38 70 71 83 0
34 37 39 70 72 82 84 0
34 37 38 39 70 71 72 83 84 86 0
35 36 37 73 74 78 0
35 36 38 73 75 79 0
35 36 37 38 73 74 75 78 79 83 0
35 36 37 39 73 74 76 78 80 84 0
35 36 38 39 73 75 76 79 80 86 0
35 37 74 82 0
35 37 38 74 75 83 0
35 37 39 74 76 82 84 0
35 37 38 39 74 75 76 83 84 86 0
36 37 38 77 78 79 83 0
36 37 39 77 78 80 84 0
36 38 39 77 79 80 86 0
36 37 38 78 79 83 0
36 37 38 39 78 79 80 83 84 86 0
37 39 82 84 0
37 38 39 83 84 86 0
80 0
80 0
40 0
40 0
40 41 50 0
41 0
41 0
41 86 0
42 0
42 44 0
42 0
42 45 0
42 44 0
42 44 45 60 0
44 0
44 0
44 0
43 44 52 0
43 44 52 0
44 45 60 0
43 44 45 52 53 60 0
43 44 47 52 55 62 0
43 44 49 52 57 64 0
43 45 47 53 55 69 0
43 45 49 53 57 71 0
43 47 49 55 57 79 0
44 45 47 60 62 69 0
44 45 49 60 64 71 0
44 47 49 62 64 79 0
45 47 49 69 71 79 0
44 50 65 0
44 0
44 48 63 0
44 46 61 0
44 50 65 0
44 46 48 61 63 74 0
44 46 50 61 65 76 0
44 48 50 63 65 84 0
46 50 76 0
46 48 50 74 76 84 0
45 0
43 45 47 53 55 69 0
43 45 49 53 57 71 0
43 47 49 55 57 79 0
45 47 49 69 71 79 0
44 0
44 0
43 44 52 0
43 44 52 0
43 44 46 52 54 61 0
43 44 50 52 58 65 0
43 46 54 0
43 50 58 0
43 46 54 0
43 50 58 0
43 46 50 54 58 76 0
44 46 61 0
44 50 65 0
44 46 61 0
44 50 65 0
44 46 50 61 65 76 0
46 50 76 0
46 50 76 0
43 44 52 0
43 44 50 52 58 65 0
43 50 58 0
44 50 65 0
44 45 60 0
44 45 60 0
44 48 63 0
44 45 48 60 63 70 0
45 0
45 0
45 0
45 48 70 0
45 48 70 0
43 44 45 52 53 60 0
43 44 46 52 54 61 0
43 44 49 52 57 64 66 0
43 44 50 52 58 65 0
43 44 45 52 53 60 0
43 44 46 52 54 61 0
43 44 47 52 55 62 0
43 44 48 52 56 63 0
43 44 50 52 58 65 0
43 44 45 46 52 53 54 60 61 68 0
43 44 45 47 52 53 55 60 62 69 0
43 44 45 48 52 53 56 60 63 70 0
43 44 45 49 52 53 57 60 64 71 0
43 44 45 50 52 53 58 60 65 72 0
43 44 46 47 52 54 55 61 62 73 0
43 44 46 48 52 54 56 61 63 74 0
43 44 46 49 52 54 57 61 64 75 0
43 44 46 50 52 54 58 61 65 76 0
43 44 47 48 52 55 56 62 63 78 0
43 44 47 49 52 55 57 62 64 79 0
43 44 47 50 52 55 58 62 65 80 0
43 44 48 49 52 56 57 63 64 83 0
43 44 48 50 52 56 58 63 65 84 0
43 44 49 50 52 57 58 64 65 86 0
43 45 53 67 0
43 45 46 53 54 68 0
43 45 53 0
43 45 49 53 57 66 71 0
43 45 50 53 58 72 0
43 46 54 0
43 46 49 54 57 66 75 0
43 46 50 54 58 76 0
43 49 57 66 0
43 50 58 0
43 49 50 57 58 66 86 0
43 45 46 53 54 68 0
43 45 47 53 55 69 0
43 45 53 0
43 45 48 53 56 70 0
43 45 50 53 58 72 0
43 46 47 54 55 73 0
43 46 54 0
43 46 48 54 56 74 0
43 46 50 54 58 76 0
43 47 55 0
43 47 48 55 56 78 0
43 47 50 55 58 80 0
43 50 58 0
43 48 50 56 58 84 0
43 45 47 53 55 67 69 0
43 45 48 53 56 67 70 0
43 47 48 55 56 78 0
43 45 46 47 53 54 55 68 69 73 0
43 45 46 53 54 68 0
43 45 46 48 53 54 56 68 70 74 0
43 45 46 49 53 54 57 68 71 75 0
43 45 46 50 53 54 58 68 72 76 0
43 45 47 53 55 69 0
43 45 47 48 53 55 56 69 70 78 0
43 45 47 49 53 55 57 69 71 79 0
43 45 47 50 53 55 58 69 72 80 0
43 45 49 53 57 71 0
43 45 50 53 58 72 0
43 45 48 49 53 56 57 70 71 83 0
43 45 48 50 53 56 58 70 72 84 0
43 45 49 50 53 57 58 71 72 86 0
43 46 47 54 55 73 0
43 46 47 48 54 55 56 73 74 78 0
43 46 47 49 54 55 57 73 75 79 0
43 46 47 50 54 55 58 73 76 80 0
43 46 49 54 57 75 0
43 46 50 54 58 76 0
43 46 48 49 54 56 57 74 75 83 0
43 46 48 50 54 56 58 74 76 84 0
43 46 49 50 54 57 58 75 76 86 0
43 47 49 55 57 79 0
43 47 50 55 58 80 0
43 47 48 49 55 56 57 78 79 83 0
43 47 48 50 55 56 58 78 80 84 0
43 47 49 50 55 57 58 79 80 86 0
43 49 50 57 58 86 0
43 48 49 50 56 57 58 83 84 86 0
44 45 46 60 61 68 0
44 45 49 60 64 66 71 0
44 45 50 60 65 72 0
44 46 49 61 64 66 75 0
44 46 50 61 65 76 0
44 49 50 64 65 66 86 0
44 45 46 60 61 68 0
44 45 47 60 62 69 0
44 45 48 60 63 70 0
44 45 50 60 65 72 0
44 46 47 61 62 73 0
44 46 48 61 63 74 0
44 46 50 61 65 76 0
44 47 48 62 63 78 0
44 47 50 62 65 80 0
44 48 50 63 65 84 0
44 45 46 47 60 61 62 68 69 73 0
44 45 46 48 60 61 63 68 70 74 0
44 45 46 49 60 61 64 68 71 75 0
44 45 46 50 60 61 65 68 72 76 0
44 45 47 48 60 62 63 69 70 78 0
44 45 47 49 60 62 64 69 71 79 0
44 45 47 50 60 62 65 69 72 80 0
44 45 48 49 60 63 64 70 71 83 0
44 45 48 50 60 63 65 70 72 84 0
44 45 49 50 60 64 65 71 72 86 0
44 46 47 48 61 62 63 73 74 78 0
44 46 47 49 61 62 64 73 75 79 0
44 46 47 50 61 62 65 73 76 80 0
44 46 48 49 61 63 64 74 75 83 0
44 46 48 50 61 63 65 74 76 84 0
44 46 49 50 61 64 65 75 76 86 0
44 47 48 49 62 63 64 78 79 83 0
44 47 48 50 62 63 65 78 80 84 0
44 47 49 50 62 64 65 79 80 86 0
44 48 49 50 63 64 65 83 84 86 0
45 67 0
45 46 68 0
45 46 68 0
45 46 49 66 68 71 75 0
45 46 50 68 72 76 0
45 50 72 0
45 49 66 71 0
45 50 72 0
45 49 50 66 71 72 86 0
46 50 76 0
46 49 66 75 0
46 50 76 0
46 49 50 66 75 76 86 0
49 50 66 86 0
45 46 47 68 69 73 0
45 46 68 0
45 46 48 68 70 74 0
45 46 50 68 72 76 0
45 47 69 0
45 47 48 69 70 78 0
45 47 50 69 72 80 0
45 50 72 0
45 48 50 70 72 84 0
46 47 73 0
46 47 48 73 74 78 0
46 47 50 73 76 80 0
46 50 76 0
46 48 50 74 76 84 0
47 50 80 0
47 48 50 78 80 84 0
45 47 48 67 69 70 78 0
45 48 67 70 0
45 46 47 68 69 73 0
45 46 47 48 68 69 70 73 74 78 0
45 46 47 49 68 69 71 73 75 79 0
45 46 47 50 68 69 72 73 76 80 0
45 46 48 68 70 74 0
45 46 50 68 72 76 0
45 46 49 68 71 75 0
45 46 50 68 72 76 0
45 46 48 49 68 70 71 74 75 83 0
45 46 48 50 68 70 72 74 76 84 0
45 46 49 50 68 71 72 75 76 86 0
45 47 49 69 71 79 0
45 47 50 69 72 80 0
45 47 48 49 69 70 71 78 79 83 0
45 47 48 50 69 70 72 78 80 84 0
45 47 49 50 69 71 72 79 80 86 0
45 48 50 70 72 84 0
45 49 50 71 72 86 0
45 48 49 50 70 71 72 83 84 86 0
46 47 49 73 75 79 0
46 47 50 73 76 80 0
46 47 48 49 73 74 75 78 79 83 0
46 47 48 50 73 74 76 78 80 84 0
46 47 49 50 73 75 76 79 80 86 0
46 48 50 74 76 84 0
46 49 50 75 76 86 0
46 48 49 50 74 75 76 83 84 86 0
47 49 50 79 80 86 0
47 48 49 50 78 79 80 83 84 86 0
51 0
51 54 0
54 0
54 0
54 0
54 56 74 0
54 0
74 0
52 55 62 0
52 57 64 0
55 57 79 0
62 0
62 64 79 0
52 53 55 60 62 69 0
52 53 57 60 64 71 0
52 55 57 62 64 79 0
53 55 69 0
53 57 71 0
55 57 79 0
53 55 57 69 71 79 0
62 0
60 62 64 69 71 79 0
62 64 79 0
69 71 79 0
59 65 0
65 0
59 63 0
59 61 63 74 0
59 61 65 76 0
59 63 65 84 0
61 65 76 0
65 0
61 63 65 74 76 84 0
63 65 84 0
74 76 84 0
51 0
53 55 69 0
53 57 71 0
55 57 79 0
53 55 69 0
53 57 71 0
55 57 79 0
53 55 57 69 71 79 0
69 71 79 0
69 71 79 0
51 54 0
52 54 61 0
52 58 65 0
52 54 61 0
52 58 65 0
52 54 58 61 65 76 0
54 0
54 58 76 0
54 58 76 0
61 65 76 0
65 0
61 65 76 0
65 0
52 57 64 66 0
52 55 62 0
52 57 64 0
52 55 57 62 64 79 0
57 66 0
55 57 79 0
55 57 79 0
59 62 0
59 62 0
62 64 79 0
52 58 65 0
59 65 0
65 0
65 0
59 63 0
60 63 70 0
52 53 54 60 61 68 0
52 53 57 60 64 66 71 0
52 53 58 60 65 72 0
52 54 57 61 64 66 75 0
52 54 58 61 65 76 0
52 57 58 64 65 66 86 0
52 53 54 60 61 68 0
52 53 55 60 62 69 0
52 53 57 60 64 71 0
52 54 55 61 62 73 0
52 54 57 61 64 75 0
52 55 57 62 64 79 0
52 53 54 60 61 68 0
52 53 55 60 62 69 0
52 53 56 60 63 70 0
52 53 58 60 65 72 0
52 54 55 61 62 73 0
52 54 56 61 63 74 0
52 54 58 61 65 76 0
52 55 56 62 63 78 0
52 55 58 62 65 80 0
52 56 58 63 65 84 0
52 53 54 55 60 61 62 68 69 73 0
52 53 54 56 60 61 63 68 70 74 0
52 53 54 57 60 61 64 68 71 75 0
52 53 54 58 60 61 65 68 72 76 0
52 53 55 56 60 62 63 69 70 78 0
52 53 55 57 60 62 64 69 71 79 0
52 53 55 58 60 62 65 69 72 80 0
52 53 56 57 60 63 64 70 71 83 0
52 53 56 58 60 63 65 70 72 84 0
52 53 57 58 60 64 65 71 72 86 0
52 54 55 56 61 62 63 73 74 78 0
52 54 55 57 61 62 64 73 75 79 0
52 54 55 58 61 62 65 73 76 80 0
52 54 56 57 61 63 64 74 75 83 0
52 54 56 58 61 63 65 74 76 84 0
52 54 57 58 61 64 65 75 76 86 0
52 55 56 57 62 63 64 78 79 83 0
52 55 56 58 62 63 65 78 80 84 0
52 55 57 58 62 64 65 79 80 86 0
52 56 57 58 63 64 65 83 84 86 0
53 55 69 0
53 55 67 69 0
53 55 57 69 71 79 0
53 54 68 0
53 54 57 66 68 71 75 0
53 54 58 68 72 76 0
53 57 66 71 0
53 58 72 0
53 57 58 66 71 72 86 0
54 0
54 57 66 75 0
54 58 76 0
54 57 66 75 85 0
54 57 58 66 75 76 86 0
57 66 85 0
57 58 66 86 0
53 55 67 69 0
53 54 55 68 69 73 0
53 54 57 68 71 75 0
53 55 57 69 71 79 0
54 55 57 73 75 79 0
53 54 55 68 69 73 0
53 54 68 0
53 54 56 68 70 74 0
53 54 58 68 72 76 0
53 55 69 0
53 55 56 69 70 78 0
53 55 58 69 72 80 0
53 58 72 0
53 56 58 70 72 84 0
54 55 73 0
54 55 56 73 74 78 0
54 55 58 73 76 80 0
54 58 76 0
54 56 58 74 76 84 0
55 58 80 0
55 56 58 78 80 84 0
53 55 56 67 69 70 78 0
53 54 55 68 69 73 0
53 54 55 56 68 69 70 73 74 78 0
53 54 55 57 68 69 71 73 75 79 0
53 54 55 58 68 69 72 73 76 80 0
53 54 57 68 71 75 0
53 54 58 68 72 76 0
53 54 56 57 68 70 71 74 75 83 0
53 54 56 58 68 70 72 74 76 84 0
53 54 57 58 68 71 72 75 76 86 0
53 55 57 69 71 79 0
53 55 58 69 72 80 0
53 55 56 57 69 70 71 78 79 83 0
53 55 56 58 69 70 72 78 80 84 0
53 55 57 58 69 71 72 79 80 86 0
53 57 58 71 72 86 0
53 56 57 58 70 71 72 83 84 86 0
54 55 73 0
54 55 57 73 75 79 0
54 55 58 73 76 80 0
54 55 56 57 73 74 75 78 79 83 0
54 55 56 58 73 74 76 78 80 84 0
54 55 57 73 75 79 85 0
54 55 57 58 73 75 76 79 80 86 0
54 57 75 85 0
54 57 58 75 76 86 0
54 56 57 58 74 75 76 83 84 86 0
55 57 79 85 0
55 57 58 79 80 86 0
55 56 57 58 78 79 80 83 84 86 0
59 61 62 73 0
59 61 62 73 0
59 61 63 74 0
59 61 65 76 0
59 62 63 78 0
59 62 65 80 0
59 63 65 84 0
59 61 62 73 0
59 61 62 63 73 74 78 0
59 61 62 65 73 76 80 0
59 61 63 65 74 76 84 0
59 62 63 65 78 80 84 0
60 61 64 66 68 71 75 0
60 61 65 68 72 76 0
60 64 66 71 0
60 65 72 0
60 64 65 66 71 72 86 0
61 64 65 66 75 76 86 0
64 65 66 86 0
60 61 62 68 69 73 0
60 61 64 68 71 75 0
60 62 64 69 71 79 0
61 62 73 0
61 62 64 73 75 79 0
61 64 75 0
62 64 79 0
60 61 62 68 69 73 0
60 61 63 68 70 74 0
60 61 65 68 72 76 0
60 62 69 77 0
60 62 63 69 70 78 0
60 62 65 69 72 80 0
60 63 70 0
60 65 72 0
60 63 65 70 72 84 0
61 62 63 73 74 78 0
61 62 65 73 76 80 0
61 63 65 74 76 84 0
62 63 77 78 0
62 65 77 80 0
62 63 65 78 80 84 0
63 65 84 0
61 62 73 0
62 77 0
60 61 62 63 68 69 70 73 74 78 0
60 61 62 64 68 69 71 73 75 79 0
60 61 62 65 68 69 72 73 76 80 0
60 61 63 68 70 74 82 0
60 61 63 64 68 70 71 74 75 83 0
60 61 63 65 68 70 72 74 76 84 0
60 61 65 68 72 76 0
60 61 64 65 68 71 72 75 76 86 0
60 62 63 69 70 77 78 0
60 62 64 69 71 77 79 0
60 62 65 69 72 77 80 0
60 62 63 64 69 70 71 78 79 83 0
60 62 63 65 69 70 72 78 80 84 0
60 62 64 65 69 71 72 79 80 86 0
60 63 70 82 0
60 63 64 70 71 83 0
60 63 65 70 72 84 0
60 65 72 0
60 64 65 71 72 86 0
60 63 65 70 72 82 84 0
60 63 64 65 70 71 72 83 84 86 0
61 62 63 73 74 78 81 0
61 62 64 73 75 79 0
61 62 65 73 76 80 0
61 62 63 64 73 74 75 78 79 83 0
61 62 63 65 73 74 76 78 80 84 0
61 62 64 65 73 75 76 79 80 86 0
61 63 64 74 75 81 83 0
61 63 65 74 76 81 84 0
61 64 65 75 76 86 0
61 63 65 74 76 82 84 0
61 63 64 65 74 75 76 83 84 86 0
62 63 77 78 81 0
62 64 77 79 0
62 65 77 80 0
62 63 64 77 78 79 83 0
62 63 65 77 78 80 84 0
62 64 65 77 79 80 86 0
62 63 64 78 79 81 83 0
62 63 65 78 80 81 84 0
62 64 65 79 80 86 0
62 63 64 65 78 79 80 83 84 86 0
63 64 81 83 0
63 65 81 84 0
64 65 86 0
63 65 82 84 0
63 64 65 83 84 86 0
63 64 65 81 83 84 86 0
73 74 78 0
73 76 80 0
74 76 84 0
78 80 84 0
73 74 76 78 80 84 0
74 76 84 0
69 77 0
69 0
67 69 77 0
67 69 0
69 71 77 79 0
69 71 79 0
68 72 76 0
66 68 71 75 0
68 72 76 0
66 68 71 72 75 76 86 0
66 71 0
72 0
66 71 72 86 0
66 71 72 86 0
66 75 85 0
66 75 76 86 0
66 86 0
67 69 0
68 69 73 0
68 69 71 73 75 79 0
68 71 75 0
69 71 79 0
73 75 79 0
73 75 79 0
68 69 73 0
68 69 73 0
68 69 70 73 74 78 0
68 69 72 73 76 80 0
68 70 74 0
68 72 76 0
68 70 72 74 76 84 0
69 77 0
69 70 77 78 0
69 72 77 80 0
69 70 78 0
69 72 80 0
69 70 72 78 80 84 0
72 0
70 72 84 0
73 74 78 0
73 76 80 0
73 74 76 78 80 84 0
77 80 0
77 78 80 84 0
67 69 70 77 78 0
67 69 70 78 0
77 78 81 0
68 69 70 73 74 78 0
68 69 71 73 75 79 0
68 69 71 73 75 79 0
68 69 72 73 76 80 0
68 69 70 71 73 74 75 78 79 83 0
68 69 70 72 73 74 76 78 80 84 0
68 69 71 72 73 75 76 79 80 86 0
68 70 74 82 0
68 70 72 74 76 84 0
68 72 76 0
68 70 74 82 0
68 70 71 74 75 83 0
68 72 76 0
68 71 72 75 76 86 0
68 70 72 74 76 82 84 0
68 70 71 72 74 75 76 83 84 86 0
69 71 77 79 0
69 72 77 80 0
69 70 71 77 78 79 83 0
69 70 72 77 78 80 84 0
69 71 72 77 79 80 86 0
69 70 71 78 79 83 0
69 71 72 79 80 86 0
69 70 71 72 78 79 80 83 84 86 0
72 0
71 72 86 0
70 72 82 84 0
70 71 72 83 84 86 0
70 72 82 84 0
73 74 75 78 79 83 0
73 75 79 85 0
73 75 79 85 0
73 75 76 79 80 86 0
73 74 75 78 79 81 83 0
73 74 76 78 80 81 84 0
73 75 79 85 0
73 75 76 79 80 86 0
73 74 75 76 78 79 80 83 84 86 0
74 76 81 84 0
74 76 82 84 0
74 75 76 81 83 84 86 0
77 79 80 86 0
77 78 79 81 83 0
77 78 80 81 84 0
77 79 80 86 0
77 78 79 80 83 84 86 0
78 79 80 81 83 84 86 0
81 83 84 86 0
