p cnf 9802 12251
-21 -31 -10 -13 -2 -1 0
-65 -64 -9 -8 -69 -7 0
-66 -8 -10 -64 -70 -7 0
-66 -73 -65 -9 -10 -7 0
-73 -70 -8 -69 -9 -10 0
-65 -18 -21 -73 -66 -20 0
-74 -67 -18 -22 -20 -65 0
-74 -71 -19 -22 -69 -20 0
-20 -75 -23 -72 -69 -19 0
-20 -74 -22 -73 -76 -21 0
-77 -73 -21 -75 -20 -23 0
-77 -78 -21 -76 -23 -22 0
-76 -74 -31 -30 -73 -32 0
-77 -76 -31 -78 -32 -33 0
-46 -44 -45 -64 -59 -58 0
-54 -53 -52 -65 -64 -69 0
147 146 152 148 145 154 153 151 155 150 149 0
-145 18 0
-146 28 0
-147 37 0
-148 45 0
-149 5 0
-150 6 0
-151 8 0
-151 64 0
-152 9 0
-152 65 0
-153 10 0
-153 66 0
-154 11 0
-154 67 0
-155 12 0
-155 68 0
156 158 164 157 162 159 163 165 166 161 160 0
-156 19 0
-157 29 0
-158 38 0
-159 46 0
-160 5 0
-161 6 0
-162 7 0
-162 64 0
-163 9 0
-163 69 0
-164 10 0
-164 70 0
-165 11 0
-165 71 0
-166 12 0
-166 72 0
169 168 173 167 174 170 175 176 177 172 171 0
-167 20 0
-168 30 0
-169 39 0
-170 47 0
-171 5 0
-172 6 0
-173 7 0
-173 65 0
-174 8 0
-174 69 0
-175 10 0
-175 73 0
-176 11 0
-176 74 0
-177 12 0
-177 75 0
178 187 185 179 180 181 186 184 188 183 182 0
-178 21 0
-179 31 0
-180 40 0
-181 48 0
-182 5 0
-183 6 0
-184 7 0
-184 66 0
-185 8 0
-185 70 0
-186 9 0
-186 73 0
-187 11 0
-187 76 0
-188 12 0
-188 77 0
196 195 190 189 191 199 192 198 197 194 193 0
-189 22 0
-190 32 0
-191 41 0
-192 49 0
-193 5 0
-194 6 0
-195 7 0
-196 8 0
-197 74 0
-198 76 0
-199 78 0
273 266 275 272 267 276 274 269 270 271 268 0
-266 7 0
-267 28 0
-268 14 0
-269 15 0
-270 16 0
-271 17 0
-272 19 0
-272 64 0
-273 20 0
-273 65 0
-274 21 0
-274 66 0
-275 22 0
-275 67 0
-276 23 0
-276 68 0
287 284 283 278 286 285 277 280 281 282 279 0
-277 8 0
-278 29 0
-279 14 0
-280 15 0
-281 16 0
-282 17 0
-283 18 0
64 -283 0
-284 20 0
-284 69 0
-285 21 0
-285 70 0
-286 22 0
71 -286 0
-287 23 0
72 -287 0
296 289 294 288 295 297 298 291 292 293 290 0
-288 9 0
-289 30 0
-290 14 0
-291 15 0
-292 16 0
-293 17 0
-294 18 0
-294 65 0
-295 19 0
-295 69 0
-296 21 0
-296 73 0
-297 22 0
-297 74 0
-298 23 0
-298 75 0
306 305 300 299 307 308 309 302 303 304 301 0
-299 10 0
-300 31 0
-301 14 0
-302 15 0
-303 16 0
-304 17 0
-305 18 0
-305 66 0
-306 19 0
-306 70 0
-307 20 0
-307 73 0
-308 22 0
-308 76 0
-309 23 0
77 -309 0
317 320 310 311 318 319 316 313 314 315 312 0
-310 11 0
-311 32 0
-312 14 0
-313 15 0
-314 16 0
-315 17 0
-316 18 0
-316 67 0
-317 19 0
-317 71 0
-318 20 0
-318 74 0
-319 21 0
-319 76 0
-320 23 0
-320 78 0
328 322 327 321 329 330 331 324 325 326 323 0
-321 12 0
-322 33 0
-323 14 0
-324 15 0
-325 16 0
-326 17 0
-327 18 0
-327 68 0
-328 19 0
-328 72 0
-329 20 0
-329 75 0
-330 21 0
-330 77 0
-331 22 0
-331 78 0
381 380 384 386 382 376 383 385 377 379 378 0
-376 7 0
-377 18 0
-378 24 0
-379 25 0
-380 52 0
-381 58 0
-382 29 0
-383 30 0
-384 31 0
-385 32 0
-385 67 0
-386 33 0
-386 68 0
391 392 393 388 387 394 395 396 397 390 389 0
-387 8 0
-388 19 0
-389 24 0
-390 25 0
-391 53 0
-392 59 0
-393 28 0
-393 64 0
-394 30 0
-394 69 0
-395 31 0
-395 70 0
-396 32 0
-396 71 0
-397 33 0
-397 72 0
404 408 398 402 403 405 399 407 406 401 400 0
-398 9 0
-399 20 0
-400 24 0
-401 25 0
-402 54 0
-403 60 0
-404 28 0
-405 29 0
-405 69 0
-406 31 0
-406 73 0
-407 32 0
-407 74 0
-408 33 0
-408 75 0
415 419 409 413 410 416 414 417 418 412 411 0
-409 10 0
-410 21 0
-411 24 0
-412 25 0
-413 55 0
-414 61 0
-415 28 0
-416 29 0
-416 70 0
-417 30 0
-417 73 0
-418 76 0
-419 77 0
426 424 421 420 429 427 425 430 428 423 422 0
-420 11 0
-421 22 0
-422 24 0
-423 25 0
-424 56 0
-425 62 0
-426 28 0
-427 29 0
-428 30 0
-428 74 0
-429 31 0
-429 76 0
-430 33 0
-430 78 0
437 431 440 432 435 438 436 439 441 434 433 0
-431 12 0
-432 23 0
-433 24 0
-434 25 0
-435 57 0
-436 63 0
-437 28 0
-438 29 0
-439 30 0
-439 75 0
-440 31 0
-440 77 0
-441 32 0
-441 78 0
458 457 456 460 459 461 462 463 455 454 453 0
-453 5 0
-454 14 0
-455 24 0
-456 43 0
-457 36 0
-458 37 0
52 -458 0
-459 38 0
-459 53 0
-460 39 0
-460 54 0
-461 40 0
-461 55 0
-462 41 0
-462 56 0
-463 42 0
-463 57 0
471 469 474 467 468 472 470 473 466 465 464 0
-464 6 0
-465 14 0
-466 24 0
-467 44 0
-468 35 0
-469 37 0
-469 58 0
-470 38 0
-470 59 0
-471 39 0
-471 60 0
-472 40 0
-472 61 0
41 -473 0
62 -473 0
-474 42 0
-474 63 0
478 482 480 483 481 479 484 475 485 476 477 0
-475 7 0
-476 14 0
-477 24 0
-478 45 0
-479 35 0
-479 52 0
-480 36 0
-480 58 0
-481 38 0
-481 64 0
-482 39 0
-482 65 0
-483 40 0
-483 66 0
-484 41 0
-484 67 0
-485 42 0
-485 68 0
492 489 486 490 491 493 494 495 496 487 488 0
-486 8 0
-487 14 0
-488 24 0
-489 46 0
-490 35 0
-490 53 0
-491 36 0
-491 59 0
-492 37 0
-492 64 0
-493 39 0
-493 69 0
-494 40 0
-494 70 0
-495 41 0
-495 71 0
-496 42 0
-496 72 0
507 505 497 501 500 504 502 503 506 498 499 0
-497 9 0
-498 14 0
-499 24 0
-500 47 0
-501 35 0
-501 54 0
-502 36 0
-502 60 0
-503 37 0
-503 65 0
-504 38 0
-504 69 0
-505 40 0
-505 73 0
-506 41 0
-506 74 0
-507 42 0
-507 75 0
515 518 508 512 511 513 516 517 514 509 510 0
-508 10 0
-509 14 0
-510 24 0
-511 48 0
-512 35 0
-512 55 0
-513 36 0
-513 61 0
-514 37 0
-514 66 0
-515 38 0
-515 70 0
-516 39 0
-516 73 0
-517 41 0
-517 76 0
-518 42 0
-518 77 0
522 525 519 529 523 526 527 528 524 520 521 0
-519 11 0
-520 14 0
-521 24 0
-522 49 0
-523 35 0
-523 56 0
36 -524 0
62 -524 0
-525 37 0
-525 67 0
-526 38 0
-526 71 0
-527 39 0
-527 74 0
-528 40 0
-528 76 0
-529 42 0
-529 78 0
533 535 530 538 534 537 539 540 536 531 532 0
-530 12 0
-531 14 0
-532 24 0
-533 50 0
-534 35 0
-534 57 0
-535 36 0
-535 63 0
-536 37 0
-536 68 0
38 -537 0
72 -537 0
-538 39 0
-538 75 0
-539 40 0
-539 77 0
-540 41 0
-540 78 0
550 546 544 547 548 549 545 551 543 542 541 0
-541 5 0
-542 15 0
-543 25 0
-544 35 0
-545 44 0
45 -546 0
52 -546 0
-547 46 0
53 -547 0
-548 47 0
-548 54 0
-549 48 0
-549 55 0
-550 49 0
-550 56 0
50 -551 0
57 -551 0
561 555 558 557 560 562 559 556 554 553 552 0
-552 6 0
-553 15 0
-554 25 0
-555 36 0
-556 43 0
-557 45 0
-557 58 0
-558 46 0
-558 59 0
-559 47 0
-559 60 0
-560 48 0
-560 61 0
-561 49 0
-561 62 0
-562 50 0
-562 63 0
566 567 569 571 572 570 568 563 573 564 565 0
-563 7 0
-564 15 0
-565 25 0
-566 37 0
-567 43 0
-567 52 0
-568 44 0
-568 58 0
-569 46 0
-569 64 0
-570 47 0
-570 65 0
-571 48 0
-571 66 0
-572 49 0
-572 67 0
-573 50 0
-573 68 0
584 578 577 579 581 582 574 580 583 575 576 0
-574 8 0
-575 15 0
-576 25 0
-577 38 0
-578 43 0
-578 53 0
-579 44 0
-579 59 0
-580 45 0
-580 64 0
-581 47 0
-581 69 0
-582 48 0
-582 70 0
-583 49 0
-583 71 0
-584 50 0
-584 72 0
588 592 585 594 589 595 591 590 593 586 587 0
-585 9 0
-586 15 0
-587 25 0
-588 39 0
-589 43 0
-589 54 0
-590 44 0
-590 60 0
-591 45 0
-591 65 0
-592 46 0
-592 69 0
-593 48 0
-593 73 0
-594 49 0
-594 74 0
-595 50 0
-595 75 0
605 603 596 600 599 604 601 602 606 597 598 0
-596 10 0
-597 15 0
-598 25 0
-599 40 0
-600 43 0
-600 55 0
-601 44 0
-601 61 0
-602 45 0
-602 66 0
-603 46 0
-603 70 0
-604 47 0
-604 73 0
-605 49 0
-605 76 0
-606 50 0
-606 77 0
617 610 607 611 612 614 613 616 615 608 609 0
-607 11 0
-608 15 0
-609 25 0
-610 41 0
-611 43 0
-611 56 0
-612 44 0
-612 62 0
-613 45 0
-613 67 0
-614 46 0
-614 71 0
-615 47 0
-615 74 0
-616 48 0
-616 76 0
-617 50 0
-617 78 0
625 622 621 618 628 626 624 623 627 619 620 0
-618 12 0
-619 15 0
-620 25 0
-621 42 0
-622 43 0
-622 57 0
-623 44 0
-623 63 0
-624 45 0
-624 68 0
-625 46 0
-625 72 0
-626 47 0
-626 75 0
-627 48 0
-627 77 0
-628 49 0
-628 78 0
645 646 642 643 647 648 644 649 650 641 640 0
-640 5 0
-641 16 0
-642 28 0
-643 35 0
-643 37 0
-644 43 0
-644 45 0
-645 58 0
-646 53 0
-646 64 0
-647 54 0
-647 65 0
-648 55 0
-648 66 0
-649 56 0
-649 67 0
-650 57 0
-650 68 0
656 657 653 654 655 660 659 658 661 652 651 0
-651 5 0
-652 16 0
-653 29 0
-654 35 0
-654 38 0
-655 43 0
-655 46 0
-656 59 0
-657 52 0
-657 64 0
-658 54 0
-658 69 0
-659 55 0
-659 70 0
-660 56 0
-660 71 0
-661 57 0
-661 72 0
669 670 664 667 668 665 666 671 672 663 662 0
-662 5 0
-663 16 0
-664 30 0
-665 35 0
-665 39 0
-666 43 0
-666 47 0
-667 60 0
-668 52 0
-668 65 0
-669 53 0
-669 69 0
-670 55 0
-670 73 0
-671 56 0
-671 74 0
-672 57 0
-672 75 0
680 678 675 676 677 679 681 682 683 674 673 0
-673 5 0
-674 16 0
-675 31 0
-676 35 0
-676 40 0
-677 43 0
-677 48 0
-678 61 0
-679 52 0
-679 66 0
-680 53 0
-680 70 0
-681 54 0
-681 73 0
-682 56 0
-682 76 0
-683 57 0
-683 77 0
691 687 686 689 690 688 692 693 694 685 684 0
-684 5 0
-685 16 0
-686 32 0
-687 35 0
-687 41 0
-688 43 0
-688 49 0
-689 62 0
-690 52 0
-690 67 0
-691 53 0
-691 71 0
-692 54 0
-692 74 0
-693 55 0
-693 76 0
-694 57 0
-694 78 0
702 697 698 701 700 699 703 704 705 696 695 0
-695 5 0
-696 16 0
-697 33 0
-698 35 0
-698 42 0
-699 43 0
-699 50 0
-700 63 0
-701 52 0
-701 68 0
-702 53 0
-702 72 0
-703 54 0
-703 75 0
-704 55 0
-704 77 0
-705 56 0
-705 78 0
715 709 708 713 712 710 711 714 716 707 706 0
-706 6 0
-707 17 0
-708 28 0
-709 36 0
-709 37 0
-710 44 0
-710 45 0
-711 52 0
-712 59 0
-712 64 0
-713 60 0
-713 65 0
-714 61 0
-714 66 0
-715 62 0
-715 67 0
-716 63 0
-716 68 0
722 723 719 720 721 724 727 725 726 718 717 0
-717 6 0
-718 17 0
-719 29 0
-720 36 0
-720 38 0
-721 44 0
-721 46 0
53 -722 0
-723 58 0
-723 64 0
-724 60 0
-724 69 0
-725 61 0
-725 70 0
-726 62 0
-726 71 0
-727 63 0
-727 72 0
734 735 730 731 732 733 736 737 738 729 728 0
-728 6 0
-729 17 0
-730 30 0
-731 36 0
-731 39 0
-732 44 0
-732 47 0
-733 54 0
-734 58 0
-734 65 0
-735 59 0
-735 69 0
-736 61 0
-736 73 0
-737 62 0
-737 74 0
-738 63 0
-738 75 0
745 746 741 744 742 743 747 748 749 740 739 0
-739 6 0
-740 17 0
-741 31 0
-742 36 0
-742 40 0
-743 44 0
-743 48 0
-744 55 0
-745 58 0
-745 66 0
-746 59 0
-746 70 0
-747 60 0
-747 73 0
-748 62 0
-748 76 0
-749 63 0
-749 77 0
757 755 752 753 754 756 758 759 760 751 750 0
-750 6 0
-751 17 0
-752 32 0
-753 36 0
-753 41 0
-754 44 0
-754 49 0
-755 56 0
-756 58 0
-756 67 0
-757 59 0
-757 71 0
-758 60 0
-758 74 0
-759 61 0
-759 76 0
-760 63 0
-760 78 0
768 764 763 765 766 767 769 770 771 762 761 0
-761 6 0
-762 17 0
-763 33 0
-764 36 0
-764 42 0
-765 44 0
-765 50 0
-766 57 0
-767 58 0
-767 68 0
-768 59 0
-768 72 0
-769 60 0
-769 75 0
-770 61 0
-770 77 0
-771 62 0
-771 78 0
779 775 773 777 776 774 782 772 778 781 780 0
-772 7 0
-772 8 0
-773 18 0
-774 28 0
-775 37 0
-775 38 0
-776 45 0
-776 46 0
-777 52 0
-777 53 0
-778 58 0
-778 59 0
-779 65 0
-779 69 0
-780 66 0
-780 70 0
-781 67 0
-781 71 0
-782 68 0
-782 72 0
790 792 785 786 783 787 788 789 791 784 793 0
-783 7 0
-783 9 0
-784 18 0
-784 20 0
-785 28 0
-785 30 0
-786 37 0
-786 39 0
-787 45 0
-787 47 0
-788 52 0
-788 54 0
-789 58 0
-789 60 0
-790 64 0
69 -790 0
-791 66 0
-791 73 0
-792 67 0
-792 74 0
-793 68 0
75 -793 0
801 803 796 797 798 799 795 802 800 794 804 0
-794 7 0
-794 10 0
-795 18 0
-795 21 0
-796 28 0
-797 37 0
-797 40 0
-798 45 0
-798 48 0
-799 52 0
-799 55 0
-800 58 0
-800 61 0
-801 64 0
70 -801 0
-802 65 0
-802 73 0
-803 67 0
-803 76 0
-804 68 0
77 -804 0
812 813 807 808 809 805 815 810 806 814 811 0
-805 7 0
-805 11 0
-806 18 0
-806 22 0
-807 28 0
-807 32 0
-808 37 0
-808 41 0
-809 45 0
-809 49 0
52 -810 0
56 -810 0
58 -811 0
62 -811 0
-812 64 0
-812 71 0
-813 65 0
-813 74 0
-814 66 0
-814 76 0
-815 68 0
-815 78 0
824 819 818 820 822 821 817 825 823 826 816 0
-816 7 0
-816 12 0
-817 18 0
-817 23 0
-818 28 0
-819 37 0
-819 42 0
-820 45 0
-820 50 0
52 -821 0
57 -821 0
-822 58 0
-822 63 0
-823 64 0
-823 72 0
-824 65 0
-824 75 0
-825 66 0
-825 77 0
-826 67 0
-826 78 0
837 834 829 827 832 833 836 828 831 835 830 0
-827 8 0
-827 9 0
-828 19 0
-828 20 0
-829 29 0
-830 38 0
-830 39 0
-831 46 0
-831 47 0
-832 53 0
-832 54 0
-833 59 0
-833 60 0
-834 64 0
-834 65 0
-835 70 0
-835 73 0
-836 71 0
-836 74 0
-837 72 0
-837 75 0
848 845 840 838 839 844 846 847 841 843 842 0
-838 8 0
-838 10 0
-839 19 0
-839 21 0
-840 29 0
-840 31 0
-841 38 0
-841 40 0
-842 46 0
-842 48 0
-843 53 0
-843 55 0
-844 59 0
-844 61 0
-845 64 0
-845 66 0
-846 69 0
-846 73 0
-847 71 0
-847 76 0
-848 72 0
-848 77 0
859 852 850 851 849 857 854 855 856 853 858 0
-849 8 0
-849 11 0
-850 19 0
-850 22 0
-851 29 0
-852 38 0
-852 41 0
-853 46 0
-853 49 0
-854 53 0
-854 56 0
-855 59 0
-855 62 0
-856 64 0
-856 67 0
-857 69 0
-857 74 0
-858 70 0
-858 76 0
-859 72 0
-859 78 0
868 863 862 861 860 867 865 866 864 870 869 0
-860 8 0
-860 12 0
-861 19 0
-861 23 0
-862 29 0
-863 38 0
-863 42 0
-864 46 0
-864 50 0
-865 53 0
-865 57 0
-866 59 0
-866 63 0
-867 64 0
-867 68 0
-868 69 0
-868 75 0
-869 70 0
-869 77 0
-870 71 0
-870 78 0
876 874 873 871 875 877 878 879 880 872 881 0
-871 9 0
-871 10 0
-872 20 0
-872 21 0
-873 30 0
-874 39 0
-874 40 0
-875 47 0
-875 48 0
-876 54 0
-876 55 0
-877 60 0
-877 61 0
-878 65 0
-878 66 0
-879 69 0
-879 70 0
-880 74 0
-880 76 0
-881 75 0
-881 77 0
892 885 882 884 886 883 891 887 888 890 889 0
-882 9 0
-882 11 0
-883 20 0
-883 22 0
-884 30 0
-885 39 0
-885 41 0
-886 47 0
-886 49 0
-887 54 0
-887 56 0
-888 60 0
-888 62 0
-889 65 0
-889 67 0
-890 69 0
-890 71 0
-891 73 0
-891 76 0
-892 75 0
-892 78 0
901 903 895 898 899 896 902 897 893 894 900 0
-893 9 0
-893 12 0
-894 20 0
-894 23 0
-895 30 0
-896 39 0
-896 42 0
-897 47 0
-897 50 0
-898 54 0
-898 57 0
-899 60 0
-899 63 0
-900 65 0
-900 68 0
-901 69 0
-901 72 0
-902 73 0
-902 77 0
-903 74 0
-903 78 0
914 910 906 905 913 912 904 909 907 911 908 0
-904 10 0
-904 11 0
-905 21 0
-905 22 0
-906 31 0
-907 40 0
-907 41 0
-908 48 0
-908 49 0
-909 55 0
-909 56 0
-910 61 0
-910 62 0
-911 66 0
-911 67 0
-912 70 0
-912 71 0
-913 73 0
-913 74 0
-914 77 0
-914 78 0
923 925 915 918 921 917 924 920 922 916 919 0
-915 10 0
-915 12 0
-916 21 0
-916 23 0
-917 31 0
-918 40 0
-918 42 0
-919 48 0
-919 50 0
-920 55 0
-920 57 0
-921 61 0
-921 63 0
-922 66 0
-922 68 0
-923 70 0
-923 72 0
-924 73 0
-924 75 0
-925 76 0
-925 78 0
934 935 928 936 932 931 926 933 927 929 930 0
-926 11 0
-926 12 0
-927 23 0
-928 32 0
-929 41 0
-929 42 0
-930 49 0
-930 50 0
-931 56 0
-931 57 0
-932 62 0
-932 63 0
-933 67 0
-933 68 0
-934 71 0
-934 72 0
-935 74 0
-935 75 0
-936 76 0
-936 77 0
-8 -29 -19 -937 0
-941 -27 -13 -2 0
-943 -29 -13 -2 0
-70 -943 -10 -21 0
-944 -30 -13 -2 0
-945 -31 -13 -2 0
-946 -71 -19 -8 0
-947 -33 -13 -2 0
-39 -9 -30 -948 0
-40 -31 -10 -948 0
-11 -32 -41 -948 0
-12 -949 -50 -33 0
-54 -9 -30 -950 0
-55 -31 -10 -950 0
-20 -954 -13 -1 0
-77 -12 -955 -33 0
-78 -12 -956 -33 0
-957 -23 -13 -1 0
-959 -43 -34 -4 0
-38 -959 -8 -53 0
-54 -39 -9 -959 0
-7 -960 -58 -37 0
-38 -961 -64 -8 0
-65 -39 -9 -961 0
-7 -37 -962 -64 0
-39 -69 -9 -962 0
-48 -964 -34 -4 0
-67 -7 -965 -37 0
-966 -50 -34 -4 0
-35 -967 -34 -3 0
-53 -8 -967 -46 0
-48 -55 -967 -10 0
-12 -967 -50 -57 0
-37 -969 -34 -3 0
-46 -969 -8 -64 0
-970 -47 -9 -69 0
-48 -970 -10 -70 0
-974 -42 -34 -3 0
-975 -27 -26 -2 0
-64 -976 -8 -53 0
-54 -65 -9 -976 0
-54 -69 -9 -977 0
-978 -74 -56 -11 0
-74 -54 -980 -9 0
-70 -61 -10 -983 0
-63 -983 -72 -12 0
-984 -69 -8 -59 0
-985 -73 -9 -60 0
-67 -989 -11 -74 0
-70 -990 -8 -64 0
-992 -72 -8 -64 0
-993 -73 -10 -70 0
-999 -33 -30 -2 0
-1000 -31 -32 -2 0
-67 -66 -1000 -7 0
-1001 -31 -33 -2 0
-1002 -33 -32 -2 0
-1004 -4 -2 -1 0
-20 -60 -1006 -30 0
-63 -23 -1006 -33 0
-20 -1007 -30 -65 0
-66 -31 -21 -1007 0
-68 -1007 -23 -33 0
-64 -1008 -28 -18 0
-71 -1008 -32 -22 0
-23 -1008 -33 -72 0
-77 -1010 -23 -33 0
-1013 -4 -3 -1 0
-1014 -18 -52 -37 0
-20 -54 -1014 -39 0
-61 -40 -1015 -21 0
-1016 -20 -39 -65 0
-66 -40 -1016 -21 0
-38 -69 -1018 -19 0
-1021 -37 -18 -68 0
-46 -1022 -19 -53 0
-1024 -64 -19 -46 0
-1024 -49 -67 -22 0
-1025 -45 -18 -64 0
-20 -1025 -47 -69 0
-48 -1025 -21 -70 0
-49 -1025 -71 -22 0
-1028 -71 -19 -46 0
-20 -1028 -74 -47 0
-1029 -72 -19 -46 0
-49 -78 -1029 -22 0
-1030 -27 -26 -13 0
-1031 -64 -19 -53 0
-20 -1031 -54 -65 0
-1032 -18 -52 -64 0
-20 -1032 -54 -69 0
-1033 -18 -52 -65 0
-1033 -53 -19 -69 0
-66 -1034 -52 -18 0
-70 -1034 -19 -53 0
-1035 -71 -19 -53 0
-1036 -33 -26 -13 0
-1036 -18 -52 -68 0
-1036 -72 -19 -53 0
-1037 -59 -19 -64 0
-1038 -18 -58 -64 0
-1039 -59 -19 -69 0
-1039 -73 -21 -61 0
-1041 -71 -19 -59 0
-1042 -72 -19 -59 0
-1042 -78 -62 -22 0
-69 -20 -1043 -65 0
-68 -1043 -72 -23 0
-1044 -69 -19 -64 0
-1044 -75 -68 -23 0
-67 -1045 -76 -22 0
-1046 -64 -71 -19 0
-20 -74 -1046 -65 0
-66 -1047 -21 -77 0
-1048 -75 -72 -23 0
-1049 -64 -18 -66 0
-1052 -65 -18 -66 0
-70 -1052 -69 -19 0
-1052 -76 -74 -22 0
-1052 -77 -75 -23 0
-1053 -71 -19 -69 0
-1054 -69 -72 -19 0
-66 -1055 -18 -67 0
-70 -1056 -19 -72 0
-1057 -72 -71 -19 0
-1058 -4 -3 -2 0
-38 -1059 -29 -53 0
-40 -55 -31 -1059 0
-42 -1059 -57 -33 0
-1060 -35 -51 -26 0
-1060 -28 -58 -37 0
-38 -59 -1060 -29 0
-1060 -60 -39 -30 0
-66 -1061 -31 -40 0
-67 -1061 -41 -32 0
-1061 -42 -33 -68 0
-39 -1062 -30 -69 0
-66 -1064 -28 -37 0
-1064 -76 -41 -32 0
-36 -1065 -62 -27 0
-74 -39 -30 -1065 0
-39 -1066 -30 -75 0
-78 -41 -32 -1066 0
-1067 -45 -28 -52 0
-1068 -47 -60 -30 0
-48 -61 -1068 -31 0
-1068 -49 -32 -62 0
-66 -48 -31 -1069 0
-1072 -47 -30 -73 0
-74 -47 -30 -1073 0
-78 -1073 -50 -33 0
-1074 -47 -30 -75 0
-1074 -49 -78 -32 0
-1076 -65 -54 -30 0
-74 -56 -1078 -32 0
-1080 -62 -51 -27 0
-63 -1081 -51 -27 0
-78 -56 -1081 -32 0
-59 -64 -29 -1082 0
-66 -61 -1082 -31 0
-1083 -60 -69 -30 0
-70 -61 -31 -1083 0
-55 -1085 -51 -26 0
-63 -77 -1085 -33 0
-1086 -56 -51 -26 0
-1087 -60 -75 -30 0
-1087 -61 -77 -31 0
-1087 -78 -62 -32 0
-1088 -65 -30 -69 0
-1089 -64 -29 -69 0
-1089 -73 -31 -66 0
-74 -67 -1089 -32 0
-73 -65 -30 -1090 0
-77 -68 -1090 -33 0
-56 -52 -1091 -26 0
-74 -65 -30 -1091 0
-65 -30 -1092 -75 0
-1093 -73 -31 -70 0
-1094 -73 -30 -69 0
-77 -1094 -72 -33 0
-1096 -75 -30 -69 0
-77 -1096 -31 -70 0
-1096 -78 -32 -71 0
-77 -1097 -33 -75 0
-77 -73 -31 -1099 0
-74 -78 -32 -1099 0
-74 -73 -30 -1100 0
-78 -77 -33 -1100 0
-75 -73 -30 -1101 0
-1102 -74 -30 -75 0
-77 -76 -31 -1102 0
-36 -44 -51 -1103 0
-37 -45 -52 -1103 0
-38 -53 -46 -1103 0
-54 -47 -39 -1103 0
-48 -40 -55 -1103 0
-49 -56 -41 -1103 0
-42 -50 -57 -1103 0
-37 -45 -58 -1104 0
-38 -59 -1104 -46 0
-48 -40 -1104 -61 0
-42 -1104 -50 -63 0
-7 -1105 -4 -3 0
-1105 -38 -46 -64 0
-1105 -47 -65 -39 0
-66 -40 -1105 -48 0
-67 -1105 -41 -49 0
-68 -1105 -50 -42 0
-1106 -8 -4 -3 0
-1106 -37 -45 -64 0
-1106 -47 -69 -39 0
-48 -40 -1106 -70 0
-49 -71 -41 -1106 0
-1106 -72 -50 -42 0
-1107 -9 -4 -3 0
-1107 -37 -45 -65 0
-38 -69 -1107 -46 0
-40 -73 -1107 -48 0
-74 -1107 -41 -49 0
-1107 -75 -42 -50 0
-1108 -10 -4 -3 0
-66 -1108 -45 -37 0
-1108 -38 -46 -70 0
-1108 -73 -39 -47 0
-1108 -76 -41 -49 0
-1108 -77 -42 -50 0
-1109 -11 -4 -3 0
-67 -1109 -45 -37 0
-38 -1109 -71 -46 0
-74 -39 -1109 -47 0
-40 -76 -1109 -48 0
-78 -42 -1109 -50 0
-12 -1110 -4 -3 0
-68 -1110 -45 -37 0
-38 -1110 -72 -46 0
-47 -75 -1110 -39 0
-40 -77 -1110 -48 0
-78 -49 -41 -1110 0
-1111 -44 -43 -34 0
-37 -52 -58 -1111 0
-38 -53 -59 -1111 0
-60 -54 -39 -1111 0
-61 -40 -55 -1111 0
-56 -1111 -41 -62 0
-42 -63 -57 -1111 0
-1112 -45 -43 -34 0
-1112 -36 -58 -51 0
-1112 -38 -64 -53 0
-1112 -65 -39 -54 0
-66 -55 -1112 -40 0
-67 -1112 -41 -56 0
-1112 -68 -57 -42 0
-1113 -46 -43 -34 0
-1113 -59 -36 -51 0
-1113 -64 -52 -37 0
-1113 -39 -69 -54 0
-1113 -55 -70 -40 0
-1113 -71 -41 -56 0
-1113 -42 -72 -57 0
-1114 -47 -43 -34 0
-36 -60 -1114 -51 0
-65 -1114 -52 -37 0
-1114 -38 -53 -69 0
-40 -1114 -73 -55 0
-74 -1114 -41 -56 0
-75 -1114 -57 -42 0
-1115 -48 -43 -34 0
-61 -36 -1115 -51 0
-66 -1115 -52 -37 0
-38 -1115 -53 -70 0
-1115 -73 -54 -39 0
-56 -1115 -41 -76 0
-77 -1115 -57 -42 0
-49 -1116 -43 -34 0
-36 -1116 -62 -51 0
-67 -1116 -52 -37 0
-38 -1116 -71 -53 0
-74 -39 -1116 -54 0
-40 -55 -1116 -76 0
-78 -1116 -57 -42 0
-1117 -50 -43 -34 0
-63 -1117 -36 -51 0
-1117 -68 -52 -37 0
-38 -1117 -72 -53 0
-1117 -54 -75 -39 0
-1117 -55 -77 -40 0
-78 -1117 -56 -41 0
-1118 -44 -45 -34 0
-1118 -35 -52 -51 0
-38 -1118 -59 -64 0
-1118 -60 -65 -39 0
-66 -61 -1118 -40 0
-67 -1118 -41 -62 0
-1118 -63 -68 -42 0
-1119 -46 -44 -34 0
-1119 -53 -35 -51 0
-1119 -37 -58 -64 0
-1119 -39 -69 -60 0
-1119 -40 -70 -61 0
-1119 -71 -41 -62 0
-1119 -42 -72 -63 0
-1120 -47 -44 -34 0
-1120 -54 -35 -51 0
-65 -1120 -58 -37 0
-38 -1120 -59 -69 0
-40 -1120 -73 -61 0
-74 -1120 -41 -62 0
-63 -1120 -75 -42 0
-1121 -48 -44 -34 0
-1121 -55 -35 -51 0
-66 -1121 -58 -37 0
-1121 -38 -59 -70 0
-1121 -73 -60 -39 0
-76 -1121 -62 -41 0
-77 -1121 -42 -63 0
-49 -1122 -44 -34 0
-1122 -56 -35 -51 0
-67 -1122 -58 -37 0
-1122 -38 -59 -71 0
-1122 -74 -60 -39 0
-40 -76 -1122 -61 0
-1122 -78 -42 -63 0
-1123 -44 -50 -34 0
-1123 -35 -57 -51 0
-1123 -68 -58 -37 0
-38 -1123 -59 -72 0
-1123 -60 -75 -39 0
-40 -77 -1123 -61 0
-1123 -78 -62 -41 0
-1124 -7 -8 -3 0
-1124 -46 -45 -34 0
-1124 -53 -52 -35 0
-1124 -59 -36 -58 0
-65 -69 -1124 -39 0
-66 -40 -1124 -70 0
-67 -1124 -41 -71 0
-42 -1124 -72 -68 0
-1125 -7 -9 -3 0
-1125 -47 -45 -34 0
-1125 -54 -35 -52 0
-1125 -60 -36 -58 0
-38 -69 -64 -1125 0
-40 -1125 -73 -66 0
-74 -67 -1125 -41 0
-75 -68 -1125 -42 0
-1126 -48 -45 -34 0
-1126 -55 -35 -52 0
-1126 -61 -36 -58 0
-70 -38 -64 -1126 0
-1126 -73 -65 -39 0
-76 -1126 -41 -67 0
-77 -68 -1126 -42 0
-49 -1127 -45 -34 0
-1127 -56 -52 -35 0
-1127 -36 -62 -58 0
-38 -64 -71 -1127 0
-1127 -74 -65 -39 0
-66 -76 -1127 -40 0
-1127 -78 -68 -42 0
-7 -12 -1128 -3 0
-1128 -45 -50 -34 0
-1128 -35 -57 -52 0
-63 -1128 -36 -58 0
-38 -64 -72 -1128 0
-39 -75 -1128 -65 0
-77 -40 -1128 -66 0
-78 -1128 -41 -67 0
-1129 -8 -9 -3 0
-1129 -47 -46 -34 0
-1129 -54 -53 -35 0
-1129 -60 -36 -59 0
-1129 -65 -64 -37 0
-70 -40 -73 -1129 0
-1129 -74 -41 -71 0
-1129 -75 -72 -42 0
-1130 -8 -10 -3 0
-1130 -48 -46 -34 0
-1130 -55 -35 -53 0
-1130 -61 -36 -59 0
-1130 -66 -37 -64 0
-1130 -73 -69 -39 0
-1130 -76 -71 -41 0
-1130 -77 -42 -72 0
-1131 -8 -11 -3 0
-1131 -49 -46 -34 0
-1131 -56 -35 -53 0
-1131 -36 -62 -59 0
-1131 -67 -37 -64 0
-1131 -39 -69 -74 0
-1131 -76 -70 -40 0
-1131 -78 -42 -72 0
-1132 -12 -8 -3 0
-1132 -46 -50 -34 0
-1132 -53 -57 -35 0
-1132 -63 -59 -36 0
-1132 -68 -37 -64 0
-1132 -39 -69 -75 0
-1132 -70 -77 -40 0
-1132 -71 -41 -78 0
-1133 -9 -10 -3 0
-48 -1133 -47 -34 0
-1133 -55 -35 -54 0
-1133 -61 -36 -60 0
-1133 -66 -37 -65 0
-70 -38 -1133 -69 0
-76 -74 -1133 -41 0
-77 -1133 -75 -42 0
-49 -47 -1134 -34 0
-1134 -56 -35 -54 0
-67 -65 -1134 -37 0
-38 -1134 -71 -69 0
-40 -76 -73 -1134 0
-1134 -78 -75 -42 0
-1135 -12 -9 -3 0
-47 -1135 -50 -34 0
-1135 -54 -57 -35 0
-1135 -63 -60 -36 0
-65 -1135 -37 -68 0
-38 -69 -72 -1135 0
-40 -77 -73 -1135 0
-78 -74 -1135 -41 0
-1136 -10 -11 -3 0
-49 -48 -1136 -34 0
-1136 -56 -35 -55 0
-36 -1136 -62 -61 0
-66 -67 -1136 -37 0
-70 -1136 -71 -38 0
-74 -73 -1136 -39 0
-77 -42 -1136 -78 0
-1137 -48 -50 -34 0
-63 -1137 -36 -61 0
-66 -1137 -37 -68 0
-38 -1137 -72 -70 0
-1137 -73 -75 -39 0
-76 -78 -1137 -41 0
-12 -1138 -11 -3 0
-49 -1138 -50 -34 0
-1138 -35 -57 -56 0
-63 -1138 -36 -62 0
-67 -68 -37 -1138 0
-38 -1138 -72 -71 0
-75 -74 -1138 -39 0
-40 -76 -1138 -77 0
-45 -1139 -58 -52 0
-59 -53 -1139 -46 0
-49 -56 -1139 -62 0
-63 -50 -1139 -57 0
-1140 -37 -35 -34 0
-1140 -44 -58 -51 0
-1140 -64 -46 -53 0
-1140 -47 -65 -54 0
-66 -48 -1140 -55 0
-67 -49 -1140 -56 0
-1140 -68 -57 -50 0
-38 -1141 -35 -34 0
-1141 -59 -44 -51 0
-1141 -64 -45 -52 0
-1141 -54 -69 -47 0
-70 -48 -1141 -55 0
-49 -1141 -71 -56 0
-1141 -72 -50 -57 0
-1142 -39 -35 -34 0
-1142 -60 -44 -51 0
-65 -1142 -52 -45 0
-69 -1142 -53 -46 0
-48 -55 -1142 -73 0
-74 -49 -1142 -56 0
-75 -1142 -57 -50 0
-1143 -40 -35 -34 0
-61 -1143 -44 -51 0
-66 -1143 -45 -52 0
-70 -1143 -53 -46 0
-1143 -73 -47 -54 0
-76 -49 -1143 -56 0
-1143 -77 -57 -50 0
-1144 -35 -41 -34 0
-1144 -44 -62 -51 0
-67 -1144 -45 -52 0
-1144 -53 -71 -46 0
-1144 -74 -47 -54 0
-1144 -48 -55 -76 0
-1144 -78 -57 -50 0
-1145 -42 -35 -34 0
-1145 -63 -44 -51 0
-68 -45 -1145 -52 0
-53 -72 -1145 -46 0
-54 -75 -1145 -47 0
-55 -77 -1145 -48 0
-49 -78 -1145 -56 0
-1146 -36 -37 -34 0
-1146 -43 -52 -51 0
-1146 -59 -64 -46 0
-1146 -47 -65 -60 0
-1146 -48 -66 -61 0
-1146 -67 -62 -49 0
-63 -68 -50 -1146 0
-1147 -38 -36 -34 0
-1147 -53 -43 -51 0
-1147 -45 -58 -64 0
-1147 -47 -60 -69 0
-61 -70 -1147 -48 0
-1147 -49 -71 -62 0
-1147 -63 -72 -50 0
-1148 -39 -36 -34 0
-1148 -54 -43 -51 0
-1148 -45 -58 -65 0
-69 -59 -46 -1148 0
-61 -1148 -73 -48 0
-74 -49 -1148 -62 0
-63 -75 -1148 -50 0
-1149 -40 -36 -34 0
-1149 -66 -45 -58 0
-1149 -59 -70 -46 0
-1149 -73 -47 -60 0
-76 -1149 -62 -49 0
-63 -77 -1149 -50 0
-1150 -56 -43 -51 0
-1150 -67 -45 -58 0
-1150 -59 -71 -46 0
-1150 -74 -47 -60 0
-61 -76 -1150 -48 0
-1150 -63 -78 -50 0
-1151 -42 -36 -34 0
-1151 -43 -57 -51 0
-1151 -45 -58 -68 0
-1151 -59 -72 -46 0
-1151 -60 -75 -47 0
-61 -77 -1151 -48 0
-1151 -78 -62 -49 0
-1152 -7 -8 -4 0
-1152 -38 -37 -34 0
-1152 -43 -52 -53 0
-1152 -59 -58 -44 0
-69 -47 -65 -1152 0
-66 -48 -1152 -70 0
-49 -1152 -71 -67 0
-1152 -72 -50 -68 0
-1153 -7 -9 -4 0
-1153 -39 -37 -34 0
-1153 -54 -52 -43 0
-1153 -60 -58 -44 0
-1153 -69 -46 -64 0
-1153 -48 -66 -73 0
-67 -1153 -74 -49 0
-1153 -68 -50 -75 0
-1154 -40 -37 -34 0
-1154 -55 -43 -52 0
-1154 -61 -44 -58 0
-1154 -70 -46 -64 0
-1154 -73 -47 -65 0
-1154 -76 -67 -49 0
-1154 -68 -50 -77 0
-1155 -37 -41 -34 0
-1155 -56 -43 -52 0
-1155 -44 -62 -58 0
-1155 -46 -71 -64 0
-1155 -74 -47 -65 0
-1155 -76 -66 -48 0
-1155 -78 -50 -68 0
-1156 -7 -12 -4 0
-1156 -42 -37 -34 0
-1156 -43 -57 -52 0
-1156 -63 -58 -44 0
-1156 -46 -72 -64 0
-1156 -47 -75 -65 0
-1156 -48 -66 -77 0
-1156 -67 -78 -49 0
-1157 -8 -9 -4 0
-1157 -38 -39 -34 0
-1157 -54 -43 -53 0
-1157 -60 -44 -59 0
-1157 -65 -45 -64 0
-1157 -48 -70 -73 0
-49 -74 -1157 -71 0
-1157 -72 -50 -75 0
-1158 -8 -10 -4 0
-1158 -40 -38 -34 0
-1158 -55 -43 -53 0
-1158 -61 -44 -59 0
-1158 -66 -45 -64 0
-1158 -73 -47 -69 0
-76 -49 -1158 -71 0
-1158 -72 -50 -77 0
-1159 -8 -11 -4 0
-38 -1159 -41 -34 0
-1159 -56 -43 -53 0
-1159 -44 -62 -59 0
-1159 -67 -45 -64 0
-1159 -74 -47 -69 0
-70 -76 -1159 -48 0
-1159 -72 -50 -78 0
-1160 -12 -8 -4 0
-38 -1160 -42 -34 0
-1160 -53 -43 -57 0
-1160 -63 -59 -44 0
-1160 -64 -45 -68 0
-1160 -47 -75 -69 0
-70 -48 -1160 -77 0
-1160 -49 -71 -78 0
-1161 -9 -10 -4 0
-1161 -40 -39 -34 0
-1161 -55 -43 -54 0
-1161 -61 -44 -60 0
-66 -65 -45 -1161 0
-46 -1161 -69 -70 0
-74 -49 -1161 -76 0
-77 -1161 -75 -50 0
-1162 -39 -41 -34 0
-1162 -56 -43 -54 0
-1162 -44 -62 -60 0
-67 -1162 -45 -65 0
-1162 -69 -46 -71 0
-1162 -76 -73 -48 0
-1162 -78 -50 -75 0
-1163 -12 -9 -4 0
-1163 -39 -42 -34 0
-1163 -54 -57 -43 0
-63 -1163 -60 -44 0
-65 -68 -45 -1163 0
-1163 -69 -46 -72 0
-1163 -73 -77 -48 0
-74 -49 -1163 -78 0
-40 -1164 -41 -34 0
-67 -1164 -45 -66 0
-1164 -46 -71 -70 0
-1164 -74 -47 -73 0
-1164 -78 -50 -77 0
-40 -1165 -42 -34 0
-1165 -61 -63 -44 0
-66 -1165 -68 -45 0
-1165 -70 -46 -72 0
-1165 -47 -75 -73 0
-76 -1165 -78 -49 0
-1166 -42 -41 -34 0
-1166 -63 -62 -44 0
-67 -1166 -68 -45 0
-1166 -46 -71 -72 0
-1166 -74 -47 -75 0
-77 -76 -1166 -48 0
-1167 -28 -27 -26 0
-59 -1167 -64 -53 0
-1167 -60 -54 -65 0
-66 -55 -1167 -61 0
-67 -1167 -62 -56 0
-63 -1167 -57 -68 0
-64 -52 -58 -1168 0
-54 -69 -1168 -60 0
-70 -55 -1168 -61 0
-56 -1168 -62 -71 0
-63 -72 -1168 -57 0
-1169 -30 -27 -26 0
-1169 -52 -58 -65 0
-1169 -69 -59 -53 0
-1169 -61 -55 -73 0
-1169 -74 -62 -56 0
-1169 -63 -75 -57 0
-1170 -31 -27 -26 0
-66 -52 -58 -1170 0
-70 -59 -1170 -53 0
-60 -54 -1170 -73 0
-76 -56 -1170 -62 0
-77 -1170 -57 -63 0
-1171 -32 -27 -26 0
-67 -52 -58 -1171 0
-59 -1171 -71 -53 0
-74 -60 -1171 -54 0
-61 -76 -1171 -55 0
-78 -63 -57 -1171 0
-1172 -33 -27 -26 0
-1172 -68 -58 -52 0
-59 -1172 -72 -53 0
-75 -54 -1172 -60 0
-61 -77 -1172 -55 0
-78 -1172 -62 -56 0
-1173 -38 -35 -37 0
-1173 -46 -45 -43 0
-1173 -59 -58 -51 0
-1173 -54 -69 -65 0
-66 -55 -1173 -70 0
-67 -56 -1173 -71 0
-68 -1173 -57 -72 0
-1174 -39 -35 -37 0
-1174 -47 -43 -45 0
-1174 -60 -58 -51 0
-69 -1174 -64 -53 0
-66 -55 -1174 -73 0
-74 -1174 -56 -67 0
-1174 -75 -57 -68 0
-1175 -40 -35 -37 0
-1175 -48 -45 -43 0
-1175 -61 -58 -51 0
-70 -1175 -64 -53 0
-1175 -73 -54 -65 0
-67 -1175 -56 -76 0
-77 -1175 -57 -68 0
-1176 -35 -41 -37 0
-49 -1176 -43 -45 0
-1176 -58 -62 -51 0
-1176 -53 -71 -64 0
-1176 -74 -54 -65 0
-66 -55 -1176 -76 0
-78 -1176 -57 -68 0
-1177 -42 -35 -37 0
-1177 -45 -50 -43 0
-63 -1177 -58 -51 0
-1177 -53 -72 -64 0
-54 -75 -1177 -65 0
-55 -77 -1177 -66 0
-1177 -67 -78 -56 0
-1178 -29 -30 -26 0
-1178 -38 -39 -35 0
-1178 -47 -43 -46 0
-1178 -60 -59 -51 0
-65 -1178 -52 -64 0
-55 -70 -1178 -73 0
-74 -1178 -71 -56 0
-75 -72 -57 -1178 0
-40 -1179 -35 -38 0
-1179 -48 -43 -46 0
-1179 -61 -59 -51 0
-66 -1179 -52 -64 0
-1179 -73 -54 -69 0
-76 -1179 -71 -56 0
-77 -1179 -57 -72 0
-1180 -29 -32 -26 0
-38 -35 -41 -1180 0
-49 -1180 -43 -46 0
-1180 -59 -62 -51 0
-1180 -67 -52 -64 0
-1180 -74 -69 -54 0
-76 -70 -1180 -55 0
-1180 -78 -57 -72 0
-1181 -29 -33 -26 0
-38 -1181 -42 -35 0
-1181 -46 -43 -50 0
-1181 -63 -59 -51 0
-1181 -68 -52 -64 0
-1181 -69 -75 -54 0
-1181 -55 -77 -70 0
-1181 -56 -71 -78 0
-1182 -31 -30 -26 0
-1182 -40 -35 -39 0
-1182 -48 -43 -47 0
-1182 -61 -60 -51 0
-66 -1182 -65 -52 0
-1182 -70 -53 -69 0
-1182 -76 -74 -56 0
-1182 -77 -57 -75 0
-1183 -32 -30 -26 0
-1183 -35 -41 -39 0
-1183 -49 -43 -47 0
-1183 -60 -62 -51 0
-67 -1183 -52 -65 0
-1183 -53 -71 -69 0
-1183 -76 -73 -55 0
-78 -1183 -57 -75 0
-1184 -33 -30 -26 0
-1184 -42 -35 -39 0
-1184 -63 -60 -51 0
-1184 -65 -52 -68 0
-1184 -53 -72 -69 0
-1184 -77 -73 -55 0
-1184 -74 -56 -78 0
-1185 -31 -32 -26 0
-1185 -35 -41 -40 0
-1185 -49 -43 -48 0
-61 -1185 -62 -51 0
-67 -66 -1185 -52 0
-70 -1185 -71 -53 0
-54 -73 -1185 -74 0
-77 -1185 -57 -78 0
-1186 -31 -33 -26 0
-1186 -40 -42 -35 0
-1186 -48 -50 -43 0
-1186 -61 -63 -51 0
-66 -1186 -68 -52 0
-1186 -70 -72 -53 0
-1186 -54 -73 -75 0
-1186 -76 -78 -56 0
-1187 -33 -32 -26 0
-49 -1187 -50 -43 0
-63 -1187 -62 -51 0
-67 -1187 -52 -68 0
-1187 -53 -71 -72 0
-74 -54 -1187 -75 0
-77 -76 -1187 -55 0
-1188 -38 -36 -37 0
-1188 -44 -45 -46 0
-1188 -53 -52 -51 0
-1188 -60 -69 -65 0
-66 -61 -70 -1188 0
-67 -1188 -62 -71 0
-63 -68 -1188 -72 0
-1189 -39 -36 -37 0
-1189 -44 -45 -47 0
-1189 -54 -52 -51 0
-1189 -59 -69 -64 0
-66 -61 -73 -1189 0
-74 -1189 -62 -67 0
-63 -68 -1189 -75 0
-1190 -40 -36 -37 0
-1190 -48 -44 -45 0
-1190 -55 -52 -51 0
-1190 -59 -70 -64 0
-1190 -73 -60 -65 0
-76 -1190 -62 -67 0
-63 -68 -1190 -77 0
-1191 -36 -41 -37 0
-49 -44 -45 -1191 0
-1191 -56 -52 -51 0
-1191 -59 -71 -64 0
-1191 -74 -60 -65 0
-1191 -61 -76 -66 0
-1191 -63 -68 -78 0
-1192 -42 -37 -36 0
-44 -45 -50 -1192 0
-1192 -52 -57 -51 0
-59 -1192 -64 -72 0
-1192 -60 -75 -65 0
-1192 -61 -77 -66 0
-78 -1192 -62 -67 0
-1193 -39 -36 -38 0
-1193 -47 -46 -44 0
-1193 -54 -53 -51 0
-1193 -65 -58 -64 0
-1193 -61 -70 -73 0
-1193 -74 -62 -71 0
-1193 -63 -72 -75 0
-1194 -40 -36 -38 0
-1194 -48 -44 -46 0
-1194 -55 -53 -51 0
-66 -1194 -58 -64 0
-1194 -73 -69 -60 0
-1194 -76 -62 -71 0
-1194 -63 -72 -77 0
-1195 -36 -41 -38 0
-1195 -49 -44 -46 0
-1195 -56 -53 -51 0
-67 -1195 -58 -64 0
-1195 -74 -69 -60 0
-70 -76 -1195 -61 0
-1195 -78 -72 -63 0
-36 -38 -1196 -42 0
-1196 -44 -50 -46 0
-1196 -53 -57 -51 0
-1196 -68 -58 -64 0
-1196 -69 -75 -60 0
-1196 -70 -77 -61 0
-1196 -78 -62 -71 0
-1197 -31 -30 -27 0
-1197 -40 -36 -39 0
-1197 -48 -47 -44 0
-1197 -55 -54 -51 0
-1197 -66 -58 -65 0
-1197 -69 -59 -70 0
-1197 -76 -62 -74 0
-1197 -77 -75 -63 0
-1198 -32 -30 -27 0
-1198 -36 -41 -39 0
-1198 -49 -47 -44 0
-1198 -54 -56 -51 0
-67 -1198 -65 -58 0
-1198 -69 -59 -71 0
-1198 -76 -73 -61 0
-78 -1198 -75 -63 0
-1199 -33 -30 -27 0
-1199 -47 -50 -44 0
-1199 -54 -57 -51 0
-1199 -68 -58 -65 0
-1199 -69 -72 -59 0
-1199 -61 -77 -73 0
-1199 -78 -62 -74 0
-1200 -31 -32 -27 0
-1200 -48 -49 -44 0
-1200 -55 -56 -51 0
-67 -1200 -66 -58 0
-1200 -59 -71 -70 0
-1200 -60 -73 -74 0
-1200 -78 -63 -77 0
-1201 -31 -33 -27 0
-1201 -40 -42 -36 0
-1201 -55 -57 -51 0
-66 -1201 -68 -58 0
-1201 -70 -72 -59 0
-1201 -60 -73 -75 0
-1201 -76 -62 -78 0
-1202 -33 -32 -27 0
-1202 -49 -50 -44 0
-1202 -56 -57 -51 0
-67 -1202 -68 -58 0
-1202 -72 -71 -59 0
-1202 -74 -60 -75 0
-1202 -61 -76 -77 0
-1203 -7 -9 -8 0
-1203 -20 -18 -19 0
-1203 -38 -37 -39 0
-47 -46 -45 -1203 0
-1203 -54 -52 -53 0
-1203 -60 -58 -59 0
-1203 -73 -70 -66 0
-74 -1203 -71 -67 0
-75 -1203 -72 -68 0
-1204 -19 -21 -18 0
-1204 -40 -37 -38 0
-1204 -48 -45 -46 0
-1204 -55 -52 -53 0
-1204 -61 -58 -59 0
-1204 -73 -69 -65 0
-67 -76 -71 -1204 0
-68 -1204 -72 -77 0
-1205 -18 -22 -19 0
-1205 -37 -41 -38 0
-1205 -49 -45 -46 0
-1205 -56 -52 -53 0
-1205 -59 -62 -58 0
-1205 -74 -69 -65 0
-66 -76 -1205 -70 0
-1205 -68 -72 -78 0
-1206 -7 -12 -8 0
-1206 -23 -18 -19 0
-1206 -38 -42 -37 0
-1206 -45 -50 -46 0
-1206 -53 -57 -52 0
-1206 -63 -59 -58 0
-1206 -69 -75 -65 0
-1206 -66 -77 -70 0
-1206 -67 -78 -71 0
-1207 -20 -18 -21 0
-1207 -40 -37 -39 0
-1207 -48 -45 -47 0
-1207 -55 -52 -54 0
-1207 -61 -58 -60 0
-1207 -70 -64 -69 0
-1207 -76 -67 -74 0
-1207 -77 -68 -75 0
-1208 -20 -22 -18 0
-39 -1208 -41 -37 0
-49 -1208 -45 -47 0
-1208 -56 -52 -54 0
-1208 -60 -62 -58 0
-69 -1208 -71 -64 0
-76 -73 -1208 -66 0
-1208 -78 -75 -68 0
-1209 -7 -12 -9 0
-1209 -20 -23 -18 0
-1209 -39 -37 -42 0
-47 -1209 -45 -50 0
-1209 -54 -57 -52 0
-1209 -63 -60 -58 0
-69 -1209 -72 -64 0
-1209 -73 -77 -66 0
-67 -78 -1209 -74 0
-1210 -18 -21 -22 0
-40 -37 -41 -1210 0
-1210 -48 -45 -49 0
-1210 -56 -52 -55 0
-1210 -61 -62 -58 0
-1210 -64 -71 -70 0
-74 -73 -1210 -65 0
-1210 -78 -68 -77 0
-1211 -18 -21 -23 0
-40 -1211 -37 -42 0
-1211 -48 -50 -45 0
-1211 -55 -57 -52 0
-1211 -61 -63 -58 0
-70 -1211 -72 -64 0
-1211 -73 -75 -65 0
-76 -78 -1211 -67 0
-1212 -23 -18 -22 0
-1212 -37 -41 -42 0
-1212 -45 -50 -49 0
-1212 -56 -52 -57 0
-1212 -63 -62 -58 0
-1212 -72 -71 -64 0
-1212 -74 -75 -65 0
-77 -76 -66 -1212 0
-1213 -8 -10 -9 0
-1213 -19 -21 -20 0
-1213 -38 -39 -40 0
-48 -46 -47 -1213 0
-1213 -55 -53 -54 0
-1213 -61 -59 -60 0
-1213 -66 -65 -64 0
-1213 -76 -71 -74 0
-1213 -75 -72 -77 0
-1214 -20 -19 -22 0
-1214 -38 -39 -41 0
-49 -47 -1214 -46 0
-1214 -59 -62 -60 0
-67 -65 -64 -1214 0
-76 -70 -1214 -73 0
-75 -1214 -72 -78 0
-12 -1215 -9 -8 0
-1215 -20 -23 -19 0
-1215 -38 -39 -42 0
-1215 -46 -50 -47 0
-1215 -54 -57 -53 0
-1215 -63 -59 -60 0
-65 -1215 -64 -68 0
-1215 -73 -77 -70 0
-74 -1215 -71 -78 0
-1216 -19 -21 -22 0
-38 -1216 -41 -40 0
-1216 -56 -53 -55 0
-1216 -61 -62 -59 0
-1216 -66 -67 -64 0
-74 -69 -1216 -73 0
-77 -1216 -72 -78 0
-1217 -19 -21 -23 0
-40 -1217 -42 -38 0
-1217 -48 -50 -46 0
-1217 -55 -57 -53 0
-1217 -63 -59 -61 0
-1217 -66 -68 -64 0
-69 -75 -1217 -73 0
-76 -1217 -71 -78 0
-1218 -23 -19 -22 0
-38 -1218 -42 -41 0
-1218 -49 -50 -46 0
-1218 -56 -57 -53 0
-1218 -63 -59 -62 0
-1218 -67 -68 -64 0
-1218 -69 -75 -74 0
-1218 -76 -70 -77 0
-20 -1219 -22 -21 0
-1219 -32 -30 -31 0
-1219 -49 -47 -48 0
-55 -1219 -56 -54 0
-66 -1219 -67 -65 0
-1219 -69 -71 -70 0
-77 -1219 -75 -78 0
-1220 -20 -21 -23 0
-1220 -33 -30 -31 0
-1220 -39 -42 -40 0
-1220 -47 -50 -48 0
-55 -1220 -57 -54 0
-66 -1220 -65 -68 0
-1220 -70 -72 -69 0
-76 -1220 -74 -78 0
-20 -1221 -22 -23 0
-1221 -33 -30 -32 0
-1221 -42 -41 -39 0
-1221 -49 -50 -47 0
-67 -1221 -68 -65 0
-1221 -72 -71 -69 0
-1221 -76 -73 -77 0
-1222 -21 -22 -23 0
-1222 -31 -33 -32 0
-1222 -40 -42 -41 0
-66 -1222 -68 -67 0
-1222 -72 -71 -70 0
-1222 -75 -73 -74 0
-1235 -7 0
-1235 1007 0
-1236 952 0
-1237 942 0
1235 1236 1237 -937 0
-1240 -29 0
-1247 -11 0
1011 -1247 0
-1248 956 0
-1249 946 0
1248 1249 1247 -937 0
-1250 1012 0
-1251 957 0
-1252 947 0
1250 1252 1251 -937 0
-1256 -4 0
958 -1257 0
-1258 -34 0
1257 1256 -938 1258 0
1014 -1259 0
-1260 959 0
-1261 940 0
1259 1260 -938 1261 0
1015 -1262 0
-1263 960 0
-1264 941 0
1262 1263 -938 1264 0
-1265 1016 0
-1266 -18 0
-1266 961 0
-1267 -37 0
-1267 942 0
1265 1266 1267 -938 0
-1268 -8 0
-1268 1017 0
-1269 -19 0
-1269 962 0
-38 -1270 0
943 -1270 0
1270 1268 1269 -938 0
-1271 -9 0
-1271 1018 0
-1272 -20 0
963 -1272 0
-1273 -39 0
-1273 944 0
1272 1273 1271 -938 0
-1274 -10 0
-1274 1019 0
-1275 -21 0
964 -1275 0
-40 -1276 0
945 -1276 0
1276 1274 1275 -938 0
-1277 1020 0
-1278 -22 0
965 -1278 0
-1279 -41 0
-1279 946 0
1278 1279 1277 -938 0
1021 -1280 0
-1281 -23 0
-1281 966 0
-1282 -42 0
-1282 947 0
1280 1282 1281 -938 0
-1289 1022 0
-1290 967 0
-1291 940 0
1289 1290 -939 1291 0
-1292 1023 0
-1293 968 0
-1294 941 0
1293 1292 -939 1294 0
-1295 1024 0
-1296 -18 0
-1296 969 0
-1297 -45 0
-1297 942 0
1295 -939 1297 1296 0
-1298 1025 0
-1299 -19 0
-1299 970 0
-1300 -46 0
-1300 943 0
1300 -939 1299 1298 0
-1301 1026 0
-1302 -20 0
971 -1302 0
-1303 -47 0
-1303 944 0
1302 1303 -939 1301 0
-1304 1027 0
-1305 -21 0
972 -1305 0
-1306 -48 0
-1306 945 0
1306 -939 1305 1304 0
-1307 1028 0
-1308 -22 0
-1308 973 0
-1309 -49 0
-1309 946 0
1308 -939 1307 1309 0
-1310 1029 0
-1311 -23 0
-1311 974 0
-1312 -50 0
-1312 947 0
1310 1311 1312 -939 0
-1376 -3 0
-1377 961 0
-1378 -37 0
1378 1377 -942 1376 0
-1379 -4 0
-1380 969 0
-1381 -45 0
939 -1381 0
1380 1381 -942 1379 0
-1382 1031 0
-1383 976 0
-1384 940 0
1382 -942 1383 1384 0
-1385 1037 0
-1386 982 0
-1387 941 0
-942 1385 1386 1387 0
-1388 -8 0
1043 -1388 0
-1389 -19 0
-1389 988 0
-1390 -64 0
-1390 943 0
1390 -942 1389 1388 0
-1391 -9 0
-1391 1044 0
-1392 -20 0
989 -1392 0
-1393 -65 0
-1393 944 0
1392 -942 1393 1391 0
-1394 -10 0
-1394 1045 0
-1395 -21 0
990 -1395 0
-1396 -66 0
-1396 945 0
1396 -942 1395 1394 0
-1397 -11 0
-1397 1046 0
-1398 -22 0
991 -1398 0
-1399 -67 0
-1399 946 0
1398 -942 1399 1397 0
-1400 -12 0
-1400 1047 0
-1401 -23 0
-1401 992 0
-1402 -68 0
-1402 947 0
1400 1402 -942 1401 0
-1406 -3 0
-1407 962 0
-1408 -38 0
1408 1407 -943 1406 0
-1409 -4 0
970 -1410 0
-1411 -46 0
939 -1411 0
1410 1411 -943 1409 0
-1412 1032 0
-1413 977 0
-1414 940 0
1412 1413 -943 1414 0
-1415 1038 0
983 -1416 0
-1417 941 0
1416 1415 -943 1417 0
-1418 -7 0
-1418 1043 0
-1419 988 0
-1420 -64 0
-1420 942 0
1418 1419 -943 1420 0
-1421 -9 0
-1421 1048 0
-1422 -20 0
993 -1422 0
-1423 -69 0
-1423 944 0
1422 1423 1421 -943 0
-1424 -10 0
-1424 1049 0
-1425 -21 0
994 -1425 0
-1426 -70 0
-1426 945 0
1426 -943 1425 1424 0
-1427 -11 0
-1427 1050 0
-1428 -22 0
995 -1428 0
-1429 -71 0
-1429 946 0
1428 -943 1427 1429 0
-1430 -12 0
-1430 1051 0
-1431 -23 0
996 -1431 0
-1432 -72 0
-1432 947 0
1430 1432 -943 1431 0
-1433 -2 0
-1434 -13 0
-1435 -30 0
-944 1435 1434 1433 0
-1436 -3 0
-1437 963 0
-1438 -39 0
-944 1437 1438 1436 0
-1439 -4 0
-1440 971 0
-1441 -47 0
939 -1441 0
-944 1440 1441 1439 0
-1442 1033 0
-1443 978 0
-1444 940 0
1443 -944 1442 1444 0
-1445 1039 0
-1446 984 0
-1447 941 0
-944 1446 1445 1447 0
-1448 -7 0
-1448 1044 0
-1449 989 0
-1450 -65 0
-1450 942 0
-944 1448 1449 1450 0
-1451 -8 0
-1451 1048 0
-1452 993 0
-1453 -69 0
-1453 943 0
-944 1453 1452 1451 0
-1454 -10 0
-1454 1052 0
-1455 -21 0
-1455 997 0
-1456 -73 0
-1456 945 0
-944 1456 1455 1454 0
-1457 -11 0
-1457 1053 0
-1458 -22 0
-1458 998 0
-1459 -74 0
-1459 946 0
-944 1458 1459 1457 0
-1460 -12 0
-1460 1054 0
-1461 -23 0
-1461 999 0
-1462 -75 0
-1462 947 0
-944 1460 1462 1461 0
-1463 -2 0
-1464 -13 0
-1465 -31 0
1465 -945 1464 1463 0
-1466 -3 0
964 -1467 0
-1468 -40 0
1467 1468 -945 1466 0
-1469 -4 0
-1470 972 0
-1471 -48 0
939 -1471 0
1470 1471 -945 1469 0
-1472 1034 0
-1473 979 0
-1474 940 0
1473 1472 -945 1474 0
-1475 1040 0
-1476 985 0
-1477 941 0
1475 1476 -945 1477 0
-1478 -7 0
-1478 1045 0
-1479 990 0
-1480 -66 0
-1480 942 0
1478 1479 -945 1480 0
-1481 -8 0
-1481 1049 0
-1482 994 0
-1483 -70 0
-1483 943 0
1483 1481 -945 1482 0
-1484 -9 0
-1484 1052 0
-1485 997 0
-1486 -73 0
-1486 944 0
1485 1486 -945 1484 0
-1487 -11 0
-1487 1055 0
-1488 -22 0
-1488 1000 0
-1489 -76 0
-1489 946 0
1488 -945 1487 1489 0
-1490 -12 0
-1490 1056 0
-1491 -23 0
-1491 1001 0
-1492 -77 0
-1492 947 0
1490 1492 -945 1491 0
-1496 -3 0
-1497 965 0
-1498 -41 0
1497 -946 1498 1496 0
-1499 -4 0
-1500 973 0
-1501 -49 0
939 -1501 0
1501 -946 1500 1499 0
-1502 1035 0
-1503 980 0
-1504 940 0
1502 -946 1503 1504 0
-1505 1041 0
-1506 986 0
-1507 941 0
-946 1506 1505 1507 0
-1508 -7 0
-1508 1046 0
-1509 991 0
-1510 -67 0
-1510 942 0
-946 1508 1509 1510 0
-1511 -8 0
-1511 1050 0
-1512 995 0
-1513 -71 0
-1513 943 0
-946 1513 1512 1511 0
-1514 -9 0
-1514 1053 0
-1515 998 0
-1516 -74 0
-1516 944 0
1515 -946 1514 1516 0
-1517 -10 0
-1517 1055 0
-1518 -21 0
-1518 1000 0
-1519 -76 0
-1519 945 0
-946 1519 1518 1517 0
-1520 -12 0
-1520 1057 0
-1521 -23 0
-1521 1002 0
-1522 -78 0
-1522 947 0
1520 -946 1521 1522 0
-1526 -3 0
-1527 966 0
-1528 -42 0
-947 1528 1527 1526 0
-1529 -4 0
-1530 974 0
-1531 -50 0
939 -1531 0
-947 1530 1531 1529 0
-1532 1036 0
-1533 981 0
-1534 940 0
-947 1532 1533 1534 0
-1535 1042 0
-1536 987 0
-1537 941 0
1536 -947 1535 1537 0
-1538 -7 0
-1538 1047 0
-1539 992 0
-1540 -68 0
-1540 942 0
1538 -947 1539 1540 0
-1541 -8 0
-1541 1051 0
-1542 -19 0
-1542 996 0
-1543 -72 0
-1543 943 0
-947 1543 1542 1541 0
-1544 -9 0
-1544 1054 0
-1545 999 0
-1546 -75 0
-1546 944 0
1545 -947 1544 1546 0
-1547 -10 0
-1547 1056 0
-1548 -21 0
-1548 1001 0
-1549 945 0
-947 1549 1548 1547 0
-1550 1057 0
-1551 -22 0
-1551 1002 0
-1552 -78 0
-1552 946 0
-947 1551 1552 1550 0
-1559 1059 0
-1560 -26 0
-35 -1561 0
1561 1559 -948 1560 0
-1562 1060 0
-1563 -27 0
-36 -1564 0
951 -1564 0
1564 1562 -948 1563 0
-1565 1061 0
-1566 -28 0
-1566 961 0
-1567 -37 0
-1567 952 0
1565 1567 1566 -948 0
-1568 1062 0
-1569 -29 0
962 -1569 0
-1570 -38 0
-1570 953 0
1569 1568 1570 -948 0
-1571 -9 0
1063 -1571 0
-1572 -30 0
-1572 963 0
-39 -1573 0
954 -1573 0
1573 1572 1571 -948 0
-1574 1064 0
-1575 -31 0
964 -1575 0
-40 -1576 0
-1576 955 0
1575 1574 1576 -948 0
-1577 1065 0
-1578 -32 0
965 -1578 0
-1579 -41 0
-1579 956 0
1578 1579 1577 -948 0
1066 -1580 0
-1581 -33 0
-1581 966 0
-1582 -42 0
-1582 957 0
1580 1582 1581 -948 0
-1589 1067 0
-1590 -26 0
-1591 -43 0
-949 1591 1589 1590 0
-1592 1068 0
-1593 -27 0
-1594 -44 0
951 -1594 0
1594 -949 1592 1593 0
-1595 -7 0
-1595 1069 0
-1596 969 0
-1597 -45 0
-1597 952 0
1595 1597 1596 -949 0
-1598 1070 0
-1599 -29 0
970 -1599 0
-1600 -46 0
-1600 953 0
1599 -949 1598 1600 0
-1601 1071 0
-1602 -30 0
-1602 971 0
-47 -1603 0
-1603 954 0
1603 1602 1601 -949 0
-1604 1072 0
-1605 -31 0
-1605 972 0
-48 -1606 0
-1606 955 0
-949 1605 1606 1604 0
-1607 1073 0
-1608 -32 0
-1608 973 0
-49 -1609 0
-1609 956 0
1609 -949 1607 1608 0
-1610 1074 0
-1611 -33 0
-1611 974 0
-1612 -50 0
-1612 957 0
1611 -949 1610 1612 0
-1616 -3 0
-1617 959 0
-1618 -35 0
1618 1617 -950 1616 0
-1619 -4 0
967 -1620 0
-1621 -43 0
949 -1621 0
1620 1621 -950 1619 0
1075 -1622 0
-1623 -27 0
-1624 -51 0
1622 1624 1623 -950 0
-1625 -7 0
-1625 1076 0
-1626 976 0
-1627 -52 0
-1627 952 0
1625 1626 1627 -950 0
-1628 -8 0
-1628 1077 0
977 -1629 0
-1630 -53 0
-1630 953 0
1629 1628 1630 -950 0
-1631 -9 0
-1631 1078 0
-1632 978 0
-54 -1633 0
-1633 954 0
1633 1632 1631 -950 0
-1634 -10 0
-1634 1079 0
-1635 -31 0
979 -1635 0
-55 -1636 0
-1636 955 0
1635 1634 1636 -950 0
-1637 -11 0
-1637 1080 0
-1638 -32 0
980 -1638 0
-56 -1639 0
-1639 956 0
1639 1638 1637 -950 0
-1640 -12 0
1081 -1640 0
-1641 -33 0
-1641 981 0
-1642 -57 0
-1642 957 0
1640 1641 1642 -950 0
-1646 -3 0
-1647 960 0
-1648 -36 0
1648 1647 -951 1646 0
-1649 -4 0
-1650 968 0
-1651 -44 0
949 -1651 0
1650 1651 -951 1649 0
-1655 -7 0
-1655 1082 0
-1656 982 0
-1657 -58 0
-1657 952 0
1655 1656 1657 -951 0
-1658 -8 0
-1658 1083 0
-1659 983 0
-1660 -59 0
-1660 953 0
1659 -951 1660 1658 0
-1661 -9 0
-1661 1084 0
-1662 984 0
-60 -1663 0
-1663 954 0
1663 -951 1662 1661 0
-1664 -10 0
-1664 1085 0
-1665 985 0
-61 -1666 0
-1666 955 0
1665 -951 1666 1664 0
-1667 1086 0
-1668 986 0
-1669 -62 0
-1669 956 0
-951 1669 1667 1668 0
-1670 -12 0
-1670 1087 0
-1671 987 0
-1672 -63 0
-1672 957 0
1671 -951 1670 1672 0
-1673 -1 0
-1674 -13 0
-1675 -18 0
-952 1675 1674 1673 0
-1676 -3 0
-1677 961 0
-1678 -37 0
1677 1678 -952 1676 0
-1679 -4 0
-1680 969 0
-1681 -45 0
-1681 949 0
1680 -952 1681 1679 0
-1682 1076 0
-1683 -26 0
-1684 -52 0
-952 1682 1684 1683 0
-1685 1082 0
-1686 -27 0
-1687 -58 0
-1687 951 0
1685 -952 1687 1686 0
-1688 -8 0
-1688 1088 0
-1689 988 0
-1690 -64 0
-1690 953 0
1689 -952 1688 1690 0
-1691 -9 0
-1691 1089 0
-1692 -30 0
-1692 989 0
-65 -1693 0
-1693 954 0
1693 -952 1691 1692 0
-1694 -10 0
-1694 1090 0
-1695 -31 0
-1695 990 0
-66 -1696 0
-1696 955 0
-952 1695 1696 1694 0
-1697 -11 0
-1697 1091 0
-1698 -32 0
-1698 991 0
-67 -1699 0
-1699 956 0
-952 1699 1698 1697 0
-1700 -12 0
-1700 1092 0
-1701 -33 0
-1701 992 0
-1702 -68 0
-1702 957 0
1700 -952 1701 1702 0
-1703 -1 0
-1704 -13 0
-1705 -19 0
-953 1705 1704 1703 0
-1706 -3 0
-1707 962 0
-1708 -38 0
1708 -953 1707 1706 0
-1709 -4 0
970 -1710 0
-1711 -46 0
-1711 949 0
1710 -953 1711 1709 0
-1712 1077 0
-1713 -26 0
-1714 -53 0
-953 1712 1714 1713 0
-1715 1083 0
-1716 -27 0
-1717 -59 0
-1717 951 0
-953 1717 1715 1716 0
-1718 1088 0
-1719 988 0
-1720 -64 0
-1720 952 0
1719 -953 1720 1718 0
-1721 -9 0
-1721 1093 0
-1722 -30 0
-1722 993 0
-1723 -69 0
-1723 954 0
-953 1723 1721 1722 0
-1724 -10 0
-1724 1094 0
-1725 -31 0
-1725 994 0
-1726 -70 0
-1726 955 0
-953 1725 1726 1724 0
-1727 -11 0
-1727 1095 0
-1728 -32 0
-1728 995 0
-1729 -71 0
-1729 956 0
-953 1729 1728 1727 0
-1730 -12 0
-1730 1096 0
-1731 -33 0
-1731 996 0
-1732 -72 0
-1732 957 0
-953 1730 1731 1732 0
-1736 -3 0
-1737 963 0
-1738 -39 0
1737 1738 -954 1736 0
-1739 -4 0
-1740 971 0
-1741 -47 0
949 -1741 0
1741 1740 -954 1739 0
-1742 1078 0
-1743 -26 0
-1744 -54 0
1742 1744 -954 1743 0
-1745 1084 0
-1746 -27 0
-1747 -60 0
-1747 951 0
1747 1745 -954 1746 0
-1748 1089 0
-1749 989 0
-1750 -65 0
-1750 952 0
1748 -954 1749 1750 0
-1751 1093 0
-1752 993 0
-1753 -69 0
-1753 953 0
1752 -954 1753 1751 0
-1754 -10 0
-1754 1097 0
-1755 997 0
-1756 -73 0
-1756 955 0
-954 1755 1756 1754 0
-1757 -11 0
1098 -1757 0
-1758 -32 0
-1758 998 0
-74 -1759 0
-1759 956 0
-954 1759 1758 1757 0
-1760 -12 0
1099 -1760 0
-1761 -33 0
-1761 999 0
-75 -1762 0
-1762 957 0
1760 -954 1762 1761 0
-1763 -1 0
-1764 -13 0
-1765 -21 0
-955 1765 1764 1763 0
-1766 -3 0
-1767 964 0
-1768 -40 0
1767 1768 -955 1766 0
-1769 -4 0
-1770 972 0
-1771 -48 0
949 -1771 0
1770 1771 -955 1769 0
-1772 1079 0
-1773 -26 0
-1774 -55 0
1774 -955 1772 1773 0
-1775 1085 0
-1776 -27 0
-1777 -61 0
-1777 951 0
1777 -955 1775 1776 0
-1778 1090 0
-1779 990 0
-1780 952 0
-955 1778 1779 1780 0
-1781 1094 0
-1782 994 0
-1783 -70 0
-1783 953 0
1782 -955 1781 1783 0
-1784 1097 0
-1785 997 0
-1786 -73 0
-1786 954 0
1786 1785 1784 -955 0
-1787 -11 0
-1787 1100 0
-1788 1000 0
-1789 -76 0
-1789 956 0
1789 1788 1787 -955 0
-1790 -12 0
-1790 1101 0
-1791 -33 0
-1791 1001 0
-1792 -77 0
-1792 957 0
1791 -955 1790 1792 0
-1793 -1 0
-1794 -13 0
-1795 -22 0
-956 1795 1794 1793 0
-1796 -3 0
-1797 965 0
-1798 -41 0
-956 1798 1797 1796 0
-1799 -4 0
-1800 973 0
-1801 -49 0
-1801 949 0
1801 -956 1800 1799 0
-1802 1080 0
-1803 -26 0
-1804 -56 0
1802 1804 -956 1803 0
-1805 1086 0
-1806 -27 0
-1807 -62 0
-1807 951 0
1805 -956 1807 1806 0
-1808 -7 0
-1808 1091 0
-1809 991 0
-1810 -67 0
-1810 952 0
-956 1810 1809 1808 0
-1811 1095 0
-1812 995 0
-1813 -71 0
-1813 953 0
1812 -956 1811 1813 0
-1814 1098 0
-1815 998 0
-1816 954 0
1816 -956 1815 1814 0
-1817 -10 0
-1817 1100 0
-1818 1000 0
-76 -1819 0
-1819 955 0
-956 1818 1819 1817 0
-1820 -12 0
-1820 1102 0
-1821 -33 0
-1822 -78 0
-1822 957 0
1820 -956 1822 1821 0
-1823 -1 0
-1824 -13 0
-1825 -23 0
1825 -957 1824 1823 0
-1826 -3 0
-1827 966 0
-1828 -42 0
-957 1828 1827 1826 0
-1829 -4 0
-1830 974 0
-1831 -50 0
949 -1831 0
-957 1830 1831 1829 0
-1832 1081 0
-1833 -26 0
-1834 -57 0
-957 1832 1834 1833 0
-1835 1087 0
-1836 -27 0
-1837 -63 0
-1837 951 0
1837 -957 1835 1836 0
-1838 -7 0
-1838 1092 0
-1839 992 0
-1840 -68 0
-1840 952 0
-957 1838 1840 1839 0
-1841 -8 0
-1841 1096 0
-1842 996 0
-1843 -72 0
-1843 953 0
1842 -957 1841 1843 0
-1844 -9 0
-1844 1099 0
-1845 999 0
-1846 -75 0
-1846 954 0
1846 -957 1844 1845 0
-1847 1101 0
-1848 1001 0
-1849 -77 0
-1849 955 0
-957 1848 1849 1847 0
-1850 1102 0
-1851 1002 0
-1852 -78 0
-1852 956 0
-957 1852 1851 1850 0
-1868 -8 0
-1868 1106 0
-1869 970 0
-1870 962 0
1869 1870 1868 -958 0
-1871 1107 0
-1872 971 0
-1873 963 0
1873 1872 1871 -958 0
-1877 1109 0
-1878 973 0
-1879 965 0
1879 1878 1877 -958 0
1110 -1880 0
-1881 974 0
-1882 966 0
1880 1881 1882 -958 0
-1889 -4 0
-1890 -34 0
-1891 -43 0
1891 -959 1890 1889 0
-7 -1895 0
-1895 1112 0
-1896 -37 0
-1896 976 0
-1897 -52 0
-1897 961 0
1895 -959 1897 1896 0
-1898 -8 0
-1898 1113 0
-1899 -38 0
-1899 977 0
-1900 -53 0
-1900 962 0
1899 1900 -959 1898 0
-1901 -9 0
1114 -1901 0
-1902 -39 0
-1902 978 0
-1903 -54 0
-1903 963 0
1903 -959 1901 1902 0
-1904 -10 0
-1904 1115 0
-1905 -40 0
-1905 979 0
-1906 -55 0
964 -1906 0
1906 1905 -959 1904 0
-1907 -11 0
1116 -1907 0
-1908 -41 0
-1908 980 0
-1909 -56 0
-1909 965 0
1909 -959 1908 1907 0
-1910 -12 0
-1910 1117 0
-1911 -42 0
-1911 981 0
-1912 -57 0
-1912 966 0
1910 -959 1912 1911 0
-1916 -2 0
951 -1917 0
-1918 -27 0
1917 -960 1916 1918 0
-1919 -4 0
-1920 -34 0
-1921 -44 0
-960 1921 1920 1919 0
1111 -1922 0
-1923 975 0
-1924 -51 0
1922 -960 1923 1924 0
-1925 -7 0
-1925 1118 0
-1926 -37 0
-1926 982 0
-1927 -58 0
-1927 961 0
1925 1926 1927 -960 0
-1928 -8 0
-1928 1119 0
-1929 -38 0
-1929 983 0
-1930 -59 0
-1930 962 0
1929 1930 1928 -960 0
-1931 -9 0
-1931 1120 0
-1932 -39 0
-1932 984 0
-1933 -60 0
-1933 963 0
1933 -960 1931 1932 0
-1934 -10 0
-1934 1121 0
-1935 -40 0
-1935 985 0
-1936 -61 0
-1936 964 0
1936 -960 1935 1934 0
-1937 -11 0
-1937 1122 0
-1938 -41 0
-1938 986 0
-1939 -62 0
-1939 965 0
-960 1939 1937 1938 0
-1940 1123 0
-1941 -42 0
-1941 987 0
-1942 -63 0
-1942 966 0
1940 -960 1942 1941 0
-1943 -1 0
-1944 942 0
-1945 -18 0
-961 1945 1944 1943 0
-1948 -28 0
-1949 -4 0
-1950 -34 0
-1951 -45 0
-961 1951 1950 1949 0
-1952 1112 0
-1953 -35 0
-1953 976 0
-1954 -52 0
-1954 959 0
1952 -961 1953 1954 0
-1955 1118 0
-1956 -36 0
-1956 982 0
-1957 -58 0
-1957 960 0
1955 1956 1957 -961 0
-1958 -8 0
1124 -1958 0
-1959 -38 0
-1959 988 0
-1960 -64 0
-1960 962 0
-961 1959 1958 1960 0
-1961 -9 0
-1961 1125 0
-1962 -39 0
-1962 989 0
-1963 -65 0
-1963 963 0
1962 1963 1961 -961 0
-1964 -10 0
-1964 1126 0
-1965 -40 0
-1965 990 0
-1966 -66 0
-1966 964 0
1965 1966 1964 -961 0
-1967 -11 0
1127 -1967 0
-1968 -41 0
-1968 991 0
-1969 -67 0
-1969 965 0
1969 -961 1967 1968 0
-1970 -12 0
1128 -1970 0
-1971 -42 0
-1971 992 0
-1972 -68 0
-1972 966 0
1970 -961 1971 1972 0
-1973 -1 0
943 -1974 0
-1975 -19 0
1974 -962 1975 1973 0
-1979 -4 0
-1980 -34 0
-46 -1981 0
1981 -962 1980 1979 0
-1982 1113 0
-1983 -35 0
-1983 977 0
-1984 -53 0
-1984 959 0
1983 -962 1984 1982 0
-1985 1119 0
-1986 -36 0
-1986 983 0
-1987 -59 0
-1987 960 0
1986 1987 -962 1985 0
-1988 -7 0
1124 -1988 0
-1989 -37 0
-1989 988 0
-1990 -64 0
-1990 961 0
1988 1989 -962 1990 0
-1991 -9 0
-1991 1129 0
-1992 -39 0
-1992 993 0
-1993 -69 0
-1993 963 0
1992 1993 1991 -962 0
-1994 -10 0
-1994 1130 0
-1995 -40 0
-1995 994 0
-1996 -70 0
-1996 964 0
1995 1996 -962 1994 0
-1997 -11 0
-1997 1131 0
-1998 -41 0
-1998 995 0
-1999 -71 0
-1999 965 0
-962 1998 1997 1999 0
-2000 -12 0
-2000 1132 0
-2001 -42 0
-2001 996 0
-2002 -72 0
-2002 966 0
2000 2001 -962 2002 0
-2003 -1 0
-2004 944 0
-2005 -20 0
2005 -963 2004 2003 0
-2006 -2 0
954 -2007 0
-2008 -30 0
2007 -963 2008 2006 0
-2009 -4 0
-2010 -34 0
-47 -2011 0
2011 -963 2010 2009 0
1114 -2012 0
-2013 -35 0
-2013 978 0
-2014 -54 0
-2014 959 0
2012 -963 2014 2013 0
1120 -2015 0
-2016 -36 0
-2016 984 0
-2017 -60 0
-2017 960 0
2015 -963 2017 2016 0
-2018 -7 0
-2018 1125 0
-2019 -37 0
-2019 989 0
-2020 -65 0
-2020 961 0
2018 -963 2020 2019 0
-2021 -8 0
-2021 1129 0
-2022 -38 0
-2022 993 0
-2023 -69 0
-2023 962 0
2022 -963 2021 2023 0
-2024 -10 0
-2024 1133 0
-2025 -40 0
-2025 997 0
-73 -2026 0
-2026 964 0
2026 2025 -963 2024 0
-2027 -11 0
1134 -2027 0
-2028 -41 0
-2028 998 0
-2029 -74 0
-2029 965 0
2029 2028 2027 -963 0
-2030 -12 0
1135 -2030 0
-2031 -42 0
-2031 999 0
-2032 -75 0
-2032 966 0
2030 -963 2032 2031 0
-2033 -1 0
-2034 945 0
-2035 -21 0
2034 -964 2035 2033 0
-2036 -2 0
-2037 955 0
-2038 -31 0
2038 -964 2037 2036 0
1115 -2042 0
-2043 -35 0
-2043 979 0
-2044 -55 0
-2044 959 0
2042 2044 -964 2043 0
1121 -2045 0
-2046 -36 0
-2046 985 0
-2047 -61 0
-2047 960 0
2045 2047 -964 2046 0
-2048 -7 0
-2048 1126 0
-2049 -37 0
-2049 990 0
-2050 -66 0
-2050 961 0
2048 2050 -964 2049 0
-2051 -8 0
-2051 1130 0
-2052 -38 0
-2052 994 0
-2053 -70 0
-2053 962 0
2052 2051 -964 2053 0
-2054 -9 0
1133 -2054 0
-2055 -39 0
-2055 997 0
-73 -2056 0
-2056 963 0
2056 2055 2054 -964 0
-2057 -11 0
1136 -2057 0
-2058 1000 0
-76 -2059 0
965 -2059 0
2059 2058 2057 -964 0
-2060 -12 0
1137 -2060 0
-2061 1001 0
-2062 -77 0
-2062 966 0
2060 2061 2062 -964 0
-2063 -1 0
-2064 946 0
-2065 -22 0
-965 2065 2064 2063 0
-2066 -2 0
-2067 956 0
-2068 -32 0
-965 2067 2068 2066 0
-2069 -4 0
-2070 -34 0
-49 -2071 0
2071 -965 2070 2069 0
1116 -2072 0
-2073 980 0
-2074 959 0
2072 -965 2074 2073 0
1122 -2075 0
-2076 -36 0
-2076 986 0
-2077 -62 0
-2077 960 0
2075 -965 2077 2076 0
-2078 -7 0
-2078 1127 0
-2079 -37 0
-2079 991 0
-2080 -67 0
-2080 961 0
2078 2079 2080 -965 0
-2081 -8 0
-2081 1131 0
-2082 -38 0
-2082 995 0
-2083 -71 0
-2083 962 0
2082 -965 2081 2083 0
-2084 -9 0
1134 -2084 0
-2085 -39 0
-2085 998 0
-2086 -74 0
-2086 963 0
2086 -965 2084 2085 0
-2087 -10 0
1136 -2087 0
-2088 -40 0
-2088 1000 0
-2089 -76 0
-2089 964 0
2089 2088 -965 2087 0
-2090 -12 0
1138 -2090 0
-2091 -42 0
-2091 1002 0
-2092 -78 0
-2092 966 0
2090 -965 2092 2091 0
-2093 -1 0
-2094 947 0
-2095 -23 0
-966 2094 2095 2093 0
-2096 -2 0
-2097 957 0
-2098 -33 0
-966 2098 2097 2096 0
-2102 1117 0
-2103 -35 0
-2103 981 0
-2104 -57 0
-2104 959 0
-966 2102 2104 2103 0
1123 -2105 0
-2106 -36 0
-2106 987 0
-2107 -63 0
-2107 960 0
2105 -966 2107 2106 0
-2108 -7 0
-2108 1128 0
-2109 -37 0
-2109 992 0
-2110 -68 0
-2110 961 0
2108 -966 2110 2109 0
-2111 -8 0
-2111 1132 0
-2112 -38 0
-2112 996 0
-2113 -72 0
-2113 962 0
-966 2112 2111 2113 0
-2114 -9 0
1135 -2114 0
-2115 -39 0
-2115 999 0
-2116 -75 0
-2116 963 0
2116 -966 2114 2115 0
-2117 -10 0
-2117 1137 0
-2118 -40 0
-2118 1001 0
-2119 -77 0
-2119 964 0
2119 -966 2117 2118 0
-2120 1138 0
-2121 1002 0
-2122 -78 0
-2122 965 0
-966 2122 2120 2121 0
-2123 -1 0
-2124 940 0
939 -2125 0
2125 -967 2124 2123 0
1139 -2132 0
-2133 975 0
-2134 -51 0
2132 -967 2133 2134 0
-7 -2135 0
-2135 1140 0
-2136 -45 0
-2136 976 0
-2137 -52 0
-2137 969 0
2135 -967 2136 2137 0
-2138 -8 0
-2138 1141 0
-2139 -46 0
-2139 977 0
-2140 -53 0
-2140 970 0
2140 2138 -967 2139 0
-2141 -9 0
1142 -2141 0
-2142 -47 0
-2142 978 0
-2143 -54 0
971 -2143 0
2143 2141 -967 2142 0
-2144 -10 0
-2144 1143 0
-2145 -48 0
-2145 979 0
-2146 -55 0
972 -2146 0
2146 2145 -967 2144 0
-2147 -11 0
-2147 1144 0
-2148 -49 0
-2148 980 0
-2149 -56 0
-2149 973 0
-967 2149 2147 2148 0
-2150 -12 0
1145 -2150 0
-2151 -50 0
-2151 981 0
-2152 -57 0
-2152 974 0
2150 -967 2152 2151 0
-2153 -1 0
-2154 941 0
939 -2155 0
2155 -968 2153 2154 0
-2156 -2 0
-2157 951 0
-2158 -27 0
-968 2157 2156 2158 0
-2159 -3 0
-2160 -34 0
-2161 -36 0
-968 2161 2160 2159 0
-2165 -7 0
-2165 1146 0
-2166 -45 0
-2166 982 0
-2167 -58 0
-2167 969 0
-968 2166 2167 2165 0
-2168 -8 0
-2168 1147 0
-2169 -46 0
-2169 983 0
-2170 -59 0
-2170 970 0
-968 2170 2169 2168 0
-2171 -9 0
1148 -2171 0
-2172 -47 0
-2172 984 0
-2173 -60 0
-2173 971 0
-968 2173 2171 2172 0
-2174 -10 0
-2174 1149 0
-2175 -48 0
-2175 985 0
-61 -2176 0
972 -2176 0
2176 -968 2175 2174 0
-2177 -11 0
1150 -2177 0
-2178 -49 0
-2178 986 0
-2179 -62 0
-2179 973 0
-968 2179 2177 2178 0
-2180 1151 0
-2181 -50 0
-2181 987 0
-2182 -63 0
-2182 974 0
-968 2182 2180 2181 0
-2183 -1 0
-2184 942 0
-2185 -18 0
-2185 939 0
-969 2185 2184 2183 0
-2186 -2 0
-2187 952 0
949 -2188 0
-969 2187 2188 2186 0
-2192 1140 0
-2193 -43 0
-2193 976 0
-2194 -52 0
-2194 967 0
2192 2193 2194 -969 0
-2195 1146 0
-2196 -44 0
-2196 982 0
-2197 -58 0
-2197 968 0
2195 -969 2197 2196 0
-2198 -8 0
-2198 1152 0
-2199 -46 0
-2199 988 0
-2200 -64 0
-2200 970 0
2199 -969 2198 2200 0
-2201 -9 0
-2201 1153 0
-2202 -47 0
-2202 989 0
-2203 -65 0
-2203 971 0
2202 -969 2201 2203 0
-2204 -10 0
-2204 1154 0
-2205 -48 0
-2205 990 0
-2206 -66 0
-2206 972 0
2205 2206 2204 -969 0
-2207 -11 0
-2207 1155 0
-2208 -49 0
-2208 991 0
-2209 -67 0
-2209 973 0
-969 2209 2207 2208 0
-2210 -12 0
-2210 1156 0
-2211 -50 0
-2211 992 0
-2212 -68 0
-2212 974 0
2210 -969 2211 2212 0
-2213 -1 0
-2214 943 0
-2215 -19 0
-2215 939 0
2214 -970 2215 2213 0
-2216 -2 0
-2217 953 0
-2218 949 0
2218 -970 2217 2216 0
-2219 -3 0
-2220 -34 0
-2221 -38 0
2221 -970 2220 2219 0
-2222 1141 0
-2223 -43 0
-2223 977 0
-2224 -53 0
-2224 967 0
2222 -970 2223 2224 0
-2225 1147 0
-2226 -44 0
-2226 983 0
-2227 -59 0
-2227 968 0
2227 -970 2226 2225 0
-2228 -7 0
1152 -2228 0
-2229 -45 0
-2229 988 0
-2230 -64 0
-2230 969 0
2228 -970 2229 2230 0
-2231 -9 0
-2231 1157 0
-2232 -47 0
-2232 993 0
-2233 -69 0
-2233 971 0
2232 2233 2231 -970 0
-2234 -10 0
-2234 1158 0
-2235 -48 0
-2235 994 0
-2236 -70 0
-2236 972 0
2235 2236 2234 -970 0
-2237 -11 0
1159 -2237 0
-2238 -49 0
-2238 995 0
-2239 -71 0
-2239 973 0
-970 2239 2237 2238 0
-2240 -12 0
1160 -2240 0
-2241 -50 0
-2241 996 0
-2242 -72 0
-2242 974 0
2240 -970 2241 2242 0
-2243 -1 0
-2244 944 0
-2245 -20 0
939 -2245 0
2245 -971 2244 2243 0
-2246 -2 0
-2247 954 0
-2248 -30 0
-2248 949 0
2247 -971 2248 2246 0
-2249 -3 0
-2250 -34 0
-2251 -39 0
2251 -971 2250 2249 0
-2252 1142 0
-2253 -43 0
-2253 978 0
-2254 -54 0
-2254 967 0
2252 -971 2254 2253 0
1148 -2255 0
-2256 -44 0
-2256 984 0
-2257 -60 0
-2257 968 0
2255 2257 2256 -971 0
-2258 -7 0
-2258 1153 0
-2259 -45 0
-2259 989 0
-2260 -65 0
-2260 969 0
2258 -971 2259 2260 0
-2261 -8 0
-2261 1157 0
-2262 -46 0
-2262 993 0
-2263 -69 0
-2263 970 0
2263 -971 2261 2262 0
-2264 -10 0
-2264 1161 0
-2265 -48 0
-2265 997 0
-2266 -73 0
972 -2266 0
2266 -971 2265 2264 0
-2267 -11 0
-2267 1162 0
-2268 -49 0
-2268 998 0
-2269 -74 0
-2269 973 0
-971 2269 2267 2268 0
-2270 -12 0
-2270 1163 0
-2271 -50 0
-2271 999 0
-2272 -75 0
-2272 974 0
2270 -971 2272 2271 0
-2273 -1 0
-2274 945 0
-2275 -21 0
-972 2274 2275 2273 0
-2276 -2 0
-2277 955 0
-2278 -31 0
949 -2278 0
-972 2278 2277 2276 0
-2279 -3 0
-2280 -34 0
-2281 -40 0
2281 -972 2280 2279 0
-2282 1143 0
-2283 -43 0
-2283 979 0
-2284 -55 0
-2284 967 0
2282 -972 2284 2283 0
-2285 1149 0
-2286 -44 0
-2286 985 0
-2287 -61 0
-2287 968 0
2287 2285 -972 2286 0
-2288 -7 0
-2288 1154 0
-2289 -45 0
-2289 990 0
-2290 -66 0
-2290 969 0
2288 -972 2289 2290 0
-2291 -8 0
-2291 1158 0
-2292 -46 0
-2292 994 0
-2293 -70 0
-2293 970 0
2293 -972 2291 2292 0
-2294 -9 0
1161 -2294 0
-2295 -47 0
-2295 997 0
-2296 -73 0
-2296 971 0
2296 -972 2294 2295 0
-2297 -11 0
1164 -2297 0
-2298 1000 0
-2299 -76 0
-2299 973 0
-972 2299 2297 2298 0
-2300 -12 0
1165 -2300 0
-2301 -50 0
-2301 1001 0
-2302 -77 0
-2302 974 0
2300 -972 2302 2301 0
-2303 -1 0
-2304 946 0
-2305 -22 0
-2305 939 0
-973 2305 2304 2303 0
-2306 -2 0
-2307 956 0
-2308 -32 0
949 -2308 0
-973 2307 2308 2306 0
-2309 -3 0
-2310 -34 0
-2311 -41 0
2311 -973 2310 2309 0
-2312 1144 0
-2313 -43 0
-2313 980 0
-2314 -56 0
-2314 967 0
2312 -973 2314 2313 0
1150 -2315 0
-2316 -44 0
-2316 986 0
-2317 -62 0
-2317 968 0
2315 -973 2317 2316 0
-2318 -7 0
-2318 1155 0
-2319 -45 0
-2319 991 0
-2320 -67 0
-2320 969 0
2318 -973 2319 2320 0
-2321 -8 0
-2321 1159 0
-2322 -46 0
-2322 995 0
-2323 -71 0
-2323 970 0
-973 2323 2321 2322 0
-2324 -9 0
1162 -2324 0
-2325 -47 0
-2325 998 0
-2326 -74 0
-2326 971 0
-973 2326 2324 2325 0
-2327 -10 0
-2327 1164 0
-2328 -48 0
-2328 1000 0
-2329 -76 0
-2329 972 0
2329 -973 2328 2327 0
-2330 -12 0
1166 -2330 0
-2331 -50 0
-2331 1002 0
-2332 -78 0
-2332 974 0
-973 2330 2332 2331 0
-2333 -1 0
-2334 947 0
-2335 -23 0
-2335 939 0
-974 2334 2335 2333 0
-2336 -2 0
-2337 957 0
-2338 -33 0
949 -2338 0
-974 2338 2337 2336 0
-2342 1145 0
-2343 -43 0
-2343 981 0
-2344 -57 0
-2344 967 0
2342 -974 2344 2343 0
-2345 1151 0
-2346 -44 0
-2346 987 0
-2347 -63 0
-2347 968 0
2347 -974 2345 2346 0
-2348 -7 0
-2348 1156 0
-2349 -45 0
-2349 992 0
-2350 -68 0
-2350 969 0
2348 -974 2349 2350 0
-2351 -8 0
-2351 1160 0
-2352 -46 0
-2352 996 0
-2353 -72 0
-2353 970 0
-974 2353 2351 2352 0
-2354 -9 0
1163 -2354 0
-2355 -47 0
-2355 999 0
-2356 -75 0
-2356 971 0
-974 2356 2354 2355 0
-2357 -10 0
-2357 1165 0
-2358 -48 0
-2358 1001 0
-2359 -77 0
-2359 972 0
2359 -974 2357 2358 0
-2360 1166 0
-2361 1002 0
-2362 -78 0
-2362 973 0
-974 2362 2360 2361 0
-2393 -1 0
-2394 942 0
-2395 940 0
-976 2394 2393 2395 0
-2399 -3 0
-2400 961 0
-2401 959 0
2400 -976 2401 2399 0
-2402 -4 0
969 -2403 0
-2404 -45 0
-2404 967 0
2404 -976 2403 2402 0
-2408 -8 0
1173 -2408 0
-2409 -53 0
-2409 988 0
-2410 -64 0
-2410 977 0
2410 -976 2408 2409 0
-2411 -9 0
-2411 1174 0
-2412 -54 0
-2412 989 0
-2413 -65 0
-2413 978 0
2412 -976 2413 2411 0
-2414 -10 0
-2414 1175 0
-2415 -55 0
-2415 990 0
-2416 -66 0
-2416 979 0
2415 2416 -976 2414 0
-2417 -11 0
-2417 1176 0
-2418 -56 0
-2418 991 0
-2419 -67 0
-2419 980 0
2418 -976 2417 2419 0
-2420 -12 0
1177 -2420 0
-2421 -57 0
-2421 992 0
-2422 -68 0
-2422 981 0
2420 -976 2421 2422 0
-2423 -1 0
943 -2424 0
-2425 940 0
2424 -977 2423 2425 0
-2429 -3 0
-2430 962 0
-2431 959 0
2430 -977 2431 2429 0
-2432 -4 0
970 -2433 0
-2434 -46 0
-2434 967 0
2434 -977 2433 2432 0
1168 -2435 0
-2436 -51 0
-2437 975 0
2435 -977 2436 2437 0
-2438 -7 0
1173 -2438 0
-2439 -52 0
-2439 988 0
-2440 -64 0
-2440 976 0
2438 -977 2440 2439 0
-2441 -9 0
-2441 1178 0
-2442 -54 0
-2442 993 0
-2443 -69 0
-2443 978 0
2442 2443 2441 -977 0
-2444 -10 0
-2444 1179 0
-2445 -55 0
994 -2445 0
-2446 -70 0
-2446 979 0
2445 2446 -977 2444 0
-2447 -11 0
-2447 1180 0
-2448 -56 0
-2448 995 0
-2449 -71 0
-2449 980 0
2448 -977 2449 2447 0
-2450 1181 0
-2451 -57 0
-2451 996 0
-2452 -72 0
-2452 981 0
2450 -977 2451 2452 0
-2453 -1 0
-2454 944 0
-2455 940 0
-978 2454 2453 2455 0
-2459 -3 0
-2460 963 0
-2461 959 0
-978 2460 2461 2459 0
-2462 -4 0
-2463 971 0
-2464 -47 0
-2464 967 0
-978 2464 2463 2462 0
-2465 1169 0
-2466 -51 0
-2467 975 0
-978 2465 2466 2467 0
-2468 -7 0
-2468 1174 0
-2469 -52 0
-2469 989 0
-2470 -65 0
-2470 976 0
-978 2468 2469 2470 0
-2471 -8 0
-2471 1178 0
-2472 -53 0
-2472 993 0
-2473 -69 0
-2473 977 0
-978 2473 2471 2472 0
-2474 -10 0
-2474 1182 0
-2475 -55 0
-2475 997 0
-2476 -73 0
-2476 979 0
-978 2475 2474 2476 0
-2477 -11 0
-2477 1183 0
-2478 -56 0
-2478 998 0
-2479 -74 0
-2479 980 0
-978 2478 2479 2477 0
-2480 -12 0
-2480 1184 0
-2481 -57 0
-2481 999 0
-2482 -75 0
-2482 981 0
-978 2480 2481 2482 0
-2483 -1 0
-2484 945 0
-2485 940 0
2484 -979 2483 2485 0
-2489 -3 0
-2490 964 0
-2491 959 0
2490 2491 -979 2489 0
-2492 -4 0
-2493 -43 0
-2493 972 0
-2494 -48 0
-2494 967 0
2494 2493 -979 2492 0
1170 -2495 0
-2496 -51 0
-2497 975 0
2495 -979 2496 2497 0
-2498 -7 0
-2498 1175 0
-2499 -52 0
-2499 990 0
-2500 -66 0
-2500 976 0
2498 -979 2499 2500 0
-2501 -8 0
-2501 1179 0
-2502 -53 0
-2502 994 0
-2503 -70 0
-2503 977 0
2502 2501 -979 2503 0
-2504 -9 0
-2504 1182 0
-2505 -54 0
-2505 997 0
-2506 -73 0
-2506 978 0
2505 2504 -979 2506 0
-2507 -11 0
-2507 1185 0
-2508 -56 0
-2508 1000 0
-2509 -76 0
-2509 980 0
2508 -979 2507 2509 0
-2510 -12 0
-2510 1186 0
-2511 -57 0
-2511 1001 0
-2512 -77 0
-2512 981 0
2510 -979 2511 2512 0
-2513 -1 0
-2514 946 0
-2515 940 0
2514 -980 2513 2515 0
-2519 -3 0
-2520 965 0
-2521 959 0
2520 -980 2521 2519 0
-2522 -4 0
-2523 973 0
-2524 -49 0
-2524 967 0
-980 2524 2523 2522 0
-2525 1171 0
-2526 -51 0
-2527 975 0
-980 2525 2526 2527 0
-2528 -7 0
-2528 1176 0
-2529 -52 0
-2529 991 0
-2530 -67 0
-2530 976 0
-980 2529 2528 2530 0
-2531 -8 0
-2531 1180 0
-2532 -53 0
-2532 995 0
-2533 -71 0
-2533 977 0
2532 -980 2531 2533 0
-2534 -9 0
-2534 1183 0
-2535 -54 0
-2535 998 0
-2536 -74 0
-2536 978 0
2535 -980 2534 2536 0
-2537 -10 0
-2537 1185 0
-2538 -55 0
-2538 1000 0
-2539 -76 0
-2539 979 0
2538 -980 2539 2537 0
-2540 -12 0
-2540 1187 0
-2541 -57 0
-2541 1002 0
-2542 -78 0
-2542 981 0
2542 -980 2541 2540 0
-2543 -1 0
-2544 947 0
-2545 940 0
2544 -981 2543 2545 0
-2549 -3 0
-2550 966 0
-2551 959 0
-981 2550 2551 2549 0
-2552 -4 0
-2553 974 0
-2554 -50 0
-2554 967 0
-981 2553 2554 2552 0
-2555 1172 0
-2556 -51 0
-2557 975 0
-981 2555 2556 2557 0
-2558 -7 0
-2558 1177 0
-2559 -52 0
-2559 992 0
-2560 -68 0
-2560 976 0
2558 -981 2559 2560 0
-2561 -8 0
-2561 1181 0
-2562 -53 0
-2562 996 0
-2563 -72 0
-2563 977 0
-981 2563 2561 2562 0
-2564 -9 0
-2564 1184 0
-2565 -54 0
-2565 999 0
-2566 -75 0
-2566 978 0
2565 -981 2564 2566 0
-2567 -10 0
-2567 1186 0
-2568 -55 0
-2568 1001 0
-2569 -77 0
-2569 979 0
2568 -981 2569 2567 0
-2570 -11 0
-2570 1187 0
-2571 -56 0
-2571 1002 0
-2572 -78 0
-2572 980 0
-981 2571 2572 2570 0
-2573 -1 0
-2574 942 0
-2575 941 0
2574 -982 2573 2575 0
-2576 -2 0
-2577 -27 0
-2578 951 0
-982 2578 2577 2576 0
-2579 -3 0
-2580 961 0
-2581 960 0
-982 2580 2581 2579 0
-2582 -4 0
-2583 969 0
-2584 968 0
2584 -982 2583 2582 0
-2585 1167 0
-2586 -51 0
-2587 975 0
-982 2585 2586 2587 0
-2588 -8 0
-2588 1188 0
-2589 -59 0
-2589 988 0
-2590 -64 0
-2590 983 0
-982 2590 2588 2589 0
-2591 -9 0
-2591 1189 0
-2592 -60 0
-2592 989 0
-2593 -65 0
-2593 984 0
-982 2592 2591 2593 0
-2594 -10 0
-2594 1190 0
-2595 -61 0
-2595 990 0
-2596 -66 0
-2596 985 0
2595 -982 2596 2594 0
1191 -2597 0
-2598 -62 0
-2598 991 0
-2599 -67 0
-2599 986 0
-982 2598 2597 2599 0
-2600 -12 0
-2600 1192 0
-2601 -63 0
-2601 992 0
-2602 -68 0
-2602 987 0
-982 2601 2600 2602 0
-2603 -1 0
-2604 943 0
-2605 941 0
2604 -983 2603 2605 0
-2606 -2 0
-2607 -27 0
951 -2608 0
2608 -983 2607 2606 0
-2609 -3 0
-2610 962 0
-2611 960 0
-983 2610 2611 2609 0
-2612 -4 0
970 -2613 0
-2614 968 0
2613 -983 2614 2612 0
1168 -2615 0
-2616 -51 0
-2617 975 0
2615 -983 2616 2617 0
-2618 -7 0
1188 -2618 0
-2619 -58 0
-2619 988 0
-2620 -64 0
-2620 982 0
2618 -983 2619 2620 0
-2621 -9 0
-2621 1193 0
-2622 -60 0
-2622 993 0
-2623 -69 0
-2623 984 0
2622 -983 2621 2623 0
-2624 -10 0
-2624 1194 0
-2625 -61 0
-2625 994 0
-2626 -70 0
-2626 985 0
2625 -983 2626 2624 0
-2627 1195 0
-2628 -62 0
-2628 995 0
-2629 -71 0
-2629 986 0
-983 2629 2628 2627 0
-2630 -12 0
-2630 1196 0
-2631 -63 0
-2631 996 0
-2632 -72 0
-2632 987 0
2630 -983 2631 2632 0
-2633 -1 0
-2634 944 0
-2635 941 0
-984 2634 2633 2635 0
-2636 -2 0
-2637 -27 0
-2638 951 0
2638 -984 2637 2636 0
-2639 -3 0
-2640 963 0
-2641 960 0
-984 2640 2641 2639 0
-2642 -4 0
-2643 971 0
-2644 968 0
2644 -984 2643 2642 0
-2645 1169 0
-2646 -51 0
-2647 975 0
-984 2645 2646 2647 0
-2648 -7 0
-2648 1189 0
-2649 -58 0
-2649 989 0
-2650 -65 0
-2650 982 0
-984 2648 2649 2650 0
-2651 -8 0
-2651 1193 0
-2652 -59 0
-2652 993 0
-2653 -69 0
-2653 983 0
-984 2653 2651 2652 0
-2654 -10 0
-2654 1197 0
-2655 -61 0
-2655 997 0
-2656 -73 0
-2656 985 0
2655 -984 2656 2654 0
-2657 -11 0
-2657 1198 0
-2658 -62 0
-2658 998 0
-2659 -74 0
-2659 986 0
-984 2658 2657 2659 0
-2660 -12 0
-2660 1199 0
-2661 -63 0
-2661 999 0
-2662 -75 0
-2662 987 0
-984 2661 2660 2662 0
-2663 -1 0
-2664 945 0
-2665 941 0
2664 -985 2663 2665 0
-2666 -2 0
-2667 -27 0
-2668 -31 0
951 -2668 0
-985 2668 2667 2666 0
-2669 -3 0
-2670 964 0
-2671 960 0
2670 -985 2671 2669 0
-2672 -4 0
-2673 972 0
-2674 968 0
2673 -985 2674 2672 0
-2675 1170 0
-2676 -51 0
-2677 975 0
2675 -985 2676 2677 0
-2678 -7 0
-2678 1190 0
-2679 -58 0
-2679 990 0
-2680 -66 0
-2680 982 0
-985 2678 2679 2680 0
-2681 -8 0
-2681 1194 0
-2682 -59 0
-2682 994 0
-2683 -70 0
-2683 983 0
-985 2683 2681 2682 0
-2684 -9 0
-2684 1197 0
-2685 -60 0
-2685 997 0
-2686 -73 0
-2686 984 0
-985 2686 2684 2685 0
-2687 -11 0
-2687 1200 0
-2688 -62 0
-2688 1000 0
-2689 -76 0
-2689 986 0
-985 2688 2687 2689 0
-2690 1201 0
-2691 -63 0
-2691 1001 0
-2692 -77 0
-2692 987 0
-985 2691 2692 2690 0
-2693 -1 0
-2694 946 0
-2695 941 0
2694 -986 2693 2695 0
-2696 -2 0
-2697 -27 0
-2698 951 0
-986 2698 2697 2696 0
-2699 -3 0
-2700 965 0
-2701 960 0
-986 2700 2701 2699 0
-2702 -4 0
-2703 973 0
-2704 968 0
-986 2704 2703 2702 0
-2705 1171 0
-2706 -51 0
-2707 975 0
-986 2705 2706 2707 0
-2708 -7 0
1191 -2708 0
-2709 -58 0
-2709 991 0
-2710 -67 0
-2710 982 0
-986 2708 2709 2710 0
-2711 -8 0
-2711 1195 0
-2712 -59 0
-2712 995 0
-2713 -71 0
-2713 983 0
-986 2713 2711 2712 0
-2714 -9 0
-2714 1198 0
-2715 -60 0
-2715 998 0
-2716 -74 0
-2716 984 0
-986 2715 2714 2716 0
-2717 -10 0
-2717 1200 0
-2718 -61 0
-2718 1000 0
-2719 -76 0
-2719 985 0
2718 -986 2719 2717 0
-2720 -12 0
-2720 1202 0
-2721 -63 0
-2721 1002 0
-2722 -78 0
-2722 987 0
-986 2722 2721 2720 0
-2723 -1 0
-2724 947 0
-2725 941 0
2724 -987 2723 2725 0
-2729 -3 0
-2730 -36 0
-2730 966 0
-2731 960 0
-987 2731 2730 2729 0
-2732 -4 0
-2733 974 0
-2734 -50 0
-2734 968 0
-987 2733 2734 2732 0
-2735 1172 0
-2736 -51 0
-2737 975 0
-987 2735 2736 2737 0
-2738 -7 0
-2738 1192 0
-2739 -58 0
-2739 992 0
-2740 -68 0
-2740 982 0
-987 2738 2739 2740 0
-2741 -8 0
-2741 1196 0
-2742 -59 0
-2742 996 0
-2743 -72 0
-2743 983 0
-987 2743 2741 2742 0
-2744 -9 0
-2744 1199 0
-2745 -60 0
-2745 999 0
-2746 -75 0
-2746 984 0
-987 2745 2744 2746 0
-2747 -10 0
-2747 1201 0
-2748 -61 0
-2748 1001 0
-2749 -77 0
-2749 985 0
2748 -987 2749 2747 0
-2750 1202 0
-2751 1002 0
-2752 -78 0
-2752 986 0
-987 2752 2751 2750 0
-2753 -1 0
-2754 943 0
-2755 -19 0
-2755 942 0
-988 2754 2755 2753 0
-2756 -2 0
-2757 953 0
-2758 952 0
-988 2758 2757 2756 0
-2759 -3 0
-2760 -37 0
-2760 962 0
-2761 -38 0
-2761 961 0
-988 2760 2761 2759 0
-2762 -4 0
-2763 -45 0
-2763 970 0
-2764 969 0
-988 2764 2763 2762 0
-2765 1173 0
-2766 -52 0
-2766 977 0
-2767 -53 0
-2767 976 0
-988 2765 2767 2766 0
-2768 1188 0
-2769 -58 0
-2769 983 0
-2770 -59 0
-2770 982 0
-988 2770 2769 2768 0
-2771 -9 0
-2771 1203 0
-2772 -65 0
-2772 993 0
-2773 -69 0
-2773 989 0
-988 2772 2771 2773 0
-2774 -10 0
-2774 1204 0
-2775 -66 0
-2775 994 0
-2776 -70 0
-2776 990 0
-988 2775 2774 2776 0
-2777 -11 0
-2777 1205 0
-2778 -67 0
-2778 995 0
-2779 -71 0
-2779 991 0
-988 2778 2777 2779 0
-2780 -12 0
-2780 1206 0
-2781 -68 0
-2781 996 0
-2782 -72 0
-2782 992 0
-988 2780 2781 2782 0
-2783 -1 0
-2784 944 0
-2785 942 0
-989 2784 2785 2783 0
-2786 -2 0
-2787 954 0
-2788 952 0
-989 2788 2787 2786 0
-2789 -3 0
-2790 -37 0
-2790 963 0
-2791 -39 0
-2791 961 0
2790 -989 2791 2789 0
-2792 -4 0
-2793 -45 0
-2793 971 0
-2794 969 0
2794 -989 2793 2792 0
-2795 1174 0
-2796 -52 0
-2796 978 0
-2797 -54 0
-2797 976 0
2795 2797 2796 -989 0
-2798 1189 0
-2799 -58 0
-2799 984 0
-2800 -60 0
-2800 982 0
2798 -989 2800 2799 0
-2801 -8 0
-2801 1203 0
-2802 -64 0
-2802 993 0
-2803 -69 0
-2803 988 0
2803 -989 2801 2802 0
-2804 -10 0
-2804 1207 0
-2805 -66 0
-2805 997 0
-2806 -73 0
-2806 990 0
2806 -989 2804 2805 0
-2807 -11 0
-2807 1208 0
-2808 -67 0
-2808 998 0
-2809 -74 0
-2809 991 0
-989 2809 2807 2808 0
-2810 -12 0
-2810 1209 0
-2811 -68 0
-2811 999 0
-2812 -75 0
-2812 992 0
2810 -989 2812 2811 0
-2813 -1 0
-2814 945 0
-2815 942 0
-990 2814 2815 2813 0
-2816 -2 0
-2817 955 0
-2818 952 0
-990 2818 2817 2816 0
-2819 -3 0
964 -2820 0
-2821 -40 0
-2821 961 0
2820 -990 2821 2819 0
-2822 -4 0
-2823 972 0
-2824 969 0
2823 2824 -990 2822 0
1175 -2825 0
-2826 -52 0
-2826 979 0
-2827 -55 0
-2827 976 0
2825 -990 2827 2826 0
-2828 1190 0
-2829 -58 0
-2829 985 0
-2830 -61 0
-2830 982 0
2828 2830 2829 -990 0
-2831 -8 0
-2831 1204 0
-2832 -64 0
-2832 994 0
-2833 -70 0
-2833 988 0
2833 -990 2831 2832 0
-2834 -9 0
-2834 1207 0
-2835 -65 0
-2835 997 0
-73 -2836 0
-2836 989 0
2836 -990 2834 2835 0
-2837 -11 0
1210 -2837 0
-2838 -67 0
-2838 1000 0
-2839 -76 0
-2839 991 0
-990 2839 2837 2838 0
-2840 -12 0
1211 -2840 0
-2841 -68 0
-2841 1001 0
-2842 -77 0
-2842 992 0
2840 -990 2842 2841 0
-2843 -1 0
-2844 946 0
-2845 -22 0
-2845 942 0
-991 2844 2845 2843 0
-2846 -2 0
-2847 956 0
-2848 952 0
-991 2848 2847 2846 0
-2849 -3 0
-2850 965 0
-2851 961 0
-991 2850 2851 2849 0
-2852 -4 0
-2853 973 0
-2854 969 0
2854 -991 2853 2852 0
-2855 1176 0
-2856 -52 0
-2856 980 0
-2857 -56 0
-2857 976 0
-991 2857 2855 2856 0
-2858 1191 0
-2859 -58 0
-2859 986 0
-2860 -62 0
-2860 982 0
2858 -991 2860 2859 0
-2861 -8 0
-2861 1205 0
-2862 -64 0
-2862 995 0
-2863 -71 0
-2863 988 0
-991 2863 2861 2862 0
-2864 -9 0
-2864 1208 0
-2865 -65 0
-2865 998 0
-2866 -74 0
-2866 989 0
2866 -991 2864 2865 0
-2867 -10 0
-2867 1210 0
-2868 -66 0
-2868 1000 0
-2869 -76 0
-2869 990 0
2869 -991 2867 2868 0
-2870 -12 0
-2870 1212 0
-2871 -68 0
-2871 1002 0
-2872 -78 0
-2872 992 0
2870 -991 2872 2871 0
-2873 -1 0
-2874 947 0
-2875 -23 0
-2875 942 0
-992 2874 2875 2873 0
-2876 -2 0
-2877 957 0
-2878 -33 0
-2878 952 0
-992 2878 2877 2876 0
-2879 -3 0
-2880 966 0
-2881 961 0
-992 2881 2880 2879 0
-2882 -4 0
-2883 974 0
-2884 969 0
-992 2883 2884 2882 0
-2885 1177 0
-2886 -52 0
-2886 981 0
-2887 -57 0
-2887 976 0
2885 -992 2887 2886 0
-2888 1192 0
-2889 -58 0
-2889 987 0
-2890 -63 0
-2890 982 0
-992 2890 2888 2889 0
-2891 -8 0
-2891 1206 0
-2892 -64 0
-2892 996 0
-2893 -72 0
-2893 988 0
-992 2893 2891 2892 0
-2894 -9 0
-2894 1209 0
-2895 -65 0
-2895 999 0
-2896 -75 0
-2896 989 0
-992 2896 2894 2895 0
-2897 -10 0
1211 -2897 0
-2898 -66 0
-2898 1001 0
-2899 -77 0
-2899 990 0
2899 -992 2897 2898 0
-2900 -11 0
-2900 1212 0
-2901 -67 0
-2901 1002 0
-2902 -78 0
-2902 991 0
-992 2902 2900 2901 0
-2903 -1 0
-2904 944 0
-2905 -20 0
-2905 943 0
2905 -993 2904 2903 0
-2906 -2 0
-2907 954 0
-2908 953 0
2907 -993 2908 2906 0
-2909 -3 0
-2910 -38 0
-2910 963 0
-2911 -39 0
-2911 962 0
2910 -993 2911 2909 0
-2912 -4 0
-2913 -46 0
-2913 971 0
-2914 970 0
2914 -993 2913 2912 0
-2915 1178 0
-2916 -53 0
-2916 978 0
-2917 -54 0
-2917 977 0
2915 2917 -993 2916 0
-2918 1193 0
-2919 -59 0
-2919 984 0
-2920 -60 0
-2920 983 0
2918 2920 2919 -993 0
-2921 -7 0
-2921 1203 0
-2922 -64 0
-2922 989 0
-2923 -65 0
-2923 988 0
2921 2923 2922 -993 0
-2924 -10 0
-2924 1213 0
-2925 -70 0
-2925 997 0
-2926 -73 0
-2926 994 0
2926 -993 2924 2925 0
-2927 -11 0
-2927 1214 0
-2928 -71 0
-2928 998 0
-2929 -74 0
-2929 995 0
-993 2929 2927 2928 0
-2930 -12 0
-2930 1215 0
-2931 -72 0
-2931 999 0
-2932 -75 0
-2932 996 0
2930 -993 2932 2931 0
-2933 -1 0
-2934 945 0
-2935 943 0
-994 2935 2934 2933 0
-2936 -2 0
-2937 955 0
-2938 -31 0
-2938 953 0
-994 2938 2937 2936 0
-2939 -3 0
964 -2940 0
-2941 -40 0
-2941 962 0
2940 -994 2941 2939 0
-2942 -4 0
-2943 -46 0
-2943 972 0
-2944 970 0
2944 -994 2943 2942 0
-2945 1179 0
-2946 -53 0
-2946 979 0
-2947 -55 0
-2947 977 0
2945 2947 2946 -994 0
-2948 1194 0
-2949 -59 0
-2949 985 0
-2950 -61 0
-2950 983 0
2948 2950 -994 2949 0
-2951 -7 0
1204 -2951 0
-2952 -64 0
-2952 990 0
-2953 -66 0
-2953 988 0
2951 2953 -994 2952 0
-2954 -9 0
1213 -2954 0
-2955 -69 0
-2955 997 0
-2956 -73 0
-2956 993 0
2956 -994 2954 2955 0
1216 -2957 0
-2958 1000 0
-2959 -76 0
-2959 995 0
-994 2958 2957 2959 0
-2960 -12 0
-2960 1217 0
-2961 -72 0
-2961 1001 0
-2962 -77 0
-2962 996 0
2960 -994 2962 2961 0
-2963 -1 0
-2964 946 0
-2965 -22 0
-2965 943 0
-995 2965 2964 2963 0
-2966 -2 0
-2967 956 0
-2968 -32 0
-2968 953 0
-995 2967 2968 2966 0
-2969 -3 0
-2970 965 0
-2971 962 0
-995 2970 2971 2969 0
-2972 -4 0
-2973 -46 0
-2973 973 0
-2974 970 0
-995 2974 2973 2972 0
-2975 1180 0
-2976 -53 0
-2976 980 0
-2977 -56 0
-2977 977 0
2975 -995 2976 2977 0
-2978 1195 0
-2979 -59 0
-2979 986 0
-2980 -62 0
-2980 983 0
2978 -995 2980 2979 0
-2981 -7 0
-2981 1205 0
-2982 -64 0
-2982 991 0
-2983 -67 0
-2983 988 0
2981 -995 2983 2982 0
-2984 -9 0
-2984 1214 0
-2985 -69 0
-2985 998 0
-2986 -74 0
-2986 993 0
-995 2986 2984 2985 0
-2987 -10 0
-2987 1216 0
-2988 -70 0
-2988 1000 0
-2989 -76 0
-2989 994 0
2989 -995 2987 2988 0
-2990 1218 0
-2991 -72 0
-2991 1002 0
-2992 -78 0
-2992 996 0
-995 2990 2991 2992 0
-2993 -1 0
-2994 947 0
-2995 -23 0
-2995 943 0
-996 2995 2994 2993 0
-2996 -2 0
-2997 957 0
-2998 -33 0
-2998 953 0
-996 2997 2998 2996 0
-2999 -3 0
-3000 966 0
-3001 962 0
-996 3001 3000 2999 0
-3002 -4 0
-3003 974 0
-3004 970 0
-996 3003 3004 3002 0
-3005 1181 0
-3006 -53 0
-3006 981 0
-3007 -57 0
-3007 977 0
3005 -996 3007 3006 0
-3008 1196 0
-3009 -59 0
-3009 987 0
-3010 -63 0
-3010 983 0
3008 -996 3010 3009 0
-3011 -7 0
-3011 1206 0
-3012 -64 0
-3012 992 0
-3013 -68 0
-3013 988 0
3011 -996 3013 3012 0
-3014 -9 0
-3014 1215 0
-3015 -69 0
-3015 999 0
-3016 -75 0
-3016 993 0
-996 3016 3014 3015 0
-3017 -10 0
-3017 1217 0
-3018 -70 0
-3018 1001 0
-3019 -77 0
-3019 994 0
3019 -996 3017 3018 0
-3020 -11 0
-3020 1218 0
-3021 -71 0
-3021 1002 0
-3022 -78 0
-3022 995 0
-996 3022 3020 3021 0
-3023 -1 0
-3024 945 0
-3025 -21 0
-997 3024 3025 3023 0
-3026 -2 0
-3027 955 0
-3028 954 0
-997 3028 3027 3026 0
-3029 -3 0
-3030 964 0
-3031 -40 0
-3031 963 0
-997 3030 3031 3029 0
-3032 -4 0
-3033 972 0
-3034 -48 0
-3034 971 0
-997 3033 3034 3032 0
-3035 1182 0
-3036 -54 0
-3036 979 0
-3037 -55 0
-3037 978 0
-997 3035 3036 3037 0
-3038 1197 0
-3039 -60 0
-3039 985 0
-3040 -61 0
-3040 984 0
-997 3039 3040 3038 0
-3041 -7 0
-3041 1207 0
-3042 -65 0
-3042 990 0
-3043 -66 0
-3043 989 0
-997 3041 3043 3042 0
-3044 -8 0
-3044 1213 0
-3045 -69 0
-3046 -70 0
-3046 993 0
-997 3046 3044 3045 0
-3047 1219 0
-3048 1000 0
-3049 -76 0
-3049 998 0
-997 3049 3047 3048 0
-3050 -12 0
-3050 1220 0
-3051 -75 0
-3051 1001 0
-3052 -77 0
-3052 999 0
-997 3052 3050 3051 0
-3053 -1 0
-3054 946 0
-3055 -22 0
-998 3055 3054 3053 0
-3056 -2 0
-3057 956 0
-3058 954 0
-998 3057 3058 3056 0
-3059 -3 0
-3060 -39 0
-3060 965 0
-3061 963 0
-998 3060 3061 3059 0
-3062 -4 0
-3063 973 0
-3064 971 0
-998 3064 3063 3062 0
-3065 1183 0
-3066 -54 0
-3066 980 0
-3067 -56 0
-3067 978 0
-998 3065 3066 3067 0
-3068 1198 0
-3069 -60 0
-3069 986 0
-3070 -62 0
-3070 984 0
-998 3068 3069 3070 0
-3071 -7 0
-3071 1208 0
-3072 -65 0
-3072 991 0
-3073 -67 0
-3073 989 0
-998 3071 3073 3072 0
-3074 -8 0
-3074 1214 0
-3075 -69 0
-3075 995 0
-3076 -71 0
-3076 993 0
-998 3075 3074 3076 0
-3077 -10 0
-3077 1219 0
-3078 -73 0
-3078 1000 0
-3079 -76 0
-3079 997 0
-998 3078 3077 3079 0
-3080 1221 0
-3081 1002 0
-3082 -78 0
-3082 999 0
-998 3080 3081 3082 0
-3083 -1 0
-3084 947 0
-3085 -23 0
-3085 944 0
-999 3084 3085 3083 0
-3086 -2 0
-3087 957 0
-3088 -33 0
-3088 954 0
-999 3088 3087 3086 0
-3089 -3 0
-3090 966 0
-3091 963 0
-999 3091 3090 3089 0
-3092 -4 0
-3093 974 0
-3094 -50 0
-3094 971 0
-999 3093 3094 3092 0
-3095 1184 0
-3096 -54 0
-3096 981 0
-3097 -57 0
-3097 978 0
-999 3095 3096 3097 0
-3098 1199 0
-3099 987 0
-3100 -63 0
-3100 984 0
-999 3099 3100 3098 0
-3101 -7 0
-3101 1209 0
-3102 -65 0
-3102 992 0
-3103 -68 0
-3103 989 0
-999 3101 3103 3102 0
-3104 -8 0
-3104 1215 0
-3105 -69 0
-3105 996 0
-3106 -72 0
-3106 993 0
-999 3105 3104 3106 0
-3107 -10 0
-3107 1220 0
-3108 -73 0
-3108 1001 0
-3109 -77 0
-3109 997 0
-999 3108 3107 3109 0
-3110 -11 0
-3110 1221 0
-3111 -74 0
-3111 1002 0
-3112 -78 0
-3112 998 0
-999 3112 3111 3110 0
-3113 -1 0
-3114 946 0
-3115 -22 0
-1000 3115 3114 3113 0
-3116 -2 0
-3117 956 0
-3118 955 0
-1000 3117 3118 3116 0
-3119 -3 0
-3120 965 0
-3121 964 0
3120 -1000 3121 3119 0
-3122 -4 0
-3123 973 0
-3124 972 0
3124 -1000 3123 3122 0
-3125 1185 0
-3126 980 0
-3127 -56 0
-3127 979 0
-1000 3127 3126 3125 0
-3128 1200 0
-3129 -61 0
-3129 986 0
-3130 -62 0
-3130 985 0
-1000 3129 3130 3128 0
-3131 -7 0
-3131 1210 0
-3132 -66 0
-3132 991 0
-3133 -67 0
-3133 990 0
3132 3131 -1000 3133 0
-3134 -8 0
-3134 1216 0
-3135 -70 0
-3135 995 0
-3136 -71 0
-3136 994 0
3135 -1000 3134 3136 0
-3137 -9 0
-3137 1219 0
-3138 -73 0
-3138 998 0
-3139 -74 0
-3139 997 0
3138 -1000 3137 3139 0
-3140 -12 0
-3140 1222 0
-3141 1002 0
-3142 -78 0
-3142 1001 0
3140 -1000 3141 3142 0
-3143 -1 0
-3144 -21 0
-3144 947 0
-3145 -23 0
-3145 945 0
-1001 3145 3144 3143 0
-3146 -2 0
-3147 957 0
-3148 -33 0
-3148 955 0
-1001 3147 3148 3146 0
-3149 -3 0
-3150 966 0
-3151 964 0
-1001 3151 3150 3149 0
-3152 -4 0
-3153 974 0
-3154 972 0
-1001 3153 3154 3152 0
-3155 1186 0
-3156 -55 0
-3156 981 0
-3157 -57 0
-3157 979 0
-1001 3155 3157 3156 0
-3158 1201 0
-3159 -61 0
-3159 987 0
-3160 -63 0
-3160 985 0
-1001 3159 3160 3158 0
-3161 -7 0
-3161 1211 0
-3162 -66 0
-3162 992 0
-3163 -68 0
-3163 990 0
-1001 3161 3162 3163 0
-3164 -8 0
-3164 1217 0
-3165 -70 0
-3165 996 0
-3166 -72 0
-3166 994 0
-1001 3165 3164 3166 0
-3167 -9 0
-3167 1220 0
-3168 -73 0
-3168 999 0
-3169 -75 0
-3169 997 0
-1001 3168 3167 3169 0
-3170 1222 0
-3171 -76 0
-3171 1002 0
-3172 -78 0
-3172 1000 0
-1001 3171 3170 3172 0
-3173 -1 0
-3174 -22 0
-3174 947 0
-3175 946 0
-1002 3174 3175 3173 0
-3176 -2 0
-3177 957 0
-3178 -33 0
-3178 956 0
-1002 3178 3177 3176 0
-3179 -3 0
-3180 966 0
-3181 965 0
-1002 3181 3180 3179 0
-3182 -4 0
-3183 974 0
-3184 973 0
-1002 3183 3184 3182 0
-3185 1187 0
-3186 981 0
-3187 -57 0
-3187 980 0
-1002 3185 3186 3187 0
-3188 1202 0
-3189 987 0
-3190 -63 0
-1002 3190 3189 3188 0
-3191 -7 0
-3191 1212 0
-3192 -67 0
-3192 992 0
-3193 -68 0
-3193 991 0
-1002 3191 3192 3193 0
-3194 -8 0
-3194 1218 0
-3195 -71 0
-3195 996 0
-3196 -72 0
-3196 995 0
-1002 3195 3194 3196 0
-3197 -9 0
-3197 1221 0
-3198 -74 0
-3198 999 0
-3199 -75 0
-3199 998 0
-1002 3198 3199 3197 0
-3200 1222 0
-3201 -76 0
-3202 1000 0
-1002 3201 3202 3200 0
-3266 1059 0
1014 -3267 0
-3268 1003 0
3267 3266 -1005 3268 0
-3269 1067 0
1022 -3270 0
-3271 1004 0
3270 3269 -1005 3271 0
-3275 -18 0
-3275 1076 0
-3276 1031 0
-3277 -52 0
1007 -3277 0
3275 3276 3277 -1005 0
-3278 -19 0
-3278 1077 0
1032 -3279 0
-3280 -53 0
-3280 1008 0
3279 3280 3278 -1005 0
-20 -3281 0
1078 -3281 0
-3282 -30 0
-3282 1033 0
-3283 -54 0
-3283 1009 0
3281 3282 3283 -1005 0
-3284 -21 0
1079 -3284 0
1034 -3285 0
-3286 -55 0
-3286 1010 0
3285 3286 3284 -1005 0
-3287 -22 0
-3287 1080 0
-3288 1035 0
-3289 -56 0
-3289 1011 0
3288 3287 3289 -1005 0
-3290 -23 0
1081 -3290 0
-3291 -33 0
1036 -3291 0
-3292 -57 0
1012 -3292 0
3291 3290 3292 -1005 0
-3296 1060 0
-3297 1015 0
-3298 1003 0
3297 -1006 3296 3298 0
-3299 1068 0
1023 -3300 0
-3301 1004 0
3300 -1006 3299 3301 0
-3305 -18 0
-3305 1082 0
-3306 1037 0
-3307 -58 0
-3307 1007 0
3305 3306 3307 -1006 0
-3308 -19 0
-3308 1083 0
-3309 1038 0
-3310 -59 0
-3310 1008 0
3309 -1006 3308 3310 0
-3311 -20 0
-3311 1084 0
-3312 1039 0
-3313 -60 0
-3313 1009 0
3311 -1006 3313 3312 0
-3314 -21 0
1085 -3314 0
-3315 1040 0
-3316 -61 0
-3316 1010 0
-1006 3315 3314 3316 0
-3317 -22 0
-3317 1086 0
-3318 1041 0
-3319 -62 0
-3319 1011 0
3317 -1006 3319 3318 0
-3320 -23 0
-3320 1087 0
-3321 1042 0
-3322 -63 0
-3322 1012 0
3322 3321 -1006 3320 0
-3323 -1 0
-3324 -2 0
-3325 -7 0
3325 -1007 3324 3323 0
-3326 1061 0
-3327 1016 0
-3328 1003 0
3327 3326 -1007 3328 0
-3329 1069 0
-3330 1024 0
-3331 1004 0
3330 -1007 3329 3331 0
-3332 1076 0
-3333 -26 0
-3334 -52 0
-1007 3332 3334 3333 0
-3335 1082 0
-3336 -27 0
-3337 -58 0
-3337 1006 0
3335 -1007 3337 3336 0
-3338 -19 0
-3338 1088 0
1043 -3339 0
-3340 -64 0
-3340 1008 0
3339 -1007 3338 3340 0
-3341 -20 0
-3341 1089 0
-3342 1044 0
-3343 -65 0
-3343 1009 0
3341 -1007 3343 3342 0
-3344 -21 0
-3344 1090 0
-3345 -31 0
-3345 1045 0
-3346 -66 0
-3346 1010 0
-1007 3345 3344 3346 0
-3347 -22 0
-3347 1091 0
-3348 -32 0
1046 -3348 0
-67 -3349 0
-3349 1011 0
-1007 3347 3349 3348 0
-3350 -23 0
-3350 1092 0
-3351 -33 0
-3351 1047 0
-3352 -68 0
1012 -3352 0
3352 3351 -1007 3350 0
-3353 -1 0
-3354 -2 0
-3355 -8 0
-1008 3355 3354 3353 0
-3356 1062 0
-3357 1017 0
-3358 1003 0
3356 -1008 3357 3358 0
-3359 1070 0
-3360 1025 0
-3361 1004 0
3360 -1008 3359 3361 0
-3362 1077 0
-3363 -26 0
-3364 -53 0
3364 -1008 3362 3363 0
-3365 1083 0
-3366 -27 0
-3367 -59 0
1006 -3367 0
3367 -1008 3365 3366 0
-3368 1088 0
-3369 1043 0
-3370 -64 0
-3370 1007 0
-1008 3368 3369 3370 0
-3371 -20 0
-3371 1093 0
-3372 -30 0
-3372 1048 0
-3373 -69 0
-3373 1009 0
3371 -1008 3372 3373 0
-3374 -21 0
-3374 1094 0
-3375 -31 0
-3375 1049 0
-3376 -70 0
-3376 1010 0
3375 -1008 3374 3376 0
-3377 -22 0
-3377 1095 0
-3378 -32 0
-3378 1050 0
-3379 -71 0
-3379 1011 0
-1008 3377 3378 3379 0
-3380 -23 0
-3380 1096 0
-3381 -33 0
1051 -3381 0
-3382 -72 0
-3382 1012 0
3381 3382 -1008 3380 0
-3386 1063 0
-3387 1018 0
-3388 1003 0
3387 -1009 3386 3388 0
-3389 1071 0
-3390 1026 0
-3391 1004 0
-1009 3389 3390 3391 0
-3392 1078 0
-3393 -26 0
-3394 -54 0
3392 3394 -1009 3393 0
-3395 1084 0
-3396 -27 0
-3397 -60 0
1006 -3397 0
3397 3395 -1009 3396 0
-3398 -18 0
-3398 1089 0
-3399 1044 0
-3400 -65 0
-3400 1007 0
-1009 3398 3399 3400 0
-3401 1093 0
-3402 1048 0
-3403 -69 0
-3403 1008 0
3403 -1009 3402 3401 0
-3404 -21 0
-3404 1097 0
-3405 -31 0
-3405 1052 0
-3406 -73 0
-3406 1010 0
-1009 3405 3404 3406 0
-3407 -22 0
-3407 1098 0
-3408 -32 0
-3408 1053 0
-74 -3409 0
-3409 1011 0
-1009 3407 3408 3409 0
-3410 -23 0
-3410 1099 0
-3411 -33 0
-3411 1054 0
-3412 -75 0
-3412 1012 0
-1009 3412 3411 3410 0
-3413 -1 0
-3414 -2 0
-3415 -10 0
-1010 3415 3414 3413 0
-3416 1064 0
-3417 1019 0
-3418 1003 0
3417 -1010 3416 3418 0
-3419 1072 0
-3420 1027 0
-3421 1004 0
3420 -1010 3419 3421 0
-3422 1079 0
-3423 -26 0
-3424 -55 0
3422 -1010 3424 3423 0
-3425 1085 0
-3426 -27 0
-3427 -61 0
-3427 1006 0
-1010 3427 3425 3426 0
-3428 1090 0
-3429 1045 0
-3430 -66 0
-3430 1007 0
-1010 3428 3429 3430 0
-3431 -19 0
-3431 1094 0
-3432 1049 0
-3433 -70 0
-3433 1008 0
3432 -1010 3433 3431 0
-3434 -20 0
-3434 1097 0
-3435 1052 0
-3436 -73 0
-3436 1009 0
3435 -1010 3434 3436 0
-3437 -22 0
-3437 1100 0
-3438 -32 0
-3438 1055 0
-3439 -76 0
-3439 1011 0
-1010 3437 3439 3438 0
-3440 -23 0
-3440 1101 0
-3441 -33 0
-3441 1056 0
-3442 -77 0
-3442 1012 0
-1010 3442 3441 3440 0
-3443 -1 0
-3444 -2 0
-3445 -11 0
-1011 3445 3444 3443 0
-3446 1065 0
-3447 1020 0
-3448 1003 0
3446 -1011 3447 3448 0
-3449 1073 0
-3450 1028 0
-3451 1004 0
3450 -1011 3449 3451 0
-3452 1080 0
-3453 -26 0
-3454 -56 0
3454 -1011 3452 3453 0
-3455 1086 0
-3456 -27 0
-3457 -62 0
-3457 1006 0
-1011 3455 3457 3456 0
-3458 -18 0
-3458 1091 0
-3459 1046 0
-3460 -67 0
-3460 1007 0
3460 3458 3459 -1011 0
-3461 -19 0
-3461 1095 0
-3462 1050 0
-3463 -71 0
-3463 1008 0
-1011 3462 3463 3461 0
-3464 -20 0
-3464 1098 0
-3465 1053 0
-3466 -74 0
-3466 1009 0
3464 -1011 3466 3465 0
-3467 -21 0
-3467 1100 0
-3468 1055 0
-3469 1010 0
-1011 3468 3467 3469 0
-3470 -23 0
-3470 1102 0
-3471 -33 0
-3471 1057 0
-78 -3472 0
-3472 1012 0
3472 -1011 3470 3471 0
-3473 -1 0
-3474 -2 0
-3475 -12 0
3475 -1012 3474 3473 0
-3476 1066 0
-3477 1021 0
-3478 1003 0
3477 3476 -1012 3478 0
-3479 1074 0
-3480 1029 0
-3481 1004 0
3480 -1012 3479 3481 0
-3482 1081 0
-3483 -26 0
-3484 -57 0
3482 -1012 3484 3483 0
-3485 1087 0
-3486 -27 0
-3487 -63 0
-3487 1006 0
3487 -1012 3485 3486 0
-3488 -18 0
-3488 1092 0
-3489 1047 0
-3490 -68 0
-3490 1007 0
3490 3488 3489 -1012 0
-3491 -19 0
-3491 1096 0
-3492 1051 0
-3493 -72 0
-3493 1008 0
3492 -1012 3493 3491 0
-3494 -20 0
-3494 1099 0
-3495 1054 0
-3496 -75 0
-3496 1009 0
3494 -1012 3496 3495 0
-3497 -21 0
-3497 1101 0
-3498 1056 0
-3499 -77 0
-3499 1010 0
-1012 3498 3497 3499 0
-3500 -22 0
-3500 1102 0
-3501 1057 0
-3502 -78 0
-3502 1011 0
-1012 3500 3501 3502 0
-3545 -18 0
-3545 1112 0
-3546 -37 0
-3546 1031 0
-3547 -52 0
1016 -3547 0
3545 -1014 3547 3546 0
-3548 -19 0
-3548 1113 0
-3549 -38 0
1032 -3549 0
-3550 -53 0
-3550 1017 0
3549 -1014 3548 3550 0
-20 -3551 0
1114 -3551 0
-3552 -39 0
-3552 1033 0
-3553 -54 0
-3553 1018 0
3551 3553 -1014 3552 0
-3554 -21 0
1115 -3554 0
-3555 -40 0
-3555 1034 0
-3556 -55 0
-3556 1019 0
3555 -1014 3554 3556 0
-3557 -22 0
1116 -3557 0
-3558 -41 0
-3558 1035 0
-3559 -56 0
-3559 1020 0
3557 -1014 3559 3558 0
-3560 -23 0
-3560 1117 0
-3561 -42 0
1036 -3561 0
-3562 -57 0
-3562 1021 0
3561 -1014 3562 3560 0
-3566 -13 0
1006 -3567 0
-3568 1003 0
3567 -1015 3566 3568 0
1104 -3569 0
-3570 -34 0
-3571 1013 0
3569 -1015 3570 3571 0
1111 -3572 0
-3573 1030 0
-3574 -51 0
3572 -1015 3573 3574 0
-3575 -18 0
-3575 1118 0
-3576 -37 0
-3576 1037 0
-3577 -58 0
-3577 1016 0
3575 3576 3577 -1015 0
-3578 -19 0
-3578 1119 0
-38 -3579 0
-3579 1038 0
-3580 -59 0
-3580 1017 0
-1015 3579 3578 3580 0
-3581 -20 0
-3581 1120 0
-3582 -39 0
-3582 1039 0
-3583 -60 0
-3583 1018 0
3581 -1015 3583 3582 0
-3584 -21 0
1121 -3584 0
-3585 -40 0
-3585 1040 0
-3586 -61 0
-3586 1019 0
-1015 3585 3584 3586 0
-3587 -22 0
1122 -3587 0
-3588 -41 0
-3588 1041 0
-3589 -62 0
-3589 1020 0
3587 -1015 3588 3589 0
-3590 -23 0
1123 -3590 0
-3591 -42 0
-3591 1042 0
-3592 -63 0
-3592 1021 0
3592 3590 -1015 3591 0
-3596 -13 0
-3597 1007 0
-3598 1003 0
3597 -1016 3596 3598 0
1105 -3599 0
-3600 -34 0
-3601 1013 0
3599 -1016 3600 3601 0
-3602 1112 0
-3603 -35 0
-3603 1031 0
-3604 -52 0
-3604 1014 0
3602 3603 3604 -1016 0
-3605 1118 0
-3606 -36 0
-3606 1037 0
-3607 -58 0
-3607 1015 0
3605 3606 3607 -1016 0
-3608 -19 0
-3608 1124 0
-3609 -38 0
1043 -3609 0
-3610 -64 0
-3610 1017 0
3609 -1016 3608 3610 0
-3611 -20 0
1125 -3611 0
-3612 -39 0
-3612 1044 0
-3613 -65 0
-3613 1018 0
3611 -1016 3613 3612 0
-3614 -21 0
1126 -3614 0
-3615 -40 0
-3615 1045 0
-3616 -66 0
-3616 1019 0
-1016 3615 3614 3616 0
-3617 -22 0
-3617 1127 0
-3618 -41 0
-3618 1046 0
-3619 -67 0
-3619 1020 0
-1016 3617 3619 3618 0
-3620 -23 0
-3620 1128 0
-3621 -42 0
-3621 1047 0
-3622 -68 0
-3622 1021 0
3621 3622 -1016 3620 0
-3623 -1 0
-3624 -3 0
-3625 -8 0
-1017 3625 3624 3623 0
-3626 -13 0
-3627 1008 0
-3628 1003 0
3627 -1017 3626 3628 0
-3629 1106 0
-3630 -34 0
-3631 1013 0
3629 -1017 3630 3631 0
-3632 1113 0
-3633 -35 0
-3633 1032 0
-3634 -53 0
-3634 1014 0
-1017 3634 3633 3632 0
-3635 1119 0
-3636 -36 0
-3636 1038 0
-3637 -59 0
-3637 1015 0
-1017 3635 3636 3637 0
-3638 -18 0
-3638 1124 0
-3639 -37 0
-3639 1043 0
-3640 -64 0
-3640 1016 0
-1017 3639 3638 3640 0
-3641 -20 0
-3641 1129 0
-3642 -39 0
-3642 1048 0
-3643 -69 0
-3643 1018 0
-1017 3641 3643 3642 0
-3644 -21 0
-3644 1130 0
-3645 -40 0
-3645 1049 0
-3646 -70 0
-3646 1019 0
-1017 3645 3644 3646 0
-3647 -22 0
-3647 1131 0
-3648 -41 0
-3648 1050 0
-3649 -71 0
-3649 1020 0
-1017 3647 3648 3649 0
-3650 -23 0
-3650 1132 0
-3651 -42 0
-3651 1051 0
-3652 -72 0
-3652 1021 0
-1017 3651 3650 3652 0
-3656 -13 0
-3657 1009 0
-3658 1003 0
3657 -1018 3656 3658 0
-3659 1107 0
-3660 -34 0
-3661 1013 0
-1018 3659 3660 3661 0
1114 -3662 0
-3663 -35 0
-3663 1033 0
-3664 -54 0
-3664 1014 0
3662 -1018 3664 3663 0
-3665 1120 0
-3666 -36 0
-3666 1039 0
-3667 -60 0
-3667 1015 0
3665 -1018 3667 3666 0
-3668 -18 0
-3668 1125 0
-3669 -37 0
-3669 1044 0
-3670 -65 0
-3670 1016 0
-1018 3669 3668 3670 0
-3671 -19 0
-3671 1129 0
-3672 -38 0
-3672 1048 0
-3673 -69 0
-3673 1017 0
3672 -1018 3671 3673 0
-3674 -21 0
-3674 1133 0
-3675 -40 0
-3675 1052 0
-3676 -73 0
-3676 1019 0
-1018 3675 3674 3676 0
-3677 -22 0
-3677 1134 0
-3678 -41 0
-3678 1053 0
-3679 -74 0
-3679 1020 0
-1018 3677 3678 3679 0
-3680 -23 0
-3680 1135 0
-3681 -42 0
-3681 1054 0
-3682 -75 0
-3682 1021 0
-1018 3682 3681 3680 0
-3686 -13 0
-3687 1010 0
-3688 1003 0
-1019 3687 3686 3688 0
-3689 1108 0
-3690 -34 0
-3691 1013 0
-1019 3689 3690 3691 0
-3692 1115 0
-3693 -35 0
-3693 1034 0
-3694 1014 0
-1019 3692 3693 3694 0
-3695 1121 0
-3696 -36 0
-3696 1040 0
-3697 -61 0
-3697 1015 0
3695 -1019 3696 3697 0
-3698 -18 0
-3698 1126 0
-3699 -37 0
-3699 1045 0
-3700 -66 0
-3700 1016 0
-1019 3700 3698 3699 0
-3701 -19 0
-3701 1130 0
-3702 -38 0
-3702 1049 0
-3703 -70 0
-3703 1017 0
-1019 3702 3701 3703 0
-3704 -20 0
-3704 1133 0
-3705 -39 0
-3705 1052 0
-3706 -73 0
-3706 1018 0
-1019 3705 3706 3704 0
-3707 -22 0
-3707 1136 0
-3708 -41 0
-3708 1055 0
-3709 -76 0
-3709 1020 0
-1019 3707 3709 3708 0
-3710 -23 0
-3710 1137 0
-3711 -42 0
-3711 1056 0
-3712 -77 0
-3712 1021 0
-1019 3712 3711 3710 0
-3716 -13 0
-3717 1011 0
-3718 1003 0
3717 -1020 3716 3718 0
-3719 1109 0
-3720 -34 0
-3721 1013 0
-1020 3719 3720 3721 0
-3722 1116 0
-3723 -35 0
-3723 1035 0
-3724 -56 0
-3724 1014 0
3722 -1020 3724 3723 0
1122 -3725 0
-3726 -36 0
-3726 1041 0
-3727 -62 0
-3727 1015 0
3725 -1020 3727 3726 0
-3728 -18 0
-3728 1127 0
-3729 -37 0
-3729 1046 0
-3730 -67 0
-3730 1016 0
3729 -1020 3728 3730 0
-3731 -19 0
-3731 1131 0
-3732 -38 0
-3732 1050 0
-3733 -71 0
-3733 1017 0
-1020 3732 3733 3731 0
-3734 -20 0
-3734 1134 0
-3735 -39 0
-3735 1053 0
-3736 -74 0
-3736 1018 0
3734 -1020 3735 3736 0
-3737 -21 0
-3737 1136 0
-3738 -40 0
-3738 1055 0
-3739 -76 0
-3739 1019 0
-1020 3738 3737 3739 0
-3740 -23 0
1138 -3740 0
-3741 -42 0
-3741 1057 0
-3742 -78 0
-3742 1021 0
3742 -1020 3740 3741 0
-3746 -13 0
-3747 1012 0
-3748 1003 0
3747 -1021 3746 3748 0
-3749 1110 0
-3750 -34 0
-3751 1013 0
3749 -1021 3750 3751 0
-3752 1117 0
-3753 -35 0
-3753 1036 0
-3754 -57 0
-3754 1014 0
3753 -1021 3754 3752 0
1123 -3755 0
-3756 -36 0
-3756 1042 0
-3757 1015 0
3755 3757 -1021 3756 0
-3758 -18 0
-3758 1128 0
-3759 -37 0
-3759 1047 0
-3760 -68 0
-3760 1016 0
3759 -1021 3758 3760 0
-3761 -19 0
-3761 1132 0
-3762 -38 0
-3762 1051 0
-3763 -72 0
-3763 1017 0
3762 -1021 3763 3761 0
-3764 -20 0
-3764 1135 0
-3765 -39 0
-3765 1054 0
-3766 -75 0
-3766 1018 0
3764 -1021 3766 3765 0
-3767 -21 0
-3767 1137 0
-3768 -40 0
-3768 1056 0
-3769 -77 0
-3769 1019 0
-1021 3768 3767 3769 0
-3770 -22 0
-3770 1138 0
-3771 -41 0
-3771 1057 0
-3772 -78 0
-3772 1020 0
-1021 3770 3771 3772 0
-3773 -1 0
-3774 -4 0
939 -3775 0
3775 -1022 3774 3773 0
-3779 1103 0
-3780 -34 0
-3781 1013 0
-1022 3779 3780 3781 0
1139 -3782 0
-3783 1030 0
-3784 -51 0
3782 -1022 3783 3784 0
-3785 -18 0
-3785 1140 0
-3786 -45 0
-3786 1031 0
-3787 -52 0
-3787 1024 0
3785 -1022 3786 3787 0
-3788 -19 0
-3788 1141 0
-3789 -46 0
-3789 1032 0
-3790 -53 0
-3790 1025 0
3789 -1022 3788 3790 0
-20 -3791 0
1142 -3791 0
-3792 -47 0
-3792 1033 0
-3793 -54 0
-3793 1026 0
3791 3793 -1022 3792 0
-3794 -21 0
1143 -3794 0
-3795 -48 0
-3795 1034 0
-3796 -55 0
-3796 1027 0
3795 -1022 3794 3796 0
-3797 -22 0
1144 -3797 0
-3798 -49 0
-3798 1035 0
-3799 -56 0
-3799 1028 0
3797 -1022 3799 3798 0
-3800 -23 0
1145 -3800 0
-3801 -50 0
-3801 1036 0
-3802 -57 0
1029 -3802 0
3800 3801 -1022 3802 0
-3803 -1 0
-3804 -4 0
939 -3805 0
3805 -1023 3804 3803 0
-3806 -13 0
-3807 1006 0
-3808 -27 0
3807 -1023 3806 3808 0
1104 -3809 0
-3810 -34 0
-3811 1013 0
3809 -1023 3810 3811 0
-3815 -18 0
-3815 1146 0
-3816 -45 0
-3816 1037 0
-3817 -58 0
-3817 1024 0
-1023 3816 3817 3815 0
-3818 -19 0
-3818 1147 0
-3819 -46 0
-3819 1038 0
-3820 -59 0
-3820 1025 0
-1023 3819 3818 3820 0
-3821 -20 0
-3821 1148 0
-3822 -47 0
-3822 1039 0
-3823 -60 0
-3823 1026 0
3821 -1023 3822 3823 0
-3824 -21 0
-3824 1149 0
-3825 -48 0
-3825 1040 0
-3826 -61 0
-3826 1027 0
-1023 3825 3824 3826 0
-3827 -22 0
1150 -3827 0
-3828 -49 0
-3828 1041 0
-3829 -62 0
-3829 1028 0
-1023 3827 3829 3828 0
-3830 -23 0
-3830 1151 0
-3831 -50 0
-3831 1042 0
-3832 -63 0
-3832 1029 0
3832 -1023 3831 3830 0
-3833 -1 0
-3834 -4 0
939 -3835 0
3835 -1024 3834 3833 0
-3836 -13 0
-3837 1007 0
-3838 1004 0
-1024 3837 3836 3838 0
-3839 1105 0
-3840 -34 0
-3841 1013 0
3839 -1024 3840 3841 0
-3842 1140 0
-3843 -43 0
-3843 1031 0
-3844 -52 0
-3844 1022 0
-1024 3843 3844 3842 0
-3845 1146 0
-3846 -44 0
-3846 1037 0
-3847 -58 0
-3847 1023 0
-1024 3845 3846 3847 0
-3848 -19 0
-3848 1152 0
-3849 -46 0
-3849 1043 0
-3850 -64 0
-3850 1025 0
-1024 3849 3848 3850 0
-3851 -20 0
-3851 1153 0
-3852 -47 0
-3852 1044 0
-3853 -65 0
-3853 1026 0
-1024 3851 3852 3853 0
-3854 -21 0
-3855 -48 0
-3855 1045 0
-3856 -66 0
-3856 1027 0
-1024 3855 3854 3856 0
-3857 -22 0
-3858 -49 0
-3858 1046 0
-3859 -67 0
-3859 1028 0
-1024 3858 3857 3859 0
-3860 -23 0
-3860 1156 0
-3861 -50 0
-3861 1047 0
-3862 -68 0
-3862 1029 0
-1024 3862 3861 3860 0
-3863 -1 0
-3864 -4 0
939 -3865 0
3865 -1025 3864 3863 0
-3866 -13 0
-3867 1008 0
-3868 1004 0
3867 -1025 3866 3868 0
-3869 1106 0
-3870 -34 0
-3871 1013 0
-1025 3869 3870 3871 0
-3872 1141 0
-3873 1032 0
-3874 1022 0
3872 3874 3873 -1025 0
-3875 1147 0
-3876 -44 0
-3876 1038 0
-3877 -59 0
-3877 1023 0
3877 -1025 3875 3876 0
-3878 -18 0
-3878 1152 0
-3879 -45 0
-3879 1043 0
-3880 -64 0
-3880 1024 0
-1025 3879 3878 3880 0
-3881 -20 0
-3881 1157 0
-3882 -47 0
-3882 1048 0
-3883 -69 0
-3883 1026 0
3881 -1025 3883 3882 0
-3884 -21 0
-3885 -48 0
-3885 1049 0
-3886 -70 0
-3886 1027 0
-1025 3885 3884 3886 0
-3887 -22 0
1159 -3887 0
-3888 -49 0
-3888 1050 0
-3889 -71 0
-3889 1028 0
-1025 3888 3887 3889 0
-3890 -23 0
1160 -3890 0
-3891 -50 0
-3891 1051 0
-3892 -72 0
-3892 1029 0
-1025 3892 3891 3890 0
-3893 -1 0
-3894 -4 0
939 -3895 0
3895 -1026 3894 3893 0
-3896 -13 0
-3897 1009 0
-3898 1004 0
3897 -1026 3896 3898 0
-3899 1107 0
-3900 -34 0
-3901 1013 0
-1026 3899 3900 3901 0
-3902 1142 0
-3903 -43 0
-3903 1033 0
-3904 -54 0
-3904 1022 0
3902 -1026 3904 3903 0
1148 -3905 0
-3906 -44 0
-3906 1039 0
-3907 -60 0
-3907 1023 0
3905 3907 -1026 3906 0
-3908 -18 0
-3908 1153 0
-3909 -45 0
-3909 1044 0
-3910 -65 0
-3910 1024 0
-1026 3909 3908 3910 0
-3911 -19 0
-3911 1157 0
-3912 -46 0
-3912 1048 0
-3913 -69 0
-3913 1025 0
3913 -1026 3911 3912 0
-3914 -21 0
-3914 1161 0
-3915 -48 0
-3915 1052 0
-3916 -73 0
-3916 1027 0
-1026 3915 3914 3916 0
-3917 -22 0
-3917 1162 0
-3918 -49 0
-3918 1053 0
-3919 -74 0
-3919 1028 0
-1026 3918 3917 3919 0
-3920 -23 0
-3920 1163 0
-3921 -50 0
-3921 1054 0
-3922 -75 0
-3922 1029 0
-1026 3922 3921 3920 0
-3923 -1 0
-3924 -4 0
939 -3925 0
-1027 3925 3924 3923 0
-3926 -13 0
-3927 1010 0
-3928 1004 0
-1027 3927 3926 3928 0
-3929 1108 0
-3930 -34 0
-3931 1013 0
-1027 3929 3930 3931 0
-3932 1143 0
-3933 -43 0
-3934 1022 0
-1027 3932 3933 3934 0
-3935 1149 0
-3936 -44 0
-3936 1040 0
-3937 -61 0
-3937 1023 0
-1027 3935 3937 3936 0
-3938 -18 0
-3938 1154 0
-3939 -45 0
-3939 1045 0
-3940 -66 0
-3940 1024 0
-1027 3939 3938 3940 0
-3941 -19 0
-3941 1158 0
-3942 -46 0
-3942 1049 0
-3943 -70 0
-3943 1025 0
-1027 3942 3941 3943 0
-3944 -20 0
-3944 1161 0
-3945 -47 0
-3945 1052 0
-3946 -73 0
-3946 1026 0
-1027 3945 3946 3944 0
-3947 -22 0
-3947 1164 0
-3948 -49 0
-3948 1055 0
-3949 -76 0
-3949 1028 0
-1027 3947 3949 3948 0
-3950 -23 0
-3950 1165 0
-3951 -50 0
-3951 1056 0
-3952 -77 0
-3952 1029 0
-1027 3952 3951 3950 0
-3953 -1 0
-3954 -4 0
939 -3955 0
3955 -1028 3954 3953 0
-3956 -13 0
-3957 1011 0
-3958 1004 0
3957 -1028 3956 3958 0
-3959 1109 0
-3960 -34 0
-3961 1013 0
-1028 3959 3960 3961 0
-3962 1144 0
-3963 -43 0
-3964 1022 0
3962 -1028 3964 3963 0
1150 -3965 0
-3966 -44 0
-3966 1041 0
-3967 -62 0
-3967 1023 0
3965 -1028 3967 3966 0
-3968 -18 0
-3968 1155 0
-3969 -45 0
-3969 1046 0
-3970 -67 0
-3970 1024 0
-1028 3969 3968 3970 0
-3971 -19 0
-3971 1159 0
-3972 -46 0
-3972 1050 0
-3973 -71 0
-3973 1025 0
-1028 3972 3973 3971 0
-3974 -20 0
-3974 1162 0
-3975 -47 0
-3975 1053 0
-3976 -74 0
-3976 1026 0
3974 -1028 3975 3976 0
-3977 -21 0
-3977 1164 0
-3978 -48 0
-3978 1055 0
-3979 -76 0
-3979 1027 0
-1028 3978 3977 3979 0
-3980 -23 0
-3980 1166 0
-3981 -50 0
-3981 1057 0
-3982 -78 0
-3982 1029 0
3982 -1028 3981 3980 0
-3983 -1 0
-3984 -4 0
939 -3985 0
3985 -1029 3984 3983 0
-3986 -13 0
-3987 1012 0
-3988 1004 0
3987 -1029 3986 3988 0
-3989 1110 0
-3990 -34 0
-3991 1013 0
3989 -1029 3990 3991 0
-3992 1145 0
-3993 -43 0
-3994 1022 0
3992 -1029 3994 3993 0
-3995 1151 0
-3996 -44 0
-3996 1042 0
-3997 -63 0
-3997 1023 0
3997 -1029 3995 3996 0
-3998 -18 0
-3998 1156 0
-3999 -45 0
-3999 1047 0
-4000 -68 0
-4000 1024 0
-1029 3999 3998 4000 0
-4001 -19 0
-4001 1160 0
-4002 -46 0
-4002 1051 0
-4003 -72 0
-4003 1025 0
-1029 4002 4003 4001 0
-4004 -20 0
-4004 1163 0
-4005 -47 0
-4005 1054 0
-4006 -75 0
-4006 1026 0
4004 -1029 4006 4005 0
-4007 -21 0
-4007 1165 0
-4008 -48 0
-4008 1056 0
-4009 -77 0
-4009 1027 0
-1029 4008 4007 4009 0
-4010 -22 0
-4011 -49 0
-4011 1057 0
-4012 -78 0
-4012 1028 0
-1029 4011 4010 4012 0
-4043 -1 0
-4044 942 0
-4045 940 0
-1031 4044 4043 4045 0
-4049 1112 0
-4050 -35 0
-4050 1016 0
-4051 -37 0
-4051 1014 0
4049 4051 -1031 4050 0
-4052 1140 0
-4053 -43 0
-4053 1024 0
-4054 -45 0
-4054 1022 0
-1031 4052 4054 4053 0
-4058 -19 0
-4058 1173 0
-4059 -53 0
1043 -4059 0
-4060 -64 0
-4060 1032 0
-1031 4060 4058 4059 0
-4061 -20 0
1174 -4061 0
-4062 -54 0
-4062 1044 0
-4063 -65 0
-4063 1033 0
4061 -1031 4062 4063 0
-4064 -21 0
1175 -4064 0
-4065 -55 0
-4065 1045 0
-4066 -66 0
-4066 1034 0
-1031 4066 4064 4065 0
-4067 -22 0
-4067 1176 0
-4068 -56 0
-4068 1046 0
-4069 -67 0
-4069 1035 0
-1031 4069 4067 4068 0
-4070 -23 0
1177 -4070 0
-4071 -57 0
1047 -4071 0
-4072 -68 0
-4072 1036 0
-1031 4072 4071 4070 0
-4073 -1 0
943 -4074 0
-4075 940 0
4074 -1032 4073 4075 0
-4079 1113 0
-4080 -35 0
-4080 1017 0
-4081 -38 0
-4081 1014 0
4081 4079 4080 -1032 0
-4082 1141 0
-4083 -43 0
-4083 1025 0
-4084 -46 0
1022 -4084 0
4082 4084 4083 -1032 0
1168 -4085 0
-4086 -51 0
-4087 1030 0
4085 -1032 4086 4087 0
-4088 -18 0
1173 -4088 0
-4089 -52 0
1043 -4089 0
-4090 -64 0
-4090 1031 0
4088 -1032 4089 4090 0
-4091 -20 0
1178 -4091 0
-4092 -54 0
-4092 1048 0
-4093 -69 0
-4093 1033 0
4091 4093 4092 -1032 0
-4094 -21 0
1179 -4094 0
-4095 -55 0
-4095 1049 0
-4096 -70 0
-4096 1034 0
4095 -1032 4094 4096 0
-4097 -22 0
1180 -4097 0
-4098 -56 0
-4098 1050 0
-4099 -71 0
-4099 1035 0
4098 4097 -1032 4099 0
-4100 -23 0
1181 -4100 0
-4101 -57 0
1051 -4101 0
-4102 -72 0
-4102 1036 0
4102 -1032 4101 4100 0
-4103 -1 0
-4104 944 0
-4105 940 0
-1033 4104 4103 4105 0
-4109 1114 0
-4110 -35 0
-4110 1018 0
-4111 -39 0
-4111 1014 0
-1033 4109 4111 4110 0
-4112 1142 0
-4113 1026 0
-4114 1022 0
4114 -1033 4112 4113 0
-4115 1169 0
-4116 -51 0
-4117 1030 0
-1033 4115 4116 4117 0
-4118 -18 0
-4118 1174 0
-4119 -52 0
-4119 1044 0
-4120 -65 0
-4120 1031 0
-1033 4118 4120 4119 0
-4121 -19 0
-4121 1178 0
-4122 -53 0
-4122 1048 0
-4123 -69 0
-4123 1032 0
-1033 4123 4121 4122 0
-4124 -21 0
-4124 1182 0
-4125 -55 0
-4125 1052 0
-4126 -73 0
-4126 1034 0
-1033 4125 4124 4126 0
-4127 -22 0
-4127 1183 0
-4128 -56 0
-4128 1053 0
-4129 -74 0
-4129 1035 0
-1033 4128 4127 4129 0
-4130 -23 0
-4130 1184 0
-4131 -57 0
-4131 1054 0
-4132 -75 0
-4132 1036 0
-1033 4132 4130 4131 0
-4133 -1 0
-4134 945 0
-4135 940 0
4134 -1034 4133 4135 0
-4139 1115 0
-4140 -35 0
-4140 1019 0
-4141 -40 0
-4141 1014 0
4139 4141 4140 -1034 0
-4142 1143 0
-4143 -43 0
-4143 1027 0
-4144 -48 0
-4144 1022 0
4142 4144 -1034 4143 0
-4145 1170 0
-4146 -51 0
-4147 1030 0
4145 -1034 4146 4147 0
-4148 -18 0
-4148 1175 0
-4149 -52 0
-4149 1045 0
-4150 -66 0
-4150 1031 0
4148 -1034 4150 4149 0
-4151 -19 0
-4151 1179 0
-4152 -53 0
-4152 1049 0
-4153 -70 0
-4153 1032 0
4153 4152 -1034 4151 0
-4154 -20 0
-4154 1182 0
-4155 -54 0
-4155 1052 0
-4156 -73 0
-4156 1033 0
4155 4156 -1034 4154 0
-4157 -22 0
-4157 1185 0
-4158 -56 0
-4158 1055 0
-4159 -76 0
-4159 1035 0
4158 4157 -1034 4159 0
-4160 -23 0
-4160 1186 0
-4161 -57 0
-4161 1056 0
-4162 -77 0
-4162 1036 0
4160 -1034 4161 4162 0
-4163 -1 0
-4164 946 0
-4165 940 0
-1035 4164 4163 4165 0
-4169 1116 0
-4170 1020 0
-4171 1014 0
4169 4171 4170 -1035 0
-4172 1144 0
-4173 -43 0
-4173 1028 0
-4174 -49 0
-4174 1022 0
4172 4174 4173 -1035 0
-4178 -18 0
-4178 1176 0
-4179 -52 0
-4179 1046 0
-4180 -67 0
-4180 1031 0
-1035 4179 4178 4180 0
-4181 -19 0
-4181 1180 0
-4182 -53 0
-4182 1050 0
-4183 -71 0
-4183 1032 0
-1035 4182 4183 4181 0
-4184 -20 0
-4184 1183 0
-4185 -54 0
-4185 1053 0
-4186 -74 0
-4186 1033 0
4184 -1035 4185 4186 0
-4187 -21 0
-4187 1185 0
-4188 -55 0
-4188 1055 0
-4189 -76 0
-4189 1034 0
-1035 4188 4187 4189 0
-4190 -23 0
-4190 1187 0
-4191 -57 0
-4191 1057 0
-4192 -78 0
-4192 1036 0
4192 -1035 4191 4190 0
-4193 -1 0
-4194 947 0
-4195 940 0
4194 -1036 4193 4195 0
-4199 1117 0
-4200 -35 0
-4200 1021 0
-4201 1014 0
4201 4200 4199 -1036 0
-4202 1145 0
-4203 -43 0
-4203 1029 0
-4204 1022 0
4202 -1036 4204 4203 0
-4205 1172 0
-4206 -51 0
-4207 1030 0
-1036 4205 4206 4207 0
-4208 -18 0
-4208 1177 0
-4209 -52 0
-4209 1047 0
-4210 -68 0
-4210 1031 0
-1036 4208 4209 4210 0
-4211 -19 0
-4211 1181 0
-4212 -53 0
-4212 1051 0
-4213 -72 0
-4213 1032 0
-1036 4212 4213 4211 0
-4214 -20 0
-4214 1184 0
-4215 -54 0
-4215 1054 0
-4216 -75 0
-4216 1033 0
4214 -1036 4215 4216 0
-4217 -21 0
-4217 1186 0
-4218 -55 0
-4218 1056 0
-4219 -77 0
-4219 1034 0
-1036 4219 4217 4218 0
-4220 -22 0
-4220 1187 0
-4221 -56 0
-4221 1057 0
-4222 -78 0
-4222 1035 0
-1036 4220 4222 4221 0
-4223 -1 0
-4224 942 0
-4225 941 0
4224 -1037 4223 4225 0
-4226 -13 0
-4227 -27 0
-4228 1006 0
4228 -1037 4227 4226 0
-4229 1118 0
-4230 -36 0
-4230 1016 0
-4231 -37 0
-4231 1015 0
4229 4230 -1037 4231 0
-4232 1146 0
-4233 -44 0
-4233 1024 0
-4234 -45 0
-4234 1023 0
4232 4233 4234 -1037 0
-4235 1167 0
-4236 -51 0
-4237 1030 0
-1037 4235 4236 4237 0
-4238 -19 0
-4238 1188 0
-4239 -59 0
-4239 1043 0
-4240 -64 0
-4240 1038 0
4239 -1037 4238 4240 0
-4241 -20 0
1189 -4241 0
-4242 -60 0
-4242 1044 0
-4243 -65 0
-4243 1039 0
4241 -1037 4242 4243 0
-4244 -21 0
1190 -4244 0
-4245 -61 0
-4245 1045 0
-4246 -66 0
-4246 1040 0
-1037 4245 4244 4246 0
-4247 -22 0
1191 -4247 0
-4248 -62 0
-4248 1046 0
-4249 -67 0
-4249 1041 0
-1037 4247 4249 4248 0
-4250 -23 0
-4250 1192 0
-4251 -63 0
-4251 1047 0
-4252 -68 0
-4252 1042 0
4251 4252 -1037 4250 0
-4253 -1 0
943 -4254 0
-4255 941 0
4254 -1038 4253 4255 0
-4256 -13 0
-4257 -27 0
-4258 1006 0
-1038 4258 4257 4256 0
-4259 1119 0
-4260 -36 0
-4260 1017 0
-4261 -38 0
-4261 1015 0
4259 4261 4260 -1038 0
-4262 1147 0
-4263 -44 0
-4263 1025 0
-4264 -46 0
-4264 1023 0
-1038 4262 4263 4264 0
1168 -4265 0
-4266 -51 0
-4267 1030 0
4265 -1038 4266 4267 0
-4268 -18 0
-4268 1188 0
-4269 -58 0
1043 -4269 0
-4270 -64 0
-4270 1037 0
-1038 4268 4269 4270 0
-4271 -20 0
1193 -4271 0
-4272 -60 0
-4272 1048 0
-4273 -69 0
-4273 1039 0
4271 -1038 4272 4273 0
-4274 -21 0
1194 -4274 0
-4275 -61 0
-4275 1049 0
-4276 -70 0
-4276 1040 0
-1038 4275 4274 4276 0
-4277 -22 0
1195 -4277 0
-4278 -62 0
-4278 1050 0
-4279 -71 0
-4279 1041 0
-1038 4277 4278 4279 0
-4280 -23 0
1196 -4280 0
-4281 -63 0
-4281 1051 0
-4282 -72 0
-4282 1042 0
-1038 4281 4280 4282 0
-4283 -1 0
-4284 944 0
-4285 941 0
-1039 4284 4283 4285 0
-4286 -13 0
-4287 -27 0
-4288 1006 0
-1039 4288 4287 4286 0
-4289 1120 0
-4290 -36 0
-4290 1018 0
-4291 -39 0
-4291 1015 0
-1039 4291 4290 4289 0
-4292 1148 0
-4293 -44 0
-4293 1026 0
-4294 -47 0
-4294 1023 0
-1039 4292 4294 4293 0
-4295 1169 0
-4296 -51 0
-4297 1030 0
-1039 4295 4296 4297 0
-4298 -18 0
-4298 1189 0
-4299 -58 0
-4299 1044 0
-4300 -65 0
-4300 1037 0
-1039 4298 4300 4299 0
-4301 -19 0
-4301 1193 0
-4302 -59 0
-4302 1048 0
-4303 -69 0
-4303 1038 0
-1039 4303 4302 4301 0
-4304 -21 0
-4304 1197 0
-4305 -61 0
-4305 1052 0
-4306 -73 0
-4306 1040 0
-1039 4305 4304 4306 0
-4307 -22 0
-4307 1198 0
-4308 -62 0
-4308 1053 0
-4309 -74 0
-4309 1041 0
-1039 4307 4308 4309 0
-4310 -23 0
-4310 1199 0
-4311 -63 0
-4311 1054 0
-4312 -75 0
-4312 1042 0
-1039 4312 4310 4311 0
-4313 -1 0
-4314 945 0
-4315 941 0
-1040 4314 4313 4315 0
-4316 -13 0
-4317 -27 0
-4318 1006 0
4318 -1040 4317 4316 0
-4319 1121 0
-4320 -36 0
-4321 1015 0
4319 -1040 4321 4320 0
-4322 1149 0
-4323 -44 0
-4323 1027 0
-4324 -48 0
-4324 1023 0
-1040 4322 4324 4323 0
-4325 1170 0
-4326 -51 0
-4327 1030 0
-1040 4325 4326 4327 0
-4328 -18 0
-4328 1190 0
-4329 -58 0
-4329 1045 0
-4330 -66 0
-4330 1037 0
-1040 4328 4330 4329 0
-4331 -19 0
-4331 1194 0
-4332 -59 0
-4332 1049 0
-4333 -70 0
-4333 1038 0
-1040 4333 4332 4331 0
-4334 -20 0
-4334 1197 0
-4335 -60 0
-4335 1052 0
-4336 -73 0
-4336 1039 0
-1040 4335 4336 4334 0
-4337 -22 0
-4337 1200 0
-4338 -62 0
-4338 1055 0
-4339 -76 0
-4339 1041 0
-1040 4337 4339 4338 0
-4340 -23 0
-4340 1201 0
-4341 -63 0
-4341 1056 0
-4342 -77 0
-4342 1042 0
-1040 4341 4340 4342 0
-4343 -1 0
-4344 946 0
-4345 941 0
-1041 4344 4343 4345 0
-4346 -13 0
-4347 -27 0
-4348 1006 0
-1041 4348 4347 4346 0
-4349 1122 0
-4350 -36 0
-4350 1020 0
-4351 1015 0
-1041 4349 4350 4351 0
-4352 1150 0
-4353 1028 0
-4354 1023 0
4352 -1041 4353 4354 0
-4355 1171 0
-4356 -51 0
-4357 1030 0
-1041 4355 4356 4357 0
-4358 -18 0
-4358 1191 0
-4359 -58 0
-4359 1046 0
-4360 -67 0
-4360 1037 0
-1041 4358 4360 4359 0
-4361 -19 0
-4361 1195 0
-4362 -59 0
-4362 1050 0
-4363 -71 0
-4363 1038 0
-1041 4362 4363 4361 0
-4364 -20 0
-4364 1198 0
-4365 -60 0
-4365 1053 0
-4366 -74 0
-4366 1039 0
-1041 4364 4365 4366 0
-4367 -21 0
-4368 -61 0
-4368 1055 0
-4369 -76 0
-4369 1040 0
-1041 4368 4367 4369 0
-4370 -23 0
-4370 1202 0
-4371 -63 0
-4371 1057 0
-4372 -78 0
-4372 1042 0
-1041 4371 4370 4372 0
-4373 -1 0
-4374 947 0
-4375 941 0
4374 -1042 4373 4375 0
-4376 -13 0
-4377 -27 0
-4378 1006 0
-1042 4378 4377 4376 0
-4379 1123 0
-4380 -36 0
-4380 1021 0
-4381 1015 0
-1042 4381 4380 4379 0
-4382 1151 0
-4383 -44 0
-4383 1029 0
-4384 1023 0
-1042 4383 4384 4382 0
-4385 1172 0
-4386 -51 0
-4387 1030 0
-1042 4385 4386 4387 0
-4388 -18 0
-4388 1192 0
-4389 -58 0
-4389 1047 0
-4390 -68 0
-4390 1037 0
-1042 4390 4388 4389 0
-4391 -19 0
-4391 1196 0
-4392 -59 0
-4392 1051 0
-4393 -72 0
-4393 1038 0
-1042 4392 4393 4391 0
-4394 -20 0
-4394 1199 0
-4395 -60 0
-4395 1054 0
-4396 -75 0
-4396 1039 0
-1042 4394 4395 4396 0
-4397 -21 0
-4397 1201 0
-4398 -61 0
-4398 1056 0
-4399 -77 0
-4399 1040 0
-1042 4399 4397 4398 0
-4400 -22 0
-4400 1202 0
-4401 -62 0
-4401 1057 0
-4402 -78 0
-4402 1041 0
-1042 4400 4402 4401 0
-4403 -1 0
-4404 -7 0
-4404 943 0
-4405 -8 0
-4405 942 0
4404 -1043 4405 4403 0
-4406 -13 0
-4407 1008 0
-4408 1007 0
4408 -1043 4407 4406 0
-4409 1124 0
-4410 -37 0
-4410 1017 0
-4411 1016 0
4409 4411 -1043 4410 0
1152 -4412 0
-4413 -45 0
-4413 1025 0
-4414 -46 0
-4414 1024 0
4412 -1043 4413 4414 0
-4415 1173 0
-4416 -52 0
-4416 1032 0
-4417 -53 0
-4417 1031 0
4415 -1043 4416 4417 0
-4418 1188 0
-4419 -58 0
-4419 1038 0
-4420 -59 0
-4420 1037 0
4418 -1043 4420 4419 0
-4421 -20 0
1203 -4421 0
-4422 -65 0
-4422 1048 0
-4423 -69 0
-4423 1044 0
4421 -1043 4422 4423 0
-4424 -21 0
-4425 -66 0
-4425 1049 0
-4426 -70 0
-4426 1045 0
-1043 4426 4424 4425 0
-4427 -22 0
1205 -4427 0
-4428 -67 0
-4428 1050 0
-4429 -71 0
-4429 1046 0
-1043 4428 4427 4429 0
-4430 -23 0
1206 -4430 0
-4431 -68 0
-4431 1051 0
-4432 -72 0
-4432 1047 0
4431 -1043 4432 4430 0
-4433 -1 0
-4434 -7 0
-4434 944 0
-4435 -9 0
-4435 942 0
-1044 4434 4435 4433 0
-4436 -13 0
-4437 1009 0
-4438 1007 0
-1044 4438 4437 4436 0
-4439 1125 0
-4440 -37 0
-4440 1018 0
-4441 -39 0
-4441 1016 0
-1044 4439 4441 4440 0
-4442 1153 0
-4443 -45 0
-4443 1026 0
-4444 -47 0
-4444 1024 0
-1044 4442 4443 4444 0
-4445 1174 0
-4446 -52 0
-4446 1033 0
-4447 -54 0
-4447 1031 0
4445 -1044 4446 4447 0
-4448 1189 0
-4449 -58 0
-4449 1039 0
-4450 -60 0
-4450 1037 0
-1044 4448 4450 4449 0
-4451 -19 0
-4451 1203 0
-4452 -64 0
-4452 1048 0
-4453 -69 0
-4453 1043 0
4453 -1044 4451 4452 0
-4454 -21 0
-4454 1207 0
-4455 -66 0
-4455 1052 0
-4456 -73 0
-4456 1045 0
-1044 4456 4454 4455 0
-4457 -22 0
-4457 1208 0
-4458 -67 0
-4458 1053 0
-4459 -74 0
-4459 1046 0
-1044 4459 4457 4458 0
-4460 -23 0
-4460 1209 0
-4461 -68 0
-4461 1054 0
-4462 -75 0
-4462 1047 0
-1044 4462 4460 4461 0
-4463 -1 0
-4464 -7 0
-4464 945 0
-4465 -10 0
-4465 942 0
-1045 4464 4465 4463 0
-4466 -13 0
-4467 1010 0
-4468 1007 0
-1045 4468 4467 4466 0
-4469 1126 0
-4470 -37 0
-4470 1019 0
-4471 -40 0
-4471 1016 0
4469 -1045 4470 4471 0
-4472 1154 0
-4473 -45 0
-4473 1027 0
-4474 1024 0
-1045 4474 4473 4472 0
-4475 1175 0
-4476 -52 0
-4476 1034 0
-4477 -55 0
-4477 1031 0
4475 -1045 4477 4476 0
-4478 1190 0
-4479 -58 0
-4479 1040 0
-4480 -61 0
-4480 1037 0
-1045 4478 4480 4479 0
-4481 -19 0
-4481 1204 0
-4482 -64 0
-4482 1049 0
-4483 -70 0
-4483 1043 0
-1045 4483 4482 4481 0
-4484 -20 0
-4484 1207 0
-4485 -65 0
-4485 1052 0
-4486 -73 0
-4486 1044 0
-1045 4484 4486 4485 0
-4487 -22 0
-4487 1210 0
-4488 -67 0
-4488 1055 0
-4489 -76 0
-4489 1046 0
-1045 4489 4487 4488 0
-4490 -23 0
-4490 1211 0
-4491 -68 0
-4491 1056 0
-4492 -77 0
-4492 1047 0
-1045 4491 4490 4492 0
-4493 -1 0
-4494 946 0
-4495 -11 0
-4495 942 0
-1046 4494 4495 4493 0
-4496 -13 0
-4497 1011 0
-4498 1007 0
-1046 4498 4497 4496 0
-4499 1127 0
-4500 -37 0
-4500 1020 0
-4501 -41 0
-4501 1016 0
4499 4501 4500 -1046 0
-4502 1155 0
-4503 -45 0
-4503 1028 0
-4504 1024 0
4502 -1046 4503 4504 0
-4505 1176 0
-4506 -52 0
-4506 1035 0
-4507 1031 0
4507 4506 4505 -1046 0
1191 -4508 0
-4509 -58 0
-4509 1041 0
-4510 1037 0
4508 -1046 4510 4509 0
-4511 -19 0
-4511 1205 0
-4512 -64 0
-4512 1050 0
-4513 -71 0
-4513 1043 0
-1046 4512 4513 4511 0
-4514 -20 0
1208 -4514 0
-4515 -65 0
-4515 1053 0
-4516 -74 0
-4516 1044 0
4514 -1046 4516 4515 0
-4517 -21 0
1210 -4517 0
-4518 -66 0
-4518 1055 0
-4519 -76 0
-4519 1045 0
-1046 4518 4517 4519 0
-4520 -23 0
-4520 1212 0
-4521 -68 0
-4521 1057 0
-4522 -78 0
-4522 1047 0
4522 -1046 4520 4521 0
-4523 -1 0
-4524 947 0
-4525 -12 0
-4525 942 0
-1047 4524 4525 4523 0
-4526 -13 0
-4527 1012 0
-4528 -33 0
-4528 1007 0
-1047 4528 4527 4526 0
-4529 1128 0
-4530 -37 0
-4530 1021 0
-4531 -42 0
-4531 1016 0
4529 4530 4531 -1047 0
-4532 1156 0
-4533 -45 0
-4533 1029 0
-4534 -50 0
-4534 1024 0
4532 -1047 4533 4534 0
-4535 1177 0
-4536 -52 0
-4536 1036 0
-4537 1031 0
4535 4537 4536 -1047 0
-4538 1192 0
-4539 -58 0
-4539 1042 0
-4540 1037 0
4540 4538 4539 -1047 0
-4541 -19 0
-4541 1206 0
-4542 -64 0
-4542 1051 0
-4543 -72 0
-4543 1043 0
-1047 4542 4543 4541 0
-4544 -20 0
1209 -4544 0
-4545 -65 0
-4545 1054 0
-4546 -75 0
-4546 1044 0
4544 -1047 4546 4545 0
-4547 -21 0
1211 -4547 0
-4548 -66 0
-4548 1056 0
-4549 -77 0
-4549 1045 0
-1047 4548 4547 4549 0
-4550 -22 0
1212 -4550 0
-4551 -67 0
-4551 1057 0
-4552 -78 0
-4552 1046 0
-1047 4552 4550 4551 0
-4553 -1 0
-4554 -8 0
-4554 944 0
-4555 943 0
-1048 4554 4555 4553 0
-4556 -13 0
-4557 1009 0
-4558 -30 0
-4558 1008 0
-1048 4558 4557 4556 0
-4559 1129 0
-4560 -38 0
-4560 1018 0
-4561 1017 0
-1048 4561 4560 4559 0
-4562 1157 0
-4563 -46 0
-4563 1026 0
-4564 -47 0
-4564 1025 0
-1048 4564 4563 4562 0
-4565 1178 0
-4566 -53 0
-4566 1033 0
-4567 -54 0
-4567 1032 0
-1048 4565 4567 4566 0
-4568 1193 0
-4569 -59 0
-4569 1039 0
-4570 -60 0
-4570 1038 0
4568 -1048 4569 4570 0
-4571 -18 0
-4571 1203 0
-4572 -64 0
-4572 1044 0
-4573 -65 0
-4573 1043 0
-1048 4573 4571 4572 0
-4574 -21 0
-4574 1213 0
-4575 -70 0
-4575 1052 0
-4576 -73 0
-4576 1049 0
-1048 4576 4574 4575 0
-4577 -22 0
-4577 1214 0
-4578 -71 0
-4578 1053 0
-4579 -74 0
-4579 1050 0
-1048 4579 4577 4578 0
-4580 -23 0
-4580 1215 0
-4581 -72 0
-4581 1054 0
-4582 -75 0
-4582 1051 0
-1048 4582 4580 4581 0
-4583 -1 0
-4584 -8 0
-4584 945 0
-4585 -10 0
-4585 943 0
-1049 4584 4585 4583 0
-4586 -13 0
-4587 1010 0
-4588 -31 0
-4588 1008 0
-1049 4588 4587 4586 0
-4589 1130 0
-4590 -38 0
-4590 1019 0
-4591 1017 0
-1049 4589 4590 4591 0
-4592 1158 0
-4593 -46 0
-4593 1027 0
-4594 -48 0
-4594 1025 0
-1049 4592 4593 4594 0
-4595 1179 0
-4596 -53 0
-4596 1034 0
-4597 -55 0
-4597 1032 0
-1049 4597 4596 4595 0
-4598 1194 0
-4599 -59 0
-4599 1040 0
-4600 -61 0
-4600 1038 0
4598 -1049 4599 4600 0
-4601 1204 0
-4602 -64 0
-4602 1045 0
-4603 -66 0
-4603 1043 0
-1049 4602 4601 4603 0
-4604 -20 0
-4604 1213 0
-4605 -69 0
-4605 1052 0
-4606 -73 0
-4606 1048 0
-1049 4604 4606 4605 0
-4607 -22 0
-4607 1216 0
-4608 -71 0
-4608 1055 0
-4609 -76 0
-4609 1050 0
-1049 4609 4607 4608 0
-4610 -23 0
-4610 1217 0
-4611 -72 0
-4611 1056 0
-4612 -77 0
-4612 1051 0
-1049 4612 4610 4611 0
-4613 -1 0
-4614 -8 0
-4614 946 0
-4615 -11 0
-4615 943 0
-1050 4614 4615 4613 0
-4616 -13 0
-4617 1011 0
-4618 1008 0
-1050 4618 4617 4616 0
-4619 1131 0
-4620 -38 0
-4620 1020 0
-4621 1017 0
4619 -1050 4620 4621 0
-4622 1159 0
-4623 -46 0
-4623 1028 0
-4624 1025 0
4622 4624 4623 -1050 0
1180 -4625 0
-4626 -53 0
-4626 1035 0
-4627 -56 0
-4627 1032 0
4625 -1050 4627 4626 0
1195 -4628 0
-4629 -59 0
-4629 1041 0
-4630 -62 0
-4630 1038 0
4628 -1050 4630 4629 0
-4631 -18 0
-4631 1205 0
-4632 -64 0
-4632 1046 0
-4633 -67 0
-4633 1043 0
4633 -1050 4632 4631 0
-4634 -20 0
1214 -4634 0
-4635 -69 0
-4635 1053 0
-4636 -74 0
-4636 1048 0
4634 -1050 4636 4635 0
-4637 -21 0
1216 -4637 0
-4638 -70 0
-4638 1055 0
-4639 -76 0
-4639 1049 0
-1050 4638 4637 4639 0
-4640 -23 0
-4640 1218 0
-4641 -72 0
-4641 1057 0
-4642 -78 0
-4642 1051 0
4642 -1050 4640 4641 0
-4643 -1 0
-4644 -8 0
-4644 947 0
-4645 -12 0
-4645 943 0
4645 -1051 4644 4643 0
-4646 -13 0
-4647 1012 0
-4648 -33 0
-4648 1008 0
4647 -1051 4648 4646 0
-4649 1132 0
-4650 -38 0
-4650 1021 0
-4651 -42 0
-4651 1017 0
4650 -1051 4649 4651 0
-4652 1160 0
-4653 -46 0
-4653 1029 0
-4654 -50 0
-4654 1025 0
4652 -1051 4654 4653 0
1181 -4655 0
-4656 -53 0
-4656 1036 0
-4657 -57 0
-4657 1032 0
4655 -1051 4657 4656 0
-4658 1196 0
-4659 -59 0
-4659 1042 0
-4660 -63 0
-4660 1038 0
-1051 4658 4660 4659 0
-4661 -18 0
-4661 1206 0
-4662 -64 0
-4662 1047 0
-4663 -68 0
-4663 1043 0
-1051 4663 4662 4661 0
-4664 -20 0
1215 -4664 0
-4665 -69 0
-4665 1054 0
-4666 -75 0
-4666 1048 0
4664 -1051 4666 4665 0
-4667 -21 0
1217 -4667 0
-4668 -70 0
-4668 1056 0
-4669 -77 0
-4669 1049 0
-1051 4668 4667 4669 0
-4670 -22 0
-4671 -71 0
-4671 1057 0
-4672 -78 0
-4672 1050 0
-1051 4672 4670 4671 0
-4673 -1 0
-4674 -9 0
-4674 945 0
-4675 -10 0
-4675 944 0
-1052 4674 4675 4673 0
-4676 -13 0
-4677 1010 0
-4678 -31 0
-4678 1009 0
-1052 4678 4677 4676 0
-4679 1133 0
-4680 -39 0
-4680 1019 0
-4681 -40 0
-4681 1018 0
-1052 4679 4680 4681 0
-4682 1161 0
-4683 -47 0
-4683 1027 0
-4684 1026 0
-1052 4682 4683 4684 0
-4685 1182 0
-4686 -54 0
-4686 1034 0
-4687 -55 0
-4687 1033 0
-1052 4686 4685 4687 0
-4688 1197 0
-4689 -60 0
-4689 1040 0
-4690 -61 0
-4690 1039 0
-1052 4689 4690 4688 0
-4691 1207 0
-4692 -65 0
-4692 1045 0
-4693 -66 0
-4693 1044 0
-1052 4692 4691 4693 0
-4694 1213 0
-4695 -69 0
-4695 1049 0
-4696 -70 0
-4696 1048 0
-1052 4695 4694 4696 0
-4697 -22 0
-4697 1219 0
-4698 -74 0
-4698 1055 0
-4699 -76 0
-4699 1053 0
-1052 4699 4697 4698 0
-4700 -23 0
-4700 1220 0
-4701 -75 0
-4701 1056 0
-4702 -77 0
-4702 1054 0
-1052 4701 4700 4702 0
-4703 -1 0
-4704 -9 0
-4704 946 0
-4705 -11 0
-4705 944 0
-1053 4704 4705 4703 0
-4706 -13 0
-4707 1011 0
-4708 1009 0
-1053 4708 4707 4706 0
-4709 1134 0
-4710 -39 0
-4710 1020 0
-4711 -41 0
-4711 1018 0
-1053 4709 4710 4711 0
-4712 1162 0
-4713 -47 0
-4713 1028 0
-4714 -49 0
-4714 1026 0
-1053 4712 4714 4713 0
-4715 1183 0
-4716 -54 0
-4716 1035 0
-4717 -56 0
-4717 1033 0
-1053 4715 4716 4717 0
-4718 1198 0
-4719 -60 0
-4719 1041 0
-4720 -62 0
-4720 1039 0
-1053 4718 4719 4720 0
-4721 -18 0
-4721 1208 0
-4722 -65 0
-4722 1046 0
-4723 -67 0
-4723 1044 0
-1053 4722 4721 4723 0
-4724 -19 0
-4724 1214 0
-4725 -69 0
-4725 1050 0
-4726 -71 0
-4726 1048 0
-1053 4725 4726 4724 0
-4727 -21 0
-4727 1219 0
-4728 -73 0
-4728 1055 0
-4729 -76 0
-4729 1052 0
-1053 4728 4727 4729 0
-4730 -23 0
-4730 1221 0
-4731 -75 0
-4731 1057 0
-4732 -78 0
-4732 1054 0
-1053 4731 4730 4732 0
-4733 -1 0
-4734 -9 0
-4734 947 0
-4735 -12 0
-4735 944 0
-1054 4735 4734 4733 0
-4736 -13 0
-4737 1012 0
-4738 1009 0
-1054 4737 4738 4736 0
-4739 1135 0
-4740 -39 0
-4740 1021 0
-4741 -42 0
-4741 1018 0
-1054 4740 4741 4739 0
-4742 1163 0
-4743 -47 0
-4743 1029 0
-4744 -50 0
-4744 1026 0
4742 -1054 4744 4743 0
-4745 1184 0
-4746 -54 0
-4746 1036 0
-4747 -57 0
-4747 1033 0
-1054 4745 4746 4747 0
-4748 1199 0
-4749 -60 0
-4749 1042 0
-4750 -63 0
-4750 1039 0
-1054 4748 4749 4750 0
-4751 -18 0
-4751 1209 0
-4752 -65 0
-4752 1047 0
-4753 -68 0
-4753 1044 0
-1054 4752 4751 4753 0
-4754 -19 0
-4754 1215 0
-4755 -69 0
-4755 1051 0
-4756 -72 0
-4756 1048 0
-1054 4755 4754 4756 0
-4757 -21 0
-4757 1220 0
-4758 -73 0
-4758 1056 0
-4759 -77 0
-4759 1052 0
-1054 4758 4757 4759 0
-4760 -22 0
-4760 1221 0
-4761 -74 0
-4761 1057 0
-4762 -78 0
-4762 1053 0
-1054 4762 4760 4761 0
-4763 -1 0
-4764 -10 0
-4764 946 0
-4765 -11 0
-4765 945 0
-1055 4764 4765 4763 0
-4766 -13 0
-4767 1011 0
-4768 -32 0
-4768 1010 0
-1055 4768 4767 4766 0
-4769 1136 0
-4770 -40 0
-4770 1020 0
-4771 -41 0
-4771 1019 0
-1055 4769 4771 4770 0
-4772 1164 0
-4773 1028 0
-4774 1027 0
-1055 4772 4773 4774 0
-4775 1185 0
-4776 -55 0
-4776 1035 0
-4777 -56 0
-4777 1034 0
-1055 4775 4776 4777 0
-4778 1200 0
-4779 -61 0
-4779 1041 0
-4780 -62 0
-4780 1040 0
-1055 4778 4780 4779 0
-4781 1210 0
-4782 1046 0
-4783 -67 0
-4783 1045 0
-1055 4782 4781 4783 0
-4784 -19 0
-4784 1216 0
-4785 -70 0
-4785 1050 0
-4786 -71 0
-4786 1049 0
-1055 4785 4784 4786 0
-4787 -20 0
-4787 1219 0
-4788 -73 0
-4788 1053 0
-4789 -74 0
-4789 1052 0
-1055 4787 4789 4788 0
-4790 -23 0
-4790 1222 0
-4791 -77 0
-4791 1057 0
-4792 -78 0
-4792 1056 0
-1055 4792 4790 4791 0
-4793 -1 0
-4794 -10 0
-4794 947 0
-4795 -12 0
-4795 945 0
-1056 4795 4794 4793 0
-4796 -13 0
-4797 1012 0
-4798 -33 0
-4798 1010 0
-1056 4797 4798 4796 0
-4799 1137 0
-4800 -40 0
-4800 1021 0
-4801 -42 0
-4801 1019 0
4799 -1056 4800 4801 0
-4802 1165 0
-4803 -48 0
-4803 1029 0
-4804 -50 0
-4804 1027 0
4802 -1056 4803 4804 0
-4805 1186 0
-4806 -55 0
-4806 1036 0
-4807 -57 0
-4807 1034 0
-1056 4806 4807 4805 0
-4808 1201 0
-4809 -61 0
-4809 1042 0
-4810 -63 0
-4810 1040 0
-1056 4808 4810 4809 0
-4811 -18 0
-4811 1211 0
-4812 -66 0
-4812 1047 0
-4813 -68 0
-4813 1045 0
4812 -1056 4811 4813 0
-4814 -19 0
-4814 1217 0
-4815 -70 0
-4815 1051 0
-4816 -72 0
-4816 1049 0
-1056 4815 4814 4816 0
-4817 -20 0
-4817 1220 0
-4818 -73 0
-4818 1054 0
-4819 -75 0
-4819 1052 0
-1056 4817 4819 4818 0
-4820 -22 0
-4820 1222 0
-4821 -76 0
-4821 1057 0
-4822 -78 0
-4822 1055 0
-1056 4821 4820 4822 0
-4823 -1 0
-4824 947 0
-4825 -12 0
-4825 946 0
-1057 4825 4824 4823 0
-4826 -13 0
-4827 1012 0
-4828 -33 0
-4828 1011 0
-1057 4827 4828 4826 0
-4829 1138 0
-4830 -41 0
-4830 1021 0
-4831 -42 0
-4831 1020 0
4829 4830 4831 -1057 0
-4832 1166 0
-4833 1029 0
-4834 -50 0
-4834 1028 0
4832 -1057 4834 4833 0
-4835 1187 0
-4836 -56 0
-4836 1036 0
-4837 -57 0
-4837 1035 0
-1057 4836 4837 4835 0
-4838 1202 0
-4839 1042 0
-4840 1041 0
-1057 4840 4839 4838 0
-4841 -18 0
-4841 1212 0
-4842 -67 0
-4842 1047 0
-4843 -68 0
-4843 1046 0
-1057 4843 4841 4842 0
-4844 -19 0
-4844 1218 0
-4845 -71 0
-4845 1051 0
-4846 -72 0
-4846 1050 0
-1057 4846 4844 4845 0
-4847 -20 0
-4847 1221 0
-4848 -74 0
-4848 1054 0
-4849 -75 0
-4849 1053 0
-1057 4847 4848 4849 0
-4850 -21 0
-4851 -76 0
-4851 1056 0
-4852 -77 0
-4852 1055 0
-1057 4852 4850 4851 0
-4892 -27 0
-4893 -36 0
-4894 -51 0
4893 -1059 4892 4894 0
-4895 1112 0
-4896 -37 0
-4896 1076 0
-4897 1061 0
4896 -1059 4895 4897 0
-4898 1113 0
-4899 -38 0
-4899 1077 0
-4900 -53 0
-4900 1062 0
-1059 4898 4899 4900 0
-4901 -30 0
-4901 1114 0
-4902 -39 0
-4902 1078 0
-4903 -54 0
-4903 1063 0
4902 -1059 4903 4901 0
-4904 -31 0
-4904 1115 0
-40 -4905 0
-4905 1079 0
-4906 -55 0
-4906 1064 0
-1059 4904 4906 4905 0
-4907 -32 0
-4907 1116 0
-4908 -41 0
-4908 1080 0
-4909 -56 0
-4909 1065 0
-1059 4907 4908 4909 0
-4910 -33 0
-4910 1117 0
-4911 -42 0
-4911 1081 0
-4912 -57 0
-4912 1066 0
4911 -1059 4910 4912 0
-4916 -13 0
-4917 1006 0
-4918 1003 0
4917 -1060 4916 4918 0
1104 -4919 0
-4920 -34 0
-4921 1058 0
4919 -1060 4920 4921 0
-4925 1118 0
-4926 -37 0
-4926 1082 0
-4927 -58 0
-4927 1061 0
4926 4925 4927 -1060 0
-4928 1119 0
-4929 -38 0
-4929 1083 0
-4930 -59 0
-4930 1062 0
4928 -1060 4929 4930 0
-4931 -30 0
-4931 1120 0
1084 -4932 0
-4933 -60 0
-4933 1063 0
4932 -1060 4933 4931 0
-4934 -31 0
-4934 1121 0
-40 -4935 0
-4935 1085 0
-4936 -61 0
-4936 1064 0
-1060 4934 4935 4936 0
-4937 -32 0
-4937 1122 0
-4938 -41 0
-4938 1086 0
-4939 -62 0
-4939 1065 0
-1060 4937 4938 4939 0
-4940 -33 0
-4940 1123 0
-4941 -42 0
-4941 1087 0
-4942 -63 0
-4942 1066 0
4942 -1060 4941 4940 0
-4946 -13 0
-4947 1007 0
-4948 1003 0
-1061 4947 4946 4948 0
-4949 1105 0
-4950 -34 0
-4951 1058 0
-1061 4949 4950 4951 0
-4952 -26 0
-4953 1076 0
-4954 -52 0
-4954 1059 0
-1061 4953 4954 4952 0
-4955 -27 0
-4956 1082 0
-4957 1060 0
-1061 4956 4957 4955 0
-4958 -29 0
-4958 1124 0
-4959 -38 0
-4959 1088 0
-4960 -64 0
-4960 1062 0
-1061 4958 4960 4959 0
-4961 -30 0
-4961 1125 0
-4962 -39 0
-4962 1089 0
-4963 -65 0
-4963 1063 0
-1061 4962 4961 4963 0
-4964 -31 0
1126 -4964 0
-4965 -40 0
-4965 1090 0
-4966 -66 0
-4966 1064 0
-1061 4964 4966 4965 0
-4967 -32 0
-4967 1127 0
-4968 -41 0
-4968 1091 0
-4969 -67 0
-4969 1065 0
-1061 4967 4968 4969 0
-4970 -33 0
-4970 1128 0
-4971 -42 0
-4971 1092 0
-4972 -68 0
-4972 1066 0
-1061 4971 4970 4972 0
-4976 -13 0
-4977 1008 0
-4978 1003 0
4977 -1062 4976 4978 0
-4979 1106 0
-4980 -34 0
-4981 1058 0
-1062 4979 4980 4981 0
-4982 -26 0
-4983 1077 0
-4984 1059 0
-1062 4983 4984 4982 0
-4985 -27 0
-4986 1083 0
-59 -4987 0
-4987 1060 0
-1062 4986 4987 4985 0
1124 -4988 0
-4989 -37 0
-4989 1088 0
-4990 -64 0
-4990 1061 0
-1062 4989 4988 4990 0
-4991 -30 0
-4991 1129 0
-4992 -39 0
-4992 1093 0
-4993 -69 0
-4993 1063 0
4992 -1062 4991 4993 0
-4994 -31 0
-4994 1130 0
-40 -4995 0
-4995 1094 0
-4996 -70 0
-4996 1064 0
-1062 4994 4996 4995 0
-4997 -32 0
-4997 1131 0
-4998 -41 0
-4998 1095 0
-4999 -71 0
-4999 1065 0
-1062 4997 4998 4999 0
-5000 -33 0
-5000 1132 0
-5001 -42 0
-5001 1096 0
-5002 -72 0
-5002 1066 0
-1062 5000 5002 5001 0
-5006 -13 0
-5007 1009 0
-5008 1003 0
5007 -1063 5006 5008 0
-5009 1107 0
-5010 -34 0
-5011 1058 0
-1063 5009 5010 5011 0
-5012 -26 0
-5013 1078 0
-5014 1059 0
5013 -1063 5014 5012 0
-5015 -27 0
-5016 1084 0
-5017 1060 0
5016 -1063 5017 5015 0
-5018 -28 0
1125 -5018 0
-5019 -37 0
-5019 1089 0
-5020 -65 0
-5020 1061 0
-1063 5019 5018 5020 0
-5021 -29 0
-5021 1129 0
-5022 -38 0
-5022 1093 0
-5023 -69 0
-5023 1062 0
5022 -1063 5021 5023 0
-5024 -31 0
-5024 1133 0
-5025 -40 0
-5025 1097 0
-5026 -73 0
-5026 1064 0
-1063 5024 5026 5025 0
-5027 -32 0
-5027 1134 0
-5028 -41 0
-5028 1098 0
-5029 -74 0
-5029 1065 0
-1063 5027 5028 5029 0
-5030 -33 0
-5030 1135 0
-5031 -42 0
-5031 1099 0
-5032 -75 0
-5032 1066 0
-1063 5032 5030 5031 0
-5033 -2 0
-5034 -3 0
-5035 -10 0
-1064 5035 5034 5033 0
-5036 -13 0
-5037 1010 0
-5038 1003 0
-1064 5037 5036 5038 0
-5039 1108 0
-5040 -34 0
-5041 1058 0
5039 -1064 5040 5041 0
-5042 -26 0
-5043 1079 0
-5044 -55 0
-5044 1059 0
5043 -1064 5044 5042 0
-5045 -27 0
-5046 1085 0
-5047 1060 0
-1064 5046 5047 5045 0
-5048 1126 0
-5049 -37 0
-5049 1090 0
-5050 -66 0
-5050 1061 0
-1064 5049 5048 5050 0
-5051 -29 0
-5051 1130 0
-5052 -38 0
-5052 1094 0
-5053 -70 0
-5053 1062 0
-1064 5051 5053 5052 0
-5054 -30 0
-5054 1133 0
-5055 -39 0
-5055 1097 0
-5056 -73 0
-5056 1063 0
-1064 5055 5054 5056 0
-5057 -32 0
-5057 1136 0
-5058 -41 0
-5058 1100 0
-5059 -76 0
-5059 1065 0
-1064 5058 5059 5057 0
-5060 -33 0
-5060 1137 0
-5061 -42 0
-5061 1101 0
-5062 -77 0
-5062 1066 0
-1064 5062 5060 5061 0
-5066 -13 0
-5067 1011 0
-5068 1003 0
5067 -1065 5066 5068 0
-5069 1109 0
-5070 -34 0
-5071 1058 0
-1065 5069 5070 5071 0
-5072 -26 0
-5073 1080 0
-5074 -56 0
-5074 1059 0
5073 -1065 5074 5072 0
-5075 -27 0
-5076 1086 0
-5077 1060 0
5076 5077 -1065 5075 0
-5078 1127 0
-5079 -37 0
-5079 1091 0
-5080 -67 0
-5080 1061 0
5080 5079 5078 -1065 0
-5081 -29 0
-5081 1131 0
-5082 -38 0
-5082 1095 0
-5083 -71 0
-5083 1062 0
5081 -1065 5083 5082 0
-5084 1134 0
-5085 -39 0
-5085 1098 0
-5086 -74 0
-5086 1063 0
5085 5086 -1065 5084 0
-5087 -31 0
-5087 1136 0
-5088 -40 0
-5088 1100 0
-5089 -76 0
-5089 1064 0
5087 5089 -1065 5088 0
-5090 -33 0
1138 -5090 0
-5091 -42 0
-5091 1102 0
-5092 -78 0
-5092 1066 0
5092 5090 5091 -1065 0
-5093 -2 0
-5094 -3 0
-12 -5095 0
5095 -1066 5094 5093 0
-5096 -13 0
1012 -5097 0
-5098 1003 0
5097 -1066 5096 5098 0
1110 -5099 0
-5100 -34 0
-5101 1058 0
5099 -1066 5100 5101 0
-5102 -26 0
-5103 1081 0
-5104 -57 0
-5104 1059 0
5103 -1066 5104 5102 0
-5105 -27 0
-5106 1087 0
-5107 1060 0
-1066 5107 5106 5105 0
1128 -5108 0
-5109 -37 0
-5109 1092 0
-5110 -68 0
-5110 1061 0
5109 5110 5108 -1066 0
-5111 -29 0
-5111 1132 0
-5112 -38 0
-5112 1096 0
-5113 -72 0
-5113 1062 0
5111 -1066 5113 5112 0
-5114 -30 0
-5114 1135 0
-5115 -39 0
-5115 1099 0
-5116 -75 0
-5116 1063 0
5115 -1066 5114 5116 0
-5117 -31 0
-5117 1137 0
-5118 -40 0
-5118 1101 0
-5119 -77 0
-5119 1064 0
-1066 5117 5119 5118 0
-5120 -32 0
-5120 1138 0
-5121 -41 0
-5121 1102 0
-5122 -78 0
-5122 1065 0
-1066 5120 5121 5122 0
-5123 -2 0
-5124 -4 0
949 -5125 0
5125 -1067 5124 5123 0
-5129 1103 0
-5130 -34 0
-5131 1058 0
-1067 5129 5130 5131 0
-5132 -27 0
-5133 -44 0
-5134 -51 0
-1067 5133 5132 5134 0
-5135 1140 0
-5136 -45 0
-5136 1076 0
-5137 -52 0
-5137 1069 0
-1067 5135 5137 5136 0
-5138 -29 0
1141 -5138 0
-5139 -46 0
-5139 1077 0
-5140 -53 0
-5140 1070 0
5138 -1067 5139 5140 0
-5141 -30 0
-5141 1142 0
-5142 -47 0
-5142 1078 0
-5143 -54 0
-5143 1071 0
5142 -1067 5143 5141 0
-5144 -31 0
-5144 1143 0
-5145 -48 0
-5145 1079 0
-5146 -55 0
-5146 1072 0
-1067 5144 5145 5146 0
-5147 -32 0
-5147 1144 0
-5148 -49 0
-5148 1080 0
-5149 -56 0
-5149 1073 0
-1067 5147 5148 5149 0
-5150 -33 0
-5150 1145 0
-5151 -50 0
-5151 1081 0
-5152 -57 0
-5152 1074 0
-1067 5150 5151 5152 0
-5153 -2 0
-5154 -4 0
949 -5155 0
5155 -1068 5154 5153 0
-5156 -13 0
-5157 1006 0
-5158 1004 0
5157 -1068 5156 5158 0
1104 -5159 0
-5160 -34 0
-5161 1058 0
5159 -1068 5160 5161 0
-5162 -26 0
-5163 -43 0
-5164 -51 0
-1068 5163 5162 5164 0
-5165 1146 0
-5166 -45 0
-5166 1082 0
-5167 -58 0
-5167 1069 0
-1068 5165 5167 5166 0
-5168 1147 0
-5169 -46 0
-5169 1083 0
-5170 -59 0
-5170 1070 0
5168 -1068 5170 5169 0
-5171 -30 0
-5171 1148 0
-5172 -47 0
-5172 1084 0
-5173 -60 0
-5173 1071 0
-1068 5172 5173 5171 0
-5174 -31 0
-5174 1149 0
-48 -5175 0
-5175 1085 0
-5176 -61 0
-5176 1072 0
-1068 5174 5176 5175 0
-5177 -32 0
-5177 1150 0
-5178 -49 0
-5178 1086 0
-5179 -62 0
-5179 1073 0
-1068 5178 5177 5179 0
-5180 -33 0
-5180 1151 0
-5181 -50 0
-5181 1087 0
-5182 -63 0
-5182 1074 0
-1068 5182 5180 5181 0
-5183 -2 0
-5184 -4 0
-5185 -7 0
949 -5185 0
5185 -1069 5184 5183 0
-5186 -13 0
-5187 1007 0
-5188 1004 0
5187 -1069 5186 5188 0
1105 -5189 0
-5190 -34 0
-5191 1058 0
5189 -1069 5190 5191 0
-5192 -26 0
-5193 1076 0
-5194 1067 0
-1069 5193 5194 5192 0
-5195 -27 0
-5196 1082 0
-5197 1068 0
5196 -1069 5197 5195 0
1152 -5198 0
-5199 -46 0
-5199 1088 0
-5200 -64 0
-5200 1070 0
5198 -1069 5200 5199 0
-5201 -30 0
-5201 1153 0
-5202 -47 0
-5202 1089 0
-5203 -65 0
-5203 1071 0
5202 -1069 5201 5203 0
-5204 -31 0
-5204 1154 0
-48 -5205 0
-5205 1090 0
-5206 -66 0
-5206 1072 0
-1069 5204 5206 5205 0
-5207 -32 0
-5207 1155 0
-5208 -49 0
-5208 1091 0
-5209 -67 0
-5209 1073 0
-1069 5208 5207 5209 0
-5210 -33 0
-5210 1156 0
-5211 -50 0
-5211 1092 0
-5212 -68 0
-5212 1074 0
-1069 5210 5211 5212 0
-5213 -2 0
-5214 -4 0
949 -5215 0
5215 -1070 5214 5213 0
-5216 -13 0
-5217 1008 0
-5218 1004 0
5217 -1070 5216 5218 0
-5219 1106 0
-5220 -34 0
-5221 1058 0
-1070 5219 5220 5221 0
-5222 -26 0
-5223 1077 0
-5224 1067 0
-1070 5223 5224 5222 0
-5225 -27 0
-5226 -44 0
-5226 1083 0
-5227 1068 0
-1070 5226 5227 5225 0
-5228 1152 0
-5229 -45 0
-5229 1088 0
-5230 -64 0
-5230 1069 0
-1070 5229 5228 5230 0
-5231 -30 0
-5231 1157 0
-5232 -47 0
-5232 1093 0
-5233 -69 0
-5233 1071 0
-1070 5232 5231 5233 0
-5234 -31 0
-5234 1158 0
-5235 -48 0
-5235 1094 0
-5236 -70 0
-5236 1072 0
-1070 5234 5235 5236 0
-5237 -32 0
-5237 1159 0
-5238 -49 0
-5238 1095 0
-5239 -71 0
-5239 1073 0
-1070 5238 5237 5239 0
-5240 -33 0
-5240 1160 0
-5241 -50 0
-5241 1096 0
-5242 -72 0
-5242 1074 0
-1070 5240 5242 5241 0
-5243 -2 0
-5244 -4 0
949 -5245 0
5245 -1071 5244 5243 0
-5246 -13 0
-5247 1009 0
-5248 1004 0
5247 -1071 5246 5248 0
-5249 1107 0
-5250 -34 0
-5251 1058 0
-1071 5249 5250 5251 0
-5252 -26 0
-5253 1078 0
-5254 1067 0
-1071 5253 5254 5252 0
-5255 -27 0
-5256 1084 0
-5257 1068 0
-1071 5256 5257 5255 0
-5258 1153 0
-5259 -45 0
-5259 1089 0
-5260 -65 0
-5260 1069 0
-1071 5259 5258 5260 0
-5261 1157 0
-5262 -46 0
-5262 1093 0
-5263 -69 0
-5263 1070 0
5261 -1071 5263 5262 0
-5264 -31 0
-5264 1161 0
-48 -5265 0
-5265 1097 0
-5266 -73 0
-5266 1072 0
-1071 5264 5266 5265 0
-5267 -32 0
-5267 1162 0
-49 -5268 0
-5268 1098 0
-5269 -74 0
-5269 1073 0
-1071 5268 5267 5269 0
-5270 -33 0
-5270 1163 0
-5271 -50 0
-5271 1099 0
-5272 -75 0
-5272 1074 0
-1071 5270 5272 5271 0
-5273 -2 0
-5274 -4 0
949 -5275 0
5275 -1072 5274 5273 0
-5276 -13 0
-5277 1010 0
-5278 1004 0
-1072 5277 5276 5278 0
-5279 1108 0
-5280 -34 0
-5281 1058 0
-1072 5279 5280 5281 0
-5282 -26 0
-5283 1079 0
-5284 1067 0
-1072 5283 5284 5282 0
-5285 -27 0
-5286 1085 0
-5287 1068 0
-1072 5286 5287 5285 0
-5288 1154 0
-5289 -45 0
-5289 1090 0
-5290 -66 0
-5290 1069 0
-1072 5289 5288 5290 0
-5291 1158 0
-5292 -46 0
-5292 1094 0
-5293 -70 0
-5293 1070 0
-1072 5291 5292 5293 0
-5294 -30 0
-5294 1161 0
-5295 -47 0
-5295 1097 0
-5296 -73 0
-5296 1071 0
-1072 5295 5294 5296 0
-5297 -32 0
-5297 1164 0
-5298 -49 0
-5298 1100 0
-5299 -76 0
-5299 1073 0
-1072 5298 5297 5299 0
-5300 -33 0
-5300 1165 0
-5301 -50 0
-5301 1101 0
-5302 -77 0
-5302 1074 0
-1072 5300 5301 5302 0
-5303 -2 0
-5304 -4 0
949 -5305 0
5305 -1073 5304 5303 0
-5306 -13 0
-5307 1011 0
-5308 1004 0
5307 -1073 5306 5308 0
-5309 1109 0
-5310 -34 0
-5311 1058 0
-1073 5309 5310 5311 0
-5312 -26 0
-5313 1080 0
-5314 1067 0
-1073 5313 5314 5312 0
-5315 -27 0
-5316 1086 0
-5317 1068 0
5316 -1073 5317 5315 0
-5318 1155 0
-5319 -45 0
-5319 1091 0
-5320 -67 0
-5320 1069 0
-1073 5320 5318 5319 0
1159 -5321 0
-5322 -46 0
-5322 1095 0
-5323 -71 0
-5323 1070 0
5321 -1073 5323 5322 0
-5324 -30 0
-5324 1162 0
-5325 -47 0
-5325 1098 0
-5326 -74 0
-5326 1071 0
5325 -1073 5324 5326 0
-5327 -31 0
-5327 1164 0
-5328 -48 0
-5328 1100 0
-5329 -76 0
-5329 1072 0
-1073 5327 5328 5329 0
-5330 -33 0
-5330 1166 0
-5331 -50 0
-5331 1102 0
-5332 -78 0
-5332 1074 0
5330 -1073 5331 5332 0
-5333 -2 0
-5334 -4 0
949 -5335 0
5335 -1074 5334 5333 0
-5336 -13 0
-5337 1012 0
-5338 1004 0
5337 -1074 5336 5338 0
-5339 1110 0
-5340 -34 0
-5341 1058 0
5339 -1074 5340 5341 0
-5342 -26 0
-5343 1081 0
-5344 1067 0
5343 -1074 5344 5342 0
-5345 -27 0
-5346 1087 0
-5347 1068 0
5346 -1074 5347 5345 0
-5348 1156 0
-5349 -45 0
-5349 1092 0
-5350 -68 0
-5350 1069 0
-1074 5350 5349 5348 0
1160 -5351 0
-5352 -46 0
-5352 1096 0
-5353 -72 0
-5353 1070 0
5351 -1074 5353 5352 0
-5354 1163 0
-5355 1099 0
-5356 -75 0
-5356 1071 0
5355 5354 5356 -1074 0
-5357 -31 0
-5357 1165 0
-5358 -48 0
-5358 1101 0
-5359 -77 0
-5359 1072 0
-1074 5357 5358 5359 0
-5360 -32 0
-5360 1166 0
-5361 -49 0
-5361 1102 0
-5362 -78 0
-5362 1073 0
-1074 5361 5360 5362 0
-5381 1169 0
-5382 1084 0
-5383 1078 0
5383 5382 5381 -1075 0
-5384 1170 0
-5385 1085 0
-5386 1079 0
5384 5386 5385 -1075 0
-5387 1171 0
-5388 1086 0
-5389 1080 0
5388 5387 5389 -1075 0
-5390 1172 0
-5391 1087 0
-5392 -63 0
-5392 1081 0
5392 5390 5391 -1075 0
-5393 -2 0
-5394 952 0
-5395 -7 0
5395 -1076 5394 5393 0
-5396 -13 0
-5397 1007 0
-5398 -18 0
-1076 5397 5398 5396 0
-5399 1112 0
-5400 -35 0
-5400 1061 0
-5401 -37 0
-5401 1059 0
5399 -1076 5400 5401 0
-5402 1140 0
-5403 -43 0
-5403 1069 0
-5404 -45 0
-5404 1067 0
-1076 5402 5403 5404 0
-5405 -27 0
-5406 -51 0
-5407 -58 0
-1076 5407 5406 5405 0
-5408 -29 0
1173 -5408 0
-5409 -53 0
-5409 1088 0
-5410 -64 0
-5410 1077 0
5408 -1076 5409 5410 0
-5411 -30 0
-5411 1174 0
-5412 1089 0
-5413 -65 0
-5413 1078 0
5413 -1076 5412 5411 0
-5414 -31 0
-5414 1175 0
-5415 -55 0
-5415 1090 0
-5416 -66 0
-5416 1079 0
-1076 5414 5415 5416 0
-5417 -32 0
-5417 1176 0
-5418 -56 0
-5418 1091 0
-5419 -67 0
-5419 1080 0
-1076 5418 5417 5419 0
-5420 -33 0
-5420 1177 0
-5421 -57 0
-5421 1092 0
-5422 -68 0
-5422 1081 0
-1076 5420 5421 5422 0
-5423 -2 0
-5424 953 0
-5425 -8 0
-1077 5425 5424 5423 0
-5426 -13 0
-5427 1008 0
-5428 -19 0
5427 -1077 5428 5426 0
-5429 1113 0
-5430 -35 0
-5430 1062 0
-5431 -38 0
-5431 1059 0
-1077 5430 5431 5429 0
-5432 1141 0
-5433 1070 0
-5434 -46 0
-5434 1067 0
5432 5433 5434 -1077 0
-5435 -27 0
-5436 -51 0
-5437 -59 0
5437 -1077 5436 5435 0
-5438 1173 0
-5439 -52 0
-5439 1088 0
-5440 -64 0
-5440 1076 0
-1077 5438 5439 5440 0
-5441 -30 0
-5441 1178 0
-5442 -54 0
-5442 1093 0
-5443 -69 0
-5443 1078 0
5443 -1077 5442 5441 0
-5444 -31 0
-5444 1179 0
-5445 -55 0
-5445 1094 0
-5446 -70 0
-5446 1079 0
-1077 5444 5445 5446 0
-5447 -32 0
-5447 1180 0
-5448 -56 0
-5448 1095 0
-5449 -71 0
-5449 1080 0
-1077 5448 5447 5449 0
-5450 -33 0
-5450 1181 0
-5451 -57 0
-5451 1096 0
-5452 -72 0
-5452 1081 0
-1077 5450 5452 5451 0
-5453 -2 0
-5454 954 0
-5455 -9 0
5454 -1078 5455 5453 0
-5456 -13 0
-5457 1009 0
-5458 -20 0
5458 -1078 5457 5456 0
-5459 1114 0
-5460 -35 0
-5460 1063 0
-5461 -39 0
-5461 1059 0
5459 5460 5461 -1078 0
1142 -5462 0
-5463 -43 0
-5463 1071 0
-5464 -47 0
-5464 1067 0
5462 -1078 5464 5463 0
-5465 -27 0
-5466 -51 0
-60 -5467 0
5467 -1078 5466 5465 0
-5468 1174 0
-5469 -52 0
-5469 1089 0
-5470 -65 0
-5470 1076 0
-1078 5470 5468 5469 0
-5471 1178 0
-5472 -53 0
-5472 1093 0
-5473 -69 0
-5473 1077 0
5471 -1078 5473 5472 0
-5474 -31 0
-5474 1182 0
-5475 -55 0
-5475 1097 0
-5476 -73 0
-5476 1079 0
-1078 5474 5475 5476 0
-5477 -32 0
-5477 1183 0
-5478 -56 0
-5478 1098 0
-5479 -74 0
-5479 1080 0
5478 5477 5479 -1078 0
-5480 -33 0
-5480 1184 0
-5481 -57 0
-5481 1099 0
-5482 -75 0
-5482 1081 0
5482 -1078 5481 5480 0
-5483 -2 0
-5484 955 0
-5485 -10 0
-1079 5485 5484 5483 0
-5486 -13 0
-5487 1010 0
-5488 -21 0
-1079 5487 5488 5486 0
1115 -5489 0
-5490 -35 0
-5490 1064 0
-5491 -40 0
-5491 1059 0
5489 -1079 5491 5490 0
1143 -5492 0
-5493 -43 0
-5493 1072 0
-5494 -48 0
-5494 1067 0
5492 -1079 5494 5493 0
-5495 -27 0
-5496 -51 0
-61 -5497 0
5497 -1079 5496 5495 0
-5498 1175 0
-5499 -52 0
-5499 1090 0
-5500 -66 0
-5500 1076 0
-1079 5500 5498 5499 0
-5501 -29 0
1179 -5501 0
-5502 -53 0
-5502 1094 0
-5503 -70 0
-5503 1077 0
5501 -1079 5503 5502 0
-5504 1182 0
-5505 -54 0
-5505 1097 0
-5506 -73 0
-5506 1078 0
5506 -1079 5505 5504 0
-5507 -32 0
-5507 1185 0
-5508 -56 0
-5508 1100 0
-76 -5509 0
-5509 1080 0
5507 5508 5509 -1079 0
-5510 -33 0
-5510 1186 0
-5511 -57 0
-5511 1101 0
-5512 -77 0
-5512 1081 0
5512 5510 5511 -1079 0
-5513 -2 0
-5514 956 0
-5515 -11 0
-1080 5514 5515 5513 0
-5516 -13 0
-5517 1011 0
-5518 -22 0
-1080 5518 5517 5516 0
-5519 1116 0
-5520 -35 0
-5520 1065 0
-5521 -41 0
5519 -1080 5521 5520 0
1144 -5522 0
-5523 -43 0
-5523 1073 0
-5524 -49 0
-5524 1067 0
5522 -1080 5524 5523 0
-5525 -27 0
-5526 -51 0
-5527 -62 0
5527 -1080 5526 5525 0
-5528 1176 0
-5529 -52 0
-5529 1091 0
-5530 -67 0
-5530 1076 0
-1080 5530 5528 5529 0
1180 -5531 0
-5532 -53 0
-5532 1095 0
-5533 -71 0
-5533 1077 0
5531 -1080 5533 5532 0
-5534 1183 0
-5535 -54 0
-5535 1098 0
-5536 -74 0
-5536 1078 0
5536 5535 -1080 5534 0
-5537 1185 0
-5538 -55 0
-5538 1100 0
-5539 -76 0
-5539 1079 0
-1080 5537 5539 5538 0
-5540 -33 0
1187 -5540 0
-5541 -57 0
-5541 1102 0
-5542 -78 0
-5542 1081 0
5542 -1080 5541 5540 0
-5543 -2 0
-5544 957 0
-5545 -12 0
5545 5544 -1081 5543 0
-5546 -13 0
-5547 1012 0
-5548 -23 0
5547 5548 -1081 5546 0
-5549 1117 0
-5550 -35 0
-5550 1066 0
-5551 -42 0
-5551 1059 0
5550 5549 5551 -1081 0
1145 -5552 0
-5553 -43 0
-5553 1074 0
-5554 -50 0
-5554 1067 0
5552 -1081 5554 5553 0
-5555 -27 0
-5556 -51 0
-63 -5557 0
5557 -1081 5556 5555 0
1177 -5558 0
-5559 -52 0
-5559 1092 0
-5560 -68 0
-5560 1076 0
5560 -1081 5558 5559 0
1181 -5561 0
-5562 -53 0
-5562 1096 0
-5563 -72 0
-5563 1077 0
5561 5563 -1081 5562 0
-5564 -30 0
-5564 1184 0
-5565 -54 0
-5565 1099 0
-5566 -75 0
1078 -5566 0
5565 5566 5564 -1081 0
-5567 1186 0
-5568 -55 0
-5568 1101 0
-5569 -77 0
-5569 1079 0
-1081 5567 5568 5569 0
-5570 -32 0
-5570 1187 0
-5571 -56 0
-5571 1102 0
-5572 -78 0
-5572 1080 0
5571 5570 5572 -1081 0
-5573 -2 0
-5574 952 0
-5575 -7 0
-5575 951 0
5575 -1082 5574 5573 0
-5576 -13 0
-5577 1007 0
-5578 -18 0
1006 -5578 0
5577 -1082 5578 5576 0
-5579 1118 0
-5580 -36 0
-5580 1061 0
-5581 -37 0
-5581 1060 0
5579 -1082 5581 5580 0
-5582 1146 0
-5583 -44 0
-5583 1069 0
-5584 -45 0
-5584 1068 0
5582 -1082 5583 5584 0
-5585 -26 0
-5586 -51 0
-5587 -52 0
-1082 5587 5586 5585 0
-5588 -29 0
-5588 1188 0
-5589 -59 0
-5589 1088 0
-5590 -64 0
-5590 1083 0
5588 -1082 5589 5590 0
-5591 -30 0
1189 -5591 0
-5592 -60 0
-5592 1089 0
-5593 -65 0
1084 -5593 0
5593 5592 -1082 5591 0
-5594 -31 0
-5594 1190 0
-5595 -61 0
-5595 1090 0
-5596 -66 0
-5596 1085 0
-1082 5594 5595 5596 0
-5597 -32 0
-5597 1191 0
-5598 -62 0
-5598 1091 0
-5599 -67 0
-5599 1086 0
-1082 5597 5598 5599 0
-5600 -33 0
-5600 1192 0
-5601 -63 0
-5601 1092 0
-5602 -68 0
-5602 1087 0
5601 -1082 5602 5600 0
-5603 -2 0
-5604 953 0
-5605 -8 0
-5605 951 0
-1083 5605 5604 5603 0
-5606 -13 0
-5607 1008 0
-5608 -19 0
-5608 1006 0
5607 -1083 5608 5606 0
-5609 1119 0
-5610 -36 0
-5610 1062 0
-5611 -38 0
-5611 1060 0
-1083 5609 5610 5611 0
-5612 1147 0
-5613 -44 0
-5613 1070 0
-5614 -46 0
-5614 1068 0
5612 -1083 5613 5614 0
-5615 -26 0
-5616 -51 0
-5617 -53 0
-1083 5617 5616 5615 0
-5618 1188 0
-5619 -58 0
-5619 1088 0
-5620 -64 0
-5620 1082 0
-1083 5618 5619 5620 0
-5621 -30 0
-5621 1193 0
-5622 -60 0
-5622 1093 0
-5623 -69 0
-5623 1084 0
-1083 5622 5623 5621 0
-5624 -31 0
-5624 1194 0
-5625 -61 0
-5625 1094 0
-5626 -70 0
-5626 1085 0
-1083 5624 5625 5626 0
-5627 -32 0
-5627 1195 0
-5628 -62 0
-5628 1095 0
-5629 -71 0
-5629 1086 0
-1083 5629 5627 5628 0
-5630 -33 0
-5630 1196 0
-5631 -63 0
-5631 1096 0
-5632 -72 0
-5632 1087 0
-1083 5630 5632 5631 0
-5633 -2 0
-5634 954 0
-5635 -9 0
-5635 951 0
5634 -1084 5635 5633 0
-5636 -13 0
-5637 1009 0
-5638 -20 0
-5638 1006 0
5638 -1084 5637 5636 0
-5639 1120 0
-5640 -36 0
-5640 1063 0
-5641 -39 0
-5641 1060 0
5639 5641 5640 -1084 0
1148 -5642 0
-5643 -44 0
-5643 1071 0
-5644 -47 0
-5644 1068 0
5642 5643 5644 -1084 0
-5645 -26 0
-5646 -51 0
-5647 -54 0
5647 -1084 5646 5645 0
-5648 1189 0
-5649 -58 0
-5649 1089 0
-5650 -65 0
-5650 1082 0
5648 5650 5649 -1084 0
-5651 1193 0
-5652 -59 0
-5652 1093 0
-5653 -69 0
-5653 1083 0
5651 -1084 5653 5652 0
-5654 -31 0
-5654 1197 0
-5655 -61 0
-5655 1097 0
-5656 -73 0
-5656 1085 0
-1084 5654 5656 5655 0
-5657 -32 0
-5657 1198 0
-5658 -62 0
-5658 1098 0
-5659 -74 0
-5659 1086 0
-1084 5659 5657 5658 0
-5660 -33 0
-5660 1199 0
-5661 -63 0
-5661 1099 0
-5662 -75 0
-5662 1087 0
5661 5660 5662 -1084 0
-5663 -2 0
-5664 955 0
-5665 -10 0
-5665 951 0
-1085 5665 5664 5663 0
-5666 -13 0
-5667 1010 0
-5668 -21 0
-5668 1006 0
-1085 5667 5668 5666 0
-5669 1121 0
-5670 -36 0
-5670 1064 0
-5671 -40 0
-5671 1060 0
5669 -1085 5671 5670 0
1149 -5672 0
-5673 -44 0
-5673 1072 0
-5674 -48 0
-5674 1068 0
5672 -1085 5674 5673 0
-5678 1190 0
-5679 -58 0
-5679 1090 0
-5680 -66 0
-5680 1082 0
-1085 5678 5680 5679 0
-5681 1194 0
-5682 -59 0
-5682 1094 0
-5683 -70 0
-5683 1083 0
5681 -1085 5683 5682 0
-5684 1197 0
-5685 -60 0
-5685 1097 0
-5686 -73 0
-5686 1084 0
5686 -1085 5685 5684 0
-5687 -32 0
-5687 1200 0
-5688 -62 0
-5688 1100 0
-76 -5689 0
-5689 1086 0
-1085 5689 5687 5688 0
-5690 -33 0
-5690 1201 0
-5691 -63 0
-5691 1101 0
-5692 -77 0
-5692 1087 0
5690 5692 5691 -1085 0
-5693 -2 0
-5694 956 0
-5695 951 0
-1086 5694 5695 5693 0
-5696 -13 0
-5697 1011 0
-5698 -22 0
-1086 5698 5697 5696 0
-5699 1122 0
-5700 -36 0
-5700 1065 0
-5701 -41 0
-5701 1060 0
5699 -1086 5701 5700 0
1150 -5702 0
-5703 -44 0
-5703 1073 0
-5704 -49 0
-5704 1068 0
5702 5704 5703 -1086 0
-5708 1191 0
-5709 -58 0
-5709 1091 0
-5710 -67 0
-5710 1082 0
-1086 5708 5710 5709 0
-5711 1195 0
-5712 -59 0
-5712 1095 0
-5713 -71 0
-5713 1083 0
5711 -1086 5713 5712 0
-5714 1198 0
-5715 -60 0
-5715 1098 0
-5716 -74 0
-5716 1084 0
5716 -1086 5715 5714 0
-5717 -31 0
-5717 1200 0
-5718 -61 0
-5718 1100 0
-5719 -76 0
-5719 1085 0
-1086 5717 5719 5718 0
-5720 -33 0
-5720 1202 0
-5721 -63 0
-5721 1102 0
-5722 -78 0
-5722 1087 0
-1086 5720 5722 5721 0
-5723 -2 0
-5724 957 0
-5725 -12 0
-5725 951 0
5725 -1087 5724 5723 0
-5726 -13 0
-5727 1012 0
-5728 -23 0
-5728 1006 0
5727 -1087 5728 5726 0
-5729 1123 0
-5730 -36 0
-5730 1066 0
-5731 -42 0
-5731 1060 0
5729 5730 5731 -1087 0
-5732 1151 0
-5733 -44 0
-5733 1074 0
-5734 -50 0
5732 -1087 5734 5733 0
-5735 -26 0
-5736 -51 0
-5737 -57 0
-1087 5737 5736 5735 0
-5738 1192 0
-5739 -58 0
-5739 1092 0
-5740 -68 0
-5740 1082 0
-1087 5738 5739 5740 0
-5741 1196 0
-5742 -59 0
-5742 1096 0
-5743 -72 0
-5743 1083 0
-1087 5741 5743 5742 0
-5744 1199 0
-5745 -60 0
-5745 1099 0
-5746 -75 0
-5746 1084 0
5745 5746 -1087 5744 0
-5747 1201 0
-5748 -61 0
-5748 1101 0
-5749 -77 0
-5749 1085 0
-1087 5747 5748 5749 0
-5750 1202 0
-5751 -62 0
-5751 1102 0
-5752 -78 0
-5752 1086 0
-1087 5752 5750 5751 0
-5753 -2 0
-5754 953 0
-5755 952 0
-1088 5755 5754 5753 0
-5756 -13 0
-5757 1008 0
-5758 -19 0
-5758 1007 0
-1088 5757 5758 5756 0
-5759 1124 0
-5760 -37 0
-5760 1062 0
-5761 -38 0
-5761 1061 0
-1088 5759 5760 5761 0
-5762 1152 0
-5763 -45 0
-5763 1070 0
-5764 -46 0
-5764 1069 0
-1088 5762 5763 5764 0
-5765 -26 0
-5766 -52 0
-5766 1077 0
-5767 -53 0
-5767 1076 0
-1088 5767 5766 5765 0
-5768 -27 0
-5769 1083 0
-5770 1082 0
-1088 5770 5769 5768 0
-5771 1203 0
-5772 1093 0
-5773 -69 0
-5773 1089 0
-1088 5772 5771 5773 0
-5774 -31 0
-5774 1204 0
-5775 -66 0
-5775 1094 0
-5776 -70 0
-5776 1090 0
-1088 5774 5776 5775 0
-5777 -32 0
-5777 1205 0
-5778 -67 0
-5778 1095 0
-5779 -71 0
-5779 1091 0
-1088 5778 5777 5779 0
-5780 -33 0
-5780 1206 0
-5781 -68 0
-5781 1096 0
-5782 -72 0
-5782 1092 0
-1088 5781 5782 5780 0
-5783 -2 0
-5784 954 0
-5785 952 0
5784 -1089 5785 5783 0
-5786 -13 0
-5787 -18 0
-5787 1009 0
-5788 -20 0
-5788 1007 0
5788 -1089 5787 5786 0
-5789 1125 0
-5790 -37 0
-5790 1063 0
-5791 -39 0
-5791 1061 0
5789 5791 5790 -1089 0
-5792 1153 0
-5793 -45 0
-5793 1071 0
-5794 -47 0
-5794 1069 0
5792 5794 5793 -1089 0
-5795 -26 0
-5796 -52 0
-5796 1078 0
-5797 -54 0
-5797 1076 0
-1089 5797 5796 5795 0
-5798 -27 0
-5799 1084 0
-5800 1082 0
5800 5799 -1089 5798 0
1203 -5801 0
-5802 -64 0
-5802 1093 0
-5803 -69 0
-5803 1088 0
5801 -1089 5803 5802 0
-5804 -31 0
-5804 1207 0
-5805 -66 0
-5805 1097 0
-5806 -73 0
-5806 1090 0
-1089 5804 5806 5805 0
-5807 -32 0
-5807 1208 0
-67 -5808 0
-5808 1098 0
-5809 -74 0
-5809 1091 0
5809 5808 5807 -1089 0
-5810 -33 0
-5810 1209 0
-5811 -68 0
-5811 1099 0
-5812 -75 0
-5812 1092 0
5812 5811 -1089 5810 0
-5813 -2 0
-5814 955 0
-5815 -10 0
-5815 952 0
-1090 5815 5814 5813 0
-5816 -13 0
-5817 1010 0
-5818 -21 0
-5818 1007 0
-1090 5817 5818 5816 0
-5819 1126 0
-5820 -37 0
-5820 1064 0
-5821 -40 0
-5821 1061 0
5819 5821 -1090 5820 0
-5822 1154 0
-5823 -45 0
-5823 1072 0
-5824 -48 0
-5824 1069 0
5822 5824 5823 -1090 0
-5825 -26 0
-5826 -52 0
-5826 1079 0
-5827 1076 0
-1090 5827 5826 5825 0
-5828 -27 0
-5829 -58 0
-5829 1085 0
-5830 1082 0
5830 -1090 5829 5828 0
1204 -5831 0
-5832 -64 0
-5832 1094 0
-5833 -70 0
-5833 1088 0
5831 -1090 5832 5833 0
-5834 -30 0
-5834 1207 0
-5835 -65 0
-5835 1097 0
-73 -5836 0
-5836 1089 0
5836 -1090 5834 5835 0
-5837 -32 0
-5837 1210 0
-5838 -67 0
-5838 1100 0
-5839 -76 0
-5839 1091 0
5839 5837 5838 -1090 0
-5840 -33 0
-5840 1211 0
-5841 -68 0
-5841 1101 0
-5842 -77 0
-5842 1092 0
5842 -1090 5841 5840 0
-5843 -2 0
-5844 956 0
-5845 952 0
5844 -1091 5845 5843 0
-5846 -13 0
-5847 -18 0
-5847 1011 0
-5848 -22 0
-5848 1007 0
5848 -1091 5847 5846 0
-5849 1127 0
-5850 -37 0
-5850 1065 0
-5851 -41 0
-5851 1061 0
5849 5851 5850 -1091 0
-5852 1155 0
-5853 -45 0
-5853 1073 0
-5854 -49 0
-5854 1069 0
5852 5854 5853 -1091 0
-5855 -26 0
-5856 -52 0
-5856 1080 0
-5857 -56 0
-5857 1076 0
5857 5856 -1091 5855 0
-5858 -27 0
-5859 -58 0
-5859 1086 0
1082 -5860 0
5860 5859 -1091 5858 0
-5861 1205 0
-5862 -64 0
-5862 1095 0
-5863 1088 0
5861 5862 -1091 5863 0
-5864 1208 0
-5865 -65 0
-5865 1098 0
-5866 -74 0
-5866 1089 0
5866 5865 5864 -1091 0
-5867 -31 0
-5867 1210 0
-5868 -66 0
-5868 1100 0
-76 -5869 0
-5869 1090 0
5867 5869 -1091 5868 0
-5870 -33 0
-5870 1212 0
-5871 -68 0
-5871 1102 0
-5872 -78 0
-5872 1092 0
5872 5870 5871 -1091 0
-5873 -2 0
-5874 957 0
-5875 -12 0
-5875 952 0
5874 5875 -1092 5873 0
-5876 -13 0
-5877 -18 0
-5877 1012 0
-5878 1007 0
5878 5877 -1092 5876 0
-5879 1128 0
-5880 -37 0
-5880 1066 0
-5881 -42 0
-5881 1061 0
5879 5880 -1092 5881 0
-5882 1156 0
-5883 -45 0
-5883 1074 0
-5884 -50 0
-5884 1069 0
5882 5883 -1092 5884 0
-5885 -26 0
-5886 -52 0
-5886 1081 0
-5887 1076 0
5887 5886 -1092 5885 0
-5888 -27 0
-5889 -58 0
-5889 1087 0
-5890 1082 0
5890 -1092 5889 5888 0
-5891 1206 0
-5892 -64 0
-5892 1096 0
-5893 -72 0
-5893 1088 0
5891 5892 -1092 5893 0
-5894 1209 0
-5895 -65 0
-5895 1099 0
-5896 -75 0
-5896 1089 0
5895 5896 -1092 5894 0
-5897 -31 0
-5897 1211 0
-5898 -66 0
-5898 1101 0
-5899 -77 0
-5899 1090 0
5897 5899 -1092 5898 0
-5900 -32 0
-5900 1212 0
-5901 -67 0
-5901 1102 0
-5902 -78 0
-5902 1091 0
5902 5900 -1092 5901 0
-5903 -2 0
-5904 -8 0
-5904 954 0
-5905 953 0
-1093 5904 5905 5903 0
-5906 -13 0
-5907 1009 0
-5908 -20 0
-5908 1008 0
5908 -1093 5907 5906 0
-5909 1129 0
-5910 -38 0
-5910 1063 0
-5911 -39 0
-5911 1062 0
5911 -1093 5910 5909 0
-5912 1157 0
-5913 -46 0
-5913 1071 0
-5914 -47 0
-5914 1070 0
5914 -1093 5913 5912 0
-5915 -26 0
-5916 -53 0
-5916 1078 0
-5917 -54 0
-5917 1077 0
5917 -1093 5916 5915 0
-5918 -27 0
-5919 -59 0
-5919 1084 0
-5920 1083 0
5919 -1093 5920 5918 0
1203 -5921 0
-5922 -64 0
-5922 1089 0
-5923 -65 0
-5923 1088 0
-1093 5923 5921 5922 0
-5924 -31 0
-5924 1213 0
-5925 -70 0
-5925 1097 0
-5926 -73 0
-5926 1094 0
-1093 5924 5926 5925 0
-5927 -32 0
-5927 1214 0
-5928 -71 0
-5928 1098 0
-5929 -74 0
-5929 1095 0
-1093 5929 5927 5928 0
-5930 -33 0
-5930 1215 0
-5931 -72 0
-5931 1099 0
-5932 -75 0
-5932 1096 0
-1093 5930 5931 5932 0
-5933 -2 0
-5934 -8 0
-5934 955 0
-5935 -10 0
-5935 953 0
-1094 5935 5934 5933 0
-5936 -13 0
-5937 1010 0
-5938 -21 0
-5938 1008 0
-1094 5937 5938 5936 0
-5939 1130 0
-5940 -38 0
-5940 1064 0
-5941 -40 0
-5941 1062 0
5939 -1094 5941 5940 0
1158 -5942 0
-5943 -46 0
-5943 1072 0
-5944 -48 0
-5944 1070 0
5942 5944 5943 -1094 0
-5945 -26 0
-5946 -53 0
-5946 1079 0
-5947 -55 0
-5947 1077 0
5947 -1094 5946 5945 0
-5948 -27 0
-5949 -59 0
-5949 1085 0
-5950 -61 0
-5950 1083 0
5949 -1094 5950 5948 0
1204 -5951 0
-5952 -64 0
-5952 1090 0
-5953 -66 0
-5953 1088 0
-1094 5953 5951 5952 0
-5954 1213 0
-5955 -69 0
-5956 -73 0
-5956 1093 0
5955 -1094 5956 5954 0
-5957 -32 0
-5957 1216 0
-5958 -71 0
-5958 1100 0
-5959 -76 0
-5959 1095 0
-1094 5959 5957 5958 0
-5960 -33 0
-5960 1217 0
-5961 -72 0
-5961 1101 0
-5962 -77 0
-5962 1096 0
-1094 5960 5961 5962 0
-5963 -2 0
-5964 -8 0
-5964 956 0
-5965 953 0
-1095 5964 5965 5963 0
-5966 -13 0
-5967 -19 0
-5967 1011 0
-5968 -22 0
-5968 1008 0
-1095 5968 5967 5966 0
-5969 1131 0
-5970 -38 0
-5970 1065 0
-5971 -41 0
-5971 1062 0
5969 5971 5970 -1095 0
1159 -5972 0
-5973 -46 0
-5973 1073 0
-5974 -49 0
-5974 1070 0
5972 -1095 5973 5974 0
-5975 -26 0
-5976 -53 0
-5976 1080 0
-5977 1077 0
-1095 5977 5976 5975 0
-5978 -27 0
-5979 1086 0
-5980 1083 0
-1095 5979 5980 5978 0
-5981 1205 0
-5982 -64 0
-5982 1091 0
-5983 -67 0
-5983 1088 0
-1095 5983 5981 5982 0
-5984 -30 0
-5984 1214 0
-5985 -69 0
-5985 1098 0
-5986 -74 0
-5986 1093 0
-1095 5986 5984 5985 0
-5987 -31 0
-5987 1216 0
-5988 -70 0
-5988 1100 0
-5989 -76 0
-5989 1094 0
-1095 5987 5989 5988 0
-5990 -33 0
-5990 1218 0
-5991 -72 0
-5991 1102 0
-5992 -78 0
-5992 1096 0
-1095 5992 5991 5990 0
-5993 -2 0
-5994 957 0
-5995 -12 0
-5995 953 0
-1096 5994 5995 5993 0
-5996 -13 0
-5997 -19 0
-5997 1012 0
-5998 -23 0
-5998 1008 0
-1096 5998 5997 5996 0
-5999 1132 0
-6000 -38 0
-6000 1066 0
-6001 -42 0
-6001 1062 0
6000 -1096 6001 5999 0
-6002 1160 0
-6003 -46 0
-6003 1074 0
-6004 -50 0
-6004 1070 0
6002 -1096 6004 6003 0
-6005 -26 0
-6006 -53 0
-6006 1081 0
-6007 1077 0
-1096 6006 6007 6005 0
-6008 -27 0
-6009 1087 0
-6010 1083 0
-1096 6010 6009 6008 0
-6011 1206 0
-6012 -64 0
-6012 1092 0
-6013 -68 0
-6013 1088 0
-1096 6012 6011 6013 0
-6014 -30 0
-6014 1215 0
-6015 -69 0
-6015 1099 0
-6016 -75 0
-6016 1093 0
-1096 6016 6014 6015 0
-6017 -31 0
-6017 1217 0
-6018 -70 0
-6018 1101 0
-6019 -77 0
-6019 1094 0
-1096 6017 6019 6018 0
-6020 -32 0
-6020 1218 0
-6021 -71 0
-6021 1102 0
-6022 -78 0
-6022 1095 0
-1096 6022 6020 6021 0
-6023 -2 0
-6024 -9 0
-6024 955 0
-6025 -10 0
-6025 954 0
-1097 6025 6024 6023 0
-6026 -13 0
-6027 -20 0
-6027 1010 0
-6028 -21 0
-6028 1009 0
-1097 6027 6028 6026 0
-6029 1133 0
-6030 -39 0
-6030 1064 0
-6031 -40 0
-6031 1063 0
-1097 6029 6031 6030 0
-6032 1161 0
-6033 -47 0
-6033 1072 0
-6034 -48 0
-6034 1071 0
-1097 6032 6033 6034 0
-6035 -26 0
-6036 -54 0
-6036 1079 0
-6037 -55 0
-6037 1078 0
6037 -1097 6036 6035 0
-6038 -27 0
-6039 -60 0
-6039 1085 0
-6040 1084 0
6040 -1097 6039 6038 0
-6041 1207 0
-6042 -65 0
-6042 1090 0
-6043 -66 0
-6043 1089 0
6043 -1097 6041 6042 0
-6044 1213 0
-6045 -69 0
-6045 1094 0
-6046 -70 0
-6046 1093 0
6044 -1097 6046 6045 0
-6047 -32 0
-6047 1219 0
-6048 -74 0
-6048 1100 0
-76 -6049 0
-6049 1098 0
-1097 6048 6047 6049 0
-6050 -33 0
-6050 1220 0
-6051 -75 0
-6051 1101 0
-6052 -77 0
-6052 1099 0
-1097 6052 6050 6051 0
-6053 -2 0
-6054 956 0
-6055 954 0
-1098 6054 6055 6053 0
-6056 -13 0
-6057 -20 0
-6057 1011 0
-6058 -22 0
-6058 1009 0
-1098 6058 6057 6056 0
-6059 1134 0
-6060 -39 0
-6060 1065 0
-6061 -41 0
-6061 1063 0
6059 -1098 6061 6060 0
-6062 1162 0
-6063 -47 0
-6063 1073 0
-6064 -49 0
-6064 1071 0
6062 -1098 6064 6063 0
-6065 -26 0
-6066 -54 0
-6066 1080 0
-6067 1078 0
6067 -1098 6066 6065 0
-6068 -27 0
-6069 1086 0
-6070 1084 0
-1098 6069 6070 6068 0
-6071 1208 0
-6072 -65 0
-6072 1091 0
-6073 -67 0
-6073 1089 0
6073 6072 6071 -1098 0
-6074 1214 0
-6075 -69 0
-6075 1095 0
-6076 -71 0
-6076 1093 0
6074 -1098 6076 6075 0
-6077 -31 0
-6077 1219 0
-6078 -73 0
-6078 1100 0
-76 -6079 0
-6079 1097 0
-1098 6077 6078 6079 0
-6080 -33 0
-6080 1221 0
-6081 -75 0
-6081 1102 0
-6082 -78 0
-6082 1099 0
6082 6080 6081 -1098 0
-6083 -2 0
-6084 957 0
-6085 -12 0
-6085 954 0
6085 -1099 6084 6083 0
-6086 -13 0
-6087 -20 0
-6087 1012 0
-6088 -23 0
-6088 1009 0
6087 -1099 6088 6086 0
-6089 1135 0
-6090 -39 0
-6090 1066 0
-6091 -42 0
-6091 1063 0
6090 6089 6091 -1099 0
-6092 1163 0
-6093 -47 0
-6093 1074 0
-6094 -50 0
-6094 1071 0
6092 -1099 6094 6093 0
-6095 -26 0
-6096 -54 0
-6096 1081 0
-6097 1078 0
6096 -1099 6097 6095 0
-6098 -27 0
-6099 -60 0
-6099 1087 0
-6100 1084 0
6100 -1099 6099 6098 0
-6101 1209 0
-6102 -65 0
-6102 1092 0
-6103 -68 0
-6103 1089 0
6102 6103 6101 -1099 0
-6104 1215 0
-6105 -69 0
-6105 1096 0
-6106 -72 0
-6106 1093 0
6104 -1099 6106 6105 0
-6107 -31 0
-6107 1220 0
-6108 -73 0
-6108 1101 0
-6109 -77 0
-6109 1097 0
-1099 6107 6108 6109 0
-6110 -32 0
-6110 1221 0
-6111 -74 0
-6111 1102 0
-6112 -78 0
-6112 1098 0
-1099 6111 6110 6112 0
-6113 -2 0
-6114 956 0
-6115 955 0
-1100 6114 6115 6113 0
-6116 -13 0
-6117 -21 0
-6117 1011 0
-6118 -22 0
-6118 1010 0
-1100 6118 6117 6116 0
-6119 1136 0
-6120 -40 0
-6120 1065 0
-6121 -41 0
-6121 1064 0
-1100 6119 6120 6121 0
-6122 1164 0
-6123 -48 0
-6123 1073 0
-6124 -49 0
-6124 1072 0
6122 -1100 6124 6123 0
-6125 -26 0
-6126 1080 0
-6127 1079 0
6127 -1100 6126 6125 0
-6128 -27 0
-6129 1086 0
-6130 1085 0
-1100 6129 6130 6128 0
-6131 1210 0
-6132 -66 0
-6132 1091 0
-6133 -67 0
-6133 1090 0
6132 6133 6131 -1100 0
-6134 1216 0
-6135 1095 0
-6136 -71 0
-6136 1094 0
6134 -1100 6136 6135 0
-6137 1219 0
-6138 -73 0
-6138 1098 0
-6139 -74 0
-6139 1097 0
6138 -1100 6139 6137 0
-6140 -33 0
-6140 1222 0
-6141 -77 0
-6141 1102 0
-6142 -78 0
-6142 1101 0
6140 6141 6142 -1100 0
-6143 -2 0
-6144 -10 0
-6144 957 0
-6145 -12 0
-6145 955 0
-1101 6144 6145 6143 0
-6146 -13 0
-6147 -21 0
-6147 1012 0
-6148 -23 0
-6148 1010 0
-1101 6148 6147 6146 0
-6149 1137 0
-6150 -40 0
-6150 1066 0
-6151 -42 0
-6151 1064 0
6149 6150 6151 -1101 0
-6152 1165 0
-6153 -48 0
-6153 1074 0
-6154 -50 0
-6154 1072 0
6152 -1101 6153 6154 0
-6155 -26 0
-6156 1081 0
-6157 1079 0
6156 -1101 6157 6155 0
-6158 -27 0
-6159 -61 0
-6159 1087 0
-6160 1085 0
6160 -1101 6159 6158 0
-6161 1211 0
-6162 -66 0
-6162 1092 0
-6163 -68 0
-6163 1090 0
6162 6163 6161 -1101 0
-6164 1217 0
-6165 -70 0
-6165 1096 0
-6166 -72 0
-6166 1094 0
6164 -1101 6166 6165 0
-6167 1220 0
-6168 -73 0
-6168 1099 0
-6169 -75 0
-6169 1097 0
6168 -1101 6169 6167 0
-6170 -32 0
-6170 1222 0
-76 -6171 0
-6171 1102 0
-6172 -78 0
-6172 1100 0
-1101 6171 6170 6172 0
-6173 -2 0
-6174 957 0
-6175 956 0
6175 -1102 6174 6173 0
-6176 -13 0
-6177 -22 0
-6177 1012 0
-6178 -23 0
-6178 1011 0
-1102 6177 6178 6176 0
-6179 1138 0
-6180 -41 0
-6180 1066 0
-6181 -42 0
-6181 1065 0
6179 6180 6181 -1102 0
-6182 1166 0
-6183 -49 0
-6183 1074 0
-6184 -50 0
-6184 1073 0
6182 -1102 6184 6183 0
-6185 -26 0
-6186 1081 0
-6187 1080 0
6186 -1102 6187 6185 0
-6188 -27 0
-6189 -62 0
-6189 1087 0
-6190 1086 0
6190 -1102 6189 6188 0
-6191 1212 0
-6192 -67 0
-6192 1092 0
-6193 -68 0
-6193 1091 0
6192 6193 -1102 6191 0
-6194 1218 0
-6195 -71 0
-6195 1096 0
-6196 -72 0
-6196 1095 0
6194 -1102 6196 6195 0
-6197 1221 0
-6198 -74 0
-6198 1099 0
-6199 -75 0
-6199 1098 0
6198 -1102 6197 6199 0
-6200 1222 0
-76 -6201 0
-6201 1101 0
-6202 -77 0
-6202 1100 0
-1102 6200 6201 6202 0
1 0
2 0
13 0
937 0
9 7 10 8 23 32 36 42 49 52 53 54 55 63 64 65 66 69 70 73 25 14 17 5 0
33 9 10 50 32 7 36 49 8 52 53 54 55 64 65 66 69 70 73 78 5 14 17 25 0
9 7 31 11 8 23 36 42 48 52 53 54 56 63 64 65 67 69 71 74 25 14 17 5 0
8 7 22 31 9 12 36 41 48 52 53 54 57 62 64 65 68 69 72 75 25 14 17 5 0
42 7 31 9 22 41 36 23 8 48 52 53 54 62 63 64 65 69 78 14 25 17 5 0
9 7 31 8 49 48 36 32 12 52 53 54 57 64 65 68 69 72 75 76 5 14 17 25 0
9 7 31 32 49 48 36 8 23 42 52 53 54 63 64 65 69 76 5 25 14 17 0
33 9 31 48 32 7 36 50 49 8 52 53 54 64 65 69 76 77 78 5 14 17 25 0
20 7 10 8 39 32 36 23 42 49 52 53 55 60 63 64 66 70 75 14 25 17 5 0
50 33 20 39 32 7 36 10 49 8 52 53 55 60 64 66 70 78 5 25 14 17 0
33 7 31 20 8 11 36 39 48 50 52 53 56 60 64 67 71 77 5 25 14 17 0
20 7 32 31 39 8 36 12 48 49 52 53 57 60 64 68 72 76 5 25 14 17 0
11 30 7 8 10 23 36 42 47 52 53 55 56 63 64 66 67 70 71 76 25 14 17 5 0
30 7 10 22 8 12 36 41 47 52 53 55 57 62 64 66 68 70 72 77 25 14 17 5 0
30 10 23 22 8 41 36 42 7 47 52 53 55 62 63 64 66 70 78 14 25 17 5 0
47 30 32 7 10 8 36 49 12 52 53 55 57 64 66 68 70 72 74 77 5 14 17 25 0
47 30 32 7 10 49 36 8 42 23 52 53 55 63 64 66 70 74 5 25 14 17 0
50 47 30 10 33 7 36 32 49 8 52 53 55 64 66 70 74 75 78 5 14 17 25 0
40 30 7 8 21 11 36 33 47 50 52 53 56 61 64 67 71 75 5 25 14 17 0
30 7 32 40 21 8 36 12 47 49 52 53 57 61 64 68 72 74 5 25 14 17 0
7 31 12 8 11 47 36 30 48 52 53 56 57 64 67 68 71 72 73 78 5 14 17 25 0
47 30 31 7 42 48 36 8 23 11 52 53 56 63 64 67 71 73 5 25 14 17 0
50 47 31 73 48 7 36 11 33 8 52 53 56 64 67 71 30 75 77 5 14 17 25 0
47 30 7 8 22 31 36 48 41 12 52 53 57 62 64 68 72 73 5 25 14 17 0
47 30 31 7 23 48 36 42 8 22 41 52 53 62 63 64 73 78 14 25 17 5 0
30 7 32 47 73 8 36 31 49 12 52 53 57 64 68 72 48 74 76 5 14 17 25 0
42 30 7 47 32 49 36 8 31 48 23 52 53 63 64 73 74 76 25 14 17 5 0
50 47 30 49 31 8 36 48 32 33 7 52 53 64 73 74 75 76 77 78 17 25 5 14 0
19 10 12 7 9 32 36 38 49 52 54 55 57 59 65 66 68 73 75 77 25 14 17 5 0
38 19 10 23 7 32 36 42 9 49 52 54 55 59 63 65 66 72 73 14 25 17 5 0
38 33 19 50 32 7 36 10 49 9 52 54 55 59 65 66 73 78 5 25 14 17 0
38 19 31 7 9 23 36 11 42 48 52 54 56 59 63 65 67 72 74 14 25 17 5 0
38 33 19 31 50 7 36 11 48 9 52 54 56 59 65 67 74 77 5 25 14 17 0
38 19 31 7 9 22 36 12 41 48 52 54 57 59 62 65 68 71 75 14 25 17 5 0
38 19 31 49 32 7 36 48 12 9 52 54 57 59 65 68 75 76 5 25 14 17 0
38 19 31 7 49 32 36 48 9 23 42 52 54 59 63 65 72 76 14 25 17 5 0
38 19 31 49 50 7 36 48 32 33 9 52 54 59 65 76 77 78 25 14 17 5 0
38 19 32 20 7 39 36 10 12 49 52 55 57 59 60 66 68 69 77 14 25 17 5 0
33 20 19 38 39 7 36 32 50 49 10 52 55 59 60 66 69 78 14 25 17 5 0
38 19 31 20 7 39 36 33 11 48 50 52 56 59 60 67 69 77 14 25 17 5 0
20 19 32 48 38 7 36 39 31 12 49 52 57 59 60 68 69 76 14 25 17 5 0
38 30 19 7 47 33 36 10 11 50 52 55 56 59 66 67 75 76 5 25 14 17 0
38 30 19 7 47 32 36 10 12 49 52 55 57 59 66 68 74 77 5 25 14 17 0
38 30 19 47 10 32 36 23 7 42 49 52 55 59 63 66 72 74 14 25 17 5 0
30 33 19 38 49 7 36 47 32 50 10 52 55 59 66 74 75 78 25 14 17 5 0
30 21 19 7 38 40 36 33 11 47 50 52 56 59 61 67 70 75 14 25 17 5 0
38 19 32 21 30 7 36 40 12 47 49 52 57 59 61 68 70 74 14 25 17 5 0
38 30 19 11 47 7 36 12 31 48 52 56 57 59 67 68 73 78 5 25 14 17 0
38 30 19 7 47 31 36 11 23 42 48 52 56 59 63 67 72 73 14 25 17 5 0
38 19 31 50 73 7 36 48 47 33 11 52 56 59 67 30 75 77 25 14 17 5 0
38 30 19 73 32 7 36 47 48 49 12 52 57 59 68 31 74 76 25 14 17 5 0
46 11 10 29 7 12 9 36 52 54 55 56 57 65 66 67 68 73 74 75 76 77 78 17 25 5 14 0
10 11 29 42 7 9 36 23 46 52 54 55 56 63 65 66 67 73 74 76 25 14 17 5 0
33 29 10 46 50 7 36 11 9 52 54 55 56 65 66 67 72 73 74 76 5 14 17 25 0
41 29 10 7 9 22 36 12 46 52 54 55 57 62 65 66 68 73 75 77 25 14 17 5 0
42 29 10 7 9 22 36 23 41 46 52 54 55 62 63 65 66 73 78 14 25 17 5 0
49 46 32 29 9 7 36 10 12 52 54 55 57 65 66 68 71 73 75 77 5 14 17 25 0
49 7 32 29 46 9 36 10 23 42 52 54 55 63 65 66 71 73 5 25 14 17 0
49 46 32 29 33 7 36 10 50 9 52 54 55 65 66 71 72 73 78 5 14 17 25 0
46 9 12 29 7 21 52 36 11 40 54 56 57 61 65 67 68 74 75 78 25 14 17 5 0
42 7 23 29 11 21 36 40 9 46 52 54 56 61 63 65 67 74 77 14 25 17 5 0
46 9 12 7 52 29 22 40 21 36 41 54 57 61 62 65 68 75 76 14 25 17 5 0
52 46 42 7 21 29 40 65 22 9 23 41 36 61 62 63 54 76 77 78 25 5 14 17 0
46 29 31 7 48 9 36 11 12 52 54 56 57 65 67 68 70 74 75 78 5 14 17 25 0
46 29 31 7 48 9 36 23 42 11 52 54 56 63 65 67 70 74 5 25 14 17 0
46 29 31 48 50 7 36 33 11 9 52 54 56 65 67 70 72 74 77 5 14 17 25 0
46 29 31 7 48 9 36 41 22 12 52 54 57 62 65 68 70 75 5 25 14 17 0
46 29 31 7 48 9 36 42 23 22 41 52 54 62 63 65 70 78 14 25 17 5 0
46 29 31 48 49 7 36 9 32 12 52 54 57 65 68 70 71 75 76 5 14 17 25 0
49 7 32 29 48 46 36 31 9 23 42 52 54 63 65 70 71 76 25 14 17 5 0
49 29 31 46 50 9 36 48 32 33 7 52 54 65 70 71 72 76 77 78 17 25 5 14 0
36 7 10 11 29 20 39 12 46 52 55 56 57 60 66 67 68 76 77 78 25 14 17 5 0
42 20 23 29 7 11 39 36 10 46 52 55 56 60 63 66 67 75 76 14 25 17 5 0
50 33 20 29 11 39 36 10 46 7 52 55 56 60 66 67 72 76 5 25 14 17 0
41 29 10 7 20 39 36 22 12 46 52 55 57 60 62 66 68 74 77 14 25 17 5 0
39 29 10 20 7 22 23 41 42 36 46 52 55 60 62 63 66 74 75 78 25 5 14 17 0
49 7 32 29 46 39 36 20 10 12 52 55 57 60 66 68 71 77 5 25 14 17 0
49 7 32 29 46 39 36 20 10 42 23 52 55 60 63 66 71 75 14 25 17 5 0
39 33 29 46 20 7 36 32 49 50 10 52 55 60 66 71 72 78 25 14 17 5 0
39 36 46 7 20 29 21 52 12 40 11 56 57 60 61 67 68 73 78 14 25 17 5 0
36 20 23 29 39 21 40 11 42 7 46 52 56 60 61 63 67 73 75 77 25 5 14 17 0
39 36 33 29 50 21 20 40 11 46 7 52 56 60 61 67 72 73 14 25 17 5 0
36 46 12 20 7 29 52 21 40 22 41 39 57 60 61 62 68 73 74 76 25 5 14 17 0
46 29 22 42 7 39 20 21 36 23 40 41 52 60 61 62 63 73 74 75 76 77 78 5 25 14 17 0
49 20 32 29 40 7 21 39 36 46 12 52 57 60 61 68 71 73 14 25 17 5 0
46 29 31 48 39 7 36 20 11 12 52 56 57 60 67 68 70 78 5 25 14 17 0
42 29 31 7 39 48 36 20 11 46 23 52 56 60 63 67 70 75 14 25 17 5 0
39 46 31 29 20 7 36 48 50 33 11 52 56 60 67 70 72 77 25 14 17 5 0
39 46 31 29 49 7 36 48 20 32 12 52 57 60 68 70 71 76 25 14 17 5 0
30 7 10 29 46 47 36 11 12 52 55 56 57 66 67 68 69 76 77 78 5 14 17 25 0
30 7 10 29 46 47 36 23 11 42 52 55 56 63 66 67 69 76 5 25 14 17 0
47 33 29 30 46 7 36 10 50 11 52 55 56 66 67 69 72 75 76 5 14 17 25 0
30 7 10 29 46 47 36 41 22 12 52 55 57 62 66 68 69 77 5 25 14 17 0
30 7 10 29 46 47 36 42 23 22 41 52 55 62 63 66 69 78 14 25 17 5 0
49 30 7 29 46 47 36 10 32 12 52 55 57 66 68 69 71 74 77 5 14 17 25 0
49 30 7 29 46 47 36 32 10 23 42 52 55 63 66 69 71 74 25 14 17 5 0
47 33 29 30 46 32 36 10 49 50 7 52 55 66 69 71 72 74 75 78 17 25 5 14 0
47 30 21 29 46 7 36 40 11 12 52 56 57 61 67 68 69 78 5 25 14 17 0
30 21 23 29 7 47 36 40 11 46 42 52 56 61 63 67 69 77 14 25 17 5 0
47 30 21 46 29 7 36 40 50 33 11 52 56 61 67 69 72 75 25 14 17 5 0
30 7 22 29 21 47 36 40 41 46 12 52 57 61 62 68 69 76 14 25 17 5 0
41 30 21 29 7 47 36 40 23 22 46 42 52 61 62 63 69 76 77 78 5 14 17 25 0
47 30 32 29 46 7 36 49 40 21 12 52 57 61 68 69 71 74 25 14 17 5 0
69 29 31 12 47 7 36 46 48 11 52 56 57 67 68 30 70 73 78 5 14 17 25 0
42 29 31 7 69 47 36 48 46 11 23 52 56 63 67 30 70 73 25 14 17 5 0
30 7 31 29 46 47 36 48 22 41 12 52 57 62 68 69 70 73 25 14 17 5 0
30 7 31 29 46 47 36 48 23 42 41 22 52 62 63 69 70 73 78 17 5 14 25 0
69 30 32 29 47 7 36 46 31 49 12 52 57 68 48 70 71 73 74 76 17 25 5 14 0
47 30 32 29 46 49 36 7 23 31 48 42 52 63 69 70 71 73 74 76 5 25 14 17 0
10 11 18 9 8 33 36 37 50 53 54 55 56 58 69 70 71 73 74 76 25 14 17 5 0
18 32 12 8 9 10 36 37 49 53 54 55 57 58 69 70 72 73 75 77 25 14 17 5 0
49 37 18 33 32 8 36 10 50 9 53 54 55 58 69 70 73 78 5 25 14 17 0
37 18 31 48 8 33 36 9 11 50 53 54 56 58 69 71 74 77 5 25 14 17 0
37 8 31 9 18 22 36 12 41 48 53 54 57 58 62 67 69 72 75 14 25 17 5 0
37 18 31 32 49 48 36 9 12 8 53 54 57 58 69 72 75 76 5 25 14 17 0
37 18 31 32 8 23 36 42 9 48 49 53 54 58 63 68 69 76 14 25 17 5 0
33 37 32 18 48 31 36 8 49 50 9 53 54 58 69 76 77 78 25 14 17 5 0
39 37 33 20 18 8 36 32 10 49 50 53 55 58 60 65 70 78 14 25 17 5 0
39 8 31 37 18 20 36 33 11 48 50 53 56 58 60 65 71 77 14 25 17 5 0
37 8 31 32 18 39 36 20 12 48 49 53 57 58 60 65 72 76 14 25 17 5 0
30 18 10 8 12 11 36 37 47 53 55 56 57 58 70 71 72 76 77 78 25 14 17 5 0
37 11 30 8 18 42 36 23 10 47 53 55 56 58 63 68 70 71 76 14 25 17 5 0
47 37 30 18 50 8 36 10 33 11 53 55 56 58 70 71 75 76 5 25 14 17 0
37 30 10 8 18 41 36 22 12 47 53 55 57 58 62 67 70 72 77 14 25 17 5 0
47 37 30 18 8 10 36 12 32 49 53 55 57 58 70 72 74 77 5 25 14 17 0
37 30 10 8 18 32 36 23 49 47 42 53 55 58 63 68 70 74 14 25 17 5 0
47 37 30 18 33 32 36 8 49 50 10 53 55 58 70 74 75 78 25 14 17 5 0
37 40 30 21 8 18 36 11 12 47 53 56 57 58 61 66 71 72 78 14 25 17 5 0
37 30 21 8 18 40 36 33 50 47 11 53 56 58 61 66 71 75 14 25 17 5 0
30 21 18 8 40 22 36 37 41 12 47 53 57 58 61 62 66 67 72 76 25 5 14 17 0
49 37 30 8 18 21 36 40 32 47 12 53 57 58 61 66 72 74 14 25 17 5 0
37 47 8 18 48 11 36 12 31 30 53 56 57 58 71 72 73 78 5 25 14 17 0
37 47 8 18 11 48 36 42 31 30 23 53 56 58 63 68 71 73 14 25 17 5 0
73 37 30 18 48 47 36 8 31 50 11 53 56 58 71 33 75 77 25 14 17 5 0
47 37 30 18 8 48 36 22 12 31 41 53 57 58 62 67 72 73 14 25 17 5 0
37 30 31 18 23 41 36 22 42 8 47 48 53 58 62 63 67 68 73 78 5 14 17 25 0
73 37 30 18 32 47 36 8 48 49 12 53 57 58 72 31 74 76 25 14 17 5 0
37 30 32 18 42 49 36 47 8 48 31 23 53 58 63 68 73 74 76 17 5 14 25 0
49 37 33 48 18 30 36 47 31 32 50 8 53 58 73 74 75 76 77 78 5 25 14 17 0
37 33 19 38 9 18 36 10 11 50 54 55 56 58 59 64 73 74 76 14 25 17 5 0
37 19 32 38 18 9 36 10 12 49 54 55 57 58 59 64 73 75 77 14 25 17 5 0
38 19 10 18 37 32 36 23 42 9 49 54 55 58 59 63 64 68 72 73 25 5 14 17 0
50 37 19 38 18 32 36 49 9 33 10 54 55 58 59 64 73 78 14 25 17 5 0
19 31 12 37 9 11 36 18 38 48 54 56 57 58 59 64 74 75 78 14 25 17 5 0
37 19 31 9 18 11 36 42 38 23 48 54 56 58 59 63 64 68 72 74 25 5 14 17 0
37 18 31 38 19 48 36 33 9 50 11 54 56 58 59 64 74 77 14 25 17 5 0
37 19 31 38 9 18 36 22 41 12 48 54 57 58 59 62 64 67 71 75 25 5 14 17 0
37 19 23 9 22 31 36 41 38 42 18 48 54 58 59 62 63 64 67 68 71 72 78 5 25 14 17 0
37 19 31 32 18 48 36 38 9 49 12 54 57 58 59 64 75 76 14 25 17 5 0
19 18 32 31 37 49 36 38 48 9 23 42 54 58 59 63 64 68 72 76 5 14 17 25 0
33 37 32 38 18 19 36 31 48 49 50 9 54 58 59 64 76 77 78 17 5 14 25 0
37 38 19 20 39 18 36 33 10 11 50 55 56 58 59 60 64 65 69 76 25 5 14 17 0
38 19 32 37 18 20 36 39 10 12 49 55 57 58 59 60 64 65 69 77 25 5 14 17 0
38 39 19 18 37 33 36 20 32 10 50 49 55 58 59 60 64 65 69 78 5 14 17 25 0
38 19 31 37 18 20 36 39 11 12 48 56 57 58 59 60 64 65 69 78 25 5 14 17 0
37 18 31 38 20 19 36 39 33 48 50 11 56 58 59 60 64 65 69 77 5 14 17 25 0
37 18 31 38 49 19 36 39 20 48 32 12 57 58 59 60 64 65 69 76 5 14 17 25 0
47 37 19 38 18 10 36 11 12 30 55 56 57 58 59 64 76 77 78 14 25 17 5 0
37 30 19 38 18 10 36 11 23 42 47 55 56 58 59 63 64 68 72 76 25 5 14 17 0
37 30 19 38 18 50 36 33 47 10 11 55 56 58 59 64 75 76 14 25 17 5 0
38 30 19 37 18 32 36 47 10 49 12 55 57 58 59 64 74 77 14 25 17 5 0
30 38 19 18 37 32 36 47 10 49 23 42 55 58 59 63 64 68 72 74 5 14 17 25 0
37 33 30 38 18 49 36 19 47 10 50 32 55 58 59 64 74 75 78 17 5 14 25 0
30 38 19 18 37 40 36 21 33 11 47 50 56 58 59 61 64 66 70 75 5 14 17 25 0
37 30 32 38 18 19 36 21 40 12 47 49 57 58 59 61 64 66 70 74 5 14 17 25 0
73 37 31 18 38 47 36 19 11 48 12 56 57 58 59 64 30 78 14 25 17 5 0
30 38 19 18 37 31 36 47 11 48 23 42 56 58 59 63 64 68 72 73 5 14 17 25 0
37 38 19 73 18 31 36 50 47 48 33 11 56 58 59 64 30 75 77 17 5 14 25 0
73 19 32 18 37 38 36 30 47 31 49 12 57 58 59 64 48 74 76 17 5 14 25 0
37 18 10 29 9 11 36 12 46 54 55 56 57 58 73 74 75 76 77 78 25 14 17 5 0
37 18 10 29 9 11 36 42 23 46 54 55 56 58 63 68 73 74 76 14 25 17 5 0
50 33 29 46 37 18 36 10 11 9 54 55 56 58 72 73 74 76 5 25 14 17 0
37 18 10 29 9 41 36 22 12 46 54 55 57 58 62 67 73 75 77 14 25 17 5 0
42 29 10 37 18 41 36 22 23 9 46 54 55 58 62 63 67 68 73 78 25 5 14 17 0
37 46 32 49 18 29 36 9 10 12 54 55 57 58 71 73 75 77 5 25 14 17 0
37 46 32 49 18 29 36 9 10 23 42 54 55 58 63 68 71 73 14 25 17 5 0
33 46 32 29 37 18 36 49 9 50 10 54 55 58 71 72 73 78 25 14 17 5 0
36 29 12 9 18 21 11 37 40 46 54 56 57 58 61 66 74 75 78 14 25 17 5 0
37 9 21 18 23 29 42 40 36 11 46 54 56 58 61 63 66 68 74 77 25 5 14 17 0
37 40 29 9 18 76 75 21 36 22 46 54 57 58 61 62 66 67 12 41 25 5 14 17 0
37 46 31 48 18 29 36 9 11 12 54 56 57 58 70 74 75 78 5 25 14 17 0
37 46 31 48 18 29 36 9 11 23 42 54 56 58 63 68 70 74 14 25 17 5 0
37 46 31 48 18 29 36 33 9 50 11 54 56 58 70 72 74 77 25 14 17 5 0
37 46 31 48 18 29 36 9 22 12 41 54 57 58 62 67 70 75 14 25 17 5 0
37 46 31 48 18 9 36 29 42 23 41 22 54 58 62 63 67 68 70 78 5 14 17 25 0
46 37 31 32 48 18 36 29 9 49 12 54 57 58 70 71 75 76 25 14 17 5 0
37 46 48 32 49 18 36 29 31 9 42 23 54 58 63 68 70 71 76 17 5 14 25 0
33 46 32 37 18 29 36 31 48 49 50 9 54 58 70 71 72 76 77 78 5 25 14 17 0
37 39 29 20 46 18 36 33 10 11 50 55 56 58 60 65 72 76 14 25 17 5 0
39 46 32 37 29 20 36 18 10 12 49 55 57 58 60 65 71 77 14 25 17 5 0
37 20 32 29 39 18 36 42 23 10 46 49 55 58 60 63 65 68 71 75 5 14 17 25 0
37 39 29 20 46 50 36 18 10 32 33 49 55 58 60 65 71 72 78 17 5 14 25 0
36 33 29 20 39 21 40 37 18 11 46 50 56 58 60 61 65 66 72 73 5 14 17 25 0
37 20 32 29 39 40 36 21 18 12 46 49 57 58 60 61 65 66 71 73 5 14 17 25 0
37 46 31 58 29 20 36 39 11 12 48 56 57 18 60 65 70 78 14 25 17 5 0
37 58 31 20 29 39 36 11 42 23 46 48 56 18 60 63 65 68 70 75 5 14 17 25 0
37 46 31 58 29 20 36 39 48 33 50 11 56 18 60 65 70 72 77 17 5 14 25 0
37 46 31 58 49 29 36 39 48 20 32 12 57 18 60 65 70 71 76 17 5 14 25 0
47 37 30 46 18 29 36 10 11 12 55 56 57 58 69 76 77 78 5 25 14 17 0
47 37 30 46 18 29 36 10 11 23 42 55 56 58 63 68 69 76 14 25 17 5 0
47 37 30 46 18 29 36 33 50 10 11 55 56 58 69 72 75 76 25 14 17 5 0
47 37 30 46 18 29 36 10 41 22 12 55 57 58 62 67 69 77 14 25 17 5 0
37 47 30 29 18 10 36 22 42 23 46 41 55 58 62 63 67 68 69 78 5 14 17 25 0
47 37 30 46 18 32 36 29 10 49 12 55 57 58 69 71 74 77 25 14 17 5 0
47 37 30 46 32 18 36 29 49 10 42 23 55 58 63 68 69 71 74 17 5 14 25 0
47 37 30 18 46 29 36 33 32 49 50 10 55 58 69 71 72 74 75 78 5 25 14 17 0
47 37 30 46 18 29 36 40 21 11 33 50 56 58 61 66 69 72 75 17 5 14 25 0
37 30 32 18 47 46 36 29 12 21 40 49 57 58 61 66 69 71 74 17 5 14 25 0
69 47 37 29 18 31 36 11 46 48 12 56 57 58 30 70 73 78 25 14 17 5 0
69 37 31 18 29 48 36 47 11 46 23 42 56 58 63 68 30 70 73 17 5 14 25 0
37 29 31 69 50 48 36 47 46 11 33 18 56 58 30 70 72 73 75 77 5 25 14 17 0
69 37 30 18 32 29 36 47 46 31 49 12 57 58 48 70 71 73 74 76 5 25 14 17 0
9 10 12 55 8 11 36 45 53 54 28 56 57 69 70 71 72 73 74 75 76 77 78 17 25 5 14 0
10 11 9 42 28 8 36 23 45 53 54 55 56 63 69 70 71 73 74 76 25 14 17 5 0
36 9 22 10 28 41 8 12 45 53 54 55 57 62 69 70 72 73 75 77 25 14 17 5 0
36 9 22 10 28 23 8 42 41 45 53 54 55 62 63 69 70 73 78 14 25 17 5 0
45 8 32 49 28 9 36 10 12 53 54 55 57 67 69 70 72 73 75 77 5 14 17 25 0
45 8 32 49 28 9 36 10 23 42 53 54 55 63 67 69 70 73 5 25 14 17 0
50 33 32 45 28 8 36 10 49 9 53 54 55 67 68 69 70 73 78 5 14 17 25 0
69 36 28 11 21 9 74 12 40 8 53 56 57 61 45 71 72 54 75 78 25 14 17 5 0
36 28 42 11 23 9 21 40 8 45 53 54 56 61 63 69 71 74 77 14 25 17 5 0
41 28 9 12 54 40 21 22 36 45 69 53 57 61 62 8 72 75 76 14 25 17 5 0
53 28 23 54 40 21 36 22 41 9 45 42 69 61 62 63 8 76 77 78 25 5 14 17 0
45 28 31 48 8 9 36 11 12 53 54 56 57 66 69 71 72 74 75 78 5 14 17 25 0
45 28 31 48 8 9 36 42 23 11 53 54 56 63 66 69 71 74 5 25 14 17 0
45 28 31 48 8 9 36 41 22 12 53 54 57 62 66 69 72 75 5 25 14 17 0
45 28 31 48 8 9 36 42 23 22 41 53 54 62 63 66 69 78 14 25 17 5 0
45 28 31 48 32 8 36 9 49 12 53 54 57 66 67 69 72 75 76 5 14 17 25 0
45 28 31 48 32 49 36 8 9 42 23 53 54 63 66 67 69 76 25 14 17 5 0
50 45 31 32 28 48 36 8 33 49 9 53 54 66 67 68 69 76 77 78 17 25 5 14 0
10 11 8 20 28 39 36 12 45 53 55 56 57 60 70 71 72 76 77 78 25 14 17 5 0
10 11 8 20 28 39 36 23 42 45 53 55 56 60 63 70 71 75 76 14 25 17 5 0
39 28 10 22 8 20 36 41 12 45 53 55 57 60 62 70 72 74 77 14 25 17 5 0
39 28 10 23 20 41 36 22 42 8 45 53 55 60 62 63 70 74 75 78 25 5 14 17 0
45 8 32 49 28 39 36 20 42 23 10 53 55 60 63 67 70 75 14 25 17 5 0
53 36 28 11 60 20 73 39 12 21 78 56 57 8 40 71 72 45 61 14 25 17 5 0
42 20 23 28 11 39 36 40 21 8 45 53 56 60 61 63 71 73 75 77 25 5 14 17 0
74 36 28 12 39 20 40 45 21 53 22 41 57 8 61 62 72 60 73 76 25 5 14 17 0
36 28 23 39 45 60 42 21 22 41 40 20 53 8 61 62 63 73 74 75 76 77 78 5 25 14 17 0
39 8 31 28 45 48 36 20 11 12 53 56 57 60 66 71 72 78 5 25 14 17 0
39 8 31 28 45 20 36 50 33 48 11 53 56 60 66 68 71 77 25 14 17 5 0
28 8 31 32 45 39 36 48 20 49 12 53 57 60 66 67 72 76 25 14 17 5 0
45 28 30 8 47 10 36 11 12 53 55 56 57 65 70 71 72 76 77 78 5 14 17 25 0
45 28 30 8 47 10 36 42 23 11 53 55 56 63 65 70 71 76 5 25 14 17 0
28 33 10 47 8 45 36 11 50 30 53 55 56 65 68 70 71 75 76 5 14 17 25 0
45 28 30 8 47 10 36 41 22 12 53 55 57 62 65 70 72 77 5 25 14 17 0
45 28 30 8 47 10 36 23 42 22 41 53 55 62 63 65 70 78 14 25 17 5 0
45 28 30 8 47 49 36 10 32 12 53 55 57 65 67 70 72 74 77 5 14 17 25 0
45 28 30 8 47 49 36 32 23 10 42 53 55 63 65 67 70 74 25 14 17 5 0
28 33 30 45 47 49 36 8 32 50 10 53 55 65 67 68 70 74 75 78 17 25 5 14 0
45 28 30 8 47 40 36 21 11 12 53 56 57 61 65 71 72 78 5 25 14 17 0
47 40 30 28 8 42 36 21 23 45 11 53 56 61 63 65 71 77 14 25 17 5 0
45 28 30 8 40 21 36 50 33 47 11 53 56 61 65 68 71 75 25 14 17 5 0
45 28 30 8 47 21 36 22 40 41 12 53 57 61 62 65 72 76 14 25 17 5 0
47 30 21 8 28 41 36 22 23 42 45 40 53 61 62 63 65 76 77 78 5 14 17 25 0
45 28 30 49 8 21 36 32 40 47 12 53 57 61 65 67 72 74 25 14 17 5 0
28 31 12 8 48 47 65 45 36 11 53 56 57 30 66 71 72 73 78 5 14 17 25 0
45 28 30 8 47 48 36 31 23 11 42 53 56 63 65 66 71 73 25 14 17 5 0
50 28 31 47 48 8 36 45 65 33 11 53 56 30 66 68 71 73 75 77 17 25 5 14 0
45 48 30 28 47 8 36 31 22 41 12 53 57 62 65 66 72 73 25 14 17 5 0
45 48 30 28 47 8 36 31 23 42 41 22 53 62 63 65 66 73 78 17 5 14 25 0
65 28 30 47 32 8 36 45 48 49 12 53 57 31 66 67 72 73 74 76 17 25 5 14 0
45 30 32 28 47 49 36 8 42 48 31 23 53 63 65 66 67 73 74 76 5 25 14 17 0
45 33 30 49 48 47 36 28 31 32 50 8 53 65 66 67 68 73 74 75 76 77 78 17 25 5 14 0
10 11 19 28 38 9 36 12 45 54 55 56 57 59 73 74 75 76 77 78 25 14 17 5 0
9 33 19 50 45 28 36 38 11 10 54 55 56 59 68 73 74 76 5 25 14 17 0
45 19 32 49 28 38 36 9 10 12 54 55 57 59 67 73 75 77 5 25 14 17 0
38 19 32 28 9 45 36 10 42 23 49 54 55 59 63 67 72 73 14 25 17 5 0
38 33 19 28 45 32 36 49 9 50 10 54 55 59 67 68 73 78 25 14 17 5 0
36 11 19 38 28 9 40 21 12 45 54 56 57 59 61 70 74 75 78 14 25 17 5 0
45 28 31 48 19 38 36 9 12 11 54 56 57 59 66 74 75 78 5 25 14 17 0
45 19 31 28 38 9 36 11 23 42 48 54 56 59 63 66 72 74 14 25 17 5 0
45 19 31 28 38 48 36 33 9 50 11 54 56 59 66 68 74 77 25 14 17 5 0
38 19 31 28 9 45 36 41 22 12 48 54 57 59 62 66 71 75 14 25 17 5 0
38 19 31 23 45 28 36 22 42 9 41 48 54 59 62 63 66 71 72 78 5 14 17 25 0
45 19 31 28 32 48 36 38 9 49 12 54 57 59 66 67 75 76 25 14 17 5 0
45 19 31 28 32 49 36 48 38 9 42 23 54 59 63 66 67 72 76 17 5 14 25 0
45 19 32 28 38 33 36 48 31 49 50 9 54 59 66 67 68 76 77 78 5 25 14 17 0
38 33 19 20 28 39 36 45 10 11 50 55 56 59 60 68 69 76 14 25 17 5 0
38 19 32 28 45 20 36 39 10 12 49 55 57 59 60 67 69 77 14 25 17 5 0
50 38 19 28 36 20 45 39 32 49 33 10 55 59 60 67 68 69 78 17 5 14 25 0
33 20 19 28 40 21 36 38 39 11 45 50 56 59 60 61 68 69 70 73 5 14 17 25 0
19 28 32 40 20 21 36 38 39 12 45 49 57 59 60 61 67 69 70 73 5 14 17 25 0
45 19 31 28 38 20 36 39 11 12 48 56 57 59 60 66 69 78 14 25 17 5 0
45 39 31 38 42 20 36 19 23 11 28 48 56 59 60 63 66 69 72 75 5 14 17 25 0
45 19 31 28 38 48 36 20 39 11 33 50 56 59 60 66 68 69 77 17 5 14 25 0
45 19 31 28 32 38 36 20 48 39 49 12 57 59 60 66 67 69 76 17 5 14 25 0
45 30 19 28 38 47 36 10 11 12 55 56 57 59 65 76 77 78 5 25 14 17 0
38 19 10 28 47 45 36 11 23 42 30 55 56 59 63 65 72 76 14 25 17 5 0
45 30 19 28 38 33 36 47 50 10 11 55 56 59 65 68 75 76 25 14 17 5 0
38 30 19 28 41 10 36 22 12 45 47 55 57 59 62 65 71 77 14 25 17 5 0
38 30 19 28 22 10 36 42 23 41 45 47 55 59 62 63 65 71 72 78 5 14 17 25 0
45 30 19 28 47 32 36 38 10 49 12 55 57 59 65 67 74 77 25 14 17 5 0
45 30 19 28 32 47 36 38 49 10 23 42 55 59 63 65 67 72 74 17 5 14 25 0
38 33 19 28 45 30 36 47 32 49 50 10 55 59 65 67 68 74 75 78 5 25 14 17 0
45 30 19 28 47 38 36 21 40 11 33 50 56 59 61 65 68 70 75 17 5 14 25 0
65 38 19 28 47 48 36 11 45 31 30 56 57 59 12 66 73 78 25 14 17 5 0
65 38 19 28 47 48 36 11 31 45 42 23 56 59 63 30 66 72 73 17 5 14 25 0
65 47 19 28 48 31 36 38 45 33 50 11 56 59 30 66 68 73 75 77 5 25 14 17 0
65 28 30 47 49 19 36 38 45 48 32 12 57 59 31 66 67 73 74 76 5 25 14 17 0
46 11 10 29 9 45 36 28 12 54 55 56 57 64 73 74 75 76 77 78 5 14 17 25 0
29 10 23 46 9 45 36 28 42 11 54 55 56 63 64 73 74 76 5 25 14 17 0
50 33 29 46 28 45 36 10 11 9 54 55 56 64 68 72 73 74 76 5 14 17 25 0
29 46 10 22 9 45 36 28 41 12 54 55 57 62 64 73 75 77 5 25 14 17 0
42 29 10 46 9 45 36 28 23 41 22 54 55 62 63 64 73 78 14 25 17 5 0
49 46 32 29 45 28 36 9 10 12 54 55 57 64 67 71 73 75 77 5 14 17 25 0
49 46 32 29 45 28 36 9 10 42 23 54 55 63 64 67 71 73 25 14 17 5 0
50 29 10 46 28 45 36 49 32 33 9 54 55 64 67 68 71 72 73 78 17 25 5 14 0
54 28 29 9 64 74 36 45 40 21 46 56 57 61 12 11 75 78 5 25 14 17 0
46 28 29 9 21 23 42 36 40 45 11 54 56 61 63 64 74 77 14 25 17 5 0
46 28 29 9 12 54 45 36 40 21 22 41 57 61 62 64 75 76 14 25 17 5 0
46 28 29 9 54 23 36 45 22 41 21 40 42 61 62 63 64 76 77 78 5 14 17 25 0
45 29 31 28 48 46 36 9 11 12 54 56 57 64 66 70 74 75 78 5 14 17 25 0
45 29 31 28 48 46 36 9 23 42 11 54 56 63 64 66 70 74 25 14 17 5 0
45 28 31 29 48 46 36 33 50 9 11 54 56 64 66 68 70 72 74 77 17 25 5 14 0
45 29 31 28 48 46 36 9 41 22 12 54 57 62 64 66 70 75 25 14 17 5 0
45 29 31 28 48 46 36 9 42 23 22 41 54 62 63 64 66 70 78 17 5 14 25 0
45 29 31 32 28 48 36 46 9 49 12 54 57 64 66 67 70 71 75 76 17 25 5 14 0
45 29 31 32 28 49 36 48 46 9 42 23 54 63 64 66 67 70 71 76 5 25 14 17 0
36 33 29 28 39 20 46 45 10 11 50 55 56 60 64 68 72 76 25 14 17 5 0
39 46 32 29 45 28 36 20 10 12 49 55 57 60 64 67 71 77 25 14 17 5 0
28 29 10 46 36 20 39 45 23 42 32 49 55 60 63 64 67 71 75 17 5 14 25 0
36 33 29 28 39 20 46 45 32 49 50 10 55 60 64 67 68 71 72 78 5 25 14 17 0
36 33 29 39 40 28 46 20 21 45 11 50 56 60 61 64 68 72 73 17 5 14 25 0
39 46 32 29 45 28 36 20 12 40 21 49 57 60 61 64 67 71 73 17 5 14 25 0
45 29 31 64 46 39 36 20 11 12 48 56 57 60 28 66 70 78 25 14 17 5 0
45 29 31 64 46 39 36 20 11 23 42 48 56 60 63 28 66 70 75 17 5 14 25 0
45 29 31 64 46 48 36 39 20 33 50 11 56 60 28 66 68 70 72 77 5 25 14 17 0
64 45 32 29 46 31 36 48 20 39 49 12 57 60 28 66 67 70 71 76 5 25 14 17 0
45 29 10 30 28 46 36 47 11 12 55 56 57 64 65 69 76 77 78 5 14 17 25 0
45 29 10 30 28 46 36 47 11 23 42 55 56 63 64 65 69 76 25 14 17 5 0
45 33 29 30 28 46 36 47 50 10 11 55 56 64 65 68 69 72 75 76 17 25 5 14 0
45 29 10 30 28 46 36 47 41 22 12 55 57 62 64 65 69 77 25 14 17 5 0
45 29 10 30 28 46 36 47 42 23 22 41 55 62 63 64 65 69 78 17 5 14 25 0
45 30 32 29 47 49 36 46 28 10 12 55 57 64 65 67 69 71 74 77 17 25 5 14 0
45 30 32 29 47 49 36 28 46 10 42 23 55 63 64 65 67 69 71 74 5 25 14 17 0
45 33 30 28 29 47 36 46 49 10 50 32 55 64 65 67 68 69 71 72 74 75 78 17 25 5 14 0
45 40 30 29 28 46 36 47 11 21 33 50 56 61 64 65 68 69 72 75 5 25 14 17 0
45 28 31 29 48 47 36 46 65 11 12 56 57 64 30 66 69 70 73 78 17 25 5 14 0
65 28 31 29 47 48 36 46 45 11 23 42 56 63 64 30 66 69 70 73 5 25 14 17 0
65 47 31 45 48 29 36 46 11 33 50 28 56 64 30 66 68 69 70 72 73 75 77 17 25 5 14 0
45 28 31 49 47 29 36 46 65 48 32 12 57 64 30 66 67 69 70 71 73 74 76 17 25 5 14 0
58 33 32 35 7 8 9 49 50 10 59 60 61 64 65 66 69 70 73 78 6 14 16 25 0
35 7 31 58 8 32 9 48 49 12 59 60 63 64 65 68 69 72 75 76 6 14 16 25 0
9 35 31 32 8 23 7 57 48 49 42 58 59 60 64 65 69 76 6 25 14 16 0
50 35 32 58 7 8 48 33 49 31 9 59 60 64 65 69 76 77 78 6 14 16 25 0
35 20 10 32 54 7 8 39 42 49 23 57 58 59 61 64 66 70 75 14 25 16 6 0
50 33 7 8 54 20 35 39 49 32 10 58 59 61 64 66 70 78 6 25 14 16 0
20 7 31 8 35 23 11 39 42 48 54 57 58 59 62 64 67 71 75 14 25 16 6 0
20 7 31 8 35 54 33 39 48 50 11 58 59 62 64 67 71 77 6 25 14 16 0
39 35 31 7 32 8 54 12 48 49 20 58 59 63 64 68 72 76 6 25 14 16 0
47 57 30 8 7 35 10 42 23 11 58 59 61 62 64 66 67 70 71 76 25 14 16 6 0
58 47 32 35 7 8 10 30 49 12 59 61 63 64 66 68 70 72 74 77 6 14 16 25 0
47 30 35 49 23 32 7 8 10 57 42 58 59 61 64 66 70 74 6 25 14 16 0
47 30 35 58 7 50 33 32 49 8 10 59 61 64 66 70 74 75 78 6 14 16 25 0
30 21 35 8 7 55 40 33 47 50 11 58 59 62 64 67 71 75 6 25 14 16 0
30 35 32 40 7 8 55 12 47 49 21 58 59 63 64 68 72 74 6 25 14 16 0
42 47 31 48 73 35 7 8 11 57 23 58 59 62 64 67 71 30 6 25 14 16 0
73 35 31 58 47 48 7 8 33 50 11 59 62 64 67 71 30 75 77 6 14 16 25 0
41 7 31 8 35 56 22 30 47 48 12 58 59 63 64 68 72 73 6 25 14 16 0
30 35 31 22 8 7 56 42 23 47 48 41 57 58 59 64 73 78 14 25 16 6 0
58 73 32 35 7 48 47 31 49 8 12 59 63 64 68 72 30 74 76 6 14 16 25 0
42 30 32 35 48 49 47 7 31 8 57 23 58 59 64 73 74 76 25 14 16 6 0
35 19 32 7 9 53 10 38 42 49 23 57 58 60 61 65 66 72 73 14 25 16 6 0
33 35 19 7 38 53 50 32 49 9 10 58 60 61 65 66 73 78 6 25 14 16 0
35 19 31 7 53 33 9 38 48 50 11 58 60 62 65 67 74 77 6 25 14 16 0
35 19 31 7 32 53 38 9 48 49 12 58 60 63 65 68 75 76 6 25 14 16 0
35 19 32 7 53 31 38 48 9 42 49 23 57 58 60 65 72 76 14 25 16 6 0
38 19 32 7 35 53 50 31 49 33 9 48 58 60 65 76 77 78 25 14 16 6 0
39 19 32 7 38 35 23 20 10 42 49 53 54 57 58 61 66 69 72 75 25 6 14 16 0
53 38 19 7 39 35 20 33 50 49 10 32 54 58 61 66 69 78 14 25 16 6 0
35 19 31 7 20 38 23 11 39 42 48 53 54 57 58 62 67 69 72 75 25 6 14 16 0
38 35 31 7 53 19 39 20 48 50 11 33 54 58 62 67 69 77 14 25 16 6 0
35 19 31 7 32 53 38 20 12 48 49 39 54 58 63 68 69 76 14 25 16 6 0
30 35 19 7 38 42 47 10 11 23 53 57 58 61 62 66 67 72 76 14 25 16 6 0
33 35 19 7 47 53 10 38 50 30 11 58 61 62 66 67 75 76 6 25 14 16 0
30 35 19 7 53 32 38 47 10 49 12 58 61 63 66 68 74 77 6 25 14 16 0
30 35 19 7 53 32 38 47 49 10 42 23 57 58 61 66 72 74 14 25 16 6 0
30 35 19 7 53 47 38 33 49 50 10 32 58 61 66 74 75 78 25 14 16 6 0
30 35 19 7 53 38 21 40 11 47 50 33 55 58 62 67 70 75 14 25 16 6 0
30 35 32 19 7 53 38 40 12 47 49 21 55 58 63 68 70 74 14 25 16 6 0
35 19 31 53 7 47 11 38 30 48 12 58 62 63 67 68 73 78 6 25 14 16 0
73 19 31 7 35 53 47 38 48 30 11 42 57 58 62 67 72 23 14 25 16 6 0
73 19 31 7 35 38 47 53 48 50 11 33 58 62 67 30 75 77 25 14 16 6 0
53 30 35 38 7 73 49 47 31 32 12 19 58 63 68 48 74 76 25 14 16 6 0
35 7 10 9 58 29 11 46 12 60 61 62 63 65 66 67 68 73 74 75 76 77 78 16 25 6 14 0
29 10 23 7 35 9 11 57 46 42 58 60 61 62 65 66 67 73 74 76 25 14 16 6 0
50 33 29 35 58 7 9 46 10 11 60 61 62 65 66 67 72 73 74 76 6 14 16 25 0
35 7 10 9 22 29 56 41 46 12 58 60 61 63 65 66 68 73 75 77 25 14 16 6 0
35 7 10 22 9 29 56 23 42 46 41 57 58 60 61 65 66 73 78 14 25 16 6 0
58 49 32 29 35 46 7 9 10 12 60 61 63 65 66 68 71 73 75 77 6 14 16 25 0
49 46 32 29 23 35 7 9 10 57 42 58 60 61 65 66 71 73 6 25 14 16 0
33 35 32 58 29 46 7 9 50 49 10 60 61 65 66 71 72 73 78 6 14 16 25 0
46 9 7 29 11 55 40 60 21 12 58 35 62 63 65 67 68 74 75 78 25 14 16 6 0
46 11 29 23 7 55 40 9 21 42 35 57 58 60 62 65 67 74 77 14 25 16 6 0
46 9 12 58 63 29 35 7 40 55 21 56 22 60 41 65 68 75 76 14 25 16 6 0
58 46 23 65 41 29 9 40 55 7 22 21 56 57 42 35 60 76 77 78 25 6 14 16 0
35 29 31 58 48 46 7 9 11 12 60 62 63 65 67 68 70 74 75 78 6 14 16 25 0
42 29 31 48 35 46 7 9 11 57 23 58 60 62 65 67 70 74 6 25 14 16 0
58 35 31 48 29 46 7 50 9 33 11 60 62 65 67 70 72 74 77 6 14 16 25 0
35 29 31 22 48 7 9 56 46 41 12 58 60 63 65 68 70 75 6 25 14 16 0
35 29 31 22 48 7 9 56 42 46 23 41 57 58 60 65 70 78 14 25 16 6 0
35 29 31 58 48 49 46 7 32 9 12 60 63 65 68 70 71 75 76 6 14 16 25 0
42 35 32 29 48 49 46 31 7 9 57 23 58 60 65 70 71 76 25 14 16 6 0
33 46 29 7 58 49 35 48 32 50 9 31 60 65 70 71 72 76 77 78 16 25 6 14 0
39 29 10 7 54 20 35 11 46 12 58 61 62 63 66 67 68 76 77 78 25 14 16 6 0
54 39 10 29 20 35 11 42 7 46 23 57 58 61 62 66 67 75 76 14 25 16 6 0
50 54 33 35 29 20 7 39 46 10 11 58 61 62 66 67 72 76 6 25 14 16 0
39 29 10 20 7 54 35 22 41 46 12 56 58 61 63 66 68 74 77 14 25 16 6 0
54 39 10 29 20 35 42 22 23 7 46 41 56 57 58 61 66 74 75 78 25 6 14 16 0
49 39 32 29 35 46 7 54 20 10 12 58 61 63 66 68 71 77 6 25 14 16 0
49 46 32 29 20 35 7 54 39 10 23 42 57 58 61 66 71 75 14 25 16 6 0
39 33 20 29 46 54 7 35 32 50 10 49 58 61 66 71 72 78 25 14 16 6 0
67 58 20 39 7 29 21 40 54 11 12 55 68 62 63 35 46 73 78 14 25 16 6 0
42 29 23 11 35 20 21 40 54 7 39 46 55 57 58 62 67 73 75 77 25 6 14 16 0
50 39 33 54 29 21 20 11 40 7 35 46 55 58 62 67 72 73 14 25 16 6 0
35 29 12 20 46 7 22 39 54 21 40 41 55 56 58 63 68 73 74 76 25 6 14 16 0
49 7 32 29 20 54 40 35 39 46 12 21 55 58 63 68 71 73 14 25 16 6 0
35 29 31 48 39 46 7 54 20 11 12 58 62 63 67 68 70 78 6 25 14 16 0
39 35 31 29 46 48 7 54 20 11 42 23 57 58 62 67 70 75 14 25 16 6 0
35 29 31 46 20 7 54 48 39 33 11 50 58 62 67 70 72 77 25 14 16 6 0
39 35 31 29 49 46 7 48 54 32 12 20 58 63 68 70 71 76 25 14 16 6 0
58 35 29 30 47 46 7 10 11 12 61 62 63 66 67 68 69 76 77 78 6 14 16 25 0
47 42 29 30 35 46 7 10 11 57 23 58 61 62 66 67 69 76 6 25 14 16 0
47 30 35 58 29 46 7 50 33 10 11 61 62 66 67 69 72 75 76 6 14 16 25 0
35 29 22 30 47 7 10 56 46 41 12 58 61 63 66 68 69 77 6 25 14 16 0
35 29 22 30 47 7 10 56 23 46 42 41 57 58 61 66 69 78 14 25 16 6 0
58 35 29 30 47 49 46 7 32 10 12 61 63 66 68 69 71 74 77 6 14 16 25 0
47 30 35 29 49 23 46 32 7 10 57 42 58 61 66 69 71 74 25 14 16 6 0
47 30 35 58 29 46 7 50 32 33 10 49 61 66 69 71 72 74 75 78 16 25 6 14 0
30 21 35 29 47 46 7 55 40 11 12 58 62 63 67 68 69 78 6 25 14 16 0
47 40 30 35 7 55 29 21 11 46 23 42 57 58 62 67 69 77 14 25 16 6 0
47 35 29 30 21 46 7 55 40 33 11 50 58 62 67 69 72 75 25 14 16 6 0
47 35 29 30 7 40 55 21 22 46 41 12 56 58 63 68 69 76 14 25 16 6 0
47 35 29 30 7 40 55 23 42 22 46 21 41 56 57 58 69 76 77 78 6 14 16 25 0
30 35 32 29 47 40 46 49 7 55 12 21 58 63 68 69 71 74 25 14 16 6 0
69 58 31 35 29 47 7 46 48 11 12 62 63 67 68 30 70 73 78 6 14 16 25 0
69 29 31 35 47 42 7 48 46 30 57 11 58 62 67 23 70 73 25 14 16 6 0
29 30 22 31 35 47 46 48 7 56 41 12 58 63 68 69 70 73 25 14 16 6 0
47 30 35 29 31 41 46 48 42 7 23 56 22 57 58 69 70 73 78 16 6 14 25 0
69 58 30 35 32 29 47 46 31 49 7 12 63 68 48 70 71 73 74 76 16 25 6 14 0
30 35 32 29 47 49 23 46 57 31 48 42 7 58 69 70 71 73 74 76 6 25 14 16 0
50 30 32 29 48 47 35 46 33 31 49 7 58 69 70 71 72 73 74 75 76 77 78 16 25 6 14 0
33 35 18 8 52 9 10 37 50 11 59 60 61 62 69 70 71 73 74 76 25 14 16 6 0
35 18 32 8 52 9 10 37 49 12 59 60 61 63 69 70 72 73 75 77 25 14 16 6 0
42 37 32 35 18 8 9 10 23 49 52 57 59 60 61 68 69 70 73 14 25 16 6 0
52 37 33 35 49 18 32 8 50 9 10 59 60 61 69 70 73 78 6 25 14 16 0
35 18 31 8 12 9 11 37 48 52 59 60 62 63 69 71 72 74 75 78 25 14 16 6 0
37 35 31 23 18 8 9 11 42 48 52 57 59 60 62 68 69 71 74 14 25 16 6 0
37 35 31 52 18 48 50 33 8 9 11 59 60 62 69 71 74 77 6 25 14 16 0
37 35 31 48 49 52 18 8 32 9 12 59 60 63 69 72 75 76 6 25 14 16 0
37 35 31 48 49 32 52 18 8 9 23 42 57 59 60 68 69 76 14 25 16 6 0
37 35 18 52 49 33 48 31 32 50 8 9 59 60 69 76 77 78 25 14 16 6 0
39 37 18 35 8 52 20 33 10 49 50 32 54 59 61 65 70 78 14 25 16 6 0
39 37 18 35 8 31 12 20 11 48 52 54 59 62 63 65 71 72 78 14 25 16 6 0
37 35 18 52 48 8 39 20 31 50 11 33 54 59 62 65 71 77 14 25 16 6 0
52 37 32 35 48 18 8 20 31 49 12 39 54 59 63 65 72 76 14 25 16 6 0
47 8 10 52 35 18 11 37 30 12 59 61 62 63 70 71 72 76 77 78 25 14 16 6 0
52 37 30 35 18 8 10 11 23 47 42 57 59 61 62 68 70 71 76 14 25 16 6 0
47 37 30 35 52 18 33 50 8 10 11 59 61 62 70 71 75 76 6 25 14 16 0
35 18 10 8 52 30 22 37 12 47 41 56 59 61 63 67 70 72 77 14 25 16 6 0
47 37 30 35 52 18 8 10 49 32 12 59 61 63 70 72 74 77 6 25 14 16 0
47 37 30 35 52 49 18 8 32 10 23 42 57 59 61 68 70 74 14 25 16 6 0
37 35 18 47 52 30 33 49 32 50 8 10 59 61 70 74 75 78 25 14 16 6 0
52 37 30 18 35 8 21 40 11 47 50 33 55 59 62 66 71 75 14 25 16 6 0
52 37 32 35 30 18 8 40 12 47 49 21 55 59 63 66 72 74 14 25 16 6 0
73 37 31 47 35 52 18 8 48 11 12 59 62 63 71 72 30 78 6 25 14 16 0
47 37 30 35 52 31 18 8 48 11 23 42 57 59 62 68 71 73 14 25 16 6 0
52 37 31 73 47 35 18 33 48 50 8 11 59 62 71 30 75 77 25 14 16 6 0
52 37 30 47 35 31 18 8 22 48 41 12 56 59 63 67 72 73 14 25 16 6 0
37 35 31 30 52 18 23 22 42 8 47 48 41 56 57 59 67 68 73 78 6 14 16 25 0
73 37 32 47 35 30 52 18 31 49 8 12 59 63 72 48 74 76 25 14 16 6 0
47 37 30 35 32 49 52 18 8 31 48 23 42 57 59 68 73 74 76 16 6 14 25 0
37 35 31 52 33 49 18 30 48 32 50 8 47 59 73 74 75 76 77 78 6 25 14 16 0
52 37 19 38 18 35 33 9 10 50 11 53 60 61 62 64 73 74 76 14 25 16 6 0
52 37 32 35 18 38 19 9 10 49 12 53 60 61 63 64 73 75 77 14 25 16 6 0
52 37 32 38 18 35 19 9 10 23 49 42 53 57 60 61 64 68 72 73 25 6 14 16 0
52 37 33 38 18 35 19 49 32 50 9 10 53 60 61 64 73 78 14 25 16 6 0
37 35 31 52 18 38 19 9 11 48 12 53 60 62 63 64 74 75 78 14 25 16 6 0
37 35 31 52 18 38 19 9 11 42 48 23 53 57 60 62 64 68 72 74 25 6 14 16 0
37 35 31 52 18 48 19 38 33 50 9 11 53 60 62 64 74 77 14 25 16 6 0
37 35 31 52 49 48 18 19 38 32 9 12 53 60 63 64 75 76 14 25 16 6 0
37 35 31 52 49 32 18 19 48 38 9 23 42 53 57 60 64 68 72 76 6 14 16 25 0
37 35 18 38 52 49 19 33 48 32 50 9 31 53 60 64 76 77 78 16 6 14 25 0
52 37 19 38 18 35 39 20 33 10 50 11 53 54 61 62 64 65 69 76 25 6 14 16 0
52 37 32 35 18 38 19 39 20 10 49 12 53 54 61 63 64 65 69 77 25 6 14 16 0
52 37 19 38 18 35 39 20 50 32 33 10 49 53 54 61 64 65 69 78 6 14 16 25 0
35 19 32 40 20 18 21 37 38 39 12 49 52 53 54 55 63 64 65 66 69 70 73 6 25 14 16 0
37 35 31 18 52 38 19 39 20 11 48 12 53 54 62 63 64 65 69 78 25 6 14 16 0
37 35 31 52 18 19 38 39 20 48 50 11 33 53 54 62 64 65 69 77 6 14 16 25 0
37 35 31 52 32 18 19 38 20 48 49 12 39 53 54 63 64 65 69 76 6 14 16 25 0
37 38 19 52 18 35 47 10 11 30 12 53 61 62 63 64 76 77 78 14 25 16 6 0
52 37 19 38 18 35 30 10 11 23 47 42 53 57 61 62 64 68 72 76 25 6 14 16 0
52 37 19 38 18 35 30 50 47 33 10 11 53 61 62 64 75 76 14 25 16 6 0
52 37 30 35 49 32 18 19 47 38 10 12 53 61 63 64 74 77 14 25 16 6 0
49 37 30 35 52 32 18 19 47 38 10 23 42 53 57 61 64 68 72 74 6 14 16 25 0
52 37 30 35 33 32 18 19 47 38 50 10 49 53 61 64 74 75 78 16 6 14 25 0
52 37 19 38 18 35 30 40 21 11 47 50 33 53 55 62 64 66 70 75 6 14 16 25 0
37 30 32 35 52 18 19 47 38 12 21 49 40 53 55 63 64 66 70 74 6 14 16 25 0
37 35 18 73 52 31 38 47 48 19 11 12 53 62 63 64 30 78 14 25 16 6 0
52 37 30 35 48 31 18 19 47 38 11 23 42 53 57 62 64 68 72 73 6 14 16 25 0
52 37 31 73 35 18 38 47 48 19 33 11 50 53 62 64 30 75 77 16 6 14 25 0
37 35 18 73 52 49 38 47 48 31 32 12 19 53 63 64 30 74 76 16 6 14 25 0
52 29 10 9 18 37 35 11 46 12 60 61 62 63 73 74 75 76 77 78 25 14 16 6 0
52 29 10 9 18 37 35 11 23 46 42 57 60 61 62 68 73 74 76 14 25 16 6 0
52 37 33 29 46 18 35 50 9 10 11 60 61 62 72 73 74 76 6 25 14 16 0
46 35 32 49 37 29 52 18 9 10 12 60 61 63 71 73 75 77 6 25 14 16 0
46 35 32 49 37 29 52 18 9 10 23 42 57 60 61 68 71 73 14 25 16 6 0
52 37 33 46 35 49 18 29 32 50 9 10 60 61 71 72 73 78 25 14 16 6 0
37 35 31 46 48 29 52 18 9 11 12 60 62 63 70 74 75 78 6 25 14 16 0
37 35 31 46 48 29 52 18 9 11 23 42 57 60 62 68 70 74 14 25 16 6 0
37 35 31 46 48 52 18 29 33 50 9 11 60 62 70 72 74 77 25 14 16 6 0
37 29 31 35 18 52 9 22 41 46 48 12 56 60 63 67 70 75 14 25 16 6 0
37 29 31 35 18 52 9 23 42 41 46 48 22 56 57 60 67 68 70 78 6 14 16 25 0
37 35 31 46 32 48 52 29 18 49 9 12 60 63 70 71 75 76 25 14 16 6 0
37 35 31 46 32 49 52 29 48 18 9 23 42 57 60 68 70 71 76 16 6 14 25 0
52 37 32 35 33 46 18 29 31 49 50 9 48 60 70 71 72 76 77 78 6 25 14 16 0
52 37 46 29 20 18 35 39 33 10 50 11 54 61 62 65 72 76 14 25 16 6 0
46 35 32 52 29 37 18 39 20 10 49 12 54 61 63 65 71 77 14 25 16 6 0
37 35 32 29 52 18 20 39 23 10 46 49 42 54 57 61 65 68 71 75 6 14 16 25 0
52 37 46 20 29 18 35 39 33 32 50 10 49 54 61 65 71 72 78 16 6 14 25 0
37 35 29 18 20 52 21 40 39 11 46 50 33 54 55 62 65 66 72 73 6 14 16 25 0
46 35 32 52 29 37 18 20 39 12 21 49 40 54 55 63 65 66 71 73 6 14 16 25 0
37 35 31 46 29 52 20 39 11 12 48 18 54 62 63 65 70 78 14 25 16 6 0
37 35 31 29 52 20 39 42 11 23 46 48 18 54 57 62 65 68 70 75 6 14 16 25 0
52 37 46 35 29 48 20 39 31 33 50 11 18 54 62 65 70 72 77 16 6 14 25 0
52 37 46 48 49 29 35 39 31 20 32 12 18 54 63 65 70 71 76 16 6 14 25 0
47 37 30 35 46 29 52 18 10 11 12 61 62 63 69 76 77 78 6 25 14 16 0
47 37 30 35 46 29 52 18 10 11 23 42 57 61 62 68 69 76 14 25 16 6 0
47 37 30 35 46 52 18 29 33 50 10 11 61 62 69 72 75 76 25 14 16 6 0
52 37 30 46 29 35 18 10 22 41 47 12 56 61 63 67 69 77 14 25 16 6 0
52 37 30 29 35 18 10 42 23 22 46 47 41 56 57 61 67 68 69 78 6 14 16 25 0
47 30 18 35 49 32 46 29 52 37 10 12 61 63 69 71 74 77 25 14 16 6 0
47 30 18 35 49 32 46 29 52 37 10 23 42 57 61 68 69 71 74 16 6 14 25 0
47 37 30 35 52 46 18 29 33 49 50 10 32 61 69 71 72 74 75 78 6 25 14 16 0
47 37 30 35 46 29 52 18 40 21 33 50 11 55 62 66 69 72 75 16 6 14 25 0
37 30 23 29 40 18 35 21 22 41 42 46 47 52 55 56 57 66 67 68 69 76 77 78 6 16 14 25 0
37 30 32 35 47 46 52 29 12 18 21 49 40 55 63 66 69 71 74 16 6 14 25 0
69 37 48 47 35 31 52 29 46 18 11 12 62 63 30 70 73 78 25 14 16 6 0
69 37 48 47 35 31 52 29 18 46 11 23 42 57 62 68 30 70 73 16 6 14 25 0
69 35 31 48 37 47 52 33 46 29 50 18 11 62 30 70 72 73 75 77 6 25 14 16 0
47 30 18 35 48 31 46 29 41 37 23 42 22 52 56 57 67 68 69 70 73 78 25 14 6 16 0
69 49 37 48 35 47 52 29 46 31 32 12 18 63 30 70 71 73 74 76 6 25 14 16 0
49 30 18 35 48 32 42 47 29 46 31 37 23 52 57 68 69 70 71 73 74 76 16 14 6 25 0
37 35 31 46 33 32 18 47 30 48 49 50 29 52 69 70 71 72 73 74 75 76 77 78 25 6 16 14 0
28 11 10 35 9 8 59 45 12 60 61 62 63 69 70 71 72 73 74 75 76 77 78 16 25 6 14 0
10 11 8 35 9 28 57 23 45 42 59 60 61 62 69 70 71 73 74 76 25 14 16 6 0
28 22 12 10 35 9 56 41 45 8 59 60 61 63 69 70 72 73 75 77 25 14 16 6 0
8 28 10 22 35 9 42 23 56 45 41 57 60 59 61 69 70 73 78 14 25 16 6 0
59 35 32 49 45 28 8 9 10 12 60 61 63 67 69 70 72 73 75 77 6 14 16 25 0
42 35 32 49 45 28 8 9 10 57 23 59 60 61 67 69 70 73 6 25 14 16 0
50 33 35 59 28 45 32 8 49 9 10 60 61 67 68 69 70 73 78 6 14 16 25 0
74 28 9 59 60 55 11 40 21 12 8 35 62 63 45 71 72 69 75 78 25 14 16 6 0
42 40 23 55 11 8 9 21 28 35 45 57 60 59 62 69 71 74 77 14 25 16 6 0
59 9 22 12 60 35 28 55 40 21 8 56 45 69 63 41 72 75 76 14 25 16 6 0
28 9 23 8 40 55 42 22 60 41 35 21 56 57 45 69 59 76 77 78 25 6 14 16 0
45 35 31 48 59 28 8 9 11 12 60 62 63 66 69 71 72 74 75 78 6 14 16 25 0
45 35 31 48 23 28 8 9 57 42 11 59 60 62 66 69 71 74 6 25 14 16 0
28 35 31 48 22 8 9 56 45 41 12 59 60 63 66 69 72 75 6 25 14 16 0
28 35 31 48 22 8 9 23 42 45 56 41 57 59 60 66 69 78 14 25 16 6 0
45 35 31 48 32 59 28 8 49 9 12 60 63 66 67 69 72 75 76 6 14 16 25 0
45 35 31 32 48 49 42 28 8 9 57 23 59 60 66 67 69 76 25 14 16 6 0
39 28 10 8 54 20 35 11 45 12 59 61 62 63 70 71 72 76 77 78 25 14 16 6 0
39 28 10 8 54 20 35 42 23 45 11 57 59 61 62 70 71 75 76 14 25 16 6 0
39 28 10 8 54 20 35 41 22 45 12 56 59 61 63 70 72 74 77 14 25 16 6 0
39 28 10 8 54 20 35 23 42 22 45 41 56 57 59 61 70 74 75 78 25 6 14 16 0
54 28 10 35 20 42 49 45 39 23 8 32 57 59 61 67 70 75 14 25 16 6 0
72 62 20 39 28 54 21 40 8 73 12 55 59 35 11 71 63 45 78 14 25 16 6 0
28 42 23 54 11 20 40 21 35 39 45 8 55 57 59 62 71 73 75 77 25 6 14 16 0
59 28 20 22 12 39 41 21 73 40 35 54 55 56 45 63 72 8 74 76 25 6 14 16 0
39 35 31 20 28 8 54 45 33 48 50 11 59 62 66 68 71 77 25 14 16 6 0
47 30 35 45 59 28 8 10 11 12 61 62 63 65 70 71 72 76 77 78 6 14 16 25 0
47 30 35 45 23 28 8 10 11 57 42 59 61 62 65 70 71 76 6 25 14 16 0
33 35 10 47 28 59 8 45 50 30 11 61 62 65 68 70 71 75 76 6 14 16 25 0
47 30 35 45 22 28 8 10 56 41 12 59 61 63 65 70 72 77 6 25 14 16 0
47 30 35 28 22 8 10 56 42 45 23 41 57 59 61 65 70 78 14 25 16 6 0
47 30 35 45 32 59 28 8 49 10 12 61 63 65 67 70 72 74 77 6 14 16 25 0
30 35 32 45 47 23 28 8 10 49 57 42 59 61 65 67 70 74 25 14 16 6 0
30 35 32 45 49 47 59 28 50 33 8 10 61 65 67 68 70 74 75 78 16 25 6 14 0
47 30 35 45 40 28 8 55 21 11 12 59 62 63 65 71 72 78 6 25 14 16 0
47 28 30 8 21 35 55 40 11 45 23 42 57 59 62 65 71 77 14 25 16 6 0
30 21 35 45 28 8 55 40 33 47 11 50 59 62 65 68 71 75 25 14 16 6 0
47 28 30 8 40 35 55 41 22 45 21 12 56 59 63 65 72 76 14 25 16 6 0
47 28 30 8 21 35 55 42 23 41 45 40 22 56 57 59 65 76 77 78 6 14 16 25 0
30 35 32 45 8 28 40 49 55 47 12 21 59 63 65 67 72 74 25 14 16 6 0
30 35 31 45 47 59 28 8 48 11 12 62 63 65 66 71 72 73 78 6 14 16 25 0
30 35 31 45 47 23 28 48 8 11 57 42 59 62 65 66 71 73 25 14 16 6 0
30 35 31 45 47 48 22 28 8 56 41 12 59 63 65 66 72 73 25 14 16 6 0
30 35 31 45 47 22 28 48 8 56 42 23 41 57 59 65 66 73 78 16 6 14 25 0
30 35 32 45 48 47 59 28 31 49 8 12 63 65 66 67 72 73 74 76 16 25 6 14 0
30 35 32 45 49 31 42 47 28 48 8 57 23 59 65 66 67 73 74 76 6 25 14 16 0
33 35 19 28 45 53 9 38 10 50 11 60 61 62 68 73 74 76 6 25 14 16 0
35 19 32 38 28 45 53 9 10 49 12 60 61 63 67 73 75 77 6 25 14 16 0
38 19 32 35 28 45 53 9 10 23 49 42 57 60 61 67 72 73 14 25 16 6 0
50 19 32 35 45 28 53 38 49 33 9 10 60 61 67 68 73 78 25 14 16 6 0
53 35 31 45 28 38 19 9 11 48 12 60 62 63 66 74 75 78 6 25 14 16 0
53 35 31 45 28 38 19 9 11 23 48 42 57 60 62 66 72 74 14 25 16 6 0
45 28 31 38 48 35 53 19 33 50 9 11 60 62 66 68 74 77 25 14 16 6 0
38 19 31 28 35 53 9 41 22 45 48 12 56 60 63 66 71 75 14 25 16 6 0
38 19 31 28 35 53 42 22 23 9 45 48 41 56 57 60 66 71 72 78 6 14 16 25 0
35 19 31 45 32 48 28 53 38 49 9 12 60 63 66 67 75 76 25 14 16 6 0
35 19 31 45 32 49 28 48 53 38 9 42 23 57 60 66 67 72 76 16 6 14 25 0
33 38 32 35 28 45 53 19 31 49 50 9 48 60 66 67 68 76 77 78 6 25 14 16 0
38 19 10 20 28 12 35 11 39 45 53 54 61 62 63 69 76 77 78 14 25 16 6 0
39 38 19 28 35 20 45 53 33 50 10 11 54 61 62 68 69 76 14 25 16 6 0
38 35 19 49 28 53 45 32 20 39 10 12 54 61 63 67 69 77 14 25 16 6 0
38 19 32 39 28 35 45 23 20 10 42 49 53 54 57 61 67 69 72 75 6 14 16 25 0
53 38 19 45 50 35 28 20 49 39 33 10 32 54 61 67 68 69 78 16 6 14 25 0
53 35 19 28 20 40 21 38 39 11 45 50 33 54 55 62 68 69 70 73 6 14 16 25 0
35 19 32 45 53 28 20 38 39 12 21 49 40 54 55 63 67 69 70 73 6 14 16 25 0
35 19 31 48 28 45 53 38 20 39 11 12 54 62 63 66 69 78 14 25 16 6 0
53 35 31 45 28 38 20 39 11 19 42 48 23 54 57 62 66 69 72 75 6 14 16 25 0
53 38 19 48 28 35 45 39 31 20 33 11 50 54 62 66 68 69 77 16 6 14 25 0
38 35 19 48 28 53 49 45 31 20 32 12 39 54 63 66 67 69 76 16 6 14 25 0
30 35 19 45 28 53 38 47 10 11 12 61 62 63 65 76 77 78 6 25 14 16 0
35 19 10 28 45 38 47 53 11 23 30 42 57 61 62 65 72 76 14 25 16 6 0
30 35 19 45 53 28 38 47 33 50 10 11 61 62 65 68 75 76 25 14 16 6 0
53 28 30 38 35 19 10 41 22 45 47 12 56 61 63 65 71 77 14 25 16 6 0
53 28 30 38 35 19 10 42 23 22 45 47 41 56 57 61 65 71 72 78 6 14 16 25 0
30 35 19 45 49 32 28 53 38 47 10 12 61 63 65 67 74 77 25 14 16 6 0
30 35 19 45 49 32 28 53 38 47 10 23 42 57 61 65 67 72 74 16 6 14 25 0
30 35 19 45 28 53 38 47 33 49 50 10 32 61 65 67 68 74 75 78 6 25 14 16 0
30 35 19 45 53 28 38 47 21 11 33 50 40 55 62 65 68 70 75 16 6 14 25 0
38 30 19 28 35 21 23 40 22 41 42 45 47 53 55 56 57 65 70 71 72 76 77 78 6 16 14 25 0
35 19 32 45 30 40 28 38 12 47 21 49 53 55 63 65 67 70 74 16 6 14 25 0
53 35 19 28 48 31 38 65 45 11 47 12 62 63 30 66 73 78 25 14 16 6 0
35 19 31 48 53 28 38 65 47 45 11 23 42 57 62 30 66 72 73 16 6 14 25 0
47 35 31 38 45 30 28 48 53 65 11 19 50 62 33 66 68 73 75 77 6 25 14 16 0
30 35 19 45 48 31 28 41 38 47 23 42 22 53 56 57 65 66 71 72 73 78 25 14 6 16 0
48 35 19 32 53 65 28 38 45 31 49 12 47 63 30 66 67 73 74 76 6 25 14 16 0
35 19 32 45 48 49 28 30 42 38 31 47 23 53 57 65 66 67 72 73 74 76 16 14 6 25 0
46 35 10 29 60 28 9 45 11 12 61 62 63 64 73 74 75 76 77 78 6 14 16 25 0
46 42 10 29 35 28 9 45 11 57 23 60 61 62 64 73 74 76 6 25 14 16 0
46 29 22 10 35 28 9 45 56 41 12 60 61 63 64 73 75 77 6 25 14 16 0
46 35 10 29 41 28 9 45 56 42 23 22 57 60 61 64 73 78 14 25 16 6 0
46 35 32 49 45 29 60 28 9 10 12 61 63 64 67 71 73 75 77 6 14 16 25 0
46 35 32 49 45 29 42 28 9 10 57 23 60 61 64 67 71 73 25 14 16 6 0
60 46 33 50 9 35 45 29 28 49 10 32 61 64 67 68 71 72 73 78 16 25 6 14 0
28 11 9 29 40 45 46 55 21 35 12 60 62 63 64 74 75 78 6 25 14 16 0
35 29 23 46 28 40 55 11 9 42 21 45 57 60 62 64 74 77 14 25 16 6 0
28 40 9 29 64 60 63 55 46 35 21 22 56 12 41 45 75 76 14 25 16 6 0
46 28 29 9 55 42 21 23 35 60 41 22 40 56 57 45 64 76 77 78 6 14 16 25 0
46 35 31 48 45 29 60 28 9 11 12 62 63 64 66 70 74 75 78 6 14 16 25 0
46 35 31 48 45 29 23 28 11 57 9 42 60 62 64 66 70 74 25 14 16 6 0
46 35 31 48 45 29 22 28 9 56 41 12 60 63 64 66 70 75 25 14 16 6 0
46 35 31 48 45 29 41 28 56 42 9 23 22 57 60 64 66 70 78 16 6 14 25 0
46 48 35 32 45 31 60 29 28 49 9 12 63 64 66 67 70 71 75 76 16 25 6 14 0
46 48 35 32 45 49 23 31 29 28 57 42 9 60 64 66 67 70 71 76 6 25 14 16 0
39 33 20 29 46 28 35 54 45 10 50 11 61 62 64 68 72 76 25 14 16 6 0
46 35 32 45 29 20 28 54 39 10 49 12 61 63 64 67 71 77 25 14 16 6 0
46 35 32 29 20 45 28 54 39 10 42 49 23 57 61 64 67 71 75 16 6 14 25 0
50 39 46 54 29 28 35 20 45 32 33 10 49 61 64 67 68 71 72 78 6 25 14 16 0
39 33 20 29 46 28 35 54 40 21 45 50 11 55 62 64 68 72 73 16 6 14 25 0
46 35 32 45 29 39 28 54 12 20 40 49 21 55 63 64 67 71 73 16 6 14 25 0
35 29 31 64 20 45 46 54 39 11 48 12 62 63 28 66 70 78 25 14 16 6 0
35 29 31 64 20 45 46 54 39 11 42 48 23 57 62 28 66 70 75 16 6 14 25 0
35 29 31 64 20 48 45 46 54 39 33 11 50 62 28 66 68 70 72 77 6 25 14 16 0
64 20 32 29 35 31 45 48 46 54 49 12 39 63 28 66 67 70 71 76 6 25 14 16 0
47 30 35 46 45 29 61 28 10 11 12 62 63 64 65 69 76 77 78 6 14 16 25 0
47 30 35 46 45 29 23 28 10 11 57 42 61 62 64 65 69 76 25 14 16 6 0
47 30 35 46 45 29 22 28 10 56 41 12 61 63 64 65 69 77 25 14 16 6 0
47 30 35 46 45 29 41 28 10 56 23 42 22 57 61 64 65 69 78 16 6 14 25 0
47 30 35 29 28 32 45 61 46 49 10 12 63 64 65 67 69 71 74 77 16 25 6 14 0
47 30 32 29 35 28 45 49 42 46 10 57 23 61 64 65 67 69 71 74 6 25 14 16 0
47 46 33 35 45 61 28 29 30 50 49 10 32 64 65 67 68 69 71 72 74 75 78 16 25 6 14 0
47 30 35 29 28 21 45 46 55 33 11 50 40 62 64 65 68 69 72 75 6 25 14 16 0
47 30 35 29 28 32 45 40 12 46 21 49 55 63 64 65 67 69 71 74 6 25 14 16 0
46 35 31 45 29 65 62 28 11 48 47 12 63 64 30 66 69 70 73 78 16 25 6 14 0
46 35 31 45 29 65 42 48 28 47 57 11 23 62 64 30 66 69 70 73 6 25 14 16 0
30 35 31 45 46 48 65 62 29 47 33 28 11 64 50 66 68 69 70 72 73 75 77 16 25 6 14 0
30 35 31 45 49 47 46 29 65 63 32 12 28 64 48 66 67 69 70 71 73 74 76 16 25 6 14 0
33 9 7 8 11 10 42 44 52 53 54 55 56 64 65 66 67 69 70 71 73 74 76 17 24 5 15 0
41 7 10 12 8 9 32 44 52 53 54 55 57 64 65 66 68 69 70 72 73 75 77 17 24 5 15 0
50 32 23 41 8 9 10 44 7 52 53 54 55 63 64 65 66 69 70 73 24 15 17 5 0
42 7 32 41 33 9 10 8 44 52 53 54 55 64 65 66 69 70 73 78 5 15 17 24 0
7 31 12 40 8 9 11 44 52 53 54 56 57 64 65 67 68 69 71 72 74 75 78 17 24 5 15 0
50 31 23 40 7 9 11 44 8 52 53 54 56 63 64 65 67 69 71 74 24 15 17 5 0
33 42 31 40 9 8 11 7 44 52 53 54 56 64 65 67 69 71 74 77 5 15 17 24 0
40 8 32 7 41 31 9 12 44 52 53 54 57 64 65 68 69 72 75 76 5 15 17 24 0
41 7 31 32 40 9 23 50 44 8 52 53 54 63 64 65 69 76 5 24 15 17 0
33 7 32 40 41 31 9 42 8 44 52 53 54 64 65 69 76 77 78 5 15 17 24 0
47 41 20 33 7 8 32 42 44 10 52 53 55 60 64 66 70 78 5 24 15 17 0
47 20 31 40 7 8 33 42 44 11 52 53 56 60 64 67 71 77 5 24 15 17 0
47 40 20 31 32 7 8 41 44 12 52 53 57 60 64 68 72 76 5 24 15 17 0
8 10 12 11 7 39 30 44 52 53 55 56 57 64 66 67 68 70 71 72 76 77 78 17 24 5 15 0
50 30 7 23 39 10 11 44 8 52 53 55 56 63 64 66 67 70 71 76 24 15 17 5 0
39 30 10 33 42 7 11 8 44 52 53 55 56 64 66 67 70 71 75 76 5 15 17 24 0
30 39 10 22 7 8 49 44 12 52 53 55 57 62 64 66 68 70 72 77 24 15 17 5 0
50 30 7 22 39 49 10 44 23 8 52 53 55 62 63 64 66 70 78 15 24 17 5 0
39 30 10 41 7 8 32 12 44 52 53 55 57 64 66 68 70 72 74 77 5 15 17 24 0
39 30 10 41 7 32 23 50 44 8 52 53 55 63 64 66 70 74 5 24 15 17 0
41 30 10 39 33 8 32 42 7 44 52 53 55 64 66 70 74 75 78 5 15 17 24 0
39 30 21 7 44 48 11 8 23 50 52 53 56 61 63 64 67 71 77 15 24 17 5 0
42 30 21 48 7 33 39 8 44 11 52 53 56 61 64 67 71 75 5 24 15 17 0
30 7 22 8 21 48 39 44 12 49 52 53 57 61 62 64 68 72 76 15 24 17 5 0
30 21 7 48 32 41 39 8 44 12 52 53 57 61 64 68 72 74 5 24 15 17 0
39 7 31 40 12 8 11 30 44 52 53 56 57 64 67 68 71 72 73 78 5 15 17 24 0
39 7 31 40 23 50 11 30 44 8 52 53 56 63 64 67 71 73 5 24 15 17 0
73 7 31 40 39 33 11 42 8 44 52 53 56 64 67 71 30 75 77 5 15 17 24 0
40 30 7 8 22 39 31 49 44 12 52 53 57 62 64 68 72 73 5 24 15 17 0
50 40 30 49 39 31 7 22 44 23 8 52 53 62 63 64 73 78 15 24 17 5 0
40 30 7 8 32 73 39 41 12 44 52 53 57 64 68 72 31 74 76 5 15 17 24 0
39 30 32 41 7 23 40 31 50 44 8 52 53 63 64 73 74 76 24 15 17 5 0
39 30 7 40 41 33 31 32 42 8 44 52 53 64 73 74 75 76 77 78 17 24 5 15 0
46 33 19 7 41 32 9 42 44 10 52 54 55 59 65 66 73 78 5 24 15 17 0
46 33 19 40 9 7 31 42 44 11 52 54 56 59 65 67 74 77 5 24 15 17 0
46 19 32 40 7 9 31 41 44 12 52 54 57 59 65 68 75 76 5 24 15 17 0
46 19 32 7 40 31 23 41 44 50 9 52 54 59 63 65 72 76 15 24 17 5 0
46 33 19 41 32 31 7 42 40 44 9 52 54 59 65 76 77 78 24 15 17 5 0
41 46 7 33 47 20 19 42 44 32 10 52 55 59 60 66 69 78 15 24 17 5 0
46 20 31 40 47 7 19 42 44 33 11 52 56 59 60 67 69 77 15 24 17 5 0
40 20 19 46 7 32 41 31 44 47 12 52 57 59 60 68 69 76 15 24 17 5 0
30 7 10 46 39 33 42 19 44 11 52 55 56 59 66 67 75 76 5 24 15 17 0
30 46 10 32 7 39 41 19 44 12 52 55 57 59 66 68 74 77 5 24 15 17 0
39 46 32 41 30 23 7 19 44 50 10 52 55 59 63 66 72 74 15 24 17 5 0
41 33 30 46 32 7 19 42 39 44 10 52 55 59 66 74 75 78 24 15 17 5 0
46 42 19 21 48 7 44 39 30 33 11 52 56 59 61 67 70 75 15 24 17 5 0
41 30 32 46 21 7 39 19 44 48 12 52 57 59 61 68 70 74 15 24 17 5 0
39 46 19 7 44 40 11 31 30 12 52 56 57 59 67 68 73 78 5 24 15 17 0
39 44 30 46 40 7 23 31 19 50 11 52 56 59 63 67 72 73 15 24 17 5 0
46 19 31 40 73 33 7 42 39 44 11 52 56 59 67 30 75 77 24 15 17 5 0
46 19 32 41 73 30 31 7 39 44 12 52 57 59 68 40 74 76 24 15 17 5 0
54 44 10 29 38 11 7 12 52 9 55 56 57 65 66 67 68 73 74 75 76 77 78 17 24 5 15 0
38 11 10 23 29 9 50 44 7 52 54 55 56 63 65 66 67 73 74 76 24 15 17 5 0
42 33 29 38 10 7 11 9 44 52 54 55 56 65 66 67 72 73 74 76 5 15 17 24 0
38 29 22 10 44 7 9 49 12 52 54 55 57 62 65 66 68 73 75 77 24 15 17 5 0
38 9 10 29 22 44 23 49 50 7 52 54 55 62 63 65 66 73 78 15 24 17 5 0
41 38 32 29 7 9 10 12 44 52 54 55 57 65 66 68 71 73 75 77 5 15 17 24 0
41 38 32 29 7 10 50 23 44 9 52 54 55 63 65 66 71 73 5 24 15 17 0
41 38 32 29 33 9 10 42 7 44 52 54 55 65 66 71 72 73 78 5 15 17 24 0
65 11 29 38 7 12 21 74 48 68 9 56 57 61 44 52 54 67 75 78 24 15 17 5 0
11 29 23 9 38 48 44 50 21 7 52 54 56 61 63 65 67 74 77 15 24 17 5 0
42 33 29 38 21 9 48 7 44 11 52 54 56 61 65 67 72 74 5 24 15 17 0
75 65 38 68 22 29 44 9 21 48 7 12 57 61 62 52 49 54 76 15 24 17 5 0
65 38 9 29 54 23 21 50 48 22 7 49 44 61 62 63 52 76 77 78 24 5 15 17 0
38 29 31 40 7 9 11 12 44 52 54 56 57 65 67 68 70 74 75 78 5 15 17 24 0
38 29 31 40 7 11 23 50 44 9 52 54 56 63 65 67 70 74 5 24 15 17 0
38 29 31 40 33 7 11 42 9 44 52 54 56 65 67 70 72 74 77 5 15 17 24 0
38 29 31 40 7 9 22 49 44 12 52 54 57 62 65 68 70 75 5 24 15 17 0
38 29 31 40 7 50 22 49 44 23 9 52 54 62 63 65 70 78 15 24 17 5 0
38 29 31 40 32 7 9 41 12 44 52 54 57 65 68 70 71 75 76 5 15 17 24 0
41 38 32 29 31 7 40 23 50 44 9 52 54 63 65 70 71 76 24 15 17 5 0
33 29 32 38 40 7 31 41 42 9 44 52 54 65 70 71 72 76 77 78 17 24 5 15 0
55 44 10 38 29 20 47 7 12 52 11 56 57 60 66 67 68 76 77 78 24 15 17 5 0
50 38 23 11 7 20 29 44 47 10 52 55 56 60 63 66 67 75 76 15 24 17 5 0
42 33 7 29 38 20 47 10 44 11 52 55 56 60 66 67 72 76 5 24 15 17 0
29 38 10 22 20 7 47 44 49 12 52 55 57 60 62 66 68 74 77 15 24 17 5 0
29 10 23 38 7 20 47 49 22 50 44 52 55 60 62 63 66 74 75 78 24 5 15 17 0
41 38 32 29 7 20 47 10 44 12 52 55 57 60 66 68 71 77 5 24 15 17 0
41 38 32 29 20 47 10 23 44 50 7 52 55 60 63 66 71 75 15 24 17 5 0
47 41 29 33 38 20 32 42 7 44 10 52 55 60 66 71 72 78 24 15 17 5 0
78 67 12 20 7 29 38 11 21 47 52 56 57 44 48 60 61 73 68 15 24 17 5 0
50 7 23 29 38 11 20 48 21 47 44 52 56 60 61 63 67 73 75 77 24 5 15 17 0
42 33 7 44 29 20 38 48 21 47 11 52 56 60 61 67 72 73 15 24 17 5 0
49 62 29 7 38 12 20 22 21 52 48 47 57 60 61 68 44 73 74 76 24 5 15 17 0
75 20 23 7 44 29 38 21 60 48 52 22 47 50 61 62 63 73 74 49 76 77 78 5 24 15 17 0
41 38 32 29 20 7 21 48 44 47 12 52 57 60 61 68 71 73 15 24 17 5 0
38 29 31 40 20 7 47 11 44 12 52 56 57 60 67 68 70 78 5 24 15 17 0
38 29 31 40 7 20 47 23 44 50 11 52 56 60 63 67 70 75 15 24 17 5 0
33 29 31 38 20 7 47 42 40 44 11 52 56 60 67 70 72 77 24 15 17 5 0
29 7 32 31 38 47 20 41 40 44 12 52 57 60 68 70 71 76 24 15 17 5 0
39 30 29 7 38 10 11 12 44 52 55 56 57 66 67 68 69 76 77 78 5 15 17 24 0
39 30 29 7 38 10 11 23 44 50 52 55 56 63 66 67 69 76 5 24 15 17 0
39 30 29 7 38 10 42 33 11 44 52 55 56 66 67 69 72 75 76 5 15 17 24 0
39 30 29 7 38 10 22 49 44 12 52 55 57 62 66 68 69 77 5 24 15 17 0
50 30 29 7 38 22 39 49 44 23 10 52 55 62 63 66 69 78 15 24 17 5 0
39 30 29 7 38 41 10 32 12 44 52 55 57 66 68 69 71 74 77 5 15 17 24 0
39 30 29 7 38 41 23 32 50 44 10 52 55 63 66 69 71 74 24 15 17 5 0
39 30 29 7 38 41 33 32 42 10 44 52 55 66 69 71 72 74 75 78 17 24 5 15 0
39 30 29 7 38 21 48 11 44 12 52 56 57 61 67 68 69 78 5 24 15 17 0
39 30 29 7 38 21 48 23 44 50 11 52 56 61 63 67 69 77 15 24 17 5 0
39 30 21 29 38 7 48 33 42 44 11 52 56 61 67 69 72 75 24 15 17 5 0
39 30 29 7 38 21 48 22 44 49 12 52 57 61 62 68 69 76 15 24 17 5 0
39 30 29 7 38 21 48 23 44 22 50 49 52 61 62 63 69 76 77 78 5 15 17 24 0
39 41 30 29 38 7 48 21 32 44 12 52 57 61 68 69 71 74 24 15 17 5 0
38 29 31 40 7 39 12 69 11 44 52 56 57 67 68 30 70 73 78 5 15 17 24 0
38 29 31 40 7 39 69 50 23 44 11 52 56 63 67 30 70 73 24 15 17 5 0
38 29 31 40 7 39 69 33 42 11 44 52 56 67 30 70 72 73 75 77 17 24 5 15 0
30 29 31 7 38 22 39 40 49 44 12 52 57 62 68 69 70 73 24 15 17 5 0
30 29 31 7 38 22 39 40 49 44 23 50 52 62 63 69 70 73 78 17 5 15 24 0
39 30 29 7 38 41 69 31 32 12 44 52 57 68 40 70 71 73 74 76 17 24 5 15 0
39 41 30 29 38 32 50 31 40 23 44 7 52 63 69 70 71 73 74 76 5 24 15 17 0
33 29 32 38 40 31 30 7 41 42 39 44 52 69 70 71 72 73 74 75 76 77 78 17 24 5 15 0
45 33 18 42 8 9 10 44 11 53 54 55 56 58 69 70 71 73 74 76 24 15 17 5 0
45 18 32 41 8 9 10 44 12 53 54 55 57 58 69 70 72 73 75 77 24 15 17 5 0
45 18 32 41 8 10 23 44 50 9 53 54 55 58 63 68 69 70 73 15 24 17 5 0
45 33 18 41 32 8 42 9 44 10 53 54 55 58 69 70 73 78 5 24 15 17 0
45 18 31 40 8 9 11 44 12 53 54 56 57 58 69 71 72 74 75 78 24 15 17 5 0
45 18 31 40 8 11 50 44 23 9 53 54 56 58 63 68 69 71 74 15 24 17 5 0
45 33 18 42 40 31 8 9 44 11 53 54 56 58 69 71 74 77 5 24 15 17 0
45 18 31 40 32 8 41 9 44 12 53 54 57 58 69 72 75 76 5 24 15 17 0
45 18 31 32 40 41 8 50 44 23 9 53 54 58 63 68 69 76 15 24 17 5 0
45 40 18 32 42 31 41 33 8 44 9 53 54 58 69 76 77 78 24 15 17 5 0
47 33 18 20 8 45 41 42 44 32 10 53 55 58 60 65 70 78 15 24 17 5 0
45 8 31 18 20 47 40 42 44 33 11 53 56 58 60 65 71 77 15 24 17 5 0
45 18 31 40 32 47 8 41 44 20 12 53 57 58 60 65 72 76 15 24 17 5 0
39 30 18 8 45 10 11 44 12 53 55 56 57 58 70 71 72 76 77 78 24 15 17 5 0
45 30 10 39 18 23 11 44 50 8 53 55 56 58 63 68 70 71 76 15 24 17 5 0
45 33 18 42 8 30 39 10 44 11 53 55 56 58 70 71 75 76 5 24 15 17 0
39 30 18 8 45 10 22 44 49 12 53 55 57 58 62 67 70 72 77 15 24 17 5 0
30 18 23 45 49 39 8 44 22 50 10 53 55 58 62 63 67 68 70 78 24 5 15 17 0
41 30 18 8 45 39 32 10 44 12 53 55 57 58 70 72 74 77 5 24 15 17 0
39 30 18 41 45 32 10 23 44 50 8 53 55 58 63 68 70 74 15 24 17 5 0
45 42 30 18 41 39 32 33 8 44 10 53 55 58 70 74 75 78 24 15 17 5 0
30 21 18 45 48 8 39 44 11 12 53 56 57 58 61 66 71 72 78 15 24 17 5 0
30 21 18 45 48 8 39 44 50 23 11 53 56 58 61 63 66 68 71 77 24 5 15 17 0
30 21 18 45 48 8 39 33 44 42 11 53 56 58 61 66 71 75 15 24 17 5 0
30 21 18 45 48 8 39 44 49 22 12 53 57 58 61 62 66 67 72 76 24 5 15 17 0
48 30 18 8 45 41 39 32 44 21 12 53 57 58 61 66 72 74 15 24 17 5 0
45 18 31 40 8 30 39 11 44 12 53 56 57 58 71 72 73 78 5 24 15 17 0
45 30 18 40 8 31 39 23 44 50 11 53 56 58 63 68 71 73 15 24 17 5 0
45 39 31 73 18 33 40 42 8 44 11 53 56 58 71 30 75 77 24 15 17 5 0
45 30 18 40 8 31 39 22 44 49 12 53 57 58 62 67 72 73 15 24 17 5 0
45 18 31 40 39 30 23 49 44 22 50 8 53 58 62 63 67 68 73 78 5 15 17 24 0
73 30 18 39 45 41 31 32 8 44 12 53 57 58 72 40 74 76 24 15 17 5 0
39 30 18 41 45 32 31 40 50 44 23 8 53 58 63 68 73 74 76 17 5 15 24 0
45 33 32 39 31 18 40 41 42 30 44 8 53 58 73 74 75 76 77 78 5 24 15 17 0
46 33 19 45 18 9 42 44 10 11 54 55 56 58 59 64 73 74 76 15 24 17 5 0
45 19 32 46 9 18 41 44 10 12 54 55 57 58 59 64 73 75 77 15 24 17 5 0
46 19 32 45 42 18 33 41 44 9 10 54 55 58 59 64 73 78 15 24 17 5 0
45 19 31 46 9 18 40 44 11 12 54 56 57 58 59 64 74 75 78 15 24 17 5 0
46 19 31 45 18 9 40 44 23 50 11 54 56 58 59 63 64 68 72 74 24 5 15 17 0
45 46 31 40 18 19 42 33 44 9 11 54 56 58 59 64 74 77 15 24 17 5 0
49 18 22 31 40 19 9 44 45 46 12 54 57 58 59 62 64 67 71 75 24 5 15 17 0
46 19 31 40 22 18 50 44 45 49 23 9 54 58 59 62 63 64 67 68 71 72 78 5 24 15 17 0
45 46 31 40 32 18 41 19 44 9 12 54 57 58 59 64 75 76 15 24 17 5 0
45 41 31 32 46 18 40 19 44 50 23 9 54 58 59 63 64 68 72 76 5 15 17 24 0
45 19 32 46 42 18 41 33 40 44 31 9 54 58 59 64 76 77 78 17 5 15 24 0
46 42 19 47 45 18 20 44 33 10 11 55 56 58 59 60 64 65 69 76 24 5 15 17 0
46 19 32 45 18 47 41 44 20 10 12 55 57 58 59 60 64 65 69 77 24 5 15 17 0
46 33 19 47 45 18 20 42 44 41 32 10 55 58 59 60 64 65 69 78 5 15 17 24 0
46 19 31 45 18 47 40 44 20 11 12 56 57 58 59 60 64 65 69 78 24 5 15 17 0
47 40 20 31 46 50 45 44 19 18 23 11 56 58 59 60 63 64 65 68 69 72 75 5 24 15 17 0
45 19 31 20 46 18 47 40 44 33 42 11 56 58 59 60 64 65 69 77 5 15 17 24 0
46 19 31 45 41 18 32 40 44 20 47 12 57 58 59 60 64 65 69 76 5 15 17 24 0
46 19 10 45 39 18 30 44 11 12 55 56 57 58 59 64 76 77 78 15 24 17 5 0
46 19 10 45 39 18 30 44 50 23 11 55 56 58 59 63 64 68 72 76 24 5 15 17 0
45 46 33 42 18 39 19 30 44 10 11 55 56 58 59 64 75 76 15 24 17 5 0
45 41 30 46 18 19 32 39 44 10 12 55 57 58 59 64 74 77 15 24 17 5 0
45 46 19 41 18 32 39 30 44 10 23 50 55 58 59 63 64 68 72 74 5 15 17 24 0
46 33 19 45 39 32 18 42 30 44 41 10 55 58 59 64 74 75 78 17 5 15 24 0
45 46 32 41 18 30 39 19 44 21 48 12 57 58 59 61 64 66 70 74 5 15 17 24 0
45 39 31 73 46 18 40 19 44 11 12 56 57 58 59 64 30 78 15 24 17 5 0
73 46 19 45 18 31 40 39 44 23 50 11 56 58 59 63 64 68 72 30 5 15 17 24 0
73 46 19 45 31 18 40 39 30 44 42 11 56 58 59 64 33 75 77 17 5 15 24 0
73 46 19 45 32 18 31 41 30 44 39 12 57 58 59 64 40 74 76 17 5 15 24 0
10 11 18 29 38 45 9 44 12 54 55 56 57 58 73 74 75 76 77 78 24 15 17 5 0
10 11 18 29 45 38 50 44 23 9 54 55 56 58 63 68 73 74 76 15 24 17 5 0
38 42 33 18 29 45 9 10 44 11 54 55 56 58 72 73 74 76 5 24 15 17 0
49 18 10 29 38 9 45 44 22 12 54 55 57 58 62 67 73 75 77 15 24 17 5 0
38 18 32 41 29 45 9 10 44 12 54 55 57 58 71 73 75 77 5 24 15 17 0
45 41 32 29 18 38 10 50 44 23 9 54 55 58 63 68 71 73 15 24 17 5 0
33 18 32 38 45 29 41 42 9 44 10 54 55 58 71 72 73 78 24 15 17 5 0
66 48 9 29 38 44 21 18 54 45 11 56 57 58 61 12 74 75 78 15 24 17 5 0
38 11 9 23 29 48 44 18 21 50 45 54 56 58 61 63 66 68 74 77 24 5 15 17 0
45 29 31 40 18 38 9 11 44 12 54 56 57 58 70 74 75 78 5 24 15 17 0
45 29 31 40 18 38 9 50 44 23 11 54 56 58 63 68 70 74 15 24 17 5 0
45 29 31 40 18 42 38 33 9 44 11 54 56 58 70 72 74 77 24 15 17 5 0
40 29 31 18 38 9 45 49 44 22 12 54 57 58 62 67 70 75 15 24 17 5 0
50 45 31 38 18 29 22 40 44 49 23 9 54 58 62 63 67 68 70 78 5 15 17 24 0
45 29 31 40 18 41 38 32 9 44 12 54 57 58 70 71 75 76 24 15 17 5 0
45 41 32 29 31 18 40 38 23 44 50 9 54 58 63 68 70 71 76 17 5 15 24 0
45 33 18 41 40 29 31 32 42 38 44 9 54 58 70 71 72 76 77 78 5 24 15 17 0
38 42 33 18 29 20 45 47 44 10 11 55 56 58 60 65 72 76 15 24 17 5 0
41 18 32 29 45 38 20 47 44 10 12 55 57 58 60 65 71 77 15 24 17 5 0
41 18 10 29 47 45 38 20 44 32 50 23 55 58 60 63 65 68 71 75 5 15 17 24 0
38 42 33 18 29 47 45 20 41 44 32 10 55 58 60 65 71 72 78 17 5 15 24 0
42 33 29 21 48 20 38 18 44 45 47 11 56 58 60 61 65 66 72 73 5 15 17 24 0
48 29 32 18 45 38 20 41 44 21 47 12 57 58 60 61 65 66 71 73 5 15 17 24 0
58 38 31 40 29 47 20 45 44 11 12 56 57 18 60 65 70 78 15 24 17 5 0
58 38 31 40 29 20 47 45 44 11 50 23 56 18 60 63 65 68 70 75 5 15 17 24 0
58 42 31 38 29 20 47 45 40 44 33 11 56 18 60 65 70 72 77 17 5 15 24 0
45 29 31 32 58 38 47 41 40 44 20 12 57 18 60 65 70 71 76 17 5 15 24 0
39 30 18 38 29 45 10 11 44 12 55 56 57 58 69 76 77 78 5 24 15 17 0
39 30 18 38 29 45 10 23 44 50 11 55 56 58 63 68 69 76 15 24 17 5 0
42 33 29 45 39 18 30 38 10 44 11 55 56 58 69 72 75 76 24 15 17 5 0
39 30 18 38 29 45 10 22 44 49 12 55 57 58 62 67 69 77 15 24 17 5 0
39 30 18 38 29 45 23 49 44 22 50 10 55 58 62 63 67 68 69 78 5 15 17 24 0
39 18 32 38 29 45 30 41 10 44 12 55 57 58 69 71 74 77 24 15 17 5 0
39 18 32 29 45 38 30 41 50 44 23 10 55 58 63 68 69 71 74 17 5 15 24 0
45 33 29 30 32 18 39 41 42 38 44 10 55 58 69 71 72 74 75 78 5 24 15 17 0
39 30 18 38 29 45 48 21 42 44 33 11 56 58 61 66 69 72 75 17 5 15 24 0
39 18 32 29 45 38 30 21 41 44 48 12 57 58 61 66 69 71 74 17 5 15 24 0
30 18 31 38 45 29 69 40 39 44 11 56 57 58 12 70 73 78 24 15 17 5 0
39 18 31 29 45 69 38 40 23 44 50 11 56 58 63 68 30 70 73 17 5 15 24 0
42 18 31 38 45 29 69 40 33 39 44 11 56 58 30 70 72 73 75 77 5 24 15 17 0
45 30 18 38 41 29 69 31 32 39 44 12 57 58 40 70 71 73 74 76 5 24 15 17 0
37 28 10 44 9 8 11 12 53 54 55 56 57 69 70 71 72 73 74 75 76 77 78 17 24 5 15 0
37 10 23 28 9 50 11 44 8 53 54 55 56 63 69 70 71 73 74 76 24 15 17 5 0
37 28 33 42 9 10 11 8 44 53 54 55 56 68 69 70 71 73 74 76 5 15 17 24 0
49 37 28 8 22 9 10 44 12 53 54 55 57 62 69 70 72 73 75 77 24 15 17 5 0
49 37 28 8 22 10 23 44 50 9 53 54 55 62 63 69 70 73 78 15 24 17 5 0
37 28 32 41 8 9 10 12 44 53 54 55 57 67 69 70 72 73 75 77 5 15 17 24 0
37 28 32 41 9 10 23 50 44 8 53 54 55 63 67 69 70 73 5 24 15 17 0
41 37 28 33 32 8 10 42 9 44 53 54 55 67 68 69 70 73 78 5 15 17 24 0
37 28 9 44 21 12 53 8 11 48 54 56 57 61 69 71 72 74 75 78 24 15 17 5 0
50 37 28 23 21 11 44 9 48 8 53 54 56 61 63 69 71 74 77 15 24 17 5 0
37 28 9 48 49 21 8 44 22 12 53 54 57 61 62 69 72 75 76 15 24 17 5 0
50 37 28 48 8 21 22 44 49 23 9 53 54 61 62 63 69 76 77 78 24 5 15 17 0
37 28 31 40 8 9 11 12 44 53 54 56 57 66 69 71 72 74 75 78 5 15 17 24 0
37 28 31 40 8 23 50 11 44 9 53 54 56 63 66 69 71 74 5 24 15 17 0
37 42 31 40 33 28 8 11 9 44 53 54 56 66 68 69 71 74 77 5 15 17 24 0
37 28 31 40 8 9 22 49 44 12 53 54 57 62 66 69 72 75 5 24 15 17 0
37 28 31 40 8 23 22 49 44 50 9 53 54 62 63 66 69 78 15 24 17 5 0
37 28 31 40 41 8 9 32 12 44 53 54 57 66 67 69 72 75 76 5 15 17 24 0
37 28 31 40 41 32 8 50 23 44 9 53 54 63 66 67 69 76 24 15 17 5 0
37 28 31 40 9 42 41 32 33 8 44 53 54 66 67 68 69 76 77 78 17 24 5 15 0
37 28 10 8 20 47 11 44 12 53 55 56 57 60 70 71 72 76 77 78 24 15 17 5 0
37 28 23 8 11 20 47 44 50 10 53 55 56 60 63 70 71 75 76 15 24 17 5 0
37 28 10 8 20 47 22 44 49 12 53 55 57 60 62 70 72 74 77 15 24 17 5 0
50 37 28 47 20 8 49 44 22 23 10 53 55 60 62 63 70 74 75 78 24 5 15 17 0
37 28 32 41 8 47 20 10 44 12 53 55 57 60 67 70 72 77 5 24 15 17 0
37 28 32 41 20 47 10 50 44 23 8 53 55 60 63 67 70 75 15 24 17 5 0
37 28 33 20 47 8 32 41 42 44 10 53 55 60 67 68 70 78 24 15 17 5 0
53 37 28 20 8 21 44 47 48 12 11 56 57 60 61 71 72 73 78 15 24 17 5 0
37 28 23 48 20 47 8 44 21 50 11 53 56 60 61 63 71 73 75 77 24 5 15 17 0
49 37 28 47 20 48 8 44 21 22 12 53 57 60 61 62 72 73 74 76 24 5 15 17 0
37 28 23 47 8 20 49 44 48 22 50 21 53 60 61 62 63 73 74 75 76 77 78 5 24 15 17 0
37 28 31 40 47 8 20 11 44 12 53 56 57 60 66 71 72 78 5 24 15 17 0
37 28 31 40 47 8 20 50 44 23 11 53 56 60 63 66 71 75 15 24 17 5 0
37 28 31 47 20 8 42 33 40 44 11 53 56 60 66 68 71 77 24 15 17 5 0
37 28 31 47 20 8 41 32 40 44 12 53 57 60 66 67 72 76 24 15 17 5 0
37 28 30 8 39 10 11 12 44 53 55 56 57 65 70 71 72 76 77 78 5 15 17 24 0
37 30 10 39 28 23 50 11 44 8 53 55 56 63 65 70 71 76 5 24 15 17 0
37 28 30 8 39 33 10 42 11 44 53 55 56 65 68 70 71 75 76 5 15 17 24 0
37 28 30 8 39 10 22 49 44 12 53 55 57 62 65 70 72 77 5 24 15 17 0
50 37 30 39 49 28 8 22 44 23 10 53 55 62 63 65 70 78 15 24 17 5 0
37 28 30 8 41 39 10 32 12 44 53 55 57 65 67 70 72 74 77 5 15 17 24 0
39 28 30 37 41 8 23 32 50 44 10 53 55 63 65 67 70 74 24 15 17 5 0
39 28 30 37 41 33 8 32 42 10 44 53 55 65 67 68 70 74 75 78 17 24 5 15 0
37 28 30 8 21 39 48 11 44 12 53 56 57 61 65 71 72 78 5 24 15 17 0
28 30 21 8 37 48 50 39 44 23 11 53 56 61 63 65 71 77 15 24 17 5 0
49 37 28 39 21 48 8 30 44 22 12 53 57 61 62 65 72 76 15 24 17 5 0
39 37 23 48 49 28 30 21 44 22 50 8 53 61 62 63 65 76 77 78 5 15 17 24 0
28 30 21 8 37 48 41 39 32 44 12 53 57 61 65 67 72 74 24 15 17 5 0
65 37 28 39 40 8 11 31 30 44 53 56 57 12 66 71 72 73 78 5 15 17 24 0
37 28 23 39 40 65 8 31 50 44 11 53 56 63 30 66 71 73 24 15 17 5 0
37 28 30 8 40 39 65 31 33 11 44 53 56 42 66 68 71 73 75 77 17 24 5 15 0
37 28 30 8 40 39 49 31 22 44 12 53 57 62 65 66 72 73 24 15 17 5 0
37 28 30 8 40 39 49 31 22 44 50 23 53 62 63 65 66 73 78 17 5 15 24 0
37 28 30 8 41 39 65 40 32 12 44 53 57 31 66 67 72 73 74 76 17 24 5 15 0
39 28 30 37 41 32 23 40 31 50 44 8 53 63 65 66 67 73 74 76 5 24 15 17 0
37 19 10 9 28 46 11 44 12 54 55 56 57 59 73 74 75 76 77 78 24 15 17 5 0
37 28 33 42 46 19 9 10 44 11 54 55 56 59 68 73 74 76 5 24 15 17 0
37 28 32 41 19 46 9 10 44 12 54 55 57 59 67 73 75 77 5 24 15 17 0
37 19 32 9 28 46 50 41 44 23 10 54 55 59 63 67 72 73 15 24 17 5 0
37 19 32 28 41 46 42 33 9 44 10 54 55 59 67 68 73 78 24 15 17 5 0
37 28 31 40 19 46 9 11 44 12 54 56 57 59 66 74 75 78 5 24 15 17 0
37 28 31 40 19 46 9 50 44 23 11 54 56 59 63 66 72 74 15 24 17 5 0
37 28 31 40 19 46 33 42 9 44 11 54 56 59 66 68 74 77 24 15 17 5 0
37 19 31 9 28 46 22 40 44 49 12 54 57 59 62 66 71 75 15 24 17 5 0
49 46 19 37 23 28 31 40 44 22 50 9 54 59 62 63 66 71 72 78 5 15 17 24 0
37 28 31 40 19 41 46 32 9 44 12 54 57 59 66 67 75 76 24 15 17 5 0
37 28 32 41 19 31 46 23 50 44 40 9 54 59 63 66 67 72 76 17 5 15 24 0
46 42 19 28 37 41 40 32 33 9 44 31 54 59 66 67 68 76 77 78 5 24 15 17 0
37 28 20 19 46 47 10 44 11 12 55 56 57 59 60 69 76 77 78 15 24 17 5 0
37 28 20 19 46 47 33 42 44 10 11 55 56 59 60 68 69 76 15 24 17 5 0
37 28 32 41 46 19 20 47 44 10 12 55 57 59 60 67 69 77 15 24 17 5 0
47 46 32 28 20 37 19 41 44 23 50 10 55 59 60 63 67 69 72 75 5 15 17 24 0
37 28 20 19 46 47 42 33 41 44 32 10 55 59 60 67 68 69 78 17 5 15 24 0
46 19 31 37 28 40 20 47 44 11 12 56 57 59 60 66 69 78 15 24 17 5 0
37 28 31 47 20 46 19 40 44 11 50 23 56 59 60 63 66 69 72 75 5 15 17 24 0
47 46 19 37 28 40 20 42 31 44 33 11 56 59 60 66 68 69 77 17 5 15 24 0
37 20 19 46 28 40 41 32 31 44 47 12 57 59 60 66 67 69 76 17 5 15 24 0
37 30 10 46 28 39 19 11 44 12 55 56 57 59 65 76 77 78 5 24 15 17 0
37 30 10 46 28 39 19 50 44 23 11 55 56 59 63 65 72 76 15 24 17 5 0
39 37 42 46 33 28 19 30 10 44 11 55 56 59 65 68 75 76 24 15 17 5 0
49 37 30 46 10 28 19 39 44 22 12 55 57 59 62 65 71 77 15 24 17 5 0
49 46 19 37 23 39 28 30 44 22 50 10 55 59 62 63 65 71 72 78 5 15 17 24 0
46 30 19 37 28 41 39 32 10 44 12 55 57 59 65 67 74 77 24 15 17 5 0
39 46 19 37 28 41 50 32 23 44 30 10 55 59 63 65 67 72 74 17 5 15 24 0
39 37 19 28 41 30 46 32 42 10 44 33 55 59 65 67 68 74 75 78 5 24 15 17 0
30 21 19 28 37 48 33 39 42 44 46 11 56 59 61 65 68 70 75 17 5 15 24 0
37 30 32 46 21 28 19 39 41 44 48 12 57 59 61 65 67 70 74 17 5 15 24 0
39 46 19 65 40 28 37 31 11 44 12 56 57 59 30 66 73 78 24 15 17 5 0
39 46 19 37 40 28 23 31 50 44 65 11 56 59 63 30 66 72 73 17 5 15 24 0
37 28 32 39 40 30 46 19 41 65 44 12 57 59 31 66 67 73 74 76 5 24 15 17 0
37 29 10 38 28 44 11 12 9 54 55 56 57 64 73 74 75 76 77 78 5 15 17 24 0
37 38 29 9 28 23 50 11 44 10 54 55 56 63 64 73 74 76 5 24 15 17 0
42 33 29 38 28 37 9 11 10 44 54 55 56 64 68 72 73 74 76 5 15 17 24 0
37 29 10 38 49 9 28 22 44 12 54 55 57 62 64 73 75 77 5 24 15 17 0
37 29 10 38 28 9 23 22 49 50 44 54 55 62 63 64 73 78 15 24 17 5 0
37 28 32 41 38 29 9 10 12 44 54 55 57 64 67 71 73 75 77 5 15 17 24 0
37 28 32 41 38 29 9 23 50 44 10 54 55 63 64 67 71 73 24 15 17 5 0
37 33 29 38 41 28 32 9 42 10 44 54 55 64 67 68 71 72 73 78 17 24 5 15 0
37 38 29 9 28 64 61 48 21 12 54 56 57 11 44 74 75 78 5 24 15 17 0
37 38 29 9 28 48 23 21 11 50 44 54 56 61 63 64 74 77 15 24 17 5 0
37 38 29 9 28 22 49 21 75 48 44 54 57 61 62 64 12 76 15 24 17 5 0
37 38 29 9 28 23 48 21 50 54 22 49 44 61 62 63 64 76 77 78 5 15 17 24 0
37 28 31 40 38 29 9 11 12 44 54 56 57 64 66 70 74 75 78 5 15 17 24 0
37 28 31 40 38 29 9 50 23 44 11 54 56 63 64 66 70 74 24 15 17 5 0
37 28 31 40 38 29 33 9 42 11 44 54 56 64 66 68 70 72 74 77 17 24 5 15 0
37 28 31 40 38 29 9 22 49 44 12 54 57 62 64 66 70 75 24 15 17 5 0
37 28 31 40 38 29 9 22 49 44 50 23 54 62 63 64 66 70 78 17 5 15 24 0
37 28 31 40 38 41 29 9 32 12 44 54 57 64 66 67 70 71 75 76 17 24 5 15 0
37 28 32 41 38 40 29 31 23 50 44 9 54 63 64 66 67 70 71 76 5 24 15 17 0
41 37 28 33 38 29 31 40 32 42 9 44 54 64 66 67 68 70 71 72 76 77 78 17 24 5 15 0
37 33 29 38 47 20 28 10 42 44 11 55 56 60 64 68 72 76 24 15 17 5 0
37 38 32 29 47 20 28 10 41 44 12 55 57 60 64 67 71 77 24 15 17 5 0
37 38 32 29 47 20 28 50 41 44 23 10 55 60 63 64 67 71 75 17 5 15 24 0
37 33 29 38 47 20 28 32 42 41 44 10 55 60 64 67 68 71 72 78 5 24 15 17 0
28 42 33 21 29 20 48 38 37 44 47 11 56 60 61 64 68 72 73 17 5 15 24 0
41 28 32 29 21 48 20 38 37 44 47 12 57 60 61 64 67 71 73 17 5 15 24 0
37 29 31 47 20 64 38 11 40 44 12 56 57 60 28 66 70 78 24 15 17 5 0
37 29 31 40 64 38 20 47 23 44 50 11 56 60 63 28 66 70 75 17 5 15 24 0
37 29 31 20 64 47 38 42 33 40 44 11 56 60 28 66 68 70 72 77 5 24 15 17 0
37 38 31 20 29 64 41 47 32 40 44 12 57 60 28 66 67 70 71 76 5 24 15 17 0
39 28 29 30 38 37 10 11 12 44 55 56 57 64 65 69 76 77 78 5 15 17 24 0
39 28 29 30 38 37 10 23 50 44 11 55 56 63 64 65 69 76 24 15 17 5 0
39 28 29 30 38 37 33 10 42 11 44 55 56 64 65 68 69 72 75 76 17 24 5 15 0
39 28 29 30 38 37 10 49 22 44 12 55 57 62 64 65 69 77 24 15 17 5 0
39 28 29 30 38 37 23 22 49 44 50 10 55 62 63 64 65 69 78 17 5 15 24 0
37 38 32 29 28 39 30 10 41 12 44 55 57 64 65 67 69 71 74 77 17 24 5 15 0
37 38 32 29 28 39 30 50 41 23 44 10 55 63 64 65 67 69 71 74 5 24 15 17 0
39 28 29 30 38 37 33 32 41 42 10 44 55 64 65 67 68 69 71 72 74 75 78 17 24 5 15 0
39 28 29 30 38 37 21 48 33 42 44 11 56 61 64 65 68 69 72 75 5 24 15 17 0
37 38 32 29 28 39 30 48 21 41 44 12 57 61 64 65 67 69 71 74 5 24 15 17 0
37 29 31 38 28 39 40 12 65 11 44 56 57 64 30 66 69 70 73 78 17 24 5 15 0
50 37 29 38 28 39 40 65 31 23 44 11 56 63 64 30 66 69 70 73 5 24 15 17 0
39 28 30 37 40 38 29 65 31 42 11 44 56 64 33 66 68 69 70 72 73 75 77 17 24 5 15 0
37 38 32 29 28 39 30 65 40 41 12 44 57 64 31 66 67 69 70 71 73 74 76 17 24 5 15 0
58 7 32 41 8 43 9 10 12 59 60 61 63 64 65 66 68 69 70 72 73 75 77 16 24 6 15 0
43 7 32 41 50 8 9 10 57 23 58 59 60 61 64 65 66 69 70 73 24 15 16 6 0
42 33 7 43 58 32 41 8 9 10 59 60 61 64 65 66 69 70 73 78 6 15 16 24 0
43 58 31 40 7 8 9 11 12 59 60 62 63 64 65 67 68 69 71 72 74 75 78 16 24 6 15 0
43 8 31 40 7 50 9 11 57 23 58 59 60 62 64 65 67 69 71 74 24 15 16 6 0
43 33 31 42 58 7 40 8 9 11 59 60 62 64 65 67 69 71 74 77 6 15 16 24 0
43 58 31 40 32 7 41 8 9 12 59 60 63 64 65 68 69 72 75 76 6 15 16 24 0
41 50 31 32 40 43 7 8 9 57 23 58 59 60 64 65 69 76 6 24 15 16 0
58 7 32 41 43 31 42 33 8 40 9 59 60 64 65 69 76 77 78 6 15 16 24 0
43 33 7 47 54 20 8 42 32 10 41 58 59 61 64 66 70 78 6 24 15 16 0
43 7 31 40 20 8 23 47 11 50 54 57 58 59 62 64 67 71 75 15 24 16 6 0
43 7 31 40 8 54 20 47 33 11 42 58 59 62 64 67 71 77 6 24 15 16 0
43 7 31 40 32 8 20 41 54 12 47 58 59 63 64 68 72 76 6 24 15 16 0
39 30 7 58 43 8 10 11 12 59 61 62 63 64 66 67 68 70 71 72 76 77 78 16 24 6 15 0
43 30 10 7 8 39 23 11 57 50 58 59 61 62 64 66 67 70 71 76 24 15 16 6 0
42 33 7 58 43 39 30 8 10 11 59 61 62 64 66 67 70 71 75 76 6 15 16 24 0
43 30 7 8 39 10 22 56 23 50 49 57 58 59 61 64 66 70 78 15 24 16 6 0
58 43 32 41 39 30 7 8 10 12 59 61 63 64 66 68 70 72 74 77 6 15 16 24 0
39 30 32 41 23 43 7 8 10 57 50 58 59 61 64 66 70 74 6 24 15 16 0
39 30 7 58 43 32 33 42 41 8 10 59 61 64 66 70 74 75 78 6 15 16 24 0
43 30 7 8 39 55 21 48 11 50 23 57 58 59 62 64 67 71 77 15 24 16 6 0
43 30 7 8 39 55 21 48 33 11 42 58 59 62 64 67 71 75 6 24 15 16 0
30 7 32 43 21 39 8 41 55 12 48 58 59 63 64 68 72 74 6 24 15 16 0
39 40 30 58 43 7 31 8 11 12 59 62 63 64 67 68 71 72 73 78 6 15 16 24 0
43 39 31 40 73 50 30 7 8 11 57 58 59 62 64 67 71 23 6 24 15 16 0
39 43 31 58 73 40 7 42 8 33 11 59 62 64 67 71 30 75 77 6 15 16 24 0
43 7 31 40 49 39 30 8 56 22 12 58 59 63 64 68 72 73 6 24 15 16 0
39 30 22 31 40 43 7 8 56 50 23 49 57 58 59 64 73 78 15 24 16 6 0
58 43 31 40 32 39 73 41 7 8 12 59 63 64 68 72 30 74 76 6 15 16 24 0
41 43 30 32 7 40 31 50 8 39 57 23 58 59 64 73 74 76 24 15 16 6 0
42 33 32 43 31 30 58 41 40 7 39 8 59 64 73 74 75 76 77 78 16 24 6 15 0
43 46 19 32 7 23 41 9 10 50 53 57 58 60 61 65 66 72 73 15 24 16 6 0
43 46 19 7 53 33 42 32 41 9 10 58 60 61 65 66 73 78 6 24 15 16 0
43 7 31 40 23 46 19 9 11 50 53 57 58 60 62 65 67 72 74 15 24 16 6 0
43 46 31 53 7 19 40 42 33 9 11 58 60 62 65 67 74 77 6 24 15 16 0
43 7 31 40 32 19 53 41 46 9 12 58 60 63 65 68 75 76 6 24 15 16 0
43 7 32 41 19 40 31 53 46 23 9 50 57 58 60 65 72 76 15 24 16 6 0
43 46 19 7 41 53 33 42 32 40 9 31 58 60 65 76 77 78 24 15 16 6 0
43 46 19 7 53 20 47 42 33 32 10 41 54 58 61 66 69 78 15 24 16 6 0
46 47 31 40 19 43 7 23 20 11 50 53 54 57 58 62 67 69 72 75 24 6 15 16 0
43 46 31 53 19 7 47 40 20 42 11 33 54 58 62 67 69 77 15 24 16 6 0
43 7 31 40 32 19 53 41 46 20 12 47 54 58 63 68 69 76 15 24 16 6 0
43 46 19 7 53 39 30 42 33 10 11 58 61 62 66 67 75 76 6 24 15 16 0
43 46 32 7 53 19 30 41 39 10 12 58 61 63 66 68 74 77 6 24 15 16 0
43 53 30 46 32 7 19 41 39 23 10 50 57 58 61 66 72 74 15 24 16 6 0
43 46 19 53 7 30 33 42 39 32 10 41 58 61 66 74 75 78 24 15 16 6 0
43 30 7 46 53 19 39 21 48 33 11 42 55 58 62 67 70 75 15 24 16 6 0
43 7 32 41 30 19 53 39 46 48 12 21 55 58 63 68 70 74 15 24 16 6 0
43 46 31 53 7 19 30 40 39 11 12 58 62 63 67 68 73 78 6 24 15 16 0
43 30 19 7 73 40 53 39 46 31 11 50 57 58 62 67 72 23 15 24 16 6 0
53 43 46 73 40 31 30 7 39 19 11 42 58 62 67 33 75 77 24 15 16 6 0
41 73 31 32 40 46 43 7 39 53 12 19 58 63 68 30 74 76 24 15 16 6 0
9 7 10 11 38 58 43 29 12 60 61 62 63 65 66 67 68 73 74 75 76 77 78 16 24 6 15 0
50 38 10 29 7 9 43 11 57 23 58 60 61 62 65 66 67 73 74 76 24 15 16 6 0
42 33 29 38 58 43 7 9 10 11 60 61 62 65 66 67 72 73 74 76 6 15 16 24 0
38 9 10 29 61 7 43 56 22 12 58 60 49 63 65 66 68 73 75 77 24 15 16 6 0
38 10 23 43 29 22 9 56 7 50 49 57 58 60 61 65 66 73 78 15 24 16 6 0
58 43 32 41 38 29 7 9 10 12 60 61 63 65 66 68 71 73 75 77 6 15 16 24 0
41 38 32 29 50 43 7 9 10 57 23 58 60 61 65 66 71 73 6 24 15 16 0
33 29 32 38 58 43 7 42 41 9 10 60 61 65 66 71 72 73 78 6 15 16 24 0
74 38 29 9 11 58 7 65 60 12 43 62 55 63 21 48 68 67 75 78 24 15 16 6 0
50 11 9 38 7 29 23 55 21 43 48 57 58 60 62 65 67 74 77 15 24 16 6 0
65 9 12 38 7 58 29 22 63 55 48 56 21 60 43 49 68 75 76 15 24 16 6 0
38 43 9 29 60 7 58 57 65 21 22 55 56 23 50 48 49 76 77 78 24 6 15 16 0
58 43 31 40 38 29 7 9 11 12 60 62 63 65 67 68 70 74 75 78 6 15 16 24 0
38 29 31 40 50 43 7 9 11 57 23 58 60 62 65 67 70 74 6 24 15 16 0
43 58 31 40 38 29 33 7 42 9 11 60 62 65 67 70 72 74 77 6 15 16 24 0
43 29 31 40 7 22 38 9 56 49 12 58 60 63 65 68 70 75 6 24 15 16 0
38 29 31 40 49 43 7 9 56 23 50 22 57 58 60 65 70 78 15 24 16 6 0
58 43 31 40 32 38 29 41 7 9 12 60 63 65 68 70 71 75 76 6 15 16 24 0
41 38 31 32 40 23 43 29 7 9 57 50 58 60 65 70 71 76 24 15 16 6 0
33 29 32 38 58 43 31 41 42 7 40 9 60 65 70 71 72 76 77 78 16 24 6 15 0
54 29 10 61 7 20 38 47 11 12 58 43 62 63 66 67 68 76 77 78 24 15 16 6 0
54 10 23 38 29 7 20 47 11 43 50 57 58 61 62 66 67 75 76 15 24 16 6 0
54 29 10 49 7 20 38 47 43 22 12 56 58 61 63 66 68 74 77 15 24 16 6 0
29 10 23 54 7 20 38 43 22 50 47 49 56 57 58 61 66 74 75 78 24 6 15 16 0
41 38 32 29 47 43 7 54 20 10 12 58 61 63 66 68 71 77 6 24 15 16 0
41 38 32 29 47 43 7 54 20 10 50 23 57 58 61 66 71 75 15 24 16 6 0
42 33 29 38 43 7 20 54 47 32 10 41 58 61 66 71 72 78 24 15 16 6 0
58 11 7 20 12 29 38 55 47 48 21 68 67 62 73 63 43 54 78 15 24 16 6 0
50 43 11 29 7 20 38 48 47 67 54 23 55 57 58 62 21 73 75 77 24 6 15 16 0
42 33 29 38 7 20 43 54 21 47 48 11 55 58 62 67 72 73 15 24 16 6 0
58 43 12 29 20 7 38 47 68 21 54 22 55 56 76 49 63 73 48 74 24 6 15 16 0
74 29 23 54 7 43 38 49 22 73 75 48 20 55 56 57 58 47 76 50 21 77 78 6 24 15 16 0
41 38 32 29 7 20 43 54 21 47 12 48 55 58 63 68 71 73 15 24 16 6 0
38 29 31 40 47 43 7 54 20 11 12 58 62 63 67 68 70 78 6 24 15 16 0
38 29 31 40 47 43 7 54 20 50 11 23 57 58 62 67 70 75 15 24 16 6 0
38 47 31 40 29 54 7 20 43 42 11 33 58 62 67 70 72 77 24 15 16 6 0
41 38 32 29 31 47 43 7 40 54 12 20 58 63 68 70 71 76 24 15 16 6 0
39 58 29 30 38 43 7 10 11 12 61 62 63 66 67 68 69 76 77 78 6 15 16 24 0
43 29 23 30 38 39 7 10 11 57 50 58 61 62 66 67 69 76 6 24 15 16 0
39 58 29 30 38 43 42 33 7 10 11 61 62 66 67 69 72 75 76 6 15 16 24 0
39 49 30 29 38 43 7 10 56 22 12 58 61 63 66 68 69 77 6 24 15 16 0
39 49 30 29 38 43 7 10 56 50 23 22 57 58 61 66 69 78 15 24 16 6 0
41 43 30 58 38 39 29 32 7 10 12 61 63 66 68 69 71 74 77 6 15 16 24 0
50 41 30 38 43 39 29 32 7 10 57 23 58 61 66 69 71 74 24 15 16 6 0
58 41 43 33 38 39 30 29 42 32 7 10 61 66 69 71 72 74 75 78 16 24 6 15 0
39 48 30 29 38 43 7 55 21 11 12 58 62 63 67 68 69 78 6 24 15 16 0
39 30 21 29 38 43 55 48 11 50 7 23 57 58 62 67 69 77 15 24 16 6 0
39 48 30 29 38 43 7 55 21 33 11 42 58 62 67 69 72 75 24 15 16 6 0
39 30 21 29 7 43 38 55 48 22 49 12 56 58 63 68 69 76 15 24 16 6 0
39 30 21 29 7 43 38 55 48 49 50 22 23 56 57 58 69 76 77 78 6 15 16 24 0
38 30 32 21 39 43 29 7 41 55 12 48 58 63 68 69 71 74 24 15 16 6 0
43 39 31 40 58 7 38 69 29 11 12 62 63 67 68 30 70 73 78 6 15 16 24 0
43 38 31 40 69 39 50 30 29 7 11 57 58 62 67 23 70 73 24 15 16 6 0
69 58 31 29 43 39 38 40 33 7 42 11 62 67 30 70 72 73 75 77 16 24 6 15 0
43 30 31 29 22 7 39 40 38 56 49 12 58 63 68 69 70 73 24 15 16 6 0
43 30 31 29 22 7 39 40 38 56 23 50 49 57 58 69 70 73 78 16 6 15 24 0
58 39 32 41 43 30 38 31 69 7 29 12 63 68 40 70 71 73 74 76 16 24 6 15 0
43 33 30 41 31 29 58 40 32 42 39 7 38 69 70 71 72 73 74 75 76 77 78 16 24 6 15 0
43 18 32 8 45 52 41 9 10 12 59 60 61 63 69 70 72 73 75 77 24 15 16 6 0
43 18 32 8 45 52 41 9 10 23 50 57 59 60 61 68 69 70 73 15 24 16 6 0
52 42 33 45 18 43 41 32 8 9 10 59 60 61 69 70 73 78 6 24 15 16 0
52 43 31 45 18 8 40 9 11 12 59 60 62 63 69 71 72 74 75 78 24 15 16 6 0
52 43 31 45 18 8 40 9 11 23 50 57 59 60 62 68 69 71 74 15 24 16 6 0
52 45 31 40 18 33 43 42 8 9 11 59 60 62 69 71 74 77 6 24 15 16 0
49 18 31 40 43 8 9 22 45 12 52 56 59 60 63 67 69 72 75 15 24 16 6 0
41 45 31 32 40 43 52 18 8 9 12 59 60 63 69 72 75 76 6 24 15 16 0
41 45 31 32 40 43 52 18 8 9 50 23 57 59 60 68 69 76 15 24 16 6 0
52 42 33 18 41 32 43 45 31 40 8 9 59 60 69 76 77 78 24 15 16 6 0
52 43 42 47 18 8 20 45 33 32 10 41 54 59 61 65 70 78 15 24 16 6 0
52 43 31 45 18 8 40 47 20 33 11 42 54 59 62 65 71 77 15 24 16 6 0
52 43 30 45 18 8 39 10 11 12 59 61 62 63 70 71 72 76 77 78 24 15 16 6 0
39 30 18 45 52 43 8 10 11 23 50 57 59 61 62 68 70 71 76 15 24 16 6 0
39 42 18 52 45 43 30 33 8 10 11 59 61 62 70 71 75 76 6 24 15 16 0
52 43 30 45 18 8 39 10 49 22 12 56 59 61 63 67 70 72 77 15 24 16 6 0
52 43 30 45 18 8 39 10 50 23 22 49 56 57 59 61 67 68 70 78 24 6 15 16 0
43 18 32 41 39 52 30 45 8 10 12 59 61 63 70 72 74 77 6 24 15 16 0
43 18 32 41 39 30 52 45 8 10 23 50 57 59 61 68 70 74 15 24 16 6 0
39 43 33 52 42 18 30 45 41 32 8 10 59 61 70 74 75 78 24 15 16 6 0
43 30 18 45 8 52 39 21 48 11 12 55 59 62 63 66 71 72 78 15 24 16 6 0
43 30 18 45 52 8 39 21 48 33 11 42 55 59 62 66 71 75 15 24 16 6 0
39 30 18 41 52 45 43 32 8 48 12 21 55 59 63 66 72 74 15 24 16 6 0
43 18 31 40 39 52 30 45 8 11 12 59 62 63 71 72 73 78 6 24 15 16 0
43 18 31 40 39 30 52 45 8 11 23 50 57 59 62 68 71 73 15 24 16 6 0
39 18 31 52 73 43 40 45 33 42 8 11 59 62 71 30 75 77 24 15 16 6 0
43 52 31 40 18 39 8 45 30 22 49 12 56 59 63 67 72 73 15 24 16 6 0
43 18 31 40 39 30 52 45 50 22 23 8 49 56 57 59 67 68 73 78 6 15 16 24 0
43 40 18 32 39 30 31 41 52 45 8 12 59 63 72 73 74 76 24 15 16 6 0
39 43 31 41 18 32 40 30 52 45 23 8 50 57 59 68 73 74 76 16 6 15 24 0
52 33 32 40 41 18 31 43 45 42 39 8 30 59 73 74 75 76 77 78 6 24 15 16 0
52 43 33 42 19 18 9 10 45 46 11 53 60 61 62 64 73 74 76 15 24 16 6 0
45 52 32 41 18 46 43 19 9 10 12 53 60 61 63 64 73 75 77 15 24 16 6 0
45 46 32 41 18 23 43 19 9 10 50 52 53 57 60 61 64 68 72 73 24 6 15 16 0
52 43 32 45 46 18 19 41 33 42 9 10 53 60 61 64 73 78 15 24 16 6 0
52 45 31 40 18 46 43 19 9 11 12 53 60 62 63 64 74 75 78 15 24 16 6 0
52 45 31 40 43 18 46 19 9 11 50 23 53 57 60 62 64 68 72 74 24 6 15 16 0
52 45 31 40 18 43 19 46 33 42 9 11 53 60 62 64 74 77 15 24 16 6 0
52 45 31 40 41 43 32 18 19 46 9 12 53 60 63 64 75 76 15 24 16 6 0
45 52 32 41 31 43 40 18 19 46 50 9 23 53 57 60 64 68 72 76 6 15 16 24 0
45 33 18 41 52 46 43 19 32 42 31 9 40 53 60 64 76 77 78 16 6 15 24 0
52 43 33 46 45 20 47 18 19 42 10 11 53 54 61 62 64 65 69 76 24 6 15 16 0
45 52 46 18 41 43 20 19 47 32 10 12 53 54 61 63 64 65 69 77 24 6 15 16 0
47 19 32 20 41 45 23 43 18 46 50 10 52 53 54 57 61 64 65 68 69 72 75 6 24 15 16 0
52 43 46 18 42 20 47 45 19 33 41 10 32 53 54 61 64 65 69 78 6 15 16 24 0
21 43 19 18 48 20 42 33 45 46 47 11 52 53 54 55 62 64 65 66 69 70 73 6 24 15 16 0
45 18 31 40 52 46 43 47 19 20 11 12 53 54 62 63 64 65 69 78 24 6 15 16 0
52 45 31 40 18 46 43 47 20 19 11 50 23 53 54 57 62 64 65 68 69 72 75 6 24 15 16 0
45 18 31 40 52 46 47 43 33 19 20 11 42 53 54 62 64 65 69 77 6 15 16 24 0
45 18 32 41 52 40 43 31 46 19 20 12 47 53 54 63 64 65 69 76 6 15 16 24 0
43 46 19 18 52 45 30 39 10 11 12 53 61 62 63 64 76 77 78 15 24 16 6 0
52 43 30 45 18 19 46 39 10 11 50 23 53 57 61 62 64 68 72 76 24 6 15 16 0
52 43 30 45 18 19 46 39 42 33 10 11 53 61 62 64 75 76 15 24 16 6 0
45 52 32 41 18 30 43 19 46 39 10 12 53 61 63 64 74 77 15 24 16 6 0
45 52 32 41 30 18 43 19 46 39 23 10 50 53 57 61 64 68 72 74 6 15 16 24 0
30 41 19 18 52 45 46 43 39 33 32 10 42 53 61 64 74 75 78 16 6 15 24 0
45 30 21 46 18 19 43 39 42 48 33 11 52 53 55 62 64 66 70 75 6 15 16 24 0
43 30 32 52 18 45 19 41 46 39 48 12 21 53 55 63 64 66 70 74 6 15 16 24 0
39 73 31 43 52 18 40 45 46 19 11 12 53 62 63 64 30 78 15 24 16 6 0
52 18 31 40 39 73 43 45 46 19 11 23 50 53 57 62 64 68 72 30 6 15 16 24 0
52 45 31 40 18 73 43 46 39 19 42 11 33 53 62 64 30 75 77 16 6 15 24 0
45 52 32 41 18 73 31 43 39 46 30 12 19 53 63 64 40 74 76 16 6 15 24 0
43 18 10 29 45 52 38 9 11 12 60 61 62 63 73 74 75 76 77 78 24 15 16 6 0
43 18 10 38 45 52 29 9 11 50 23 57 60 61 62 68 73 74 76 15 24 16 6 0
52 42 33 38 29 18 45 43 9 10 11 60 61 62 72 73 74 76 6 24 15 16 0
43 18 10 29 45 52 38 9 49 12 22 56 60 61 63 67 73 75 77 15 24 16 6 0
18 29 10 22 9 43 38 45 50 23 49 52 56 57 60 61 67 68 73 78 24 6 15 16 0
41 38 32 29 45 43 52 18 9 10 12 60 61 63 71 73 75 77 6 24 15 16 0
41 38 32 29 45 43 52 18 9 10 50 23 57 60 61 68 71 73 15 24 16 6 0
38 42 33 52 45 43 29 18 41 32 9 10 60 61 71 72 73 78 24 15 16 6 0
52 9 29 18 11 55 38 21 45 48 12 43 60 62 63 66 74 75 78 15 24 16 6 0
52 9 18 29 11 23 38 45 48 50 43 21 55 57 60 62 66 68 74 77 24 6 15 16 0
9 18 12 43 66 29 38 22 48 21 49 52 55 56 60 63 45 67 75 76 24 6 15 16 0
52 43 9 29 18 22 38 45 21 49 23 48 50 55 56 57 60 66 67 68 76 77 78 6 24 15 16 0
38 45 31 40 29 43 52 18 9 11 12 60 62 63 70 74 75 78 6 24 15 16 0
38 45 31 40 29 43 52 18 9 11 50 23 57 60 62 68 70 74 15 24 16 6 0
52 45 31 40 38 43 29 18 33 42 9 11 60 62 70 72 74 77 24 15 16 6 0
52 43 31 45 29 38 40 18 9 22 49 12 56 60 63 67 70 75 15 24 16 6 0
38 45 31 40 29 43 52 18 22 23 50 9 49 56 57 60 67 68 70 78 6 15 16 24 0
38 45 31 40 29 41 43 32 52 18 9 12 60 63 70 71 75 76 24 15 16 6 0
41 45 31 32 40 38 43 29 52 18 23 9 50 57 60 68 70 71 76 16 6 15 24 0
38 42 33 52 18 41 43 32 45 29 31 9 40 60 70 71 72 76 77 78 6 24 15 16 0
52 42 33 38 29 18 20 45 47 43 10 11 54 61 62 65 72 76 15 24 16 6 0
43 18 32 38 29 45 52 41 20 47 10 12 54 61 63 65 71 77 15 24 16 6 0
43 18 32 38 29 52 45 41 20 47 10 50 23 54 57 61 65 68 71 75 6 15 16 24 0
52 42 33 38 29 18 20 45 47 43 41 10 32 54 61 65 71 72 78 16 6 15 24 0
38 33 18 21 45 52 29 20 48 43 47 11 42 54 55 62 65 66 72 73 6 15 16 24 0
43 18 32 29 52 45 38 41 20 48 47 12 21 54 55 63 65 66 71 73 6 15 16 24 0
52 43 31 45 29 38 47 40 20 11 12 18 54 62 63 65 70 78 15 24 16 6 0
38 45 31 40 29 43 52 47 20 23 50 11 18 54 57 62 65 68 70 75 6 15 16 24 0
52 43 31 45 29 38 47 20 40 42 33 11 18 54 62 65 70 72 77 16 6 15 24 0
52 29 31 32 45 38 43 41 40 20 47 12 18 54 63 65 70 71 76 16 6 15 24 0
39 30 18 29 38 43 52 45 10 11 12 61 62 63 69 76 77 78 6 24 15 16 0
39 30 18 29 38 43 52 45 10 11 50 23 57 61 62 68 69 76 15 24 16 6 0
39 30 18 38 45 52 43 29 33 42 10 11 61 62 69 72 75 76 24 15 16 6 0
39 30 18 29 38 43 52 45 10 49 22 12 56 61 63 67 69 77 15 24 16 6 0
39 30 18 29 38 43 52 45 49 23 50 10 22 56 57 61 67 68 69 78 6 15 16 24 0
43 30 18 38 41 39 29 32 52 45 10 12 61 63 69 71 74 77 24 15 16 6 0
43 18 32 29 52 38 39 30 41 45 10 23 50 57 61 68 69 71 74 16 6 15 24 0
42 43 38 39 52 18 30 33 45 29 41 10 32 61 69 71 72 74 75 78 6 24 15 16 0
39 30 18 29 38 43 52 45 21 48 33 11 42 55 62 66 69 72 75 16 6 15 24 0
43 18 32 29 38 39 30 52 41 45 21 12 48 55 63 66 69 71 74 16 6 15 24 0
39 18 31 38 29 43 40 69 30 52 45 11 62 63 12 70 73 78 24 15 16 6 0
43 18 31 40 39 69 38 30 29 52 45 11 23 57 62 68 50 70 73 16 6 15 24 0
39 18 31 38 52 43 69 40 45 29 33 11 42 62 30 70 72 73 75 77 6 24 15 16 0
69 43 18 38 41 39 30 40 32 29 52 12 45 63 31 70 71 73 74 76 6 24 15 16 0
59 43 28 37 8 9 10 11 12 60 61 62 63 69 70 71 72 73 74 75 76 77 78 16 24 6 15 0
50 37 28 43 8 9 10 11 57 23 59 60 61 62 69 70 71 73 74 76 24 15 16 6 0
59 43 28 37 8 33 42 9 10 11 60 61 62 68 69 70 71 73 74 76 6 15 16 24 0
49 43 28 37 8 9 10 56 22 12 59 60 61 63 69 70 72 73 75 77 24 15 16 6 0
43 28 22 37 8 9 10 56 23 50 49 57 59 60 61 69 70 73 78 15 24 16 6 0
59 43 32 41 28 37 8 9 10 12 60 61 63 67 69 70 72 73 75 77 6 15 16 24 0
41 43 32 37 50 8 28 9 10 57 23 59 60 61 67 69 70 73 6 24 15 16 0
59 43 28 37 8 41 33 42 32 9 10 60 61 67 68 69 70 73 78 6 15 16 24 0
43 28 9 59 55 48 37 21 11 12 8 60 62 63 69 71 72 74 75 78 24 15 16 6 0
49 43 28 37 21 9 55 8 22 48 12 56 59 60 63 69 72 75 76 15 24 16 6 0
43 59 31 40 28 37 8 9 11 12 60 62 63 66 69 71 72 74 75 78 6 15 16 24 0
37 28 31 40 23 43 8 9 11 57 50 59 60 62 66 69 71 74 6 24 15 16 0
43 59 31 40 28 37 8 42 33 9 11 60 62 66 68 69 71 74 77 6 15 16 24 0
37 28 31 40 22 43 8 9 56 49 12 59 60 63 66 69 72 75 6 24 15 16 0
37 43 31 40 49 8 28 9 56 50 23 22 57 59 60 66 69 78 15 24 16 6 0
43 59 31 40 32 28 37 41 8 9 12 60 63 66 67 69 72 75 76 6 15 16 24 0
41 28 31 32 40 43 23 37 9 57 8 50 59 60 66 67 69 76 24 15 16 6 0
59 43 28 37 8 33 32 41 42 9 31 40 60 66 67 68 69 76 77 78 16 24 6 15 0
47 43 28 37 8 20 54 10 23 50 11 57 59 61 62 70 71 75 76 15 24 16 6 0
47 43 28 37 8 33 20 11 42 10 54 59 61 62 68 70 71 76 6 24 15 16 0
47 43 28 37 8 20 54 10 22 49 12 56 59 61 63 70 72 74 77 15 24 16 6 0
47 43 28 37 8 20 54 10 50 23 22 49 56 57 59 61 70 74 75 78 24 6 15 16 0
41 43 28 37 20 8 32 54 47 10 12 59 61 63 67 70 72 77 6 24 15 16 0
41 43 28 37 20 8 32 54 47 23 10 50 57 59 61 67 70 75 15 24 16 6 0
47 43 28 37 20 8 54 42 33 32 10 41 59 61 67 68 70 78 24 15 16 6 0
47 43 28 37 8 20 21 54 11 48 12 55 59 62 63 71 72 73 78 15 24 16 6 0
50 37 28 43 8 20 21 54 47 23 48 11 55 57 59 62 71 73 75 77 24 6 15 16 0
37 43 31 40 47 8 28 54 20 11 50 23 57 59 62 66 71 75 15 24 16 6 0
37 28 31 43 8 20 54 47 40 42 11 33 59 62 66 68 71 77 24 15 16 6 0
43 47 31 32 28 37 8 40 41 54 12 20 59 63 66 67 72 76 24 15 16 6 0
59 43 28 37 30 39 8 10 11 12 61 62 63 65 70 71 72 76 77 78 6 15 16 24 0
39 43 28 37 8 50 30 10 11 57 23 59 61 62 65 70 71 76 6 24 15 16 0
59 43 28 37 30 39 8 42 33 10 11 61 62 65 68 70 71 75 76 6 15 16 24 0
49 43 28 37 8 39 30 10 56 22 12 59 61 63 65 70 72 77 6 24 15 16 0
39 28 30 37 22 43 10 8 56 50 23 49 57 59 61 65 70 78 15 24 16 6 0
43 28 30 59 41 39 37 32 8 10 12 61 63 65 67 70 72 74 77 6 15 16 24 0
39 43 32 41 28 30 23 37 8 10 57 50 59 61 65 67 70 74 24 15 16 6 0
59 43 28 37 30 8 39 32 42 10 41 33 61 65 67 68 70 74 75 78 16 24 6 15 0
39 43 28 37 48 8 30 55 21 11 12 59 62 63 65 71 72 78 6 24 15 16 0
39 28 30 21 37 43 55 8 48 50 23 11 57 59 62 65 71 77 15 24 16 6 0
43 28 30 8 39 21 37 55 48 49 22 12 56 59 63 65 72 76 15 24 16 6 0
39 28 30 21 37 43 55 8 48 22 50 49 23 56 57 59 65 76 77 78 6 15 16 24 0
43 30 32 37 28 8 21 39 41 55 12 48 59 63 65 67 72 74 24 15 16 6 0
43 28 30 59 40 39 37 31 8 11 12 62 63 65 66 71 72 73 78 6 15 16 24 0
37 28 23 39 40 65 43 31 11 57 8 50 59 62 30 66 71 73 24 15 16 6 0
59 40 30 43 39 65 37 31 28 8 42 11 62 33 66 68 71 73 75 77 16 24 6 15 0
49 43 28 37 40 8 39 31 30 56 22 12 59 63 65 66 72 73 24 15 16 6 0
49 43 28 37 40 8 39 31 30 56 23 50 22 57 59 65 66 73 78 16 6 15 24 0
59 43 32 40 39 65 37 30 41 8 28 12 63 31 66 67 72 73 74 76 16 24 6 15 0
41 28 31 32 40 43 50 57 23 37 39 8 30 59 65 66 67 73 74 76 6 24 15 16 0
37 28 32 41 30 40 42 31 33 39 8 43 59 65 66 67 68 73 74 75 76 77 78 16 24 6 15 0
53 46 19 28 37 43 33 42 9 10 11 60 61 62 68 73 74 76 6 24 15 16 0
46 19 32 37 28 53 43 41 9 10 12 60 61 63 67 73 75 77 6 24 15 16 0
53 46 19 28 37 32 43 41 9 10 50 23 57 60 61 67 72 73 15 24 16 6 0
53 37 19 28 42 33 43 46 32 41 9 10 60 61 67 68 73 78 24 15 16 6 0
37 46 31 53 28 19 43 40 9 11 12 60 62 63 66 74 75 78 6 24 15 16 0
37 43 31 40 19 28 53 46 9 11 50 23 57 60 62 66 72 74 15 24 16 6 0
53 46 19 37 28 40 43 31 33 42 9 11 60 62 66 68 74 77 24 15 16 6 0
53 46 19 28 37 31 43 40 9 22 49 12 56 60 63 66 71 75 15 24 16 6 0
53 46 19 28 37 31 43 40 50 49 23 9 22 56 57 60 66 71 72 78 6 15 16 24 0
37 28 31 40 41 43 19 32 53 46 9 12 60 63 66 67 75 76 24 15 16 6 0
41 43 32 37 31 19 28 40 53 46 23 9 50 57 60 66 67 72 76 16 6 15 24 0
53 43 46 37 20 28 47 42 19 33 10 11 54 61 62 68 69 76 15 24 16 6 0
43 46 32 53 37 20 28 41 19 47 10 12 54 61 63 67 69 77 15 24 16 6 0
53 46 19 28 37 32 43 41 47 20 50 10 23 54 57 61 67 69 72 75 6 15 16 24 0
53 46 19 28 37 43 20 47 33 42 32 41 10 54 61 67 68 69 78 16 6 15 24 0
43 48 19 37 20 28 21 42 33 46 47 11 53 54 55 62 68 69 70 73 6 15 16 24 0
43 37 32 48 28 20 19 41 21 46 47 12 53 54 55 63 67 69 70 73 6 15 16 24 0
43 46 31 53 37 20 28 40 19 47 11 12 54 62 63 66 69 78 15 24 16 6 0
43 46 31 53 37 20 28 40 19 47 11 50 23 54 57 62 66 69 72 75 6 15 16 24 0
37 46 31 40 53 43 28 47 20 19 11 33 42 54 62 66 68 69 77 16 6 15 24 0
43 28 46 41 40 37 53 32 31 19 47 12 20 54 63 66 67 69 76 16 6 15 24 0
43 37 19 28 53 39 46 30 10 11 12 61 62 63 65 76 77 78 6 24 15 16 0
43 37 19 28 39 53 30 46 10 11 50 23 57 61 62 65 72 76 15 24 16 6 0
43 37 19 28 39 53 30 46 42 33 10 11 61 62 65 68 75 76 24 15 16 6 0
53 28 30 46 37 19 43 39 10 49 22 12 56 61 63 65 71 77 15 24 16 6 0
43 37 19 28 39 53 30 46 23 49 50 10 22 56 57 61 65 71 72 78 6 15 16 24 0
37 28 32 41 19 53 30 43 39 46 10 12 61 63 65 67 74 77 24 15 16 6 0
37 28 32 41 53 19 30 43 39 46 23 10 50 57 61 65 67 72 74 16 6 15 24 0
43 28 46 42 37 53 19 33 30 39 32 10 41 61 65 67 68 74 75 78 6 24 15 16 0
43 37 19 28 39 53 30 21 48 33 46 11 42 55 62 65 68 70 75 16 6 15 24 0
43 28 32 37 39 19 53 30 41 46 21 12 48 55 63 65 67 70 74 16 6 15 24 0
37 28 31 40 53 19 65 43 39 46 11 12 62 63 30 66 73 78 24 15 16 6 0
53 37 19 28 40 31 43 30 65 39 46 23 11 57 62 50 66 72 73 16 6 15 24 0
39 46 19 37 28 40 31 65 33 42 43 11 53 62 30 66 68 73 75 77 6 24 15 16 0
37 30 19 53 28 41 32 40 43 65 39 12 46 63 31 66 67 73 74 76 6 24 15 16 0
37 38 10 29 60 28 9 43 11 12 61 62 63 64 73 74 75 76 77 78 6 15 16 24 0
37 29 10 38 28 43 9 23 11 57 50 60 61 62 64 73 74 76 6 24 15 16 0
43 37 29 38 28 60 42 9 33 10 11 61 62 64 68 72 73 74 76 6 15 16 24 0
37 38 10 29 49 9 28 43 56 22 12 60 61 63 64 73 75 77 6 24 15 16 0
37 29 10 38 28 22 9 43 56 50 23 49 57 60 61 64 73 78 15 24 16 6 0
41 43 32 37 38 29 60 28 9 10 12 61 63 64 67 71 73 75 77 6 15 16 24 0
41 38 32 29 28 43 23 37 9 10 57 50 60 61 64 67 71 73 24 15 16 6 0
37 33 29 38 43 60 28 41 42 9 32 10 61 64 67 68 71 72 73 78 16 24 6 15 0
43 37 28 29 38 60 9 64 11 55 12 21 62 63 48 74 75 78 6 24 15 16 0
50 37 28 55 29 9 48 38 43 23 21 11 57 60 62 64 74 77 15 24 16 6 0
43 37 28 29 38 60 9 22 55 48 21 49 56 12 63 64 75 76 15 24 16 6 0
50 37 28 55 29 9 48 38 43 49 23 22 21 56 57 60 64 76 77 78 6 15 16 24 0
37 43 31 40 38 29 60 28 9 11 12 62 63 64 66 70 74 75 78 6 15 16 24 0
37 43 31 40 38 29 50 28 9 11 57 23 60 62 64 66 70 74 24 15 16 6 0
37 43 31 40 38 29 60 28 42 9 33 11 62 64 66 68 70 72 74 77 16 24 6 15 0
38 29 31 40 28 43 22 37 9 56 49 12 60 63 64 66 70 75 24 15 16 6 0
38 29 31 40 28 43 22 37 9 56 23 50 49 57 60 64 66 70 78 16 6 15 24 0
43 38 31 40 32 60 29 9 41 28 37 12 63 64 66 67 70 71 75 76 16 24 6 15 0
41 38 32 29 28 31 43 40 50 37 57 9 23 60 64 66 67 70 71 76 6 24 15 16 0
33 38 32 29 43 60 28 42 41 37 9 31 40 64 66 67 68 70 71 72 76 77 78 16 24 6 15 0
43 37 29 38 28 20 42 47 54 33 10 11 61 62 64 68 72 76 24 15 16 6 0
37 38 32 29 43 20 28 54 41 47 10 12 61 63 64 67 71 77 24 15 16 6 0
37 38 32 29 43 20 28 54 41 47 50 10 23 57 61 64 67 71 75 16 6 15 24 0
43 37 29 38 28 20 42 54 47 33 32 10 41 61 64 67 68 71 72 78 6 24 15 16 0
43 33 29 38 28 20 37 48 21 54 47 11 42 55 62 64 68 72 73 16 6 15 24 0
37 38 32 29 43 20 28 54 41 48 47 12 21 55 63 64 67 71 73 16 6 15 24 0
43 38 31 29 64 20 37 54 40 47 11 12 62 63 28 66 70 78 24 15 16 6 0
43 38 31 29 64 20 37 54 40 47 11 50 23 57 62 28 66 70 75 16 6 15 24 0
43 38 31 29 20 64 37 54 47 40 33 11 42 62 28 66 68 70 72 77 6 24 15 16 0
41 29 31 20 64 43 38 37 32 40 54 12 47 63 28 66 67 70 71 76 6 24 15 16 0
43 28 30 29 38 39 61 37 10 11 12 62 63 64 65 69 76 77 78 6 15 16 24 0
43 28 30 29 38 39 50 37 10 11 57 23 61 62 64 65 69 76 24 15 16 6 0
43 61 30 29 39 28 38 37 42 10 33 11 62 64 65 68 69 72 75 76 16 24 6 15 0
43 28 30 29 38 39 22 37 10 56 49 12 61 63 64 65 69 77 24 15 16 6 0
43 28 30 29 38 39 22 37 10 56 23 50 49 57 61 64 65 69 78 16 6 15 24 0
41 28 32 29 39 43 61 30 38 10 37 12 63 64 65 67 69 71 74 77 16 24 6 15 0
41 28 32 29 39 43 50 30 38 37 57 10 23 61 64 65 67 69 71 74 6 24 15 16 0
43 28 30 29 38 39 61 33 42 37 10 32 41 64 65 67 68 69 71 72 74 75 78 16 24 6 15 0
39 30 21 29 43 28 38 37 55 48 33 11 42 62 64 65 68 69 72 75 6 24 15 16 0
43 30 32 29 21 39 28 38 37 41 55 12 48 63 64 65 67 69 71 74 6 24 15 16 0
43 29 31 40 39 28 62 65 11 38 37 12 63 64 30 66 69 70 73 78 16 24 6 15 0
43 29 31 40 39 28 50 65 38 37 57 11 23 62 64 30 66 69 70 73 6 24 15 16 0
43 38 31 40 39 65 29 62 37 33 28 42 11 64 30 66 68 69 70 72 73 75 77 16 24 6 15 0
41 29 31 38 65 40 43 63 39 32 12 28 37 64 30 66 67 69 70 71 73 74 76 16 24 6 15 0
-952 -1007 -942 0
-953 -943 -1008 0
-944 -954 -1009 0
-947 -957 -1012 0
3 0
-14 0
-24 0
4 0
-15 0
-25 0
-1003 0
948 0
938 0
34 0
-5 0
-16 0
26 0
-6 0
-17 0
27 0
1005 0
950 0
-940 0
51 0
-7 19 8 18 28 29 0
8 28 19 7 -18 29 0
-8 28 7 19 -18 29 0
-18 -7 8 19 28 29 0
-7 19 -8 28 -18 29 0
-18 -7 28 8 -19 29 0
7 -28 8 18 19 29 0
-8 -28 7 18 19 29 0
18 -19 7 8 -28 29 0
-8 -19 18 -28 7 29 0
-7 18 8 -28 19 29 0
-28 -7 18 -8 19 29 0
-28 -7 -19 8 18 29 0
-8 -19 29 18 -28 -7 0
-7 -28 -29 8 18 19 0
8 -18 7 -28 19 29 0
-8 -28 -18 7 19 29 0
-18 -19 -28 7 8 29 0
-8 -19 -18 7 -28 29 0
-8 30 19 29 9 20 0
9 20 8 -19 29 30 0
-9 20 -19 8 29 30 0
-8 -19 9 20 29 30 0
-8 -9 -19 20 29 30 0
-8 -20 -19 29 9 30 0
8 -29 9 19 20 30 0
8 -29 -9 19 20 30 0
-20 -29 8 9 19 30 0
8 -29 -9 19 -20 30 0
-8 -29 9 19 20 30 0
-8 -29 19 -9 20 30 0
-20 -29 -8 9 19 30 0
-20 -9 19 -29 -8 30 0
-8 -29 20 -30 9 19 0
-19 -29 9 8 20 30 0
8 -29 30 -19 20 -9 0
-20 -29 -19 8 9 30 0
8 -29 -9 -19 -20 30 0
-29 -19 -30 8 20 9 0
8 -29 -9 -30 -19 20 0
-8 -29 30 -9 20 -19 0
-9 -29 -19 30 -8 -20 0
-20 9 31 21 30 -10 0
-20 21 31 -10 30 -9 0
-20 -9 31 10 30 -21 0
9 -10 -30 20 21 31 0
9 -30 -21 10 20 31 0
9 -10 -21 -30 20 31 0
-9 -10 -30 20 21 31 0
-9 -30 -21 10 20 31 0
-9 -10 -21 -30 20 31 0
-9 21 10 -30 20 -31 0
-20 -30 31 -10 21 9 0
-20 -30 -21 10 9 31 0
-20 -30 -21 -10 9 31 0
-20 -31 10 -30 21 9 0
-20 -30 -10 9 -31 21 0
-10 11 21 22 31 32 0
-21 11 10 22 31 32 0
-21 -11 10 22 31 32 0
-10 -21 11 22 31 32 0
22 -10 32 -21 31 -11 0
32 -22 -10 -21 11 31 0
10 -31 11 22 21 32 0
32 -31 10 -11 21 22 0
32 -22 10 11 21 -31 0
10 -31 -11 -22 21 32 0
11 -31 32 21 22 -10 0
-10 -11 32 22 -31 21 0
-10 -31 32 11 -22 21 0
32 -31 -11 -10 -22 21 0
-10 -32 21 -31 11 22 0
-21 -31 11 22 10 32 0
-11 -31 32 22 10 -21 0
32 -22 10 -21 -31 11 0
32 -22 10 -11 -21 -31 0
-31 10 22 -21 -32 11 0
-21 -31 10 -11 -32 22 0
33 32 23 22 -11 12 0
-22 32 11 23 12 33 0
23 -12 32 -22 33 11 0
-22 -11 12 23 32 33 0
23 -12 -11 -22 32 33 0
12 -23 32 -11 -22 33 0
12 22 11 23 -32 33 0
-12 23 11 22 -32 33 0
-23 -32 11 12 22 33 0
-23 -12 11 -32 22 33 0
12 -11 23 22 33 -32 0
23 -12 -11 22 -32 33 0
-23 -32 -11 22 12 33 0
-23 -12 -32 -11 22 33 0
-33 -32 -11 12 22 23 0
33 -32 11 12 23 -22 0
23 -12 -32 11 -22 33 0
-23 -22 -32 11 12 33 0
-23 -12 -22 -32 11 33 0
-33 -32 -22 11 12 23 0
-33 -12 -32 11 -22 23 0
21 10 31 0
