p cnf 9802 11846
-26 -5 -16 -13 -2 -1 0
-17 -27 -6 -13 -2 -1 0
-30 -20 -9 -13 -2 -1 0
-23 -12 -33 -13 -2 -1 0
-48 -4 -43 -5 -55 -10 0
-61 -55 -6 -5 -10 -51 0
-51 -52 -17 -16 -58 -18 0
-62 -60 -36 -74 -39 -41 0
105 106 104 103 107 108 109 110 111 102 101 0
-101 14 0
-102 24 0
-103 4 0
-103 34 0
-104 5 0
-104 35 0
-105 6 0
-105 36 0
-106 7 0
-106 37 0
-107 8 0
-107 38 0
-108 9 0
-108 39 0
-109 10 0
-109 40 0
-110 11 0
-111 12 0
116 117 112 113 115 118 119 120 121 122 114 0
-112 15 0
-113 25 0
-114 3 0
-115 5 0
-115 43 0
-116 6 0
-116 44 0
-117 7 0
-117 45 0
-118 8 0
-118 46 0
-119 9 0
-119 47 0
-120 10 0
-120 48 0
-121 11 0
-122 12 0
127 123 126 124 128 129 130 131 132 133 125 0
-123 16 0
-124 26 0
-125 3 0
-126 4 0
-126 43 0
-127 6 0
-127 51 0
-128 7 0
-128 52 0
-129 8 0
-129 53 0
-130 9 0
-130 54 0
-131 10 0
-131 55 0
-132 11 0
-132 56 0
-133 12 0
135 134 137 138 139 140 141 142 143 144 136 0
-134 17 0
-135 27 0
-136 3 0
-137 4 0
-137 44 0
-138 5 0
-138 51 0
-139 7 0
-139 58 0
-140 8 0
-140 59 0
-141 9 0
-141 60 0
-142 10 0
-142 61 0
-143 11 0
-144 12 0
145 146 148 149 150 151 152 153 154 155 147 0
-145 18 0
-146 28 0
-147 3 0
-148 4 0
-148 45 0
-149 5 0
-149 52 0
-150 6 0
-150 58 0
-151 8 0
-151 64 0
-152 9 0
-152 65 0
-153 10 0
-153 66 0
-154 11 0
-154 67 0
-155 12 0
-155 68 0
156 157 159 160 161 162 163 164 165 166 158 0
-156 19 0
-157 29 0
-158 3 0
-159 4 0
-159 46 0
-160 5 0
-160 53 0
-161 6 0
-161 59 0
-162 7 0
-162 64 0
-163 9 0
-163 69 0
-164 10 0
-164 70 0
-165 11 0
-166 12 0
168 167 170 171 172 173 174 175 176 177 169 0
-167 20 0
-168 30 0
-169 3 0
-170 4 0
-170 47 0
-171 5 0
-171 54 0
-172 6 0
-172 60 0
-173 7 0
-173 65 0
-174 8 0
-174 69 0
-175 10 0
-175 73 0
-176 11 0
-176 74 0
-177 12 0
181 182 178 179 183 184 185 186 187 188 180 0
-178 21 0
-179 31 0
-180 3 0
-181 4 0
-181 48 0
-182 5 0
-182 55 0
-183 6 0
-183 61 0
-184 7 0
-184 66 0
-185 8 0
-185 70 0
-186 9 0
-186 73 0
-187 11 0
-187 76 0
-188 12 0
-188 77 0
192 193 190 189 194 195 196 197 198 199 191 0
-189 22 0
-190 32 0
-191 3 0
-192 4 0
-193 5 0
-194 6 0
-195 7 0
-196 8 0
-197 9 0
-198 10 0
-199 12 0
226 227 225 224 228 229 230 231 232 223 222 0
-222 3 0
-223 24 0
-224 15 0
-224 34 0
-225 16 0
-225 35 0
-226 17 0
-226 36 0
-227 18 0
-227 37 0
-228 19 0
-228 38 0
-229 20 0
-229 39 0
-230 21 0
-230 40 0
-231 22 0
-231 41 0
-232 23 0
-232 42 0
237 236 233 234 238 239 240 241 242 243 235 0
-233 4 0
-234 25 0
-235 14 0
-236 16 0
-236 43 0
-237 17 0
-237 44 0
-238 18 0
-238 45 0
-239 19 0
-239 46 0
-240 20 0
-241 21 0
-241 48 0
-242 22 0
-242 49 0
-243 23 0
248 249 247 244 245 250 251 252 253 254 246 0
-244 5 0
-245 26 0
-246 14 0
-247 15 0
-247 43 0
-248 17 0
-248 51 0
-249 18 0
-249 52 0
-250 19 0
-250 53 0
-251 20 0
-252 21 0
-252 55 0
-253 22 0
-253 56 0
-254 23 0
256 255 258 259 260 261 262 263 264 265 257 0
-255 6 0
-256 27 0
-257 14 0
-258 15 0
-258 44 0
-259 16 0
-259 51 0
-260 18 0
-260 58 0
-261 19 0
-261 59 0
-262 20 0
-262 60 0
-263 21 0
-263 61 0
-264 22 0
-264 62 0
-265 23 0
-265 63 0
267 266 269 270 271 272 273 274 275 276 268 0
-266 7 0
-267 28 0
-268 14 0
-269 15 0
-269 45 0
-270 16 0
-270 52 0
-271 17 0
-271 58 0
-272 19 0
-272 64 0
-273 20 0
-273 65 0
-274 21 0
-274 66 0
-275 22 0
-275 67 0
-276 23 0
-276 68 0
277 278 280 281 282 283 284 285 286 287 279 0
-277 8 0
-278 29 0
-279 14 0
-280 15 0
-280 46 0
-281 16 0
-281 53 0
-282 17 0
-282 59 0
-283 18 0
-283 64 0
-284 20 0
-284 69 0
-285 21 0
-285 70 0
-286 22 0
-286 71 0
-287 23 0
289 288 291 292 293 294 295 296 297 298 290 0
-288 9 0
-289 30 0
-290 14 0
-291 15 0
-291 47 0
-292 16 0
-292 54 0
-293 17 0
-293 60 0
-294 18 0
-294 65 0
-295 19 0
-295 69 0
-296 21 0
-296 73 0
-297 22 0
-297 74 0
-298 23 0
302 303 300 299 304 305 306 307 308 309 301 0
-299 10 0
-300 31 0
-301 14 0
-302 15 0
-302 48 0
-303 16 0
-303 55 0
-304 17 0
-304 61 0
-305 18 0
-305 66 0
-306 19 0
-306 70 0
-307 20 0
-307 73 0
-308 22 0
-308 76 0
-309 23 0
313 314 310 311 315 316 317 318 319 320 312 0
-310 11 0
-311 32 0
-312 14 0
-313 15 0
-313 49 0
-314 16 0
-314 56 0
-315 17 0
-315 62 0
-316 18 0
-316 67 0
-317 19 0
-317 71 0
-318 20 0
-318 74 0
-319 21 0
-319 76 0
-320 23 0
-320 78 0
336 337 335 334 338 339 340 341 342 333 332 0
-332 3 0
-333 14 0
-334 25 0
-334 34 0
-335 26 0
-335 35 0
-336 27 0
-336 36 0
-337 28 0
-337 37 0
-338 29 0
-338 38 0
-339 30 0
-339 39 0
-340 31 0
40 -340 0
-341 32 0
-341 41 0
-342 33 0
-342 42 0
347 348 343 344 346 349 350 351 352 353 345 0
-343 4 0
-344 15 0
-345 24 0
-346 26 0
-347 27 0
-348 28 0
-348 45 0
-349 29 0
-349 46 0
-350 30 0
-351 31 0
-352 32 0
-353 50 0
358 359 355 357 354 360 361 362 363 364 356 0
-354 5 0
-355 16 0
-356 24 0
-357 25 0
-358 27 0
-359 28 0
-360 53 0
-361 30 0
-362 31 0
-363 32 0
-364 57 0
366 365 368 369 370 371 372 373 374 375 367 0
-365 6 0
-366 17 0
-367 24 0
-368 25 0
-369 26 0
-370 58 0
-371 29 0
-371 59 0
-372 30 0
-372 60 0
-373 31 0
-374 32 0
-374 62 0
-375 63 0
376 377 379 380 381 382 383 384 385 386 378 0
-376 7 0
-377 18 0
-378 24 0
-379 25 0
-380 26 0
-381 27 0
-381 58 0
-382 29 0
-382 64 0
-383 30 0
-383 65 0
-384 31 0
-384 66 0
-385 32 0
-385 67 0
-386 68 0
388 387 390 391 392 393 394 395 396 397 389 0
-387 8 0
-388 19 0
-389 24 0
-390 25 0
-391 26 0
-392 27 0
-392 59 0
-393 28 0
-393 64 0
-394 30 0
-395 31 0
-396 32 0
-396 71 0
-397 72 0
399 398 401 402 403 404 405 406 407 408 400 0
-398 9 0
-399 20 0
-400 24 0
-401 25 0
-402 26 0
-403 27 0
-403 60 0
-404 28 0
-404 65 0
-405 29 0
-405 69 0
-406 31 0
-406 73 0
-407 32 0
-407 74 0
-408 75 0
412 413 410 409 414 415 416 417 418 419 411 0
-409 10 0
-410 21 0
-411 24 0
-412 25 0
-413 26 0
-414 27 0
-414 61 0
-415 28 0
-415 66 0
-416 29 0
-417 30 0
-417 73 0
-418 76 0
-419 77 0
423 424 420 421 425 426 427 428 429 430 422 0
-420 11 0
-421 22 0
-422 24 0
-423 25 0
-424 26 0
-425 27 0
-425 62 0
-426 28 0
-426 67 0
-427 29 0
-427 71 0
-428 30 0
-428 74 0
-429 31 0
-429 76 0
-430 33 0
-430 78 0
434 435 432 431 436 437 438 439 440 441 433 0
-431 12 0
-432 23 0
-433 24 0
-434 25 0
-434 50 0
-435 26 0
-435 57 0
-436 27 0
-436 63 0
-437 28 0
-437 68 0
-438 29 0
-438 72 0
-439 30 0
-439 75 0
-440 31 0
-440 77 0
-441 32 0
-441 78 0
446 447 445 448 449 450 451 452 444 442 443 0
-442 3 0
-443 14 0
-444 24 0
-445 35 0
-446 36 0
-447 37 0
-448 38 0
-448 46 0
-449 47 0
-450 48 0
-451 49 0
-452 50 0
457 456 458 459 460 461 462 463 455 453 454 0
-453 3 0
-454 14 0
-455 24 0
-456 34 0
-457 36 0
-458 37 0
-459 38 0
-459 53 0
-460 54 0
-461 55 0
-462 56 0
-463 57 0
467 469 468 470 471 472 473 474 466 464 465 0
-464 3 0
-465 14 0
-466 24 0
-467 34 0
-468 35 0
-469 37 0
-469 58 0
-470 38 0
-470 59 0
-471 60 0
-472 61 0
-473 62 0
-474 63 0
478 480 479 481 482 483 484 485 477 475 476 0
-475 3 0
-476 14 0
-477 24 0
-478 34 0
-479 35 0
-480 36 0
-480 58 0
-481 38 0
-481 64 0
-482 65 0
-483 66 0
-484 67 0
-485 68 0
489 491 490 492 493 494 495 496 488 486 487 0
-486 3 0
-487 14 0
-488 24 0
-489 34 0
-490 35 0
-491 36 0
-492 37 0
-492 64 0
-493 69 0
-494 70 0
-495 71 0
-496 72 0
500 502 501 503 504 505 506 507 499 497 498 0
-497 3 0
-498 14 0
-499 24 0
-500 34 0
-500 47 0
-501 35 0
-501 54 0
-502 36 0
-503 37 0
-503 65 0
-504 38 0
-504 69 0
-505 73 0
-506 74 0
-507 75 0
511 513 512 514 515 516 517 518 510 508 509 0
-508 3 0
-509 14 0
-510 24 0
-511 34 0
-512 35 0
-513 36 0
-514 37 0
-514 66 0
-515 38 0
-515 70 0
-516 39 0
-516 73 0
-517 76 0
-518 77 0
522 524 523 525 526 527 528 529 521 519 520 0
-519 3 0
-520 14 0
-521 24 0
-522 34 0
-523 35 0
-524 36 0
-525 37 0
-525 67 0
-526 38 0
-526 71 0
-527 39 0
-527 74 0
-528 76 0
-529 78 0
533 535 534 536 537 538 539 540 532 530 531 0
-530 3 0
-531 14 0
-532 24 0
-533 34 0
-534 35 0
-534 57 0
-535 36 0
-535 63 0
-536 37 0
-536 68 0
-537 38 0
-537 72 0
-538 39 0
-538 75 0
-539 40 0
-539 77 0
-540 41 0
-540 78 0
550 551 541 545 546 544 547 548 542 543 549 0
-541 4 0
-541 5 0
-542 15 0
-542 16 0
-543 26 0
-544 35 0
-545 44 0
-545 51 0
-546 45 0
-546 52 0
-547 46 0
-547 53 0
-548 47 0
-548 54 0
-549 48 0
-549 55 0
-550 49 0
-550 56 0
-551 50 0
-551 57 0
559 561 557 558 554 552 560 562 556 555 553 0
-552 4 0
-552 6 0
-553 15 0
-553 17 0
-554 25 0
-554 27 0
-555 34 0
-555 36 0
-556 43 0
-556 51 0
-557 45 0
-557 58 0
-558 46 0
-558 59 0
-559 47 0
-559 60 0
-560 48 0
-560 61 0
-561 49 0
-561 62 0
-562 50 0
-562 63 0
572 573 565 567 568 569 570 563 571 564 566 0
-563 4 0
-563 7 0
-564 15 0
-564 18 0
-565 25 0
-565 28 0
-566 34 0
-566 37 0
-567 43 0
-567 52 0
-568 44 0
-568 58 0
-569 46 0
-569 64 0
-570 47 0
-570 65 0
-571 48 0
-571 66 0
-572 49 0
-572 67 0
-573 50 0
-573 68 0
583 584 579 582 580 575 578 576 574 581 577 0
-574 8 0
-575 15 0
-575 19 0
-576 25 0
-576 29 0
-577 34 0
-577 38 0
-578 43 0
-578 53 0
-579 44 0
-579 59 0
-580 45 0
-580 64 0
-581 47 0
-581 69 0
-582 48 0
-582 70 0
-583 49 0
-583 71 0
-584 50 0
-584 72 0
594 592 585 590 593 595 588 587 589 591 586 0
-585 4 0
-585 9 0
-586 15 0
-586 20 0
-587 25 0
-587 30 0
-588 34 0
-589 43 0
-589 54 0
-590 44 0
-590 60 0
-591 45 0
-591 65 0
-592 46 0
-592 69 0
-593 48 0
-593 73 0
-594 49 0
-594 74 0
-595 50 0
-595 75 0
601 603 596 605 604 606 597 599 598 602 600 0
-596 4 0
-596 10 0
-597 15 0
-597 21 0
-598 25 0
-598 31 0
-599 34 0
-600 43 0
-600 55 0
-601 44 0
-601 61 0
-602 45 0
-602 66 0
-603 46 0
-603 70 0
-604 47 0
-604 73 0
-605 49 0
-605 76 0
-606 50 0
-606 77 0
614 611 615 616 613 608 617 610 607 609 612 0
-607 4 0
-607 11 0
-608 15 0
-608 22 0
-609 25 0
-609 32 0
-610 34 0
-611 43 0
-611 56 0
-612 44 0
-612 62 0
-613 45 0
-613 67 0
-614 46 0
-614 71 0
-615 47 0
-615 74 0
-616 48 0
-616 76 0
-617 50 0
-617 78 0
623 627 618 625 621 622 624 628 620 619 626 0
-618 12 0
-619 23 0
-620 25 0
-621 34 0
-622 43 0
-622 57 0
-623 44 0
-623 63 0
-624 45 0
-624 68 0
-625 46 0
-625 72 0
-626 47 0
-626 75 0
-627 48 0
-627 77 0
-628 49 0
-628 78 0
637 634 629 635 638 632 630 636 631 639 633 0
-629 5 0
-629 6 0
-630 16 0
-630 17 0
-631 26 0
-631 27 0
-632 35 0
-632 36 0
-633 43 0
-633 44 0
-634 52 0
-634 58 0
-635 53 0
-635 59 0
-636 54 0
-636 60 0
-637 55 0
-637 61 0
-638 56 0
-638 62 0
-639 57 0
-639 63 0
649 645 642 640 646 644 650 648 647 643 641 0
-640 5 0
-640 7 0
-641 16 0
-641 18 0
-642 26 0
-642 28 0
-643 35 0
-643 37 0
-644 43 0
-644 45 0
-645 51 0
-645 58 0
-646 53 0
-646 64 0
-647 54 0
-647 65 0
-648 55 0
-648 66 0
-649 56 0
-649 67 0
-650 57 0
-650 68 0
660 655 658 656 654 651 657 661 652 659 653 0
-651 5 0
-651 8 0
-652 16 0
-652 19 0
-653 26 0
-653 29 0
-654 35 0
-654 38 0
-655 43 0
-655 46 0
-656 51 0
-656 59 0
-657 52 0
-657 64 0
-658 54 0
-658 69 0
-659 55 0
-659 70 0
-660 56 0
-660 71 0
-661 57 0
-661 72 0
666 671 662 668 669 672 665 664 670 667 663 0
-662 5 0
-662 9 0
-663 16 0
-663 20 0
-664 26 0
-664 30 0
-665 35 0
-666 43 0
-666 47 0
-667 51 0
-667 60 0
-668 52 0
-668 65 0
-669 53 0
-669 69 0
-670 55 0
-670 73 0
-671 56 0
-671 74 0
-672 57 0
-672 75 0
677 680 673 682 676 679 683 681 678 674 675 0
-673 5 0
-673 10 0
-674 16 0
-674 21 0
-675 26 0
-675 31 0
-676 35 0
-677 43 0
-677 48 0
-678 51 0
-678 61 0
-679 52 0
-679 66 0
-680 53 0
-680 70 0
-681 54 0
-681 73 0
-682 56 0
-682 76 0
-683 57 0
-683 77 0
688 692 691 693 690 694 689 684 685 687 686 0
-684 11 0
-685 16 0
-685 22 0
-686 26 0
-686 32 0
-687 35 0
-688 43 0
-688 49 0
-689 51 0
-689 62 0
-690 52 0
-690 67 0
-691 53 0
-691 71 0
-692 54 0
-692 74 0
-693 55 0
-693 76 0
-694 57 0
-694 78 0
699 703 697 702 701 698 700 704 705 695 696 0
-695 12 0
-696 23 0
-697 26 0
-698 35 0
-699 43 0
-699 50 0
-700 51 0
-700 63 0
-701 52 0
-701 68 0
-702 53 0
-702 72 0
-703 54 0
-703 75 0
-704 55 0
-704 77 0
-705 56 0
-705 78 0
710 716 712 715 711 709 706 714 708 707 713 0
-706 6 0
-706 7 0
-707 17 0
-707 18 0
-708 27 0
-708 28 0
-709 36 0
-709 37 0
-710 44 0
-710 45 0
-711 51 0
-711 52 0
-712 59 0
-712 64 0
-713 60 0
-713 65 0
-714 61 0
-714 66 0
-715 62 0
-715 67 0
-716 63 0
-716 68 0
726 727 717 720 721 718 723 722 725 724 719 0
-717 6 0
-717 8 0
-718 17 0
-718 19 0
-719 27 0
-719 29 0
-720 36 0
-720 38 0
-721 44 0
-721 46 0
-722 51 0
-722 53 0
-723 58 0
-723 64 0
-724 60 0
-724 69 0
-725 61 0
-725 70 0
-726 62 0
-726 71 0
-727 63 0
-727 72 0
732 737 728 735 729 736 738 731 733 730 734 0
-728 6 0
-728 9 0
-729 17 0
-729 20 0
-730 30 0
-731 36 0
-732 44 0
-732 47 0
-733 51 0
-733 54 0
-734 58 0
-734 65 0
-735 59 0
-735 69 0
-736 61 0
-736 73 0
-737 62 0
-737 74 0
-738 63 0
-738 75 0
743 746 739 747 749 745 744 740 742 741 748 0
-739 6 0
-739 10 0
-740 17 0
-740 21 0
-741 27 0
-741 31 0
-742 36 0
-743 44 0
-743 48 0
-744 51 0
-744 55 0
-745 58 0
-745 66 0
-746 59 0
-746 70 0
-747 60 0
-747 73 0
-748 62 0
-748 76 0
-749 63 0
-749 77 0
754 757 759 755 756 758 753 752 751 760 750 0
-750 6 0
-750 11 0
-751 17 0
-751 22 0
-752 27 0
-752 32 0
-753 36 0
-754 44 0
-754 49 0
-755 51 0
-755 56 0
-756 58 0
-756 67 0
-757 59 0
-757 71 0
-758 60 0
-758 74 0
-759 61 0
-759 76 0
-760 63 0
-760 78 0
765 770 768 771 769 761 764 767 763 762 766 0
-761 6 0
-761 12 0
-762 17 0
-762 23 0
-763 27 0
-764 36 0
-765 44 0
-765 50 0
-766 51 0
-766 57 0
-767 58 0
-767 68 0
-768 59 0
-768 72 0
-769 60 0
-769 75 0
-770 61 0
-770 77 0
-771 62 0
-771 78 0
781 779 772 775 778 776 774 777 780 782 773 0
-772 7 0
-772 8 0
-773 18 0
-773 19 0
-774 28 0
-774 29 0
-775 37 0
-775 38 0
-776 45 0
-776 46 0
-777 52 0
-777 53 0
-778 58 0
-778 59 0
-779 65 0
-779 69 0
-780 66 0
-780 70 0
-781 67 0
-781 71 0
-782 68 0
-782 72 0
792 789 793 790 786 787 788 783 785 791 784 0
-783 7 0
-783 9 0
-784 18 0
-784 20 0
-785 30 0
-786 37 0
-787 45 0
-787 47 0
-788 52 0
-788 54 0
-789 58 0
-789 60 0
-790 64 0
-790 69 0
-791 66 0
-791 73 0
-792 67 0
-792 74 0
-793 68 0
-793 75 0
799 804 803 794 800 796 802 797 795 801 798 0
-794 7 0
-794 10 0
-795 18 0
-795 21 0
-796 28 0
-796 31 0
-797 37 0
-798 45 0
-798 48 0
-799 52 0
-799 55 0
-800 58 0
-800 61 0
-801 64 0
-801 70 0
-802 65 0
-802 73 0
-803 67 0
-803 76 0
-804 68 0
-804 77 0
809 810 814 806 815 807 811 812 805 808 813 0
-805 7 0
-805 11 0
-806 18 0
-807 32 0
-808 37 0
-809 45 0
-809 49 0
-810 52 0
-810 56 0
-811 58 0
-811 62 0
-812 64 0
-812 71 0
-813 65 0
-813 74 0
-814 66 0
-814 76 0
-815 68 0
-815 78 0
823 822 819 816 818 826 820 824 821 817 825 0
-816 7 0
-816 12 0
-817 23 0
-818 28 0
-819 37 0
-820 45 0
-820 50 0
-821 52 0
-821 57 0
-822 58 0
-822 63 0
-823 64 0
-824 65 0
-824 75 0
-825 66 0
-825 77 0
-826 67 0
-826 78 0
831 833 835 836 837 834 832 830 828 829 827 0
-827 8 0
-827 9 0
-828 20 0
-829 30 0
-830 38 0
-831 46 0
-831 47 0
-832 53 0
-832 54 0
-833 59 0
-833 60 0
-834 64 0
-834 65 0
-835 70 0
-835 73 0
-836 71 0
-836 74 0
-837 72 0
-837 75 0
842 843 841 847 845 848 846 844 840 838 839 0
-838 8 0
-838 10 0
-839 19 0
-839 21 0
-840 31 0
-841 38 0
-842 46 0
-842 48 0
-843 53 0
-843 55 0
-844 59 0
-844 61 0
-845 64 0
-845 66 0
-846 69 0
-846 73 0
-847 71 0
-847 76 0
-848 72 0
-848 77 0
853 854 852 856 851 855 850 859 857 849 858 0
-849 8 0
-849 11 0
-850 19 0
-851 32 0
-852 38 0
-853 46 0
-853 49 0
-854 53 0
-854 56 0
-855 59 0
-855 62 0
-856 64 0
-856 67 0
-857 69 0
-857 74 0
-858 70 0
-858 76 0
-859 72 0
-859 78 0
-26 -5 -16 -937 0
-28 -18 -7 -937 0
-22 -11 -32 -937 0
-15 -4 -34 -938 0
-16 -5 -35 -938 0
-17 -36 -6 -938 0
-37 -18 -7 -938 0
-38 -19 -8 -938 0
-39 -20 -9 -938 0
-21 -10 -40 -938 0
-11 -41 -22 -938 0
-12 -42 -23 -938 0
-939 -25 -13 -2 0
-44 -939 -6 -17 0
-45 -939 -7 -18 0
-940 -26 -13 -2 0
-51 -6 -940 -17 0
-52 -7 -940 -18 0
-51 -941 -5 -16 0
-58 -941 -7 -18 0
-942 -28 -13 -2 0
-53 -943 -5 -16 0
-59 -943 -6 -17 0
-30 -944 -13 -2 0
-54 -944 -5 -16 0
-60 -944 -6 -17 0
-65 -944 -7 -18 0
-945 -31 -13 -2 0
-61 -945 -6 -17 0
-946 -32 -13 -2 0
-56 -5 -946 -16 0
-947 -33 -13 -2 0
-25 -4 -34 -948 0
-26 -35 -5 -948 0
-27 -36 -6 -948 0
-37 -28 -7 -948 0
-38 -29 -8 -948 0
-30 -39 -9 -948 0
-10 -31 -40 -948 0
-11 -41 -32 -948 0
-949 -15 -13 -1 0
-949 -26 -43 -5 0
-950 -16 -13 -1 0
-17 -951 -13 -1 0
-58 -951 -7 -28 0
-59 -951 -8 -29 0
-64 -952 -8 -29 0
-953 -19 -13 -1 0
-64 -953 -7 -28 0
-954 -20 -13 -1 0
-65 -954 -7 -28 0
-69 -954 -8 -29 0
-955 -21 -13 -1 0
-70 -955 -8 -29 0
-956 -22 -13 -1 0
-957 -23 -13 -1 0
-4 -50 -957 -25 0
-72 -8 -957 -29 0
-47 -9 -958 -39 0
-48 -958 -10 -40 0
-51 -6 -959 -36 0
-53 -8 -959 -38 0
-54 -39 -959 -9 0
-55 -959 -40 -10 0
-58 -960 -37 -7 0
-59 -960 -8 -38 0
-60 -39 -960 -9 0
-61 -960 -40 -10 0
-63 -960 -12 -42 0
-65 -39 -961 -9 0
-66 -961 -40 -10 0
-68 -961 -12 -42 0
-69 -39 -962 -9 0
-70 -962 -40 -10 0
-71 -962 -11 -41 0
-69 -963 -8 -38 0
-73 -963 -10 -40 0
-74 -963 -11 -41 0
-66 -7 -964 -37 0
-70 -8 -964 -38 0
-73 -9 -964 -39 0
-77 -964 -12 -42 0
-71 -38 -965 -8 0
-74 -9 -965 -39 0
-76 -10 -965 -40 0
-72 -966 -8 -38 0
-75 -966 -9 -39 0
-77 -966 -10 -40 0
-966 -78 -11 -41 0
-51 -967 -6 -44 0
-45 -967 -7 -52 0
-53 -967 -8 -46 0
-54 -967 -9 -47 0
-48 -55 -967 -10 0
-968 -27 -25 -2 0
-968 -5 -43 -51 0
-59 -46 -8 -968 0
-60 -47 -968 -9 0
-61 -48 -968 -10 0
-52 -969 -5 -43 0
-44 -969 -6 -58 0
-65 -969 -9 -47 0
-66 -969 -10 -48 0
-970 -19 -15 -1 0
-970 -5 -43 -53 0
-44 -970 -6 -59 0
-970 -49 -11 -71 0
-971 -54 -5 -43 0
-60 -971 -6 -44 0
-971 -69 -8 -46 0
-73 -971 -10 -48 0
-972 -5 -43 -55 0
-61 -972 -6 -44 0
-46 -972 -8 -70 0
-73 -972 -9 -47 0
-973 -5 -43 -56 0
-62 -973 -6 -44 0
-46 -973 -8 -71 0
-47 -973 -9 -74 0
-48 -973 -10 -76 0
-57 -974 -43 -5 0
-75 -974 -9 -47 0
-48 -77 -974 -10 0
-975 -17 -16 -1 0
-44 -975 -43 -4 0
-60 -975 -9 -54 0
-61 -975 -10 -55 0
-18 -976 -16 -1 0
-45 -976 -43 -4 0
-58 -976 -6 -51 0
-977 -19 -16 -1 0
-977 -4 -43 -46 0
-59 -51 -977 -6 0
-64 -977 -7 -52 0
-55 -977 -10 -70 0
-47 -978 -43 -4 0
-60 -978 -6 -51 0
-69 -978 -8 -53 0
-73 -978 -10 -55 0
-979 -16 -21 -1 0
-48 -979 -43 -4 0
-61 -979 -6 -51 0
-73 -979 -9 -54 0
-980 -16 -22 -1 0
-980 -26 -32 -2 0
-980 -4 -43 -49 0
-980 -54 -74 -9 0
-980 -55 -10 -76 0
-981 -4 -43 -50 0
-981 -63 -6 -51 0
-55 -981 -10 -77 0
-18 -982 -17 -1 0
-982 -28 -27 -2 0
-45 -982 -4 -44 0
-52 -982 -5 -51 0
-66 -982 -10 -61 0
-983 -17 -19 -1 0
-44 -983 -4 -46 0
-53 -983 -5 -51 0
-984 -20 -17 -1 0
-984 -30 -27 -2 0
-54 -984 -5 -51 0
-69 -984 -8 -59 0
-73 -984 -10 -61 0
-985 -17 -21 -1 0
-985 -27 -31 -2 0
-985 -44 -48 -4 0
-51 -985 -5 -55 0
-986 -17 -22 -1 0
-986 -27 -32 -2 0
-986 -51 -5 -56 0
-986 -60 -74 -9 0
-987 -27 -33 -2 0
-51 -57 -987 -5 0
-60 -987 -9 -75 0
-61 -987 -10 -77 0
-988 -28 -29 -2 0
-45 -988 -4 -46 0
-52 -988 -5 -53 0
-58 -988 -6 -59 0
-45 -989 -4 -47 0
-54 -989 -5 -52 0
-60 -58 -989 -6 0
-45 -990 -4 -48 0
-52 -990 -5 -55 0
-61 -58 -990 -6 0
-991 -18 -22 -1 0
-991 -28 -32 -2 0
-52 -991 -5 -56 0
-992 -28 -33 -2 0
-992 -45 -4 -50 0
-992 -66 -10 -77 0
-47 -993 -4 -46 0
-54 -993 -5 -53 0
-60 -59 -993 -6 0
-61 -59 -994 -6 0
-995 -4 -49 -46 0
-53 -995 -5 -56 0
-62 -59 -995 -6 0
-70 -995 -10 -76 0
-996 -29 -33 -2 0
-997 -48 -4 -47 0
-54 -997 -5 -55 0
-997 -60 -6 -61 0
-47 -998 -49 -4 0
-54 -998 -5 -56 0
-47 -999 -50 -4 0
-54 -999 -5 -57 0
-60 -63 -999 -6 0
-1000 -21 -22 -1 0
-1000 -31 -32 -2 0
-1000 -48 -4 -49 0
-1000 -55 -5 -56 0
-48 -1001 -4 -50 0
-55 -1001 -5 -57 0
-1002 -23 -22 -1 0
-1002 -33 -32 -2 0
-15 -25 -34 -1003 0
-26 -35 -16 -1003 0
-36 -27 -17 -1003 0
-37 -28 -18 -1003 0
-19 -38 -29 -1003 0
-20 -30 -39 -1003 0
-21 -31 -40 -1003 0
-22 -41 -32 -1003 0
-23 -42 -33 -1003 0
-1004 -4 -2 -1 0
-44 -1004 -27 -17 0
-46 -1004 -19 -29 0
-51 -1005 -27 -17 0
-52 -1005 -28 -18 0
-53 -1005 -19 -29 0
-58 -1006 -28 -18 0
-59 -1006 -29 -19 0
-1008 -8 -2 -1 0
-1009 -9 -2 -1 0
-69 -1009 -29 -19 0
-1010 -10 -2 -1 0
-15 -1011 -49 -25 0
-62 -27 -1011 -17 0
-67 -28 -1011 -18 0
-71 -19 -1011 -29 0
-72 -19 -1012 -29 0
-47 -20 -1013 -39 0
-48 -1013 -21 -40 0
-1013 -49 -22 -41 0
-51 -36 -17 -1014 0
-54 -20 -1014 -39 0
-55 -1014 -21 -40 0
-56 -1014 -22 -41 0
-58 -1015 -37 -18 0
-60 -1015 -20 -39 0
-61 -1015 -21 -40 0
-62 -1015 -22 -41 0
-63 -1015 -23 -42 0
-64 -1016 -38 -19 0
-66 -1016 -21 -40 0
-67 -1016 -22 -41 0
-59 -1017 -36 -17 0
-69 -39 -1017 -20 0
-70 -1017 -21 -40 0
-71 -1017 -22 -41 0
-72 -1017 -23 -42 0
-60 -1018 -36 -17 0
-73 -1018 -40 -21 0
-74 -1018 -22 -41 0
-61 -36 -1019 -17 0
-70 -38 -1019 -19 0
-73 -39 -1019 -20 0
-76 -1019 -41 -22 0
-71 -38 -1020 -19 0
-74 -39 -1020 -20 0
-76 -21 -1020 -40 0
-72 -1021 -19 -38 0
-77 -1021 -40 -21 0
-1021 -78 -22 -41 0
-1022 -4 -5 -1 0
-44 -1022 -17 -51 0
-45 -1022 -18 -52 0
-48 -1022 -21 -55 0
-1022 -49 -22 -56 0
-45 -58 -18 -1023 0
-61 -1023 -21 -48 0
-62 -1023 -49 -22 0
-1024 -7 -4 -1 0
-52 -16 -43 -1024 0
-58 -1024 -17 -44 0
-48 -1024 -21 -66 0
-67 -1024 -49 -22 0
-1025 -8 -4 -1 0
-59 -1025 -17 -44 0
-45 -1025 -18 -64 0
-1026 -9 -4 -1 0
-60 -1026 -17 -44 0
-45 -1026 -18 -65 0
-74 -1026 -49 -22 0
-1027 -4 -10 -1 0
-61 -1027 -17 -44 0
-45 -66 -1027 -18 0
-1027 -49 -22 -76 0
-1028 -16 -43 -56 0
-62 -44 -17 -1028 0
-45 -67 -18 -1028 0
-76 -1028 -21 -48 0
-57 -1029 -16 -43 0
-44 -63 -17 -1029 0
-45 -68 -1029 -18 0
-1029 -49 -22 -78 0
-6 -1030 -5 -1 0
-1030 -27 -26 -13 0
-58 -1030 -18 -52 0
-53 -1030 -19 -59 0
-60 -1030 -20 -54 0
-62 -1030 -22 -56 0
-1031 -7 -5 -1 0
-51 -1031 -17 -58 0
-66 -1031 -21 -55 0
-67 -56 -1031 -22 0
-59 -1032 -17 -51 0
-52 -1032 -18 -64 0
-70 -1032 -21 -55 0
-71 -56 -1032 -22 0
-1033 -9 -5 -1 0
-51 -1033 -17 -60 0
-65 -52 -1033 -18 0
-73 -55 -1033 -21 0
-74 -1033 -22 -56 0
-1034 -5 -10 -1 0
-61 -1034 -17 -51 0
-66 -52 -1034 -18 0
-56 -1034 -22 -76 0
-51 -1035 -17 -62 0
-52 -1035 -18 -67 0
-1036 -51 -17 -63 0
-1036 -68 -52 -18 0
-1036 -54 -75 -20 0
-1036 -55 -21 -77 0
-1036 -56 -78 -22 0
-1037 -28 -27 -13 0
-44 -1037 -15 -45 0
-1037 -51 -16 -52 0
-61 -1037 -21 -66 0
-62 -1037 -22 -67 0
-53 -1038 -16 -51 0
-64 -1038 -18 -58 0
-61 -1038 -21 -70 0
-62 -1038 -22 -71 0
-1039 -6 -9 -1 0
-54 -1039 -16 -51 0
-65 -1039 -18 -58 0
-73 -61 -1039 -21 0
-62 -74 -1039 -22 0
-1040 -6 -10 -1 0
-1040 -27 -31 -13 0
-51 -55 -1040 -16 0
-58 -1040 -18 -66 0
-62 -76 -1040 -22 0
-1041 -27 -32 -13 0
-1041 -51 -16 -56 0
-1041 -76 -21 -61 0
-58 -68 -1042 -18 0
-61 -1042 -21 -77 0
-62 -1042 -78 -22 0
-1043 -28 -29 -13 0
-45 -1043 -15 -46 0
-53 -1043 -16 -52 0
-58 -1043 -17 -59 0
-71 -67 -1043 -22 0
-1044 -54 -16 -52 0
-1044 -58 -17 -60 0
-73 -1044 -66 -21 0
-1044 -74 -67 -22 0
-1045 -7 -10 -1 0
-55 -52 -1045 -16 0
-61 -1045 -17 -58 0
-67 -1045 -22 -76 0
-1046 -28 -32 -13 0
-52 -1046 -16 -56 0
-1047 -28 -33 -13 0
-57 -52 -16 -1047 0
-67 -1047 -22 -78 0
-53 -1048 -16 -54 0
-59 -1048 -17 -60 0
-65 -1048 -18 -64 0
-46 -1049 -15 -48 0
-53 -1049 -16 -55 0
-61 -1049 -17 -59 0
-64 -66 -1049 -18 0
-76 -1050 -21 -70 0
-1051 -29 -33 -13 0
-70 -77 -1051 -21 0
-54 -1052 -16 -55 0
-60 -1052 -17 -61 0
-65 -1052 -18 -66 0
-54 -1053 -16 -56 0
-62 -60 -17 -1053 0
-65 -1053 -18 -67 0
-54 -1054 -16 -57 0
-60 -63 -17 -1054 0
-65 -1054 -18 -68 0
-55 -1055 -16 -56 0
-61 -1055 -17 -62 0
-66 -1055 -18 -67 0
-57 -1056 -16 -55 0
-63 -1056 -17 -61 0
-68 -1056 -18 -66 0
-57 -1057 -16 -56 0
-63 -1057 -17 -62 0
-68 -1057 -18 -67 0
-44 -36 -1058 -27 0
-1058 -49 -32 -41 0
-1058 -50 -33 -42 0
-54 -1059 -30 -39 0
-56 -1059 -32 -41 0
-57 -1059 -42 -33 0
-61 -1060 -31 -40 0
-63 -1060 -42 -33 0
-58 -1061 -36 -27 0
-67 -1061 -32 -41 0
-68 -1061 -33 -42 0
-59 -1062 -36 -27 0
-70 -1062 -40 -31 0
-71 -1062 -32 -41 0
-72 -1062 -42 -33 0
-73 -1063 -40 -31 0
-74 -1063 -32 -41 0
-75 -1063 -33 -42 0
-73 -30 -1064 -39 0
-76 -41 -1064 -32 0
-77 -33 -1064 -42 0
-74 -39 -1065 -30 0
-78 -42 -33 -1065 0
-57 -1066 -35 -26 0
-63 -1066 -36 -27 0
-68 -1066 -28 -37 0
-72 -1066 -38 -29 0
-75 -1066 -39 -30 0
-77 -1066 -40 -31 0
-1066 -78 -32 -41 0
-1067 -4 -5 -2 0
-44 -1067 -27 -51 0
-52 -1067 -28 -45 0
-53 -46 -1067 -29 0
-1067 -49 -32 -56 0
-57 -1067 -50 -33 0
-6 -1068 -4 -2 0
-63 -1068 -50 -33 0
-1069 -7 -4 -2 0
-44 -1069 -27 -58 0
-64 -46 -29 -1069 0
-59 -1070 -27 -44 0
-64 -1070 -28 -45 0
-72 -1070 -33 -50 0
-1071 -9 -4 -2 0
-44 -1071 -27 -60 0
-65 -1071 -28 -45 0
-69 -46 -1071 -29 0
-1071 -50 -33 -75 0
-1072 -4 -10 -2 0
-1072 -15 -21 -13 0
-45 -1072 -28 -66 0
-45 -1073 -28 -67 0
-71 -1073 -29 -46 0
-44 -63 -1074 -27 0
-45 -1074 -28 -68 0
-46 -1074 -29 -72 0
-1075 -6 -5 -2 0
-1075 -17 -16 -13 0
-58 -1075 -28 -52 0
-59 -1075 -29 -53 0
-56 -1075 -32 -62 0
-57 -1075 -33 -63 0
-1076 -7 -5 -2 0
-1076 -18 -16 -13 0
-64 -53 -29 -1076 0
-56 -1076 -32 -67 0
-68 -57 -1076 -33 0
-1077 -8 -5 -2 0
-52 -1077 -28 -64 0
-57 -72 -1077 -33 0
-1078 -9 -5 -2 0
-65 -1078 -28 -52 0
-69 -1078 -29 -53 0
-57 -75 -1078 -33 0
-1079 -5 -10 -2 0
-1079 -16 -21 -13 0
-51 -1079 -27 -61 0
-52 -1079 -28 -66 0
-53 -1079 -29 -70 0
-57 -1079 -33 -77 0
-1080 -16 -22 -13 0
-71 -1080 -29 -53 0
-53 -72 -1081 -29 0
-1082 -7 -6 -2 0
-1082 -18 -17 -13 0
-51 -1082 -26 -52 0
-64 -1082 -29 -59 0
-62 -1082 -32 -67 0
-68 -63 -1082 -33 0
-58 -64 -28 -1083 0
-72 -63 -1083 -33 0
-1084 -6 -9 -2 0
-65 -1084 -28 -58 0
-69 -1084 -29 -59 0
-63 -1084 -33 -75 0
-1085 -6 -10 -2 0
-1085 -17 -21 -13 0
-58 -1085 -28 -66 0
-59 -70 -1085 -29 0
-76 -1085 -32 -62 0
-1086 -17 -22 -13 0
-58 -1086 -28 -67 0
-71 -1086 -29 -59 0
-58 -1087 -28 -68 0
-59 -1087 -29 -72 0
-53 -1088 -26 -52 0
-68 -72 -1088 -33 0
-1089 -7 -9 -2 0
-69 -1089 -29 -64 0
-73 -1089 -31 -66 0
-74 -1089 -32 -67 0
-68 -75 -1089 -33 0
-1090 -7 -10 -2 0
-1090 -64 -70 -29 0
-1091 -18 -22 -13 0
-58 -1091 -27 -62 0
-71 -64 -1091 -29 0
-1091 -68 -78 -33 0
-58 -1092 -27 -63 0
-64 -72 -1092 -29 0
-60 -59 -27 -1093 0
-65 -1093 -28 -64 0
-74 -1093 -32 -71 0
-72 -75 -1093 -33 0
-1094 -19 -21 -13 0
-64 -1094 -28 -66 0
-76 -1094 -32 -71 0
-72 -1094 -33 -77 0
-64 -1095 -28 -67 0
-72 -1095 -78 -33 0
-59 -1096 -27 -63 0
-64 -1096 -28 -68 0
-1097 -9 -10 -2 0
-69 -70 -1097 -29 0
-60 -1098 -27 -62 0
-65 -1098 -28 -67 0
-71 -69 -1098 -29 0
-65 -1099 -28 -68 0
-69 -1099 -29 -72 0
-1100 -21 -22 -13 0
-62 -1100 -27 -61 0
-66 -1100 -28 -67 0
-71 -70 -1100 -29 0
-66 -1101 -28 -68 0
-70 -1101 -29 -72 0
-1102 -62 -27 -63 0
-1102 -67 -28 -68 0
-1102 -71 -72 -29 0
-1103 -45 -37 -52 0
-1103 -46 -38 -53 0
-1103 -54 -47 -39 0
-1103 -48 -55 -40 0
-1103 -56 -49 -41 0
-1103 -57 -50 -42 0
-1104 -58 -37 -45 0
-59 -1104 -38 -46 0
-60 -47 -1104 -39 0
-61 -48 -1104 -40 0
-1104 -63 -50 -42 0
-64 -1105 -38 -46 0
-65 -1105 -39 -47 0
-48 -66 -1105 -40 0
-1105 -67 -49 -41 0
-68 -1105 -42 -50 0
-1106 -45 -37 -64 0
-1106 -69 -47 -39 0
-1106 -48 -70 -40 0
-1106 -71 -49 -41 0
-1106 -72 -50 -42 0
-1107 -45 -37 -65 0
-1107 -46 -38 -69 0
-73 -1107 -48 -40 0
-1107 -74 -49 -41 0
-1107 -50 -42 -75 0
-1108 -70 -38 -46 0
-73 -1108 -47 -39 0
-1108 -49 -41 -76 0
-1109 -67 -37 -45 0
-71 -1109 -38 -46 0
-74 -47 -39 -1109 0
-48 -1109 -40 -76 0
-1109 -78 -50 -42 0
-45 -1110 -37 -68 0
-1110 -46 -38 -72 0
-1110 -75 -39 -47 0
-1110 -78 -49 -41 0
-53 -1111 -38 -59 0
-60 -54 -1111 -39 0
-61 -55 -1111 -40 0
-62 -56 -1111 -41 0
-57 -63 -1111 -42 0
-65 -1112 -54 -39 0
-1112 -66 -55 -40 0
-1112 -67 -56 -41 0
-1112 -68 -57 -42 0
-1113 -54 -39 -69 0
-1113 -70 -55 -40 0
-1113 -71 -56 -41 0
-1113 -57 -42 -72 0
-1114 -53 -38 -69 0
-1114 -74 -56 -41 0
-1114 -57 -75 -42 0
-73 -54 -1115 -39 0
-71 -1116 -38 -53 0
-54 -74 -1116 -39 0
-1116 -55 -76 -40 0
-1116 -57 -78 -42 0
-1117 -68 -37 -52 0
-1117 -53 -38 -72 0
-1117 -54 -75 -39 0
-1117 -55 -77 -40 0
-1117 -56 -78 -41 0
-1118 -59 -38 -64 0
-1118 -61 -40 -66 0
-1118 -62 -41 -67 0
-1118 -68 -63 -42 0
-1119 -60 -69 -39 0
-1119 -61 -70 -40 0
-1120 -73 -61 -40 0
-1120 -62 -74 -41 0
-1120 -63 -75 -42 0
-62 -1121 -76 -41 0
-1122 -58 -37 -67 0
-1122 -59 -38 -71 0
-1122 -63 -78 -42 0
-1123 -60 -75 -39 0
-1123 -61 -40 -77 0
-1123 -62 -78 -41 0
-1124 -65 -39 -69 0
-1124 -70 -66 -40 0
-1124 -71 -67 -41 0
-1124 -68 -42 -72 0
-1125 -69 -38 -64 0
-1125 -73 -66 -40 0
-1125 -74 -67 -41 0
-1125 -68 -42 -75 0
-1126 -64 -38 -70 0
-65 -1126 -73 -39 0
-1126 -67 -76 -41 0
-1126 -68 -77 -42 0
-71 -64 -38 -1127 0
-65 -1127 -74 -39 0
-1127 -66 -40 -76 0
-1127 -68 -78 -42 0
-1128 -64 -38 -72 0
-65 -1128 -75 -39 0
-1128 -66 -40 -77 0
-1128 -67 -41 -78 0
-1129 -47 -34 -46 0
-73 -1129 -70 -40 0
-71 -1129 -74 -41 0
-1129 -72 -75 -42 0
-1130 -73 -69 -39 0
-71 -1130 -76 -41 0
-1130 -72 -42 -77 0
-69 -74 -1131 -39 0
-1131 -70 -76 -40 0
-1131 -72 -78 -42 0
-69 -1132 -75 -39 0
-71 -1132 -78 -41 0
-1133 -74 -76 -41 0
-1133 -77 -75 -42 0
-71 -1134 -38 -69 0
-73 -1134 -76 -40 0
-1134 -75 -78 -42 0
-1135 -74 -78 -41 0
-70 -1136 -38 -71 0
-73 -74 -1136 -39 0
-1136 -77 -42 -78 0
-70 -72 -38 -1137 0
-73 -75 -39 -1137 0
-74 -1138 -75 -39 0
-1138 -76 -77 -40 0
-1139 -58 -45 -52 0
-1139 -60 -47 -54 0
-1140 -51 -44 -58 0
-1140 -64 -53 -46 0
-65 -54 -47 -1140 0
-1140 -66 -55 -48 0
-1140 -57 -50 -68 0
-1141 -44 -59 -51 0
-1141 -45 -64 -52 0
-54 -69 -47 -1141 0
-1141 -57 -50 -72 0
-1142 -51 -44 -60 0
-1142 -65 -45 -52 0
-1142 -69 -46 -53 0
-1142 -73 -55 -48 0
-1143 -5 -10 -4 0
-1143 -66 -52 -45 0
-1143 -53 -70 -46 0
-1143 -57 -50 -77 0
-1144 -25 -32 -26 0
-1144 -62 -44 -51 0
-1144 -71 -53 -46 0
-1145 -68 -52 -45 0
-1145 -72 -46 -53 0
-1146 -51 -43 -52 0
-1146 -60 -47 -65 0
-1147 -51 -53 -43 0
-1147 -64 -58 -45 0
-1147 -60 -47 -69 0
-1147 -61 -48 -70 0
-1147 -72 -50 -63 0
-1148 -6 -4 -9 0
-1148 -51 -43 -54 0
-1148 -59 -69 -46 0
-1149 -6 -4 -10 0
-1149 -45 -66 -58 0
-1149 -59 -70 -46 0
-1149 -77 -50 -63 0
-1150 -51 -43 -56 0
-1150 -45 -67 -58 0
-1151 -51 -43 -57 0
-1151 -58 -68 -45 0
-1151 -72 -46 -59 0
-1151 -60 -47 -75 0
-1151 -62 -78 -49 0
-1152 -8 -4 -7 0
-1152 -53 -43 -52 0
-1152 -58 -59 -44 0
-1152 -69 -47 -65 0
-1153 -7 -4 -9 0
-1153 -54 -43 -52 0
-1153 -60 -58 -44 0
-1153 -69 -46 -64 0
-1153 -74 -49 -67 0
-68 -75 -50 -1153 0
-1154 -55 -52 -43 0
-1154 -61 -44 -58 0
-1154 -70 -46 -64 0
-1154 -77 -50 -68 0
-56 -52 -43 -1155 0
-71 -1155 -64 -46 0
-1156 -57 -52 -43 0
-1156 -58 -63 -44 0
-1156 -72 -46 -64 0
-1156 -65 -75 -47 0
-1157 -54 -43 -53 0
-60 -1157 -44 -59 0
-65 -1157 -45 -64 0
-1158 -8 -10 -4 0
-1158 -53 -55 -43 0
-1158 -61 -59 -44 0
-1158 -64 -66 -45 0
-1158 -71 -49 -76 0
-1158 -77 -50 -72 0
-1159 -56 -43 -53 0
-64 -1159 -67 -45 0
-69 -74 -1159 -47 0
-1160 -64 -68 -45 0
-1161 -54 -55 -43 0
-1161 -60 -44 -61 0
-1161 -69 -70 -46 0
-1162 -20 -15 -22 0
-62 -60 -44 -1162 0
-1162 -65 -45 -67 0
-1162 -71 -69 -46 0
-60 -1163 -44 -63 0
-65 -1163 -68 -45 0
-1164 -56 -43 -55 0
-1164 -71 -70 -46 0
-1165 -57 -43 -55 0
-1165 -45 -66 -68 0
-1165 -70 -72 -46 0
-1166 -62 -63 -44 0
-1166 -45 -68 -67 0
-1167 -18 -16 -17 0
-1167 -28 -26 -27 0
-53 -64 -59 -1167 0
-1168 -44 -43 -46 0
-64 -58 -52 -1168 0
-60 -54 -69 -1168 0
-61 -55 -70 -1168 0
-1169 -6 -9 -5 0
-1169 -20 -16 -17 0
-1169 -44 -43 -47 0
-1169 -69 -53 -59 0
-1169 -73 -55 -61 0
-1170 -5 -10 -6 0
-1170 -16 -21 -17 0
-1170 -48 -43 -44 0
-1170 -59 -70 -53 0
-1170 -73 -60 -54 0
-1170 -57 -63 -77 0
-1171 -16 -22 -17 0
-1171 -44 -43 -49 0
-1171 -67 -52 -58 0
-1171 -71 -53 -59 0
-1172 -44 -43 -50 0
-1172 -58 -68 -52 0
-1173 -46 -43 -45 0
-1173 -51 -59 -58 0
-1174 -45 -47 -43 0
-60 -1174 -51 -58 0
-1174 -64 -69 -53 0
-1175 -7 -5 -10 0
-1175 -18 -16 -21 0
-1175 -48 -43 -45 0
-1175 -64 -70 -53 0
-1175 -73 -54 -65 0
-1175 -56 -76 -67 0
-1175 -57 -77 -68 0
-1176 -18 -16 -22 0
-45 -1176 -43 -49 0
-62 -51 -1176 -58 0
-71 -1176 -53 -64 0
-65 -1176 -74 -54 0
-1176 -66 -55 -76 0
-1177 -45 -50 -43 0
-1177 -64 -72 -53 0
-1177 -65 -75 -54 0
-1177 -66 -55 -77 0
-1178 -9 -8 -5 0
-1178 -20 -16 -19 0
-1178 -46 -43 -47 0
-60 -1178 -51 -59 0
-65 -1178 -64 -52 0
-1179 -48 -46 -43 0
-73 -54 -69 -1179 0
-1179 -57 -77 -72 0
-1180 -46 -49 -43 0
-1180 -62 -59 -51 0
-1180 -64 -67 -52 0
-69 -54 -1180 -74 0
-1181 -29 -26 -33 0
-1181 -46 -50 -43 0
-1181 -51 -59 -63 0
-1181 -69 -75 -54 0
-1181 -70 -55 -77 0
-1182 -48 -43 -47 0
-1182 -51 -60 -61 0
-1182 -65 -66 -52 0
-1183 -47 -49 -43 0
-1183 -62 -51 -60 0
-65 -1183 -67 -52 0
-1184 -47 -50 -43 0
-65 -1184 -68 -52 0
-1184 -69 -72 -53 0
-1185 -5 -11 -10 0
-1185 -16 -21 -22 0
-1185 -48 -49 -43 0
-71 -1185 -70 -53 0
-1186 -10 -12 -5 0
-48 -1186 -50 -43 0
-1186 -66 -52 -68 0
-76 -77 -1187 -55 0
-1188 -28 -29 -27 0
-1188 -51 -53 -52 0
-65 -1188 -69 -60 0
-1189 -45 -47 -44 0
-1189 -51 -52 -54 0
-1190 -18 -21 -17 0
-1190 -44 -48 -45 0
-1190 -51 -55 -52 0
-59 -64 -70 -1190 0
-73 -65 -1190 -60 0
-62 -1190 -76 -67 0
-1191 -18 -17 -22 0
-1191 -51 -52 -56 0
-65 -1191 -74 -60 0
-1192 -27 -33 -28 0
-1192 -37 -42 -36 0
-1192 -45 -50 -44 0
-1192 -57 -52 -51 0
-65 -1192 -75 -60 0
-1192 -61 -66 -77 0
-1192 -62 -78 -67 0
-1193 -44 -47 -46 0
-1193 -54 -51 -53 0
-1193 -65 -64 -58 0
-1194 -17 -19 -21 0
-1194 -44 -48 -46 0
-1194 -51 -55 -53 0
-1194 -58 -66 -64 0
-73 -60 -1194 -69 0
-1195 -44 -49 -46 0
-1195 -64 -58 -67 0
-1195 -63 -78 -72 0
-1196 -29 -33 -27 0
-1196 -44 -50 -46 0
-1196 -53 -57 -51 0
-1197 -9 -10 -6 0
-1197 -17 -21 -20 0
-1197 -30 -27 -31 0
-1197 -44 -48 -47 0
-1197 -51 -54 -55 0
-1197 -65 -66 -58 0
-1198 -44 -49 -47 0
-1198 -54 -56 -51 0
-65 -1198 -58 -67 0
-1199 -30 -27 -33 0
-1199 -47 -50 -44 0
-65 -1199 -68 -58 0
-1199 -69 -72 -59 0
-1200 -17 -21 -22 0
-1200 -44 -48 -49 0
-1200 -58 -66 -67 0
-1201 -44 -48 -50 0
-1201 -70 -72 -59 0
-1202 -44 -50 -49 0
-1202 -57 -56 -51 0
-1203 -39 -37 -38 0
-1203 -45 -46 -47 0
-1203 -53 -52 -54 0
-60 -1203 -59 -58 0
-1203 -68 -72 -75 0
-1204 -37 -40 -38 0
-1204 -48 -46 -45 0
-1204 -61 -59 -58 0
-65 -73 -1204 -69 0
-1205 -28 -29 -32 0
-1205 -37 -41 -38 0
-45 -1205 -46 -49 0
-53 -1205 -52 -56 0
-1205 -68 -78 -72 0
-1206 -37 -42 -38 0
-1206 -45 -50 -46 0
-1206 -57 -52 -53 0
-1206 -59 -63 -58 0
-1206 -69 -75 -65 0
-1206 -67 -78 -71 0
-54 -55 -52 -1207 0
-60 -1207 -61 -58 0
-47 -45 -49 -1208 0
-1208 -54 -56 -52 0
-1209 -39 -37 -42 0
-45 -47 -50 -1209 0
-1209 -54 -57 -52 0
-1209 -60 -58 -63 0
-1209 -69 -72 -64 0
-1210 -18 -21 -22 0
-1210 -28 -31 -32 0
-1210 -45 -49 -48 0
-1210 -55 -56 -52 0
-62 -1210 -61 -58 0
-1211 -28 -31 -33 0
-1211 -57 -52 -55 0
-1211 -61 -63 -58 0
-1212 -28 -33 -32 0
-1213 -38 -39 -40 0
-1213 -54 -55 -53 0
-60 -1213 -61 -59 0
-1214 -47 -49 -46 0
-1214 -54 -56 -53 0
-62 -1214 -60 -59 0
-65 -1214 -67 -64 0
-1215 -39 -42 -38 0
-1215 -47 -50 -46 0
-1215 -54 -57 -53 0
-1215 -60 -63 -59 0
-1216 -55 -56 -53 0
-1217 -48 -50 -46 0
-1217 -57 -55 -53 0
-61 -1217 -63 -59 0
-64 -68 -66 -1217 0
-1218 -38 -42 -41 0
-1218 -46 -49 -50 0
-62 -63 -1218 -59 0
-68 -67 -1218 -64 0
-1219 -39 -40 -41 0
-1220 -39 -42 -40 0
-1221 -39 -42 -41 0
-1222 -42 -40 -41 0
-1256 -4 0
1013 -1256 0
-1257 -15 0
958 -1257 0
-1258 -34 0
-1258 939 0
1256 1257 1258 -938 0
-1259 -5 0
1014 -1259 0
-1260 -16 0
959 -1260 0
-1261 -35 0
940 -1261 0
1261 1259 1260 -938 0
-1262 -6 0
1015 -1262 0
-1263 -17 0
960 -1263 0
-1264 -36 0
-1264 941 0
1262 1264 1263 -938 0
-1265 -7 0
-1265 1016 0
-1266 -18 0
-1266 961 0
-1267 -37 0
-1267 942 0
1265 1266 1267 -938 0
-1268 -8 0
1017 -1268 0
-1269 -19 0
962 -1269 0
-1270 -38 0
-1270 943 0
1270 1268 1269 -938 0
-1271 -9 0
-1271 1018 0
-1272 963 0
-1273 -39 0
1272 1273 1271 -938 0
-1274 -10 0
1019 -1274 0
-1275 964 0
-1276 -40 0
1274 1275 1276 -938 0
1020 -1277 0
965 -1278 0
-1279 -41 0
1279 1278 1277 -938 0
-1280 -12 0
1021 -1280 0
-1281 -23 0
966 -1281 0
-1282 -42 0
-1282 947 0
1280 1281 1282 -938 0
-1289 -5 0
-1289 1022 0
-1290 -16 0
-1290 967 0
-1291 -43 0
1291 -939 1290 1289 0
-1292 -6 0
-1292 1023 0
-1293 -17 0
968 -1293 0
-1294 -44 0
-1294 941 0
1292 1293 -939 1294 0
-1295 1024 0
-1296 -18 0
-1296 969 0
-1297 -45 0
-1297 942 0
1296 1297 -939 1295 0
-1298 1025 0
-1299 970 0
-1300 943 0
1299 1298 -939 1300 0
-1301 -9 0
-1301 1026 0
-1302 -20 0
-1302 971 0
-1303 -47 0
-1303 944 0
1303 1302 -939 1301 0
-1304 -10 0
-1304 1027 0
-1305 -21 0
-1305 972 0
-1306 -48 0
-1306 945 0
-939 1305 1306 1304 0
-1307 1028 0
-1308 -22 0
-1308 973 0
-1309 -49 0
-1309 946 0
-939 1308 1309 1307 0
-1310 1029 0
-1311 974 0
-1312 947 0
1310 -939 1311 1312 0
-1319 -4 0
-1319 1022 0
-1320 -15 0
-1320 967 0
-1321 -43 0
1321 1319 -940 1320 0
-1322 1030 0
-1323 -17 0
-1324 -51 0
-1324 941 0
1324 1323 -940 1322 0
-1325 1031 0
-1326 -18 0
-1326 976 0
-1327 -52 0
-1327 942 0
1326 1327 -940 1325 0
-1328 -8 0
-1328 1032 0
-1329 -19 0
-1329 977 0
-1330 -53 0
-1330 943 0
1329 1328 -940 1330 0
-1331 -9 0
-1331 1033 0
-1332 978 0
-1333 -54 0
-1333 944 0
1333 1332 -940 1331 0
-1334 -10 0
-1334 1034 0
-1335 -21 0
979 -1335 0
-1336 -55 0
-1336 945 0
-940 1335 1336 1334 0
-1337 1035 0
-1338 -22 0
-1338 980 0
-1339 -56 0
-1339 946 0
-940 1338 1339 1337 0
-1340 1036 0
-1341 981 0
-1342 947 0
-940 1341 1342 1340 0
-1343 -2 0
-1344 -13 0
-1345 -27 0
1345 -941 1344 1343 0
-1349 -4 0
-1349 1023 0
-1350 968 0
-1351 -44 0
-1351 939 0
1350 -941 1349 1351 0
-1352 -5 0
-1353 975 0
-1354 -51 0
1354 -941 1353 1352 0
-1355 -7 0
-1355 1037 0
-1356 -18 0
-1356 982 0
-1357 942 0
1356 1357 -941 1355 0
-1358 -8 0
-1358 1038 0
-1359 983 0
-1360 -59 0
-1360 943 0
1359 -941 1358 1360 0
-1361 -9 0
-1361 1039 0
-1362 984 0
-1363 -60 0
-1363 944 0
1363 1362 -941 1361 0
-1364 -10 0
-1365 -21 0
-1365 985 0
-1366 -61 0
-1366 945 0
-941 1365 1366 1364 0
-1367 1041 0
-1368 -22 0
-1369 -62 0
-1369 946 0
-941 1368 1369 1367 0
-1370 1042 0
-1371 987 0
-1372 947 0
1370 -941 1371 1372 0
-1379 -4 0
-1380 969 0
-1381 -45 0
1381 1380 1379 -942 0
-1382 -5 0
-1383 976 0
-1384 -52 0
1384 -942 1383 1382 0
-1385 -6 0
-1385 1037 0
-1386 -17 0
-1386 982 0
-1387 -58 0
1385 1386 -942 1387 0
-1388 1043 0
-1389 988 0
-1390 943 0
1389 1388 -942 1390 0
-1391 -9 0
-1391 1044 0
-1392 989 0
-65 -1393 0
-1393 944 0
1393 1392 -942 1391 0
-1394 -10 0
-1395 990 0
-1396 -66 0
1396 -942 1394 1395 0
-1400 1047 0
-1401 992 0
-1402 947 0
1400 -942 1401 1402 0
-1403 -2 0
-1404 -13 0
-1405 -29 0
-943 1405 1404 1403 0
-1418 1043 0
-1419 988 0
-1420 942 0
1420 1418 -943 1419 0
-1427 1050 0
-1432 947 0
-1439 -4 0
-1439 1026 0
-1440 971 0
-1441 -47 0
-1441 939 0
1440 -944 1439 1441 0
-1442 -5 0
-1442 1033 0
-1443 -16 0
-1443 978 0
-1444 940 0
-944 1444 1443 1442 0
-1445 -6 0
-1445 1039 0
-1446 -17 0
-1446 984 0
-1447 -60 0
-1447 941 0
1445 1446 -944 1447 0
-1448 1044 0
-1449 -18 0
-1449 989 0
-1450 942 0
1450 1448 -944 1449 0
-1451 1048 0
-1452 993 0
-1453 943 0
1452 1453 -944 1451 0
-1454 -10 0
-1454 1052 0
-1455 -21 0
-1455 997 0
-1456 -73 0
-1456 945 0
-944 1455 1456 1454 0
-1459 -74 0
-1459 946 0
-1460 1054 0
-1461 999 0
-1462 947 0
-944 1461 1462 1460 0
-1469 1027 0
-1470 972 0
-1471 939 0
1470 -945 1471 1469 0
-1475 1040 0
-1476 985 0
-1477 941 0
1476 1477 -945 1475 0
-1478 1045 0
-1479 990 0
-1480 942 0
1480 1478 -945 1479 0
-1481 1049 0
-1482 994 0
-1483 943 0
1482 1481 -945 1483 0
-1487 1055 0
-1488 -22 0
-1489 -76 0
-945 1489 1487 1488 0
-1508 1046 0
-1509 -18 0
-1509 991 0
-1510 942 0
1510 1509 -946 1508 0
-1511 1050 0
-1512 995 0
-1513 943 0
1511 1512 -946 1513 0
-1514 -9 0
-1514 1053 0
-1515 998 0
-1516 -74 0
-1516 944 0
1516 1515 -946 1514 0
-1520 1057 0
-1521 1002 0
-1522 947 0
1521 1522 -946 1520 0
-1556 -4 0
-1556 1058 0
-1557 -25 0
958 -1557 0
-1558 949 0
1556 1557 1558 -948 0
-1559 -5 0
-1559 1059 0
-1560 -26 0
959 -1560 0
-1561 -35 0
-1561 950 0
1560 1561 1559 -948 0
-1562 -6 0
-1562 1060 0
-1563 -27 0
960 -1563 0
-1564 -36 0
-1564 951 0
1563 1562 1564 -948 0
-1565 -7 0
1061 -1565 0
-1566 -28 0
961 -1566 0
-1567 -37 0
-1567 952 0
1565 1567 1566 -948 0
-1568 -8 0
1062 -1568 0
-1569 -29 0
962 -1569 0
-1570 -38 0
-1570 953 0
1570 1569 1568 -948 0
-1571 -9 0
1063 -1571 0
-1572 -30 0
963 -1572 0
-1573 -39 0
954 -1573 0
1573 1571 1572 -948 0
-1574 -10 0
1064 -1574 0
-1575 -31 0
964 -1575 0
-1576 -40 0
-1576 955 0
1574 1575 1576 -948 0
-1577 1065 0
-1578 -32 0
965 -1578 0
-1579 -41 0
956 -1579 0
1579 1577 1578 -948 0
-1580 -12 0
-1580 1066 0
-1581 -33 0
966 -1581 0
-1582 -42 0
-1582 957 0
1582 1580 1581 -948 0
-1589 -5 0
-1589 1067 0
-1590 967 0
-1591 -43 0
-1591 950 0
1590 -949 1591 1589 0
-1592 -6 0
-1592 1068 0
-1593 -27 0
-1593 968 0
-1594 -44 0
-1594 951 0
1592 1594 -949 1593 0
-1595 -7 0
-1595 1069 0
-1596 -28 0
-1596 969 0
-1597 -45 0
-1597 952 0
1597 1595 -949 1596 0
-1598 -8 0
-1598 1070 0
-1599 -29 0
-1600 -46 0
1600 -949 1598 1599 0
-1601 -9 0
-1601 1071 0
-1602 971 0
-1603 -47 0
-1603 954 0
1602 1603 -949 1601 0
-1604 -10 0
-1604 1072 0
-1605 972 0
-1606 -48 0
-1606 955 0
-949 1606 1605 1604 0
-1607 1073 0
-1608 -32 0
-1608 973 0
-1609 -49 0
-1609 956 0
-949 1609 1608 1607 0
1074 -1610 0
-1611 -33 0
-1612 -50 0
-1612 957 0
-949 1610 1612 1611 0
-1619 1067 0
-1620 967 0
-1621 -43 0
-1621 949 0
1621 -950 1620 1619 0
-1622 1075 0
-1623 975 0
-1624 951 0
1624 1623 -950 1622 0
-1625 1076 0
-1626 -28 0
-1627 -52 0
1627 -950 1625 1626 0
-1628 -8 0
-1628 1077 0
-1629 -29 0
-1630 -53 0
1630 -950 1628 1629 0
-1634 1079 0
-1635 979 0
-1636 955 0
-950 1636 1635 1634 0
-1637 1080 0
-1638 -32 0
-1638 980 0
-1639 -56 0
-1639 956 0
-950 1639 1638 1637 0
-1640 1081 0
-1641 -33 0
-1642 -57 0
-1642 957 0
-950 1640 1642 1641 0
-1649 -4 0
-1650 968 0
-1651 -44 0
-1651 949 0
-951 1650 1651 1649 0
-1652 1075 0
-1653 975 0
-1654 950 0
-951 1653 1654 1652 0
-1655 -7 0
-1655 1082 0
-1656 982 0
-1657 -58 0
1657 1656 1655 -951 0
-1658 -8 0
-1659 -29 0
-1659 983 0
-1660 -59 0
1660 -951 1658 1659 0
-1661 -9 0
-1662 984 0
-1663 954 0
1662 1663 -951 1661 0
-1664 -10 0
-1665 985 0
-1666 -61 0
1666 -951 1664 1665 0
-1667 1086 0
-1668 986 0
-1669 956 0
-951 1669 1668 1667 0
-1670 1087 0
-1671 -33 0
-1672 -63 0
1672 -951 1670 1671 0
-1673 -1 0
-1674 -13 0
-1675 -18 0
1675 -952 1674 1673 0
-1679 -4 0
-1679 1069 0
-1680 969 0
-1681 -45 0
1681 -952 1679 1680 0
-1682 -5 0
-1682 1076 0
-1683 976 0
-1684 -52 0
-1684 950 0
-952 1683 1684 1682 0
-1685 1082 0
-1686 982 0
-1687 951 0
1686 1687 -952 1685 0
-1688 -8 0
-1688 1088 0
-1689 -29 0
-1689 988 0
-1690 -64 0
-1690 953 0
1690 -952 1688 1689 0
-1691 -9 0
-1691 1089 0
-1692 989 0
-1693 -65 0
-1693 954 0
1692 1693 -952 1691 0
-1694 -10 0
-1694 1090 0
-1695 990 0
-1696 -66 0
-1696 955 0
-952 1696 1695 1694 0
-1697 1091 0
-1698 991 0
-1699 956 0
-952 1699 1698 1697 0
-1709 -4 0
-1709 1070 0
-1710 970 0
-1711 -46 0
-1711 949 0
-953 1710 1711 1709 0
-1712 -5 0
-1712 1077 0
-1713 977 0
-1714 -53 0
-1714 950 0
-953 1713 1714 1712 0
-1715 -6 0
-1715 1083 0
-1716 -27 0
983 -1716 0
-1717 -59 0
-1717 951 0
1715 1717 -953 1716 0
-1718 1088 0
-1719 988 0
-1720 952 0
1720 1719 -953 1718 0
-1721 -9 0
-1721 1093 0
-1722 993 0
-1723 -69 0
1723 1722 -953 1721 0
-1724 -10 0
-1724 1094 0
-1725 994 0
-1726 -70 0
-1726 955 0
-953 1726 1725 1724 0
-1727 1095 0
-1728 -32 0
-1728 995 0
-1729 956 0
-953 1729 1728 1727 0
-1739 -4 0
-1739 1071 0
-1740 971 0
-1741 -47 0
-1741 949 0
-954 1740 1741 1739 0
-1742 1078 0
-1743 978 0
-1744 -54 0
-1744 950 0
1743 -954 1744 1742 0
-1745 1084 0
-1746 -27 0
-1746 984 0
-1747 -60 0
-1747 951 0
1746 1747 -954 1745 0
-1748 1089 0
-1749 -28 0
-1749 989 0
-1750 -65 0
-1750 952 0
1750 -954 1749 1748 0
-1751 1093 0
-1752 -29 0
-1752 993 0
-1753 953 0
1753 -954 1752 1751 0
-1754 1097 0
-1755 997 0
-1756 955 0
-954 1756 1755 1754 0
-1760 1099 0
-1772 1079 0
-1773 979 0
-1774 950 0
1773 -955 1774 1772 0
-1775 1085 0
-1776 985 0
-1777 951 0
1776 1777 -955 1775 0
-1787 1100 0
-1788 1000 0
-1789 956 0
-955 1789 1788 1787 0
-1790 1101 0
-1791 -33 0
-1792 -77 0
-955 1792 1791 1790 0
-1829 1074 0
-1830 974 0
-1831 -50 0
-1831 949 0
1829 1831 -957 1830 0
-1832 1081 0
-1833 981 0
-1834 950 0
1833 1834 -957 1832 0
-1835 1087 0
-1836 987 0
-1837 951 0
1836 1837 -957 1835 0
-1838 1092 0
-1839 992 0
-1840 952 0
1840 1838 -957 1839 0
-1844 -9 0
-1847 -10 0
-1847 1101 0
-1848 1001 0
-1849 -77 0
-1849 955 0
1849 -957 1848 1847 0
-1850 1102 0
-1851 1002 0
-1852 956 0
-957 1852 1851 1850 0
-1862 -6 0
-1862 1104 0
-1863 -36 0
-1863 968 0
-1864 -44 0
-1864 960 0
1864 1862 -958 1863 0
-1865 -7 0
-1865 1105 0
-1866 -37 0
-1866 969 0
-1867 -45 0
1867 1865 -958 1866 0
-1868 -8 0
-1868 1106 0
-1869 -38 0
-1869 970 0
-1870 -46 0
1870 1868 -958 1869 0
-1877 1109 0
-1878 -41 0
-1879 -49 0
-958 1879 1877 1878 0
1110 -1880 0
-1881 -42 0
-1882 -50 0
-1882 966 0
1880 -958 1882 1881 0
-1889 -4 0
-1890 967 0
-1891 958 0
1891 1889 1890 -959 0
-1892 1111 0
-1893 975 0
-1894 -51 0
-1894 960 0
1894 1892 1893 -959 0
-1895 -7 0
-1895 1112 0
-1896 -37 0
-1896 976 0
-1897 -52 0
1897 1896 -959 1895 0
-1901 1114 0
-1902 -39 0
-1903 -54 0
-1903 963 0
1903 1902 -959 1901 0
-1904 1115 0
-1905 -40 0
-1906 -55 0
1906 -959 1905 1904 0
-1907 1116 0
-1908 -41 0
-1909 -56 0
-1909 965 0
-959 1909 1908 1907 0
-1910 1117 0
-1911 -42 0
-1912 -57 0
-1912 966 0
1912 1910 -959 1911 0
-1913 -1 0
-1914 941 0
-1915 -17 0
1914 -960 1915 1913 0
-1919 -4 0
-1919 1104 0
-1920 968 0
-1921 958 0
1921 -960 1920 1919 0
-1922 -5 0
-1922 1111 0
-1923 -35 0
-1923 975 0
-1924 -51 0
-1924 959 0
1924 -960 1922 1923 0
-1925 -7 0
-1925 1118 0
-1926 -37 0
-1926 982 0
-1927 -58 0
961 -1927 0
1927 1926 -960 1925 0
-1928 -8 0
-1928 1119 0
-1929 -38 0
-1929 983 0
-1930 -59 0
962 -1930 0
1930 -960 1928 1929 0
-1931 -9 0
-1931 1120 0
-1932 -39 0
-1933 963 0
1933 1932 -960 1931 0
-1934 1121 0
-1935 -40 0
-1936 -61 0
-1936 964 0
1936 -960 1935 1934 0
-1937 -11 0
-1937 1122 0
-1938 -41 0
-1939 -62 0
-1939 965 0
-960 1939 1938 1937 0
-1940 1123 0
-1941 -42 0
-1942 -63 0
-1942 966 0
-960 1942 1940 1941 0
-1943 -1 0
-1944 942 0
-1945 -18 0
-961 1944 1945 1943 0
-1949 -4 0
-1949 1105 0
-1950 969 0
-1951 958 0
1951 -961 1950 1949 0
-1952 -5 0
-1952 1112 0
-1953 976 0
-1954 -52 0
-1954 959 0
1954 1953 -961 1952 0
-1955 -6 0
-1955 1118 0
-1956 -36 0
-1956 982 0
-58 -1957 0
-1957 960 0
1957 1955 -961 1956 0
-1958 -8 0
1124 -1958 0
-1959 -38 0
-1959 988 0
-64 -1960 0
-1960 962 0
1960 -961 1958 1959 0
-1961 1125 0
-1962 -39 0
-1963 -65 0
1963 1962 -961 1961 0
-1964 1126 0
-1965 -40 0
-1966 -66 0
-1966 964 0
1966 -961 1965 1964 0
-1967 -11 0
-1967 1127 0
-1968 -41 0
-1969 -67 0
-1969 965 0
-961 1969 1968 1967 0
1128 -1970 0
-1971 -42 0
-1972 -68 0
-1972 966 0
-961 1972 1970 1971 0
-1973 -1 0
-1974 943 0
-1975 -19 0
-962 1974 1975 1973 0
-1979 -4 0
-1979 1106 0
-1980 970 0
-1981 -46 0
-1981 958 0
1981 -962 1980 1979 0
-1982 -5 0
-1982 1113 0
-1983 977 0
-1984 -53 0
-1984 959 0
1984 1983 -962 1982 0
-1985 -6 0
-1985 1119 0
-1986 -36 0
-1986 983 0
-1987 960 0
1987 1986 -962 1985 0
-1988 -7 0
-1988 1124 0
-1989 -37 0
-1989 988 0
-64 -1990 0
-1990 961 0
1990 1989 -962 1988 0
-1991 1129 0
-1992 -39 0
-1993 -69 0
-1993 963 0
1993 1992 -962 1991 0
-1997 -11 0
1131 -1997 0
-1998 -41 0
-1999 -71 0
-1999 965 0
-962 1999 1997 1998 0
1132 -2000 0
-2001 -42 0
-2002 -72 0
-2002 966 0
-962 2002 2001 2000 0
-2003 -1 0
-2004 944 0
-2005 -20 0
2004 -963 2005 2003 0
-2009 -4 0
-2009 1107 0
971 -2010 0
-2011 -47 0
-2011 958 0
2011 -963 2010 2009 0
-2012 -5 0
-2012 1114 0
-2013 978 0
-2014 -54 0
-2014 959 0
2014 -963 2012 2013 0
-2015 -6 0
-2015 1120 0
-2016 984 0
-2017 -60 0
-2017 960 0
2017 2015 -963 2016 0
-2018 -7 0
-2018 1125 0
-2019 -37 0
-2019 989 0
-2020 -65 0
-2020 961 0
2020 2018 -963 2019 0
-2021 1129 0
-2022 -38 0
-2022 993 0
-2023 -69 0
-2023 962 0
2023 2021 -963 2022 0
-2024 1133 0
-2025 -40 0
-2026 964 0
2026 -963 2025 2024 0
-2027 -11 0
1134 -2027 0
-2028 -41 0
-2029 965 0
-963 2029 2027 2028 0
1135 -2030 0
-2031 -42 0
-2032 966 0
-963 2032 2031 2030 0
-2033 -1 0
-2034 945 0
-2035 -21 0
-964 2035 2034 2033 0
-2039 -4 0
-2039 1108 0
-2040 972 0
-2041 958 0
2041 2040 -964 2039 0
-2042 -5 0
-2042 1115 0
-2043 979 0
-2044 -55 0
-2044 959 0
2044 2042 -964 2043 0
-2045 1121 0
-2046 985 0
-2047 -61 0
-2047 960 0
2047 2046 -964 2045 0
-2048 1126 0
-2049 990 0
-2050 961 0
2050 2049 -964 2048 0
-2051 -8 0
-2051 1130 0
-2052 -38 0
-2052 994 0
-2053 -70 0
-2053 962 0
2053 2051 -964 2052 0
-2054 1133 0
-2055 -39 0
-2056 -73 0
-2056 963 0
2056 2054 -964 2055 0
-2057 -11 0
-2057 1136 0
-2058 -41 0
-2058 1000 0
-2059 965 0
-964 2059 2057 2058 0
1137 -2060 0
-2061 -42 0
-2062 966 0
2062 -964 2061 2060 0
-2063 -1 0
-2064 946 0
-2065 -22 0
-965 2065 2064 2063 0
-2069 -4 0
-2069 1109 0
-2070 973 0
-2071 -49 0
-2071 958 0
2071 2070 -965 2069 0
-2072 -5 0
-2072 1116 0
-2073 -35 0
-2073 980 0
-2074 -56 0
-2074 959 0
2074 2072 -965 2073 0
-2075 -6 0
-2075 1122 0
-2076 986 0
-2077 -62 0
-2077 960 0
2077 2075 -965 2076 0
-2078 -7 0
-2078 1127 0
-2079 -37 0
-2079 991 0
-2080 -67 0
-2080 961 0
2080 2078 -965 2079 0
-2081 1131 0
-2082 -38 0
-2083 962 0
2083 2081 -965 2082 0
-2087 -10 0
-2087 1136 0
-2088 -40 0
-2089 964 0
2089 2087 2088 -965 0
-2090 1138 0
-2091 -42 0
-2092 -78 0
-2092 966 0
2092 2091 -965 2090 0
-2096 -2 0
-2097 957 0
-2098 -33 0
-966 2097 2098 2096 0
-2099 -4 0
-2099 1110 0
-2100 974 0
-2101 -50 0
-2101 958 0
-966 2100 2101 2099 0
-2102 -5 0
-2102 1117 0
-2103 981 0
-2104 959 0
2104 2103 -966 2102 0
-2105 -6 0
-2105 1123 0
-2106 987 0
-2107 -63 0
-2107 960 0
2107 2105 -966 2106 0
-2108 -7 0
-2108 1128 0
-2109 -37 0
-2109 992 0
-2110 -68 0
2110 2108 -966 2109 0
-2111 -8 0
1132 -2111 0
-2112 -38 0
-2112 996 0
-2113 -72 0
-2113 962 0
2113 -966 2111 2112 0
-2114 -9 0
1135 -2114 0
-2115 -39 0
-2116 963 0
2116 2114 -966 2115 0
1137 -2117 0
-2118 -40 0
-2119 964 0
2119 -966 2117 2118 0
-2120 1138 0
-2121 -41 0
-2122 965 0
-966 2122 2120 2121 0
-2123 -1 0
-2124 940 0
-2125 -16 0
2124 -967 2125 2123 0
-2129 1103 0
-2130 959 0
-2131 958 0
2129 2131 -967 2130 0
-2141 1142 0
-2142 -47 0
-2142 978 0
-2143 -54 0
2143 2142 -967 2141 0
-2144 -10 0
-2144 1143 0
-2145 -48 0
-2145 979 0
-2146 -55 0
2146 -967 2144 2145 0
-2147 1144 0
-2148 980 0
-2149 -56 0
-2149 973 0
-967 2149 2147 2148 0
-2156 -2 0
-2157 951 0
-2158 -27 0
-2158 949 0
-968 2157 2158 2156 0
-2159 1104 0
-2160 960 0
-2161 958 0
2159 -968 2160 2161 0
-2162 -5 0
-2163 -43 0
-2163 975 0
-2164 967 0
2163 -968 2162 2164 0
-2165 1146 0
-2166 -45 0
-2167 -58 0
2167 2165 -968 2166 0
-2168 1147 0
-2169 -46 0
-2170 -59 0
2170 2168 -968 2169 0
-2175 985 0
-2177 1150 0
-2178 986 0
-2179 -62 0
-2179 973 0
-968 2178 2177 2179 0
-2180 1151 0
-2181 987 0
-2182 -63 0
-2182 974 0
2181 2182 2180 -968 0
-2183 -1 0
-2184 942 0
-2185 -18 0
-2185 939 0
-969 2184 2185 2183 0
-2186 -2 0
-2187 952 0
-2188 949 0
-969 2187 2188 2186 0
-2189 1105 0
-2190 961 0
-2191 958 0
2191 -969 2190 2189 0
-2194 -52 0
-2198 -8 0
-2198 1152 0
-2199 -46 0
-2199 988 0
-2200 -64 0
2200 -969 2198 2199 0
-2207 1155 0
-2208 991 0
-2209 -67 0
-2209 973 0
-969 2208 2207 2209 0
-2210 1156 0
-2211 -50 0
-2211 992 0
-2212 -68 0
-2212 974 0
-969 2212 2210 2211 0
-2216 -2 0
-2217 953 0
-2218 -29 0
-970 2218 2217 2216 0
-2219 1106 0
-2220 962 0
-2221 958 0
2219 2221 2220 -970 0
-2222 -5 0
-2223 -43 0
-2223 977 0
-2224 -53 0
-2224 967 0
2223 -970 2222 2224 0
-2225 1147 0
-2226 -44 0
-2227 -59 0
2226 2225 -970 2227 0
-2229 988 0
-2231 -9 0
-2231 1157 0
-2232 -47 0
-2233 -69 0
971 -2233 0
2232 2231 -970 2233 0
-2237 1159 0
-2238 -49 0
-2238 995 0
-2239 -71 0
-2239 973 0
-970 2238 2237 2239 0
-2240 1160 0
-2241 996 0
-2242 -72 0
-2242 974 0
2242 -970 2240 2241 0
-2258 1153 0
-2259 989 0
-2260 969 0
-971 2260 2258 2259 0
-2264 1161 0
-2265 997 0
-2266 972 0
-971 2265 2266 2264 0
-2267 1162 0
-2268 998 0
-2269 973 0
-971 2269 2267 2268 0
-2273 -1 0
-2274 945 0
-2275 -21 0
-972 2275 2274 2273 0
-2283 979 0
-2294 -9 0
-2294 1161 0
-2295 -47 0
-2295 997 0
-2296 971 0
2296 2295 2294 -972 0
-2297 1164 0
-2298 1000 0
-2299 973 0
-972 2299 2297 2298 0
-2301 1001 0
-2303 -1 0
-2304 946 0
-2305 -22 0
-2305 939 0
-973 2305 2304 2303 0
-2306 -2 0
-2307 956 0
-2308 949 0
-973 2307 2308 2306 0
-2309 1109 0
-2312 -5 0
-2312 1144 0
-2313 -43 0
-2313 980 0
-2314 -56 0
2313 -973 2312 2314 0
-2315 1150 0
-2316 -44 0
-2317 968 0
2317 2316 -973 2315 0
-2318 1155 0
-2319 -45 0
-2319 991 0
-2320 -67 0
-2320 969 0
2320 -973 2319 2318 0
-2324 1162 0
-2325 998 0
-2326 971 0
2326 -973 2325 2324 0
-2327 1164 0
-2328 1000 0
-2329 972 0
2329 -973 2328 2327 0
-2330 1166 0
-2331 1002 0
-2332 974 0
-973 2330 2331 2332 0
-2333 -1 0
-2334 947 0
-2335 939 0
-974 2335 2334 2333 0
-2336 -2 0
-2337 957 0
-2338 -33 0
-974 2337 2338 2336 0
-2340 966 0
-2342 -5 0
-2342 1145 0
-2343 -43 0
-2343 981 0
-2344 967 0
2344 -974 2342 2343 0
-2345 -6 0
-2345 1151 0
-2346 -44 0
-2346 987 0
-2347 -63 0
-2347 968 0
2346 2345 -974 2347 0
-2348 1156 0
-2349 992 0
-2350 -68 0
-2350 969 0
2349 2348 -974 2350 0
-2351 -8 0
-2351 1160 0
-2352 -46 0
-2352 996 0
-2353 -72 0
-2353 970 0
2353 -974 2351 2352 0
-2357 1165 0
-2358 1001 0
-2359 972 0
2359 -974 2357 2358 0
-2360 1166 0
-2361 -49 0
-2361 1002 0
-2362 -78 0
-2362 973 0
-974 2361 2360 2362 0
-2366 -2 0
-2367 951 0
-2368 950 0
2367 -975 2368 2366 0
-2371 959 0
-2372 -4 0
-2373 968 0
-2374 967 0
2374 2373 -975 2372 0
-2375 1167 0
-2376 982 0
-2377 976 0
2377 2376 -975 2375 0
-2378 1168 0
-2379 -53 0
-2379 983 0
-2380 -59 0
-2380 977 0
2380 2378 -975 2379 0
-2381 1169 0
-2382 -54 0
-2383 978 0
2382 2383 -975 2381 0
-2384 1170 0
-2385 985 0
-2386 -61 0
2386 -975 2384 2385 0
-2387 1171 0
-2388 986 0
-2389 -62 0
2389 2388 2387 -975 0
-2390 1172 0
-2391 -57 0
-2391 987 0
-2392 -63 0
2391 -975 2390 2392 0
-2396 -2 0
-2397 -26 0
-2397 952 0
-2398 -28 0
-2398 950 0
-976 2397 2398 2396 0
-2399 1112 0
-2400 961 0
-2401 959 0
2399 2400 -976 2401 0
-2408 1173 0
-2409 988 0
-2410 -64 0
-2410 977 0
2410 2408 -976 2409 0
-2411 -9 0
-2411 1174 0
-2412 -54 0
-2413 -65 0
2413 2412 2411 -976 0
-2414 -10 0
-2414 1175 0
-2415 -55 0
-2415 990 0
-2416 979 0
2416 -976 2414 2415 0
-2417 1176 0
-2418 -56 0
-2418 991 0
-2419 -67 0
-2419 980 0
-976 2418 2417 2419 0
-2420 1177 0
-2421 -57 0
-2421 992 0
-2422 -68 0
2422 -976 2420 2421 0
-2426 -2 0
-2427 953 0
-2428 950 0
2427 -977 2428 2426 0
-2429 1113 0
-2430 962 0
-2431 959 0
2429 2430 -977 2431 0
-2432 -4 0
-2433 970 0
-2434 967 0
2433 -977 2432 2434 0
-2441 -9 0
-2441 1178 0
-2442 -54 0
-2443 -69 0
-2443 978 0
2442 2441 -977 2443 0
-2444 -10 0
-2445 994 0
-2446 979 0
2445 -977 2444 2446 0
-2450 1181 0
-2451 996 0
-2452 -72 0
-2452 981 0
2452 -977 2450 2451 0
-2456 -2 0
-2457 954 0
-2458 950 0
2457 -978 2458 2456 0
-2462 -4 0
-2463 -43 0
-2464 -47 0
2464 2463 -978 2462 0
-2465 -6 0
-2465 1169 0
-2466 -51 0
-2467 -60 0
-2467 975 0
2466 2467 -978 2465 0
-2474 1182 0
-2475 -55 0
-2476 979 0
2476 -978 2474 2475 0
-2477 1183 0
-2478 998 0
-2479 980 0
-978 2478 2477 2479 0
-2480 1184 0
-2481 999 0
-2482 981 0
-978 2481 2480 2482 0
-2486 -2 0
-2487 955 0
-2488 950 0
-979 2487 2488 2486 0
-2492 1143 0
-2493 -43 0
-2494 -48 0
2493 2494 2492 -979 0
-2495 1170 0
-2496 -51 0
-2496 985 0
-2497 -61 0
-2497 975 0
2496 2497 -979 2495 0
-2498 1175 0
-2499 990 0
-2500 -66 0
2500 2498 -979 2499 0
-2501 -8 0
-2502 994 0
-2503 977 0
2503 -979 2501 2502 0
-2504 1182 0
-2505 -54 0
-2506 978 0
2506 2504 -979 2505 0
-2507 1185 0
-2508 -56 0
-2508 1000 0
-2509 980 0
-979 2509 2507 2508 0
-2519 1116 0
-2520 965 0
-2521 -41 0
-980 2519 2521 2520 0
-2525 -6 0
-2525 1171 0
-2526 -51 0
-2526 986 0
-2527 -62 0
-2527 975 0
2527 -980 2526 2525 0
-2528 -7 0
-2528 1176 0
-2529 -52 0
-2529 991 0
-2530 -67 0
-2530 976 0
2530 2528 -980 2529 0
-2531 -8 0
-2531 1180 0
-2532 -53 0
-2533 -71 0
-2533 977 0
2533 -980 2532 2531 0
-2534 1183 0
-2535 -54 0
-2535 998 0
-2536 978 0
2534 -980 2535 2536 0
-2537 1185 0
-2538 1000 0
-2539 979 0
2539 -980 2538 2537 0
1117 -2549 0
-2550 966 0
-2551 -42 0
2549 -981 2550 2551 0
-2555 -6 0
-2555 1172 0
-2556 -51 0
-2556 987 0
-2557 -63 0
-2557 975 0
-981 2556 2555 2557 0
-2558 1177 0
-2559 -52 0
-2560 976 0
2559 -981 2560 2558 0
-2561 -8 0
-2561 1181 0
-2562 -53 0
-2562 996 0
-2563 -72 0
-2563 977 0
-981 2563 2561 2562 0
-2564 -9 0
-2564 1184 0
-2565 -54 0
-2565 999 0
-2566 -75 0
-2566 978 0
-981 2564 2565 2566 0
-2567 -10 0
-2567 1186 0
-2568 -55 0
-2568 1001 0
-2569 979 0
-981 2568 2567 2569 0
-2570 1187 0
-2571 -56 0
-2571 1002 0
-2572 980 0
-981 2571 2570 2572 0
-2576 -2 0
-2577 -27 0
-2577 952 0
-2578 951 0
2577 2578 -982 2576 0
-2582 -4 0
-2583 969 0
-2584 968 0
2584 -982 2582 2583 0
-2588 1188 0
-2589 -59 0
-2590 -64 0
-2590 983 0
2590 2588 -982 2589 0
-2591 -9 0
-2591 1189 0
-2592 -60 0
-2592 989 0
-2593 -65 0
-2593 984 0
2592 2591 -982 2593 0
-2594 -10 0
-2595 990 0
-2596 985 0
2596 2595 -982 2594 0
-2597 1191 0
-2598 -62 0
-2598 991 0
-2599 -67 0
-2599 986 0
-982 2598 2597 2599 0
-2600 1192 0
-2601 -63 0
-2601 992 0
-2602 -68 0
-2602 987 0
2602 -982 2600 2601 0
-2603 -1 0
-2604 943 0
-2605 941 0
2604 2605 -983 2603 0
-2615 -5 0
-2616 977 0
-2617 975 0
2616 -983 2615 2617 0
-2618 -7 0
-2618 1188 0
-2619 -58 0
-2619 988 0
-2620 -64 0
-2620 982 0
2619 2618 -983 2620 0
-2621 -9 0
-2621 1193 0
-2622 -60 0
-2622 993 0
-2623 984 0
2622 2621 -983 2623 0
-2624 -10 0
-2625 994 0
-2626 985 0
2626 2625 -983 2624 0
-2629 986 0
-2630 1196 0
-2631 996 0
-2632 -72 0
-2632 987 0
2632 -983 2630 2631 0
-2636 -2 0
-2637 954 0
-2638 951 0
2637 2638 -984 2636 0
-2642 -4 0
-2643 -44 0
971 -2643 0
-2644 -47 0
-2644 968 0
2643 -984 2642 2644 0
-2645 -5 0
-2648 -7 0
-2648 1189 0
-2649 989 0
-2650 -65 0
-2650 982 0
2650 2648 -984 2649 0
-2651 1193 0
-2652 993 0
-2653 -69 0
2653 2651 -984 2652 0
-2654 -10 0
-2654 1197 0
-2655 -61 0
-2655 997 0
-2656 985 0
2655 2656 -984 2654 0
-2660 1199 0
-2661 -63 0
-2678 1190 0
-2687 1200 0
-2688 -62 0
-2689 986 0
-985 2689 2687 2688 0
-2690 1201 0
-2691 -63 0
-2692 987 0
2692 -985 2690 2691 0
-2702 -4 0
-2702 1150 0
-2703 -44 0
-2704 -49 0
-986 2702 2703 2704 0
-2708 -7 0
-2708 1191 0
-2709 -58 0
-2709 991 0
-2710 -67 0
-2710 982 0
-986 2708 2709 2710 0
-2717 -10 0
-2718 -61 0
-2718 1000 0
-2719 -76 0
-2719 985 0
-986 2719 2718 2717 0
-2729 1123 0
-2730 966 0
-2731 -42 0
2729 2730 -987 2731 0
-2732 -4 0
-2733 -44 0
-2734 -50 0
-2734 968 0
2733 -987 2734 2732 0
-2738 1192 0
-2739 992 0
-2740 -68 0
2739 2738 -987 2740 0
-2741 1196 0
-2742 996 0
-2743 -72 0
2743 2741 -987 2742 0
-2744 -9 0
-2745 999 0
-2746 984 0
2744 2745 -987 2746 0
-2750 1202 0
-2751 -62 0
-2751 1002 0
-2752 986 0
-987 2751 2750 2752 0
-2753 -1 0
-2754 943 0
-2755 942 0
2754 2755 -988 2753 0
-2762 -4 0
-2763 970 0
-2764 969 0
2763 -988 2762 2764 0
-2765 -5 0
-2765 1173 0
-2766 977 0
-2767 976 0
2766 -988 2765 2767 0
-2768 1188 0
-2769 983 0
-2770 -59 0
-2770 982 0
2769 2768 -988 2770 0
-2771 -9 0
-2771 1203 0
-2772 993 0
-2773 -69 0
-2773 989 0
2772 2771 -988 2773 0
-2774 -10 0
-2775 994 0
-2776 -70 0
-2776 990 0
2775 -988 2774 2776 0
-2780 1206 0
-2781 -68 0
-2781 996 0
-2782 -72 0
-2782 992 0
2781 -988 2780 2782 0
-2783 -1 0
-2784 -18 0
-2784 944 0
-2785 942 0
-989 2784 2785 2783 0
-2786 -2 0
-2787 954 0
-2788 952 0
2787 2788 -989 2786 0
-2792 -4 0
-2793 971 0
-2794 969 0
2793 -989 2792 2794 0
-2795 -5 0
-2796 978 0
-2797 976 0
2796 -989 2795 2797 0
-2798 -6 0
-2798 1189 0
-2799 -58 0
-2799 984 0
-2800 -60 0
-2800 982 0
2799 2800 -989 2798 0
-2801 -8 0
-2801 1203 0
-2802 -64 0
-2802 993 0
-2803 -69 0
-2803 988 0
2803 -989 2801 2802 0
-2804 -10 0
-2805 997 0
-2806 990 0
2805 2806 -989 2804 0
-2810 1209 0
-2811 -68 0
-2812 992 0
2811 -989 2810 2812 0
-2813 -1 0
-2814 -18 0
-2814 945 0
-2815 942 0
-990 2815 2814 2813 0
-2822 -4 0
-2823 -45 0
-2824 969 0
2823 -990 2822 2824 0
-2825 -5 0
-2825 1175 0
-2826 -52 0
-2826 979 0
-2827 -55 0
-2827 976 0
2827 -990 2825 2826 0
-2828 1190 0
-2829 985 0
-2830 -61 0
-2830 982 0
2829 2830 -990 2828 0
-2834 -9 0
-2835 997 0
-2836 989 0
2836 -990 2834 2835 0
-2840 1211 0
-2841 -68 0
-2842 992 0
2841 -990 2840 2842 0
-2849 1127 0
-2850 -37 0
-2850 965 0
-2851 -41 0
-991 2849 2851 2850 0
-2861 1205 0
-2862 -64 0
-2863 988 0
2861 -991 2862 2863 0
-2864 1208 0
-2865 998 0
-2866 -74 0
-2866 989 0
2866 2864 -991 2865 0
-2869 990 0
-2871 -68 0
-2872 992 0
-2885 1177 0
-2886 981 0
-2887 -57 0
-2887 976 0
-992 2886 2887 2885 0
-2888 -6 0
-2888 1192 0
987 -2889 0
-2890 -63 0
-2890 982 0
2889 -992 2888 2890 0
-2896 989 0
-2900 1212 0
-2901 -67 0
-2901 1002 0
-2902 991 0
-992 2902 2900 2901 0
-2903 -1 0
-2904 -19 0
-2904 944 0
-2905 -20 0
-2905 943 0
-993 2905 2904 2903 0
-2912 -4 0
-2913 971 0
-2914 970 0
2914 2913 -993 2912 0
-2915 -5 0
-2916 978 0
-2917 977 0
2916 -993 2915 2917 0
-2921 1203 0
-2922 -64 0
-2922 989 0
-2923 -65 0
-2923 988 0
2923 2921 -993 2922 0
-2924 -10 0
-2924 1213 0
-2925 -70 0
-2925 997 0
-2926 -73 0
-2926 994 0
2926 -993 2924 2925 0
-2927 1214 0
-2928 -71 0
-2929 -74 0
-2929 995 0
-993 2929 2927 2928 0
-2930 1215 0
-2931 -72 0
-2931 999 0
-2932 -75 0
2932 -993 2930 2931 0
-2933 -1 0
-2934 -19 0
-2935 943 0
-994 2934 2935 2933 0
-2936 -2 0
-2937 955 0
-2938 953 0
-994 2937 2938 2936 0
-2939 1130 0
-2940 -38 0
-2940 964 0
-2941 -40 0
2939 2940 -994 2941 0
-2942 -4 0
-2943 -46 0
-2944 -48 0
2944 -994 2942 2943 0
-2945 -5 0
-2946 -53 0
-2947 -55 0
2946 -994 2945 2947 0
-2951 1204 0
-2952 -64 0
-2952 990 0
-2953 988 0
2953 2951 -994 2952 0
-2954 -9 0
-2954 1213 0
-2955 997 0
-2956 -73 0
-2956 993 0
2956 -994 2954 2955 0
-2957 1216 0
-2958 -71 0
-2958 1000 0
-2959 -76 0
-2959 995 0
-994 2959 2957 2958 0
-2960 1217 0
-2961 -72 0
-2962 996 0
-994 2962 2960 2961 0
-2963 -1 0
-2964 946 0
-2965 -22 0
-2965 943 0
-995 2965 2964 2963 0
-2966 -2 0
-2967 956 0
-2968 953 0
-995 2967 2968 2966 0
1131 -2969 0
-2970 965 0
-2971 -41 0
2969 -995 2970 2971 0
-2975 -5 0
-2975 1180 0
-2976 -53 0
-2976 980 0
-2977 -56 0
-2977 977 0
2976 -995 2975 2977 0
-2978 -6 0
-2978 1195 0
-2979 986 0
-2980 -62 0
-2980 983 0
2980 2978 -995 2979 0
-2981 1205 0
-2982 991 0
-2983 -67 0
-2983 988 0
2983 2981 -995 2982 0
-2984 -9 0
-2984 1214 0
-2985 -69 0
-2985 998 0
-2986 993 0
2986 -995 2984 2985 0
-2987 -10 0
-2987 1216 0
-2988 -70 0
-2988 1000 0
-2989 994 0
2989 -995 2988 2987 0
-2990 1218 0
-2991 -72 0
-2991 1002 0
-2992 996 0
-995 2992 2990 2991 0
-2993 -1 0
-2994 947 0
-2995 943 0
-996 2995 2994 2993 0
-3011 1206 0
-3014 1215 0
-3015 -69 0
-3015 999 0
-3016 -75 0
-3016 993 0
3016 3014 -996 3015 0
-3021 -71 0
-3029 1133 0
-3030 -39 0
-3031 -40 0
3029 -997 3030 3031 0
-3034 -48 0
-3038 -6 0
-3038 1197 0
-3039 -60 0
-3039 985 0
-3040 984 0
-997 3039 3040 3038 0
-3041 1207 0
-3042 990 0
-3043 989 0
-997 3042 3041 3043 0
-3047 1219 0
-3048 -74 0
-3048 1000 0
-3049 -76 0
-3049 998 0
-997 3049 3047 3048 0
-3050 1220 0
-3051 -75 0
-3051 1001 0
-3052 -77 0
-3052 999 0
-997 3050 3052 3051 0
-3056 -2 0
-3057 956 0
-3058 -32 0
-3058 954 0
-998 3057 3058 3056 0
-3062 -4 0
-3063 973 0
971 -3064 0
3063 -998 3062 3064 0
-3065 -5 0
-3065 1183 0
-3066 -54 0
-3066 980 0
-3067 -56 0
-3067 978 0
3066 -998 3065 3067 0
-3068 -6 0
-3069 986 0
-3070 -62 0
3070 3068 -998 3069 0
-3071 -7 0
1208 -3071 0
-3072 991 0
-3073 -67 0
-3073 989 0
3073 3071 -998 3072 0
-3076 -71 0
-3077 -10 0
-3078 -73 0
-3078 1000 0
-3079 -76 0
-3079 997 0
3079 -998 3078 3077 0
-3080 1221 0
-3081 -75 0
-3081 1002 0
-3082 -78 0
-3082 999 0
3080 -998 3081 3082 0
-3083 -1 0
-3084 947 0
-3085 944 0
-999 3085 3084 3083 0
-3086 -2 0
-3087 957 0
-3088 -33 0
-999 3087 3088 3086 0
1135 -3089 0
-3090 -39 0
-3091 -42 0
3089 3090 -999 3091 0
-3099 987 0
-3101 1209 0
-3102 992 0
-3103 -68 0
-3103 989 0
3102 3101 -999 3103 0
-3104 -8 0
-3104 1215 0
-3105 996 0
-3106 -72 0
-3106 993 0
3106 -999 3104 3105 0
-3107 1220 0
-3108 1001 0
-3109 -77 0
-999 3108 3107 3109 0
-3110 1221 0
-3111 -74 0
-3111 1002 0
-3112 -78 0
-3112 998 0
-999 3112 3110 3111 0
-3119 1136 0
-3120 -40 0
-3121 -41 0
3119 -1000 3120 3121 0
-3124 972 0
-3125 1185 0
-3126 -55 0
-3127 979 0
-1000 3126 3125 3127 0
-3128 -6 0
-3128 1200 0
-3129 -61 0
-3129 986 0
-3130 -62 0
-3130 985 0
-1000 3130 3128 3129 0
-3134 1216 0
-3135 995 0
-3136 994 0
-1000 3134 3135 3136 0
-3137 1219 0
-3139 -74 0
-3143 -1 0
-3144 947 0
-3145 945 0
-1001 3144 3145 3143 0
-3146 -2 0
-3147 957 0
-3148 -33 0
-1001 3148 3147 3146 0
-3158 -6 0
-3159 987 0
-3160 985 0
3159 3160 -1001 3158 0
-3161 -7 0
-3162 992 0
-3163 -68 0
3163 3161 -1001 3162 0
-3164 1217 0
-3165 996 0
-3166 -72 0
3166 3164 -1001 3165 0
-3167 1220 0
-3168 -73 0
-3168 999 0
-3169 -75 0
-3169 997 0
3167 -1001 3168 3169 0
-3170 1222 0
-3171 -76 0
-3171 1002 0
-3172 -78 0
-3172 1000 0
-1001 3171 3170 3172 0
-3173 -1 0
-3174 947 0
-3175 946 0
-1002 3174 3175 3173 0
-3176 -2 0
-3177 957 0
-3178 -33 0
-1002 3178 3177 3176 0
-3179 1138 0
-3180 -41 0
-3181 -42 0
3179 -1002 3181 3180 0
-3182 -4 0
-3182 1166 0
-3183 -49 0
-3183 974 0
-3184 -50 0
-3184 973 0
3183 -1002 3182 3184 0
-3185 -5 0
-3185 1187 0
-3186 -56 0
-3186 981 0
-3187 980 0
3187 -1002 3185 3186 0
-3188 -6 0
-3189 987 0
-3190 986 0
3189 3188 -1002 3190 0
-3191 1212 0
-3192 -67 0
-3193 991 0
3192 -1002 3193 3191 0
-3194 1218 0
-3195 996 0
-3196 -72 0
3194 -1002 3196 3195 0
-3197 1221 0
-3198 -74 0
-3199 998 0
3198 3197 -1002 3199 0
-3200 1222 0
-3201 1001 0
-3202 -77 0
-3202 1000 0
3201 -1002 3200 3202 0
-3206 -15 0
1058 -3206 0
-3207 -25 0
1013 -3207 0
-3208 -34 0
-3208 1004 0
3207 3206 3208 -1003 0
-3209 -16 0
1059 -3209 0
-3210 -26 0
1014 -3210 0
-3211 -35 0
-3211 1005 0
3210 3211 3209 -1003 0
-3212 -17 0
1060 -3212 0
-3213 -27 0
1015 -3213 0
-3214 -36 0
-3214 1006 0
3213 3214 3212 -1003 0
-3215 -18 0
-3215 1061 0
-3216 -28 0
1016 -3216 0
-3217 -37 0
-3217 1007 0
3215 3217 3216 -1003 0
1062 -3218 0
-3219 -29 0
1017 -3219 0
-3220 -38 0
-3220 1008 0
3218 3220 3219 -1003 0
-3221 -20 0
1063 -3221 0
-3222 -30 0
1018 -3222 0
-3223 -39 0
-3223 1009 0
3223 3221 3222 -1003 0
-3224 -21 0
1064 -3224 0
-3225 -31 0
1019 -3225 0
-3226 -40 0
-3226 1010 0
3224 3225 3226 -1003 0
-3227 -22 0
1020 -3228 0
-3229 -41 0
3229 3227 3228 -1003 0
-3230 1066 0
-3239 1067 0
-3240 1022 0
-3241 -43 0
-3241 1005 0
-1004 3240 3239 3241 0
-3242 -17 0
-3254 -21 0
-3254 1072 0
-3255 1027 0
-3256 -48 0
-3256 1010 0
-1004 3254 3255 3256 0
-3257 -22 0
-3257 1073 0
-3258 -32 0
-3258 1028 0
-3259 -49 0
-3259 1011 0
-1004 3257 3258 3259 0
-3260 1074 0
-3261 -33 0
-3262 -50 0
-1004 3262 3261 3260 0
-3263 -1 0
-3264 -2 0
-3265 -5 0
-1005 3265 3264 3263 0
-3269 1067 0
-3270 1022 0
-3271 1004 0
-1005 3271 3270 3269 0
-3272 1075 0
-3273 -27 0
-3274 -51 0
3274 3273 -1005 3272 0
-3275 1076 0
-3276 -28 0
-3277 -52 0
3275 -1005 3276 3277 0
-3278 1077 0
-3279 -29 0
-3280 -53 0
-3280 1008 0
3278 -1005 3279 3280 0
-3281 1078 0
-3282 1033 0
-3283 1009 0
3282 -1005 3281 3283 0
-3284 1079 0
-3285 1034 0
-3286 1010 0
-1005 3286 3285 3284 0
-3290 1081 0
-3291 -33 0
-3292 -57 0
-3292 1012 0
-1005 3290 3291 3292 0
-3293 -1 0
-3294 -2 0
-3295 -6 0
3295 -1006 3294 3293 0
-3299 1068 0
-3300 1023 0
-3301 1004 0
3299 -1006 3301 3300 0
-3302 -16 0
-3302 1075 0
-3303 1030 0
-3304 -51 0
-3304 1005 0
-1006 3303 3302 3304 0
-3305 1082 0
-3306 -28 0
-3307 -58 0
3307 -1006 3306 3305 0
-3308 -19 0
-3308 1083 0
-3309 -29 0
-3309 1038 0
-3310 -59 0
-3310 1008 0
3310 -1006 3308 3309 0
-3311 -20 0
-3311 1084 0
-3312 1039 0
-3313 -60 0
-3313 1009 0
3312 -1006 3311 3313 0
-3314 -21 0
-3314 1085 0
-3315 1040 0
-3316 -61 0
-3316 1010 0
-1006 3314 3315 3316 0
-3317 -22 0
-3317 1086 0
-3318 -32 0
-3318 1041 0
-3319 -62 0
-3319 1011 0
-1006 3317 3318 3319 0
-3320 1087 0
-3321 -33 0
-3322 -63 0
-3322 1012 0
-1006 3320 3321 3322 0
-3323 -1 0
-3324 -2 0
-3325 -7 0
3325 -1007 3324 3323 0
-3329 1069 0
-3330 1024 0
-3331 -45 0
-3331 1004 0
3329 -1007 3330 3331 0
-3332 -16 0
-3332 1076 0
-3333 1031 0
-3334 -52 0
-3334 1005 0
3333 -1007 3332 3334 0
-3335 -17 0
-3335 1082 0
-3336 1037 0
-3337 -58 0
-3337 1006 0
3337 -1007 3335 3336 0
-3338 -19 0
-3338 1088 0
-3339 -29 0
-3339 1043 0
-3340 -64 0
-3340 1008 0
3340 -1007 3338 3339 0
-3341 -20 0
-3341 1089 0
-3342 1044 0
-3343 1009 0
3342 -1007 3341 3343 0
-3344 -21 0
-3344 1090 0
-3345 1045 0
-3346 -66 0
-3346 1010 0
-1007 3344 3345 3346 0
-3347 -22 0
-3348 1046 0
-3349 -67 0
-3349 1011 0
-1007 3347 3348 3349 0
-3350 1092 0
-3351 -33 0
-3352 -68 0
-3352 1012 0
-1007 3352 3350 3351 0
-3359 1070 0
-3360 1025 0
-3361 1004 0
3359 -1008 3361 3360 0
-3362 -16 0
-3362 1077 0
-3363 1032 0
-3364 -53 0
-3364 1005 0
3363 -1008 3362 3364 0
-3365 -17 0
-3365 1083 0
-3366 -27 0
-3366 1038 0
-3367 -59 0
-3367 1006 0
3366 -1008 3365 3367 0
-3368 -18 0
-3368 1088 0
-3369 -28 0
-3369 1043 0
-3370 -64 0
-3370 1007 0
3368 -1008 3369 3370 0
-3371 1093 0
-3372 1048 0
-3373 -69 0
-3373 1009 0
3372 3371 -1008 3373 0
-3374 -21 0
-3374 1094 0
-3375 1049 0
-3376 1010 0
-1008 3374 3375 3376 0
-3377 -22 0
-3378 1050 0
-71 -3379 0
-3379 1011 0
-1008 3377 3378 3379 0
-3389 1071 0
-3390 1026 0
-3391 -47 0
-3391 1004 0
3389 -1009 3391 3390 0
-3392 -16 0
-3392 1078 0
-3393 1033 0
-3394 1005 0
3393 -1009 3392 3394 0
-3395 -17 0
-3398 -18 0
-3398 1089 0
-3399 -28 0
-3399 1044 0
-3400 -65 0
-3400 1007 0
3400 -1009 3399 3398 0
-3407 -22 0
-3413 -1 0
-3414 -2 0
-3415 -10 0
3415 -1010 3414 3413 0
-3419 1072 0
-3420 1027 0
-3421 1004 0
3419 -1010 3421 3420 0
-3428 1090 0
-3429 -28 0
-3430 -66 0
3428 -1010 3429 3430 0
-3440 1101 0
-3441 -33 0
-3442 -77 0
-1010 3442 3441 3440 0
-3449 1073 0
-3450 1028 0
-3451 1004 0
3450 -1011 3449 3451 0
-3452 1080 0
-3453 1035 0
-3454 1005 0
3453 -1011 3452 3454 0
-3455 1086 0
-3456 1041 0
-3457 1006 0
3457 -1011 3455 3456 0
-3461 1095 0
-3462 1050 0
-3463 1008 0
3463 -1011 3461 3462 0
-3469 1010 0
-3470 1102 0
-3471 -33 0
-3472 -78 0
-3472 1012 0
3472 -1011 3470 3471 0
-3479 1074 0
-3480 1029 0
-3481 1004 0
3479 3480 -1012 3481 0
-3482 -16 0
-3482 1081 0
-3483 1036 0
-3484 1005 0
3483 3482 -1012 3484 0
-3485 -17 0
-3485 1087 0
-3486 1042 0
-3487 -63 0
-3487 1006 0
3485 3486 -1012 3487 0
-3488 1092 0
-3489 -28 0
-3490 1007 0
3488 3489 -1012 3490 0
1096 -3491 0
-3492 1051 0
-3493 1008 0
3491 3492 -1012 3493 0
-3494 1099 0
-3495 1054 0
-3496 1009 0
3494 3495 -1012 3496 0
-3497 1101 0
-3498 1056 0
-3499 1010 0
3499 -1012 3498 3497 0
-3500 -22 0
-3501 1057 0
-3502 -78 0
-1012 3500 3501 3502 0
-3503 -1 0
-3504 939 0
-3505 -4 0
3505 3504 -1013 3503 0
-3509 -16 0
-3509 1103 0
-3510 1022 0
-3511 -43 0
-3511 1014 0
3511 3510 3509 -1013 0
-3512 -17 0
1104 -3512 0
-3513 1023 0
-3514 -44 0
-3514 1015 0
3514 3512 -1013 3513 0
-3515 -18 0
-3515 1105 0
-3516 -37 0
-3516 1024 0
-3517 -45 0
-3517 1016 0
3517 3516 -1013 3515 0
-3518 -19 0
-3518 1106 0
-3519 -38 0
-3519 1025 0
-3520 -46 0
-3520 1017 0
3519 3518 -1013 3520 0
-3521 1107 0
-3522 -39 0
-3523 -47 0
3523 3521 -1013 3522 0
-3524 1108 0
-3525 -40 0
-3526 -48 0
-3526 1019 0
3526 -1013 3524 3525 0
-3527 1109 0
-3528 -41 0
-3529 1020 0
3529 -1013 3528 3527 0
1110 -3530 0
-3531 -42 0
-3532 -50 0
-3532 1021 0
-1013 3532 3530 3531 0
-3533 -1 0
-3534 940 0
-3535 -5 0
3534 -1014 3535 3533 0
-3539 1103 0
-3540 1022 0
-3541 1013 0
3541 3539 -1014 3540 0
-3542 -17 0
1111 -3542 0
-3543 1030 0
-3544 1015 0
3544 3543 -1014 3542 0
-3545 -18 0
-3545 1112 0
-3546 1031 0
-3547 -52 0
-3547 1016 0
3547 3546 -1014 3545 0
-3548 1113 0
-3549 -38 0
-3550 -53 0
3550 3549 -1014 3548 0
-3551 1114 0
-3552 -39 0
-54 -3553 0
3553 3551 -1014 3552 0
1115 -3554 0
-3555 -40 0
-3556 -55 0
-3556 1019 0
3556 -1014 3554 3555 0
-3557 1116 0
-3558 -41 0
1020 -3559 0
3559 -1014 3557 3558 0
-3560 1117 0
-3561 -42 0
-3562 -57 0
-3562 1021 0
3562 -1014 3560 3561 0
-3563 -1 0
-3564 941 0
-3565 -6 0
-1015 3564 3565 3563 0
-3566 -13 0
-3567 1006 0
-3568 -27 0
3567 3568 -1015 3566 0
-3569 -15 0
1104 -3569 0
-3570 1023 0
-3571 -44 0
-3571 1013 0
3571 -1015 3569 3570 0
-3572 -16 0
1111 -3572 0
-3573 1030 0
-3574 -51 0
-3574 1014 0
3574 -1015 3572 3573 0
-3575 -18 0
-3575 1118 0
-3576 -37 0
-3576 1037 0
-3577 -58 0
-3577 1016 0
3577 3576 -1015 3575 0
-3578 -19 0
-3578 1119 0
-3579 -38 0
-3580 -59 0
-3580 1017 0
3580 3579 -1015 3578 0
1120 -3581 0
-3582 -39 0
-3583 -60 0
-3583 1018 0
3583 3581 -1015 3582 0
1121 -3584 0
-3585 -40 0
-3586 1019 0
3586 -1015 3584 3585 0
-3587 1122 0
-3588 -41 0
-3589 -62 0
-3589 1020 0
3589 -1015 3587 3588 0
1123 -3590 0
-3591 -42 0
-3592 -63 0
-3592 1021 0
-1015 3592 3590 3591 0
-3593 -1 0
-3594 942 0
-3595 -7 0
3594 -1016 3595 3593 0
-3599 -15 0
1105 -3599 0
-3600 1024 0
-3601 -45 0
-3601 1013 0
3601 -1016 3599 3600 0
-3602 -16 0
-3602 1112 0
-3603 1031 0
-3604 -52 0
-3604 1014 0
3604 -1016 3602 3603 0
-3605 -17 0
-3605 1118 0
-3606 1037 0
-3607 1015 0
3607 -1016 3605 3606 0
-3608 1124 0
-3609 -38 0
-3609 1043 0
-3610 -64 0
-3610 1017 0
3608 3609 -1016 3610 0
-3611 -20 0
-3611 1125 0
-3612 -39 0
-3613 -65 0
-3613 1018 0
3613 -1016 3611 3612 0
-3614 1126 0
-3615 -40 0
-3616 1019 0
3616 -1016 3614 3615 0
-3617 1127 0
-3618 -41 0
-3619 -67 0
3619 -1016 3617 3618 0
-3620 1128 0
-3621 -42 0
-3622 -68 0
-3622 1021 0
-1016 3622 3621 3620 0
-3623 -1 0
-3624 943 0
-3625 -8 0
3624 -1017 3625 3623 0
-3629 1106 0
-3630 1025 0
-3631 -46 0
3629 3631 -1017 3630 0
-3632 -16 0
-3632 1113 0
-3633 1032 0
-3634 -53 0
-3634 1014 0
3634 -1017 3632 3633 0
-3635 -17 0
-3635 1119 0
-3636 1038 0
-3637 -59 0
-3637 1015 0
3637 -1017 3635 3636 0
-3638 -18 0
-3638 1124 0
-3639 -37 0
-3639 1043 0
-64 -3640 0
-3640 1016 0
3640 3639 -1017 3638 0
1129 -3641 0
-3642 -39 0
-3643 -69 0
-3643 1018 0
3643 3642 -1017 3641 0
-3644 -21 0
1130 -3644 0
-3645 -40 0
-3646 -70 0
-3646 1019 0
3646 -1017 3644 3645 0
1132 -3650 0
-3651 -42 0
-3652 -72 0
-3652 1021 0
-1017 3652 3650 3651 0
-3653 -1 0
-3654 944 0
-3655 -9 0
-1018 3654 3655 3653 0
-3659 1107 0
-3660 1026 0
-3661 1013 0
3661 3659 -1018 3660 0
-3662 -16 0
-3662 1114 0
-3663 1033 0
-3664 -54 0
-3664 1014 0
3664 -1018 3662 3663 0
-3665 -17 0
-3665 1120 0
-3666 1039 0
-3667 -60 0
-3667 1015 0
3667 -1018 3665 3666 0
-3668 -18 0
-3668 1125 0
-3669 -37 0
-3669 1044 0
-3670 -65 0
-3670 1016 0
3670 3668 -1018 3669 0
-3671 -19 0
-3671 1129 0
-3672 -38 0
-3672 1048 0
-3673 -69 0
-3673 1017 0
3672 -1018 3671 3673 0
-3674 -21 0
1133 -3674 0
-3675 -40 0
-3676 -73 0
-3676 1019 0
3676 -1018 3675 3674 0
-3677 1134 0
-3678 -41 0
-3679 1020 0
3679 -1018 3677 3678 0
-3680 -23 0
1135 -3680 0
-3681 -42 0
-3682 1021 0
-1018 3682 3680 3681 0
-3683 -1 0
-3684 945 0
-3685 -10 0
3685 -1019 3684 3683 0
-3689 1108 0
-3690 1027 0
-3691 -48 0
-3691 1013 0
3691 3689 -1019 3690 0
-3692 -16 0
-3692 1115 0
-3693 1034 0
-3694 -55 0
-3694 1014 0
3694 3693 -1019 3692 0
-3695 -17 0
-3695 1121 0
-3696 1040 0
-3697 -61 0
-3697 1015 0
3697 3695 -1019 3696 0
-3698 -18 0
-3698 1126 0
-3699 1045 0
-3700 -66 0
-3700 1016 0
3700 3699 -1019 3698 0
-3704 1133 0
-3705 -39 0
-3719 1109 0
-3720 1028 0
-3721 1013 0
3721 3719 -1020 3720 0
-3722 -16 0
-3722 1116 0
-3723 1035 0
-3724 1014 0
3724 3722 -1020 3723 0
-3725 -17 0
-3725 1122 0
-3726 1041 0
-3727 -62 0
-3727 1015 0
3727 3725 -1020 3726 0
-3728 -18 0
-3728 1127 0
-3729 1046 0
-3730 1016 0
3730 -1020 3729 3728 0
1131 -3731 0
-3732 1050 0
-3733 1017 0
3731 3733 -1020 3732 0
-3734 -20 0
-3735 -39 0
-3736 1018 0
3736 3735 -1020 3734 0
-3737 -21 0
-3738 -40 0
-3739 1019 0
3739 3737 -1020 3738 0
-3740 1138 0
-3741 -42 0
-3742 -78 0
-3742 1021 0
3742 3740 -1020 3741 0
-3746 -13 0
-3747 1012 0
-3748 -33 0
3747 -1021 3748 3746 0
-3752 -16 0
-3753 1036 0
-3754 -57 0
-3754 1014 0
3754 -1021 3752 3753 0
-3755 -17 0
-3755 1123 0
-3756 1042 0
-3757 -63 0
-3757 1015 0
3757 3755 -1021 3756 0
-3758 -18 0
1128 -3758 0
-3759 -37 0
-3759 1047 0
-3760 -68 0
-3760 1016 0
3760 3759 -1021 3758 0
1132 -3761 0
-3762 -38 0
-3762 1051 0
-3763 -72 0
-3763 1017 0
3761 3763 -1021 3762 0
-3764 -20 0
1135 -3764 0
-3765 -39 0
-3766 -75 0
-3766 1018 0
3766 3764 -1021 3765 0
-3770 1138 0
-3771 -41 0
1020 -3772 0
-1021 3772 3771 3770 0
-3776 -13 0
-3777 1005 0
-3778 1004 0
-1022 3778 3777 3776 0
-3779 1103 0
-3780 1014 0
-3781 1013 0
3779 3781 -1022 3780 0
-3782 1139 0
-3783 -44 0
-3783 1030 0
-3784 -51 0
3784 3782 -1022 3783 0
-3790 -53 0
-3791 -20 0
-3791 1142 0
-3792 -47 0
-3793 -54 0
-3793 1026 0
3793 -1022 3791 3792 0
-3794 1143 0
-3795 -48 0
-3795 1034 0
-3796 1027 0
3796 -1022 3794 3795 0
-3806 -13 0
-3807 1006 0
-3808 1004 0
-1023 3808 3807 3806 0
-3809 1104 0
-3810 1015 0
-3811 1013 0
3809 -1023 3810 3811 0
-3812 -16 0
-3812 1139 0
-3813 -43 0
-3813 1030 0
-3814 -51 0
-3814 1022 0
3813 -1023 3812 3814 0
-3815 1146 0
-3816 -45 0
-3816 1037 0
-3817 -58 0
3817 3816 -1023 3815 0
-3824 1149 0
-3825 -48 0
-3826 1027 0
3825 -1023 3824 3826 0
-3827 1150 0
-3828 1041 0
-3829 -62 0
3829 3828 -1023 3827 0
-3830 1151 0
-3831 1042 0
-3832 -63 0
3832 -1023 3831 3830 0
-3833 -1 0
-3834 942 0
-3835 939 0
-1024 3834 3835 3833 0
-3836 -13 0
-3837 1007 0
-3838 1004 0
-1024 3838 3837 3836 0
-3842 -16 0
-3843 1031 0
-3844 1022 0
3843 3844 -1024 3842 0
-3846 1037 0
-3851 1153 0
-3852 -47 0
-3853 -65 0
-3853 1026 0
3852 3851 -1024 3853 0
-3854 -21 0
-3854 1154 0
-3855 -48 0
-3855 1045 0
-3856 1027 0
3855 -1024 3854 3856 0
-3863 -1 0
-3864 -4 0
-3864 943 0
-3865 -8 0
-3865 939 0
-1025 3864 3865 3863 0
-3872 -16 0
-3872 1141 0
-3873 -43 0
-3873 1032 0
-3874 -53 0
-3874 1022 0
3873 -1025 3872 3874 0
-3887 -22 0
-3888 1050 0
-3889 1028 0
-1025 3887 3889 3888 0
-3899 1107 0
-3900 1018 0
-3901 -39 0
3899 -1026 3900 3901 0
-3902 -16 0
-3902 1142 0
-3903 -43 0
-3903 1033 0
-3904 -54 0
-3904 1022 0
3903 -1026 3902 3904 0
-3905 -17 0
-3906 1039 0
-3907 1023 0
3906 -1026 3905 3907 0
-3908 -18 0
-3909 -45 0
-3909 1044 0
-3910 1024 0
3909 3908 -1026 3910 0
-3914 1161 0
-3915 -48 0
-3915 1052 0
-3916 1027 0
3916 -1026 3914 3915 0
-3917 -22 0
-3918 1053 0
-3919 -74 0
-3919 1028 0
-1026 3917 3918 3919 0
-3926 -13 0
-3927 1010 0
-3928 1004 0
-1027 3927 3928 3926 0
-3932 -16 0
-3932 1143 0
-3933 -43 0
-3933 1034 0
-3934 -55 0
-3934 1022 0
3933 -1027 3932 3934 0
-3935 -17 0
-3936 1040 0
-3937 1023 0
3937 -1027 3935 3936 0
-3944 -20 0
-3944 1161 0
-3945 -47 0
-3945 1052 0
-3946 1026 0
3946 -1027 3944 3945 0
-3953 -1 0
-3954 -4 0
-3954 946 0
-3955 939 0
-1028 3955 3954 3953 0
-3956 -13 0
-3957 1011 0
-3958 1004 0
-1028 3957 3958 3956 0
-3959 1109 0
-3960 1020 0
-3961 -41 0
3959 -1028 3960 3961 0
-3962 1144 0
-3963 1035 0
-3964 1022 0
3964 -1028 3962 3963 0
-3965 -17 0
-3966 -44 0
-3967 -62 0
3967 3966 3965 -1028 0
-3971 1159 0
-3972 -46 0
-3973 1025 0
3971 3973 -1028 3972 0
-3974 1162 0
-3975 -47 0
-3976 1026 0
3976 3974 -1028 3975 0
-3983 -1 0
-3984 947 0
-3985 939 0
-1029 3985 3984 3983 0
-3989 1110 0
-3990 1021 0
-3991 -42 0
3989 -1029 3990 3991 0
-3992 -16 0
-3992 1145 0
-3993 -43 0
-3993 1036 0
-3994 -57 0
-3994 1022 0
3994 -1029 3992 3993 0
-3996 1042 0
-3998 1156 0
-3999 -45 0
-3999 1047 0
-4000 1024 0
3998 -1029 3999 4000 0
-4002 -46 0
1163 -4004 0
-4005 -47 0
-4006 1026 0
4006 4004 -1029 4005 0
-4007 -21 0
-4007 1165 0
-4008 -48 0
-4009 -77 0
-4009 1027 0
4008 -1029 4007 4009 0
-4010 -22 0
-4011 1057 0
-4012 1028 0
-1029 4010 4012 4011 0
-4016 -13 0
-4017 1006 0
-4018 1005 0
4017 -1030 4018 4016 0
-4019 1111 0
-4020 1015 0
-4021 1014 0
4019 4021 -1030 4020 0
-4022 1139 0
-4023 -43 0
-4023 1023 0
-4024 -44 0
-4024 1022 0
4023 4022 -1030 4024 0
-4025 1167 0
-4026 -52 0
-4026 1037 0
-4027 -58 0
-4027 1031 0
4027 4025 -1030 4026 0
-4028 1168 0
-4029 -53 0
-4030 -59 0
-4030 1032 0
4028 4030 -1030 4029 0
-4031 1169 0
-4032 -54 0
-4032 1039 0
-4033 -60 0
-4033 1033 0
4033 4031 -1030 4032 0
-4034 -21 0
-4034 1170 0
-4035 -55 0
-4036 -61 0
-4036 1034 0
4036 -1030 4034 4035 0
-4038 1041 0
-4039 -62 0
-4040 1172 0
-4041 1042 0
-4042 -63 0
4042 -1030 4040 4041 0
-4043 -1 0
-4044 942 0
-4045 -7 0
-4045 940 0
4045 -1031 4044 4043 0
-4049 1112 0
-4050 1016 0
-4051 1014 0
4049 4051 -1031 4050 0
-4052 1140 0
-4053 -43 0
-4053 1024 0
-4054 -45 0
-4054 1022 0
4054 4052 -1031 4053 0
-4055 -17 0
-4055 1167 0
-4056 -51 0
-4056 1037 0
-4057 1030 0
4057 -1031 4055 4056 0
-4058 1173 0
-4059 -53 0
-4059 1043 0
-4060 -64 0
-4060 1032 0
4059 4058 -1031 4060 0
-4061 -20 0
-4061 1174 0
-4062 -54 0
-4062 1044 0
-4063 -65 0
-4063 1033 0
4062 -1031 4061 4063 0
-4064 1175 0
-4065 -55 0
-4066 1034 0
4066 -1031 4064 4065 0
-4070 1177 0
-4071 1047 0
-4072 -68 0
4072 -1031 4070 4071 0
-4073 -1 0
-4074 943 0
-4075 -8 0
-4075 940 0
-1032 4075 4074 4073 0
-4080 1017 0
-4082 1141 0
-4083 1025 0
-4084 -46 0
4083 4084 -1032 4082 0
-4085 -17 0
-4085 1168 0
-4086 -51 0
-4086 1038 0
-4087 -59 0
-4087 1030 0
4087 -1032 4085 4086 0
-4088 -18 0
-4088 1173 0
-4089 -52 0
-4089 1043 0
-4090 -64 0
-4090 1031 0
4089 4088 -1032 4090 0
-4091 1178 0
-4092 -54 0
-4092 1048 0
-4093 -69 0
-4093 1033 0
4092 4091 -1032 4093 0
-4094 1179 0
-4095 1049 0
-4096 1034 0
4096 -1032 4094 4095 0
-4100 1181 0
-4101 1051 0
-4102 -72 0
4102 -1032 4100 4101 0
-4106 -13 0
-4107 1009 0
-4108 1005 0
4107 -1033 4108 4106 0
-4112 1142 0
-4113 -43 0
-4113 1026 0
-4114 -47 0
-4114 1022 0
4113 4112 -1033 4114 0
-4115 -17 0
-4116 1039 0
-4117 -60 0
-4117 1030 0
4116 -1033 4115 4117 0
-4118 -18 0
-4118 1174 0
-4119 -52 0
-4119 1044 0
-4120 -65 0
-4120 1031 0
4119 4120 -1033 4118 0
-4121 1178 0
-4122 1048 0
-4123 1032 0
4121 4123 -1033 4122 0
-4124 1182 0
-4125 1052 0
-4126 1034 0
4126 -1033 4124 4125 0
-4127 -22 0
-4128 1053 0
-4129 -74 0
-4129 1035 0
-1033 4127 4129 4128 0
-4130 1184 0
-4131 -57 0
-4131 1054 0
-4132 -75 0
-4132 1036 0
4132 -1033 4130 4131 0
-4133 -1 0
-4134 945 0
-4135 -10 0
-1034 4135 4134 4133 0
-4140 1019 0
-4142 1143 0
-4143 1027 0
-4144 -48 0
-4144 1022 0
4143 4142 -1034 4144 0
-4154 -20 0
-4154 1182 0
-4155 -54 0
-4155 1052 0
-4156 -73 0
-4156 1033 0
4156 -1034 4154 4155 0
-4157 1185 0
-4158 1055 0
-4159 1035 0
-1034 4157 4158 4159 0
-4160 1186 0
-4161 1056 0
-4162 1036 0
-1034 4161 4160 4162 0
-4163 -1 0
-4164 -5 0
-4165 940 0
-1035 4164 4165 4163 0
-4166 -13 0
-4167 1011 0
-4168 -32 0
-4168 1005 0
-1035 4167 4168 4166 0
-4169 1116 0
-4170 1020 0
-4171 -41 0
4169 4170 -1035 4171 0
-4172 1144 0
-4173 1028 0
-4174 1022 0
4174 4172 -1035 4173 0
-4175 -17 0
-4175 1171 0
-4176 -51 0
-4176 1041 0
-4177 -62 0
-4177 1030 0
4176 4177 -1035 4175 0
-4178 -18 0
-4179 -52 0
-4180 1031 0
4179 4178 -1035 4180 0
-4181 1180 0
-4182 -53 0
-4182 1050 0
-4183 -71 0
4181 4182 -1035 4183 0
-4184 -20 0
-4184 1183 0
-4185 -54 0
-4186 -74 0
-4186 1033 0
4185 4186 -1035 4184 0
-4189 1034 0
-4202 1145 0
-4203 -43 0
-4204 1022 0
-1036 4203 4202 4204 0
-4205 -17 0
-4205 1172 0
-4206 -51 0
-4206 1042 0
-4207 -63 0
-4207 1030 0
-1036 4205 4206 4207 0
-4208 -18 0
-4208 1177 0
-4209 -52 0
-4209 1047 0
-4210 -68 0
-1036 4210 4208 4209 0
-4211 1181 0
-4212 1051 0
-4213 -72 0
-1036 4212 4213 4211 0
-4214 1184 0
-4215 -54 0
-4216 1033 0
-1036 4215 4214 4216 0
-4217 -21 0
-4217 1186 0
-4218 -55 0
-4218 1056 0
-4219 -77 0
-4219 1034 0
-1036 4219 4217 4218 0
-4220 -22 0
-4221 1057 0
-4222 1035 0
-1036 4220 4222 4221 0
-4229 1118 0
-4230 1016 0
-4231 1015 0
4229 4231 -1037 4230 0
-4235 -16 0
-4235 1167 0
-4236 -51 0
-4236 1031 0
-4237 -52 0
-4237 1030 0
4236 -1037 4235 4237 0
-4238 1188 0
-4239 -59 0
-4239 1043 0
-4240 -64 0
-4240 1038 0
4239 4238 -1037 4240 0
-4241 1189 0
-4242 1044 0
-4243 1039 0
4242 4241 -1037 4243 0
-4244 -21 0
-4244 1190 0
-4245 1045 0
-4246 -66 0
-4246 1040 0
4245 -1037 4244 4246 0
-4250 1192 0
-4251 1047 0
-4252 -68 0
4252 -1037 4250 4251 0
-4253 -1 0
-4254 943 0
-4255 -8 0
-4255 941 0
4254 -1038 4255 4253 0
-4259 1119 0
-4260 1017 0
-4261 -38 0
4259 4261 -1038 4260 0
-4262 1147 0
-4263 1025 0
-4264 -46 0
-4264 1023 0
4263 4262 -1038 4264 0
-4265 1168 0
-4266 1032 0
-4267 1030 0
4266 -1038 4265 4267 0
-4268 1188 0
-4269 1043 0
-4270 1037 0
4269 4268 -1038 4270 0
-4271 -20 0
-4271 1193 0
-4272 1048 0
-4273 1039 0
4273 -1038 4271 4272 0
-4280 1196 0
-4281 -63 0
-4281 1051 0
-4282 -72 0
-4282 1042 0
-1038 4282 4280 4281 0
-4286 -13 0
-4287 -27 0
-4287 1009 0
-4288 1006 0
4287 4288 -1039 4286 0
-4291 -39 0
-4295 -16 0
-4295 1169 0
-4296 -51 0
-4296 1033 0
-4297 -54 0
-4297 1030 0
4296 -1039 4295 4297 0
-4298 1189 0
-4299 -58 0
-4300 1037 0
4299 4298 -1039 4300 0
-4301 1193 0
-4302 -59 0
-4302 1048 0
-4303 -69 0
-4303 1038 0
4301 4303 -1039 4302 0
-4304 -21 0
-4304 1197 0
-4305 1052 0
-4306 1040 0
4306 -1039 4304 4305 0
-4307 1198 0
-4308 -62 0
-4309 1041 0
4308 4309 -1039 4307 0
-4310 1199 0
-4311 -63 0
-4311 1054 0
-4312 1042 0
-1039 4312 4310 4311 0
-4313 -1 0
-4314 945 0
-4315 -10 0
-1040 4315 4314 4313 0
-4317 1010 0
-4319 1121 0
-4320 1019 0
-4321 -40 0
4319 4320 -1040 4321 0
-4325 1170 0
-4326 1034 0
-4327 -55 0
4326 -1040 4325 4327 0
-4334 1197 0
-4335 -60 0
-4335 1052 0
-4336 1039 0
4334 4336 -1040 4335 0
-4352 1150 0
-4358 -18 0
-4358 1191 0
-4359 -58 0
-4359 1046 0
-4360 -67 0
-1041 4360 4359 4358 0
-4361 1195 0
-4362 1050 0
-4363 1038 0
4361 4363 -1041 4362 0
-4373 -1 0
-4374 947 0
-4375 941 0
-1042 4375 4374 4373 0
-4376 -13 0
-4377 1012 0
-4378 -33 0
4377 -1042 4378 4376 0
-4383 1029 0
-4384 -50 0
-4385 -16 0
-4385 1172 0
-4386 -51 0
-4386 1036 0
-4387 -57 0
-4387 1030 0
4386 -1042 4385 4387 0
-4388 1192 0
-4389 1047 0
-4390 -68 0
4388 -1042 4389 4390 0
-4391 1196 0
-4392 1051 0
-4393 -72 0
4392 4393 -1042 4391 0
-4394 -20 0
-4394 1199 0
-4395 -60 0
-4396 -75 0
4396 -1042 4394 4395 0
-4400 1202 0
-4401 1057 0
-4402 1041 0
4402 -1042 4401 4400 0
-4412 1152 0
-4413 -45 0
-4413 1025 0
-4414 -46 0
-4414 1024 0
-1043 4413 4412 4414 0
-4415 -16 0
-4415 1173 0
-4416 1032 0
-4417 -53 0
-4417 1031 0
-1043 4416 4415 4417 0
-4418 -17 0
-4419 1038 0
-4420 1037 0
4419 -1043 4418 4420 0
-4427 -22 0
-4428 1050 0
-4429 1046 0
-1043 4427 4429 4428 0
-4430 1206 0
-4431 -68 0
-4431 1051 0
-4432 -72 0
-4432 1047 0
-1043 4432 4430 4431 0
-4439 1125 0
-4440 1018 0
-4441 -39 0
4439 -1044 4440 4441 0
-4445 -16 0
-4445 1174 0
-4446 1033 0
-4447 -54 0
-1044 4447 4446 4445 0
-4448 -17 0
-4449 -58 0
-4449 1039 0
-4450 -60 0
-4450 1037 0
-1044 4449 4448 4450 0
-4451 1203 0
-4452 -64 0
-4452 1048 0
-4453 1043 0
-1044 4451 4452 4453 0
-4454 -21 0
-4454 1207 0
-4455 1052 0
-4456 1045 0
-1044 4456 4454 4455 0
-4459 1046 0
-4460 1209 0
-4461 -68 0
-4462 1047 0
-1044 4461 4460 4462 0
-4463 -1 0
-4464 945 0
-4465 942 0
-1045 4465 4464 4463 0
-4469 1126 0
-4470 1019 0
-4471 -40 0
4469 4470 -1045 4471 0
-4472 1154 0
-4473 -45 0
-4473 1027 0
-4474 -48 0
4474 4472 -1045 4473 0
-4475 -16 0
-4475 1175 0
-4476 1034 0
-4477 -55 0
-4477 1031 0
4477 4476 -1045 4475 0
-4478 -17 0
-4478 1190 0
-4479 -58 0
-4479 1040 0
-4480 -61 0
-4480 1037 0
4480 4479 -1045 4478 0
-4484 1207 0
-4485 -65 0
-4485 1052 0
-4486 1044 0
4486 4484 -1045 4485 0
-4487 -22 0
-4488 1055 0
-4489 1046 0
-1045 4487 4489 4488 0
-4490 1211 0
-4491 -68 0
-4492 1047 0
4491 -1045 4490 4492 0
-4493 -1 0
-4494 -7 0
-4494 946 0
-4495 942 0
-1046 4495 4494 4493 0
-4508 -17 0
-4508 1191 0
-4509 -58 0
-4510 -62 0
-4510 1037 0
4509 4510 -1046 4508 0
-4511 1205 0
-4512 -64 0
-4512 1050 0
-4513 1043 0
4513 4511 -1046 4512 0
-4520 1212 0
-4521 -68 0
-4521 1057 0
-4522 1047 0
-1046 4522 4520 4521 0
-4526 -13 0
-4527 -28 0
-4527 1012 0
-4528 -33 0
-1047 4527 4528 4526 0
-4538 -17 0
-4538 1192 0
-4539 -58 0
-4539 1042 0
-4540 -63 0
-4540 1037 0
-1047 4538 4539 4540 0
-4541 1206 0
-4542 -64 0
-4542 1051 0
-4543 -72 0
-4543 1043 0
4542 4541 -1047 4543 0
-4544 1209 0
-4545 1054 0
-4546 1044 0
4546 4544 -1047 4545 0
-4553 -1 0
-4554 -8 0
-4554 944 0
-4555 -9 0
-4555 943 0
-1048 4555 4554 4553 0
-4556 -13 0
-4557 1009 0
-4558 1008 0
4557 4558 -1048 4556 0
-4559 1129 0
-4560 -38 0
-4560 1018 0
-4561 -39 0
4559 4561 -1048 4560 0
-4563 1026 0
-4565 -16 0
-4565 1178 0
-4566 -53 0
-4566 1033 0
-4567 -54 0
-4567 1032 0
4567 4566 -1048 4565 0
-4568 -17 0
-4568 1193 0
-4569 -59 0
-4569 1039 0
-4570 -60 0
-4570 1038 0
4569 -1048 4568 4570 0
-4571 -18 0
-4572 1044 0
-4573 1043 0
4572 4573 -1048 4571 0
-4577 -22 0
-4577 1214 0
-4578 -71 0
-4578 1053 0
-4579 -74 0
-4579 1050 0
4579 -1048 4578 4577 0
-4580 1215 0
-4581 -72 0
-4582 1051 0
4581 -1048 4580 4582 0
-4586 -13 0
-4587 1010 0
-4588 1008 0
-1049 4587 4588 4586 0
-4592 1158 0
-4593 -46 0
-4593 1027 0
-4594 -48 0
4594 4592 -1049 4593 0
-4595 -16 0
-4595 1179 0
-4596 -53 0
-4596 1034 0
-4597 -55 0
-4597 1032 0
4596 -1049 4595 4597 0
-4604 1213 0
-4605 -69 0
-4605 1052 0
-4606 1048 0
4606 4604 -1049 4605 0
-4607 -22 0
-4607 1216 0
-4608 -71 0
-4608 1055 0
-4609 -76 0
-4609 1050 0
4609 -1049 4608 4607 0
-4610 1217 0
-4611 -72 0
-4611 1056 0
-4612 -77 0
-4612 1051 0
4612 -1049 4610 4611 0
-4613 -1 0
-4614 -8 0
-4615 943 0
-1050 4614 4615 4613 0
-4622 1159 0
-4623 -46 0
-4624 1025 0
4624 4622 -1050 4623 0
-4625 -16 0
-4626 -53 0
-4627 -56 0
4626 -1050 4625 4627 0
-4628 -17 0
-4628 1195 0
-4629 -59 0
-4629 1041 0
-4630 -62 0
4629 -1050 4628 4630 0
-4631 -18 0
-4631 1205 0
-4632 -64 0
-4632 1046 0
-4633 -67 0
-4633 1043 0
4633 -1050 4632 4631 0
-4634 1214 0
-4635 -69 0
-4635 1053 0
-4636 1048 0
4634 -1050 4635 4636 0
-4637 -21 0
-4638 1055 0
-4639 -76 0
4639 -1050 4637 4638 0
-4640 1218 0
-4641 -72 0
-4641 1057 0
-4642 1051 0
4642 -1050 4640 4641 0
-4652 1160 0
-4653 -46 0
-4654 1025 0
4652 4653 -1051 4654 0
-4655 -16 0
-4656 1036 0
-4657 -57 0
-4657 1032 0
-1051 4656 4657 4655 0
-4658 -17 0
-4658 1196 0
-4659 1042 0
-4660 -63 0
-4660 1038 0
-1051 4658 4659 4660 0
-4662 1047 0
-4667 1217 0
-4668 -70 0
-4669 -77 0
-4669 1049 0
4668 -1051 4667 4669 0
-4670 1218 0
-4671 -71 0
-4671 1057 0
-4672 1050 0
-1051 4672 4671 4670 0
-4673 -1 0
-4674 -9 0
-4674 945 0
-4675 -10 0
-4675 944 0
-1052 4675 4674 4673 0
-4676 -13 0
-4677 1010 0
-4678 1009 0
-1052 4677 4678 4676 0
-4679 1133 0
-4680 -39 0
-4681 -40 0
4679 -1052 4681 4680 0
-4682 1161 0
-4683 -47 0
-4683 1027 0
-4684 -48 0
-4684 1026 0
4683 4682 -1052 4684 0
-4685 1182 0
-4686 -54 0
-4686 1034 0
-4687 -55 0
-4687 1033 0
4687 -1052 4685 4686 0
-4688 -17 0
-4691 -18 0
-4691 1207 0
-4692 -65 0
-4692 1045 0
-4693 1044 0
4692 4691 -1052 4693 0
-4694 1213 0
-4695 -69 0
-4695 1049 0
-4696 -70 0
-4696 1048 0
4694 4696 -1052 4695 0
-4697 -22 0
-4697 1219 0
-4698 -74 0
-4698 1055 0
-4699 -76 0
-4699 1053 0
-1052 4697 4698 4699 0
-4700 1220 0
-4701 -75 0
-4702 -77 0
-4702 1054 0
-1052 4702 4700 4701 0
-4703 -1 0
-4704 -9 0
-4705 944 0
-1053 4704 4705 4703 0
-4706 -13 0
-4707 1011 0
-4708 -32 0
-1053 4707 4708 4706 0
1162 -4712 0
-4713 -47 0
-4713 1028 0
-4714 1026 0
4714 4712 4713 -1053 0
-4715 1183 0
-4716 1035 0
-4717 1033 0
4716 -1053 4715 4717 0
-4718 1198 0
-4719 1041 0
-4720 1039 0
4719 4718 -1053 4720 0
-4721 1208 0
-4722 1046 0
-4723 -67 0
-4723 1044 0
4721 -1053 4722 4723 0
-4724 1214 0
-4725 -69 0
-4725 1050 0
-4726 1048 0
4724 4726 -1053 4725 0
-4727 1219 0
-4728 1055 0
-4729 1052 0
-1053 4728 4727 4729 0
-4730 1221 0
-4731 1057 0
-4732 -78 0
-4732 1054 0
-1053 4732 4730 4731 0
-4733 -1 0
-4734 947 0
-4735 944 0
-1054 4735 4734 4733 0
1135 -4739 0
-4740 -39 0
-4741 -42 0
4739 4740 -1054 4741 0
1163 -4742 0
-4743 -47 0
-4744 1026 0
4743 4744 4742 -1054 0
-4745 -16 0
-4745 1184 0
-4746 -54 0
-4746 1036 0
-4747 -57 0
-4747 1033 0
4746 -1054 4745 4747 0
-4751 -18 0
-4751 1209 0
-4752 -65 0
-4752 1047 0
-4753 -68 0
-4753 1044 0
4753 4751 -1054 4752 0
-4754 1215 0
-4755 1051 0
-4756 -72 0
-4756 1048 0
4755 4754 -1054 4756 0
-4757 1220 0
-4758 -73 0
-4758 1056 0
-4759 1052 0
-1054 4758 4757 4759 0
-4760 1221 0
-4761 -74 0
-4761 1057 0
-4762 -78 0
-4762 1053 0
-1054 4760 4762 4761 0
-4766 -13 0
-4767 1011 0
-4768 -32 0
-4768 1010 0
-1055 4767 4768 4766 0
-4769 1136 0
-4770 -40 0
-4771 -41 0
4769 -1055 4770 4771 0
-4775 1185 0
-4776 -55 0
-4776 1035 0
-4777 1034 0
4777 -1055 4776 4775 0
-4778 1200 0
-4779 -61 0
-4780 1040 0
4779 4778 -1055 4780 0
-4787 1219 0
-4788 -73 0
-4788 1053 0
-4789 -74 0
-4789 1052 0
4789 4787 -1055 4788 0
-4790 1222 0
-4791 -77 0
-4791 1057 0
-4792 -78 0
-4792 1056 0
-1055 4792 4790 4791 0
-4793 -1 0
-4794 947 0
-4795 945 0
-1056 4794 4795 4793 0
-4796 -13 0
-4797 1012 0
-4798 -33 0
-1056 4798 4797 4796 0
-4814 1217 0
-4815 1051 0
-4816 -72 0
4816 4814 -1056 4815 0
-4817 1220 0
-4818 1054 0
-4819 -75 0
-4819 1052 0
4817 -1056 4818 4819 0
-4823 -1 0
-4824 947 0
-4825 946 0
-1057 4824 4825 4823 0
-4826 -13 0
-4827 -32 0
-4827 1012 0
-4828 -33 0
-1057 4828 4827 4826 0
-4829 1138 0
-4830 -41 0
-4831 -42 0
4829 -1057 4831 4830 0
-4838 -17 0
-4838 1202 0
-4839 1042 0
-4840 -63 0
4840 4838 4839 -1057 0
-4841 1212 0
-4842 1047 0
-4843 -68 0
-4843 1046 0
4841 -1057 4843 4842 0
-4844 1218 0
-4845 -71 0
-4845 1051 0
-4846 -72 0
-4846 1050 0
4844 4846 -1057 4845 0
-4847 1221 0
-4848 -74 0
-4848 1054 0
-4849 -75 0
-4849 1053 0
4847 -1057 4849 4848 0
-4850 1222 0
-4851 1056 0
-4852 -77 0
-1057 4851 4850 4852 0
-4853 -2 0
-4854 949 0
-4855 -4 0
4855 -1058 4854 4853 0
-4859 1103 0
-4860 1067 0
-4861 -43 0
-4861 1059 0
4859 -1058 4861 4860 0
-4862 -27 0
1104 -4862 0
-4863 1068 0
-4864 -44 0
-4864 1060 0
4864 4863 -1058 4862 0
-4865 -28 0
-4865 1105 0
-4866 -37 0
-4866 1069 0
-4867 -45 0
-4867 1061 0
4867 4866 -1058 4865 0
-4868 -29 0
-4868 1106 0
-4869 -38 0
-4869 1070 0
-4870 -46 0
-4870 1062 0
4869 4870 -1058 4868 0
1107 -4871 0
-4872 -39 0
-4873 -47 0
-4873 1063 0
4873 4872 -1058 4871 0
-4874 -31 0
-4874 1108 0
-4875 -40 0
-4876 -48 0
-4876 1064 0
4876 -1058 4875 4874 0
-4877 1109 0
-4878 -41 0
-4879 -49 0
-4879 1065 0
-1058 4879 4877 4878 0
-4880 -33 0
-4881 -42 0
-4882 -50 0
-1058 4882 4880 4881 0
-4883 -2 0
-4884 950 0
-4885 -5 0
-1059 4884 4885 4883 0
-4889 1103 0
-4890 1067 0
-4891 -43 0
-4891 1058 0
-1059 4891 4890 4889 0
-4892 -27 0
-4892 1111 0
-4893 -36 0
-4893 1075 0
-4894 -51 0
-4894 1060 0
4894 -1059 4893 4892 0
-4895 -28 0
-4895 1112 0
-4896 -37 0
-4896 1076 0
-4897 -52 0
-4897 1061 0
4897 -1059 4896 4895 0
-4898 -29 0
-4898 1113 0
-4899 -38 0
-4899 1077 0
-4900 -53 0
-4900 1062 0
4900 -1059 4899 4898 0
-4901 1114 0
-4902 -39 0
-4903 -54 0
-4903 1063 0
4903 4902 -1059 4901 0
-4904 -31 0
-4904 1115 0
-4905 -40 0
-4906 -55 0
-4906 1064 0
4906 -1059 4905 4904 0
-4907 1116 0
-4908 -41 0
-4909 -56 0
-4909 1065 0
-1059 4909 4907 4908 0
-4910 -33 0
-4911 -42 0
-4912 -57 0
4912 -1059 4911 4910 0
-4913 -2 0
-4914 951 0
-4915 -6 0
-1060 4914 4915 4913 0
-4916 -13 0
-4917 1006 0
-4918 -17 0
4917 -1060 4918 4916 0
-4919 1104 0
-4920 1068 0
-4921 -44 0
4921 -1060 4920 4919 0
-4922 1111 0
-4923 1075 0
-51 -4924 0
-4924 1059 0
4922 -1060 4924 4923 0
-4925 -28 0
-4926 -37 0
-4926 1082 0
-4927 -58 0
-4927 1061 0
4927 4926 -1060 4925 0
-4928 -29 0
-4928 1119 0
-4929 -38 0
-4929 1083 0
-4930 -59 0
-4930 1062 0
4930 4929 -1060 4928 0
-4931 1120 0
-4932 -39 0
-4932 1084 0
-4933 -60 0
-4933 1063 0
4933 4931 -1060 4932 0
-4934 1121 0
-4935 -40 0
-4936 -61 0
-4936 1064 0
-1060 4936 4935 4934 0
-4937 -32 0
-4937 1122 0
-4938 -41 0
-4939 -62 0
-4939 1065 0
-1060 4939 4937 4938 0
-4940 -33 0
-4941 -42 0
-4942 -63 0
4942 -1060 4940 4941 0
-4944 952 0
-4946 -13 0
-4947 1007 0
-4948 -18 0
4947 -1061 4948 4946 0
-4949 1105 0
-4950 1069 0
-4951 -45 0
-4951 1058 0
-1061 4951 4950 4949 0
-4952 1112 0
-4953 1076 0
-4954 -52 0
-4954 1059 0
4952 -1061 4954 4953 0
-4955 -27 0
-4955 1118 0
-4956 1082 0
-4957 -58 0
-4957 1060 0
4957 4955 -1061 4956 0
-4958 -29 0
-4958 1124 0
-4959 -38 0
-4959 1088 0
-4960 -64 0
-4960 1062 0
4960 4959 -1061 4958 0
-4961 -30 0
-4961 1125 0
-4962 -39 0
-4963 -65 0
-4963 1063 0
4963 4962 -1061 4961 0
-4964 -31 0
-4964 1126 0
-4965 -40 0
-4966 -66 0
-4966 1064 0
4966 -1061 4965 4964 0
-4970 -33 0
-4971 -42 0
-4972 -68 0
4972 -1061 4970 4971 0
-4973 -2 0
-4974 953 0
-4975 -8 0
-1062 4974 4975 4973 0
-4979 1106 0
-4980 1070 0
-4981 1058 0
-1062 4981 4980 4979 0
-4982 1113 0
-4983 1077 0
-4984 -53 0
-4984 1059 0
4982 -1062 4984 4983 0
-4985 -27 0
-4985 1119 0
-4986 -36 0
-4986 1083 0
-4987 -59 0
-4987 1060 0
4987 4985 -1062 4986 0
-4988 -28 0
-4988 1124 0
-4989 -37 0
-4989 1088 0
-4990 -64 0
-4990 1061 0
4990 -1062 4988 4989 0
-4991 -30 0
-4991 1129 0
-4992 -39 0
-4993 -69 0
-4993 1063 0
4993 4992 -1062 4991 0
-5003 -2 0
-5004 954 0
-5005 -9 0
5004 -1063 5005 5003 0
-5009 1107 0
-5010 1071 0
-5011 -47 0
-5011 1058 0
-1063 5011 5010 5009 0
-5012 1114 0
-5013 1078 0
-5014 -54 0
-5014 1059 0
5012 -1063 5014 5013 0
-5015 -27 0
-5015 1120 0
-5016 -36 0
-5016 1084 0
-5017 -60 0
-5017 1060 0
5017 5015 -1063 5016 0
-5018 -28 0
-5018 1125 0
-5019 1089 0
-5020 -65 0
-5020 1061 0
5020 -1063 5018 5019 0
-5021 -29 0
-5021 1129 0
-5022 -38 0
-5022 1093 0
-5023 1062 0
5023 5022 -1063 5021 0
-5024 -31 0
1133 -5024 0
-5025 -40 0
-5026 -73 0
-5026 1064 0
5026 -1063 5025 5024 0
-5027 -32 0
1134 -5027 0
-5028 -41 0
-5029 -74 0
-5029 1065 0
-1063 5029 5027 5028 0
-5030 -33 0
-5031 -42 0
-5032 1066 0
-1063 5032 5031 5030 0
-5033 -2 0
-5034 955 0
-5035 -10 0
5035 5034 -1064 5033 0
-5039 1108 0
-5040 1072 0
-5041 -48 0
-5041 1058 0
5041 5040 -1064 5039 0
-5042 1115 0
-5043 1079 0
-5044 -55 0
-5044 1059 0
5042 5044 -1064 5043 0
-5045 -27 0
1121 -5045 0
-5046 1085 0
-5047 -61 0
-5047 1060 0
5047 5045 -1064 5046 0
-5048 -28 0
-5049 1090 0
-5050 1061 0
5050 5048 -1064 5049 0
-5051 -29 0
-5051 1130 0
-5052 -38 0
-5052 1094 0
-5053 1062 0
5053 5052 -1064 5051 0
1133 -5054 0
-5055 -39 0
-5056 1063 0
5056 5054 5055 -1064 0
-5057 -32 0
-5057 1136 0
-5058 -41 0
-5059 1065 0
5058 5059 5057 -1064 0
-5060 -33 0
-5061 -42 0
-5062 -77 0
5062 5060 -1064 5061 0
-5066 -13 0
-5067 1011 0
-5068 -22 0
-1065 5068 5067 5066 0
-5069 1109 0
-5070 1073 0
-5071 1058 0
5071 -1065 5070 5069 0
-5072 1116 0
-5073 1080 0
-5074 -56 0
-5074 1059 0
5072 5074 -1065 5073 0
-5075 -27 0
-5075 1122 0
-5076 1086 0
-5077 -62 0
-5077 1060 0
5077 5075 -1065 5076 0
-5078 -28 0
-5078 1127 0
-5079 -37 0
-5079 1091 0
-5080 -67 0
-5080 1061 0
5080 5078 -1065 5079 0
-5081 -29 0
-5081 1131 0
-5082 -38 0
-5082 1095 0
-5083 -71 0
-5083 1062 0
5083 -1065 5082 5081 0
1134 -5084 0
-5085 -39 0
-5086 1063 0
5086 5085 -1065 5084 0
-5087 1136 0
-5088 -40 0
-5089 1064 0
5089 -1065 5087 5088 0
-5090 -33 0
-5091 -42 0
-5092 -78 0
-5092 1066 0
5092 5091 5090 -1065 0
-5099 1110 0
-5100 1074 0
-5101 1058 0
-1066 5101 5100 5099 0
-5102 1117 0
-5103 1081 0
-5104 1059 0
5102 -1066 5104 5103 0
-5105 -27 0
1123 -5105 0
-5106 1087 0
-5107 1060 0
5107 5105 -1066 5106 0
-5108 -28 0
-5108 1128 0
-5109 -37 0
-5109 1092 0
-5110 1061 0
5110 5109 -1066 5108 0
-5114 -30 0
-5115 -39 0
-5116 1063 0
5116 5115 -1066 5114 0
-5126 -13 0
-5127 1005 0
-5128 1004 0
-1067 5128 5127 5126 0
-5132 1139 0
-5133 -44 0
-5133 1075 0
-5134 1068 0
5134 5132 -1067 5133 0
-5135 -28 0
-5136 -45 0
-5137 1069 0
5137 -1067 5135 5136 0
-5144 1143 0
-5145 1079 0
-5146 -55 0
5146 -1067 5144 5145 0
-5150 -33 0
-5151 -50 0
-5151 1081 0
-5152 1074 0
5152 -1067 5151 5150 0
-5159 1104 0
-5160 1060 0
-5161 1058 0
5159 -1068 5160 5161 0
-5165 -28 0
-5165 1146 0
-5166 -45 0
-5166 1082 0
-5167 -58 0
-5167 1069 0
5166 -1068 5165 5167 0
-5168 -29 0
-5169 -46 0
-5169 1083 0
-5170 -59 0
-1068 5170 5169 5168 0
-5172 -47 0
-5173 1071 0
-5174 1149 0
-5175 -48 0
-5176 1072 0
5175 -1068 5174 5176 0
-5183 -2 0
-5184 952 0
-5185 949 0
-1069 5184 5185 5183 0
-5186 -13 0
-5187 1007 0
-5188 1004 0
5187 -1069 5188 5186 0
-5189 1105 0
-5190 1061 0
-5191 1058 0
5189 5191 -1069 5190 0
-5192 1140 0
-5193 -43 0
-5195 -27 0
-5195 1146 0
-5196 -44 0
-5196 1082 0
-5197 -58 0
-5197 1068 0
5197 5195 -1069 5196 0
-5198 1152 0
-5199 -46 0
-5200 1070 0
5200 5199 -1069 5198 0
-5201 1153 0
-5202 -47 0
-5203 -65 0
-5203 1071 0
5202 5201 -1069 5203 0
-5204 1154 0
-5205 -48 0
-5205 1090 0
-5206 1072 0
5206 -1069 5204 5205 0
-5207 1155 0
-5208 1091 0
-5209 -67 0
5208 -1069 5207 5209 0
-5210 -33 0
-5211 -50 0
-5211 1092 0
-5212 -68 0
-5212 1074 0
5212 -1069 5211 5210 0
-5216 -13 0
-5217 1008 0
-5218 1004 0
5217 -1070 5218 5216 0
-5220 1062 0
-5222 1141 0
-5224 1067 0
-5225 -27 0
-5228 -28 0
-5229 1088 0
-5230 1069 0
5229 -1070 5228 5230 0
-5233 1071 0
-5234 1158 0
-5235 -48 0
-5235 1094 0
-5236 1072 0
5235 -1070 5234 5236 0
-5240 -33 0
1096 -5241 0
-5242 -72 0
-5242 1074 0
5241 -1070 5240 5242 0
-5246 -13 0
-5247 1009 0
-5248 1004 0
5247 -1071 5248 5246 0
-5249 1107 0
-5250 1063 0
-5251 -39 0
5249 -1071 5250 5251 0
-5255 -27 0
-5256 1084 0
-5257 1068 0
5256 5255 -1071 5257 0
-5258 -28 0
-5259 1089 0
-5260 1069 0
5260 -1071 5258 5259 0
-5263 1070 0
-5264 1161 0
-5265 1097 0
-5266 1072 0
5266 -1071 5264 5265 0
-5270 -33 0
-5271 -50 0
-5271 1099 0
-5272 -75 0
-5272 1074 0
-1071 5271 5270 5272 0
-5276 -13 0
-5277 1010 0
-5278 1004 0
-1072 5277 5278 5276 0
-5279 1108 0
-5280 1064 0
-5281 -40 0
5279 -1072 5280 5281 0
-5282 1143 0
-5283 1079 0
-5284 -55 0
-5284 1067 0
5283 -1072 5284 5282 0
-5285 -27 0
-5285 1149 0
-5286 -44 0
-5286 1085 0
-5287 -61 0
5286 5285 -1072 5287 0
-5288 -28 0
-5289 -45 0
-5290 1069 0
5289 -1072 5288 5290 0
-5293 1070 0
-5294 1161 0
-5295 -47 0
-5296 1071 0
5295 5294 -1072 5296 0
-5300 -33 0
-5301 -50 0
-5301 1101 0
-5302 -77 0
-5302 1074 0
5302 -1072 5301 5300 0
-5303 -2 0
-5304 956 0
-5305 949 0
-1073 5304 5305 5303 0
-5309 1109 0
-5310 1065 0
-5311 -41 0
-1073 5311 5310 5309 0
-5315 -27 0
-5315 1150 0
-5316 -44 0
-5316 1086 0
-5317 -62 0
-5317 1068 0
5315 -1073 5316 5317 0
-5319 1091 0
-5320 -67 0
1162 -5324 0
-5325 -47 0
-5326 -74 0
-5326 1071 0
5326 5324 -1073 5325 0
-5327 1164 0
-5328 -48 0
-5328 1100 0
-5329 1072 0
-1073 5328 5327 5329 0
-5330 -33 0
-5331 -50 0
-5331 1102 0
-5332 -78 0
-5332 1074 0
-1073 5332 5331 5330 0
-5336 -13 0
-5337 1012 0
-5338 1004 0
-1074 5337 5338 5336 0
-5342 1145 0
-5343 1081 0
-5344 1067 0
5342 -1074 5343 5344 0
-5363 -2 0
-5364 951 0
-5365 950 0
-1075 5364 5365 5363 0
-5369 1111 0
-5370 1060 0
-5371 1059 0
5369 5370 -1075 5371 0
-5378 1168 0
-5379 -53 0
-5379 1083 0
-5380 -59 0
-5380 1077 0
5378 -1075 5380 5379 0
-5381 1169 0
-5382 -54 0
-5382 1084 0
-5383 -60 0
-5383 1078 0
5381 -1075 5383 5382 0
-5384 1170 0
-5385 -55 0
-5385 1085 0
-5386 -61 0
-5386 1079 0
5385 -1075 5384 5386 0
-5387 1171 0
-5388 -56 0
-5388 1086 0
-5389 -62 0
-5389 1080 0
-1075 5389 5387 5388 0
-5395 950 0
-5396 -13 0
-5397 1007 0
-5398 1005 0
-1076 5397 5398 5396 0
-5399 1112 0
-5400 1061 0
-5401 1059 0
5400 -1076 5401 5399 0
-5402 1140 0
-5403 -43 0
-5403 1069 0
-5404 -45 0
-5404 1067 0
5403 -1076 5404 5402 0
-5405 -27 0
-5405 1167 0
-5406 -51 0
-5406 1082 0
-5407 -58 0
-5407 1075 0
5405 -1076 5407 5406 0
-5411 1174 0
-5412 -54 0
-5412 1089 0
-5413 -65 0
-5413 1078 0
5412 5411 -1076 5413 0
-5414 1175 0
-5415 -55 0
-5415 1090 0
-5416 1079 0
5415 -1076 5414 5416 0
-5417 1176 0
-5418 -56 0
-5419 -67 0
5418 -1076 5417 5419 0
-5420 -33 0
-5421 1092 0
-5422 1081 0
-1076 5422 5420 5421 0
-5423 -2 0
-5424 953 0
-5425 950 0
-1077 5424 5425 5423 0
-5429 1113 0
-5430 1062 0
-5431 1059 0
5429 5430 -1077 5431 0
-5432 1141 0
-5433 -43 0
-5433 1070 0
-5434 1067 0
5433 -1077 5434 5432 0
-5435 -27 0
-5435 1168 0
-5436 -51 0
-5436 1083 0
-5437 -59 0
-5437 1075 0
5435 -1077 5437 5436 0
-5438 -28 0
-5439 1088 0
-5440 1076 0
5439 -1077 5438 5440 0
-5441 1178 0
-5442 -54 0
-5442 1093 0
-5443 -69 0
-5443 1078 0
5442 5441 -1077 5443 0
-5444 1179 0
-5445 -55 0
-5445 1094 0
-5446 1079 0
5446 -1077 5444 5445 0
-5447 -32 0
-5447 1180 0
-5448 -56 0
-5448 1095 0
-5449 -71 0
-5449 1080 0
-1077 5449 5447 5448 0
-5450 -33 0
1096 -5451 0
-5452 -72 0
-5452 1081 0
5451 -1077 5450 5452 0
-5453 -2 0
-5454 954 0
-5455 950 0
-1078 5454 5455 5453 0
-5456 -13 0
-5457 1009 0
-5458 1005 0
-1078 5457 5458 5456 0
-5459 1114 0
-5460 1063 0
-5461 -39 0
5459 5460 -1078 5461 0
-5465 -27 0
-5465 1169 0
-5466 -51 0
-5466 1084 0
-5467 -60 0
-5467 1075 0
5466 5465 -1078 5467 0
-5468 -28 0
-5468 1174 0
-5469 1089 0
-5470 -65 0
-5470 1076 0
5469 -1078 5468 5470 0
-5471 -29 0
-5474 1182 0
-5475 -55 0
-5476 1079 0
5475 -1078 5474 5476 0
-5477 -32 0
-5477 1183 0
-5478 -56 0
-5479 1080 0
-1078 5479 5477 5478 0
-5480 -33 0
-5481 1099 0
-5482 -75 0
-5482 1081 0
5481 -1078 5482 5480 0
-5489 1115 0
-5490 1064 0
-5491 -40 0
-1079 5489 5490 5491 0
-5497 1075 0
-5505 -54 0
-5506 1078 0
-5507 1185 0
-5508 -56 0
-5508 1100 0
-5509 1080 0
-1079 5509 5507 5508 0
-5513 -2 0
-5514 -5 0
-5514 956 0
-5515 950 0
-1080 5514 5515 5513 0
-5516 -13 0
-5517 1011 0
-5518 -22 0
-1080 5518 5517 5516 0
-5522 1144 0
-5523 -43 0
-5524 1067 0
5523 -1080 5524 5522 0
-5526 1086 0
-5527 -62 0
-5528 -28 0
-5528 1176 0
-5529 -52 0
-5529 1091 0
-5530 -67 0
-5530 1076 0
5529 -1080 5528 5530 0
-5531 -29 0
-5532 -53 0
-5533 1077 0
5532 -1080 5533 5531 0
-5534 1183 0
-5535 -54 0
-5536 -74 0
-5536 1078 0
5534 -1080 5535 5536 0
-5538 -55 0
-5539 1079 0
-5540 -33 0
-5541 -57 0
-5541 1102 0
-5542 -78 0
-5542 1081 0
5541 -1080 5542 5540 0
-5543 -2 0
-5544 957 0
-5545 950 0
-1081 5545 5544 5543 0
-5552 1145 0
-5553 1074 0
-5554 1067 0
5553 -1081 5554 5552 0
-5555 -27 0
-5555 1172 0
-5556 -51 0
-5556 1087 0
-5557 -63 0
-5557 1075 0
5556 5555 -1081 5557 0
-5558 -28 0
-5558 1177 0
-5559 -52 0
-5559 1092 0
-5560 -68 0
-5560 1076 0
5559 -1081 5558 5560 0
1184 -5564 0
-5565 -54 0
-5565 1099 0
-5566 1078 0
5565 5564 -1081 5566 0
1186 -5567 0
-5568 -55 0
-5569 1079 0
5568 -1081 5567 5569 0
-5570 1187 0
-5571 -56 0
-5572 1080 0
5571 5572 5570 -1081 0
-5573 -2 0
-5574 -6 0
-5575 951 0
5574 5575 -1082 5573 0
-5579 1118 0
-5580 1061 0
-5581 1060 0
5579 5581 -1082 5580 0
-5582 1146 0
-5583 1069 0
-5584 -45 0
-5584 1068 0
5583 5584 -1082 5582 0
-5585 1167 0
-5586 -51 0
-5586 1076 0
-5587 -52 0
-5587 1075 0
-1082 5585 5586 5587 0
-5588 -29 0
-5588 1188 0
-5589 1088 0
-5590 -64 0
-5590 1083 0
5590 5589 -1082 5588 0
-5591 1189 0
-5592 -60 0
-5592 1089 0
-5593 -65 0
-5593 1084 0
5593 5591 -1082 5592 0
-5597 1191 0
-5598 -62 0
-5599 1086 0
5598 -1082 5597 5599 0
-5603 -2 0
-5604 -6 0
-5605 951 0
5604 -1083 5605 5603 0
-5609 1119 0
-5610 1062 0
-5611 -38 0
-5611 1060 0
5609 5611 -1083 5610 0
-5612 1147 0
-5613 -44 0
-5613 1070 0
-5614 -46 0
-5614 1068 0
5613 -1083 5612 5614 0
-5615 1168 0
-5616 -51 0
-5616 1077 0
-5617 -53 0
-5617 1075 0
-1083 5615 5616 5617 0
-5618 -28 0
-5618 1188 0
-5619 1088 0
-5620 1082 0
5619 -1083 5618 5620 0
-5621 1193 0
-5622 -60 0
-5622 1093 0
-5623 -69 0
-5623 1084 0
5622 5621 -1083 5623 0
-5624 1194 0
-5625 -61 0
-5625 1094 0
-5626 1085 0
5625 -1083 5624 5626 0
-5627 -32 0
-5627 1195 0
-5628 -62 0
-5628 1095 0
-5629 1086 0
-1083 5628 5627 5629 0
-5630 -33 0
1096 -5631 0
-5632 1087 0
5631 5632 -1083 5630 0
-5633 -2 0
-5634 -6 0
-5634 954 0
-5635 951 0
5634 5635 -1084 5633 0
-5642 1148 0
-5643 1071 0
-5644 -47 0
-5644 1068 0
5643 -1084 5642 5644 0
-5645 1169 0
-5646 -51 0
-5646 1078 0
-5647 -54 0
-5647 1075 0
5645 -1084 5646 5647 0
-5648 1189 0
-5649 1089 0
-5650 1082 0
5649 5648 -1084 5650 0
-5651 -29 0
-5651 1193 0
-5652 1093 0
-5653 -69 0
-5653 1083 0
5653 5652 -1084 5651 0
-5654 -31 0
-5654 1197 0
-5655 -61 0
-5655 1097 0
-5656 -73 0
-5656 1085 0
5656 -1084 5654 5655 0
-5657 -32 0
-5657 1198 0
-5658 -62 0
-5658 1098 0
-5659 -74 0
-5659 1086 0
-1084 5659 5657 5658 0
-5660 -33 0
-5661 -63 0
-5661 1099 0
-5662 -75 0
-5662 1087 0
5661 -1084 5660 5662 0
-5666 -13 0
-5667 -17 0
-5668 1006 0
-1085 5667 5668 5666 0
-5679 -58 0
-5681 -29 0
-5682 1094 0
-5683 1083 0
5683 5682 -1085 5681 0
-5684 1197 0
-5685 1097 0
-5686 1084 0
5686 5684 -1085 5685 0
-5687 -32 0
-5687 1200 0
-5688 -62 0
-5689 1086 0
-1085 5689 5687 5688 0
-5690 -33 0
-5691 -63 0
-5691 1101 0
-5692 -77 0
-5692 1087 0
5692 -1085 5690 5691 0
-5693 -2 0
-5694 956 0
-5695 951 0
-1086 5694 5695 5693 0
-5703 1073 0
-5704 -49 0
-5705 1171 0
-5706 1080 0
-5707 -56 0
5707 -1086 5706 5705 0
-5708 1191 0
-5709 1091 0
-5710 -67 0
5710 5708 -1086 5709 0
-5711 1195 0
-5712 1095 0
-5713 1083 0
5711 -1086 5712 5713 0
-5714 1198 0
-5715 -60 0
-5716 -74 0
-5716 1084 0
5714 -1086 5715 5716 0
-5717 1200 0
-5718 -61 0
-5719 -76 0
-5719 1085 0
5718 -1086 5717 5719 0
-5720 -33 0
-5721 -63 0
-5721 1102 0
-5722 -78 0
-5722 1087 0
5721 -1086 5722 5720 0
-5723 -2 0
-5724 -6 0
-5724 957 0
-5725 951 0
-1087 5725 5724 5723 0
-5735 1172 0
-5736 -51 0
-5736 1081 0
-5737 1075 0
-1087 5735 5736 5737 0
-5738 -28 0
-5738 1192 0
-5739 -58 0
-5739 1092 0
-5740 -68 0
-5740 1082 0
5739 -1087 5738 5740 0
-5744 1199 0
-5745 -60 0
-5746 -75 0
5745 5744 -1087 5746 0
-5750 1202 0
-5751 -62 0
-5752 1086 0
5751 5752 5750 -1087 0
-5753 -2 0
-5754 -7 0
-5755 -8 0
-5755 952 0
-1088 5754 5755 5753 0
-5756 -13 0
-5757 -18 0
-5758 -19 0
5757 -1088 5758 5756 0
-5759 1124 0
-5760 -37 0
-5760 1062 0
-5761 -38 0
-5761 1061 0
5759 5761 -1088 5760 0
-5763 1070 0
-5764 -46 0
-5764 1069 0
-5768 -27 0
-5768 1188 0
-5769 -58 0
-5769 1083 0
-5770 -59 0
-5770 1082 0
5769 5768 -1088 5770 0
-5777 1205 0
-5778 -67 0
-5778 1095 0
-5779 1091 0
5779 -1088 5778 5777 0
-5783 -2 0
-5784 -7 0
-5784 954 0
-5785 -9 0
-5785 952 0
5784 -1089 5785 5783 0
-5789 1125 0
-5790 -37 0
-5791 -39 0
5789 5791 -1089 5790 0
-5792 1153 0
-5793 1071 0
-5794 -47 0
5794 -1089 5792 5793 0
-5795 1174 0
-5796 -52 0
-5796 1078 0
-5797 -54 0
5797 -1089 5796 5795 0
-5798 -27 0
-5798 1189 0
-5799 -58 0
-5799 1084 0
-5800 -60 0
-5800 1082 0
5799 5800 -1089 5798 0
-5801 -29 0
-5801 1203 0
-5802 -64 0
-5802 1093 0
-5803 -69 0
-5803 1088 0
5803 -1089 5801 5802 0
-5806 1090 0
-5809 1091 0
-5822 1154 0
-5823 -45 0
-5823 1072 0
-5824 -48 0
-5824 1069 0
-1090 5824 5822 5823 0
-5825 1175 0
-5826 1079 0
-5827 -55 0
-5827 1076 0
-1090 5825 5827 5826 0
-5828 -27 0
-5828 1190 0
-5829 -58 0
-5829 1085 0
-5830 -61 0
-1090 5829 5830 5828 0
-5831 -29 0
-5832 1094 0
-5833 1088 0
-1090 5833 5832 5831 0
-5837 -32 0
-5837 1210 0
-5838 -67 0
-5838 1100 0
-5839 -76 0
-5839 1091 0
-1090 5839 5837 5838 0
-5840 -33 0
-5841 -68 0
-5841 1101 0
-5842 -77 0
-5842 1092 0
-1090 5842 5841 5840 0
-5849 1127 0
-5850 -37 0
-5850 1065 0
-5851 -41 0
-1091 5851 5850 5849 0
-5852 1155 0
-5853 -45 0
-5853 1073 0
-5854 -49 0
-1091 5852 5853 5854 0
-5858 1191 0
-5859 1086 0
-5860 -62 0
5860 -1091 5859 5858 0
-5861 -29 0
-5861 1205 0
-5862 -64 0
-5862 1095 0
-5863 -71 0
-5863 1088 0
-1091 5861 5862 5863 0
-5873 -2 0
-5874 -7 0
-5874 957 0
-5875 952 0
-1092 5875 5874 5873 0
-5876 -13 0
-5877 -18 0
-5878 1007 0
5877 -1092 5878 5876 0
-5885 1177 0
-5886 1081 0
-5887 1076 0
5885 -1092 5886 5887 0
-5888 1192 0
-5889 1087 0
-5890 1082 0
5889 5888 -1092 5890 0
-5900 1212 0
-5901 -67 0
-5902 -78 0
-5902 1091 0
5901 -1092 5902 5900 0
-5903 -2 0
-5904 954 0
-5905 -9 0
-1093 5904 5905 5903 0
-5906 -13 0
-5907 1009 0
-5908 1008 0
5907 5908 -1093 5906 0
-5912 1157 0
-5913 1071 0
-5914 -47 0
5914 5913 -1093 5912 0
-5915 1178 0
-5916 -53 0
-5916 1078 0
-5917 -54 0
5917 -1093 5916 5915 0
-5921 -28 0
-5922 1089 0
-5923 1088 0
5923 -1093 5921 5922 0
-5924 1213 0
-5925 -70 0
-5925 1097 0
-5926 1094 0
5925 -1093 5924 5926 0
-5930 1215 0
-5931 -72 0
-5931 1099 0
1096 -5932 0
5931 5932 -1093 5930 0
-5933 -2 0
-5934 -8 0
-5934 955 0
-5935 953 0
-1094 5935 5934 5933 0
-5936 -13 0
-5937 1010 0
-5938 -21 0
-5938 1008 0
-1094 5937 5938 5936 0
-5942 1158 0
-5943 -46 0
-5943 1072 0
-5944 -48 0
-5944 1070 0
5944 -1094 5942 5943 0
-5945 1179 0
-5946 1079 0
-5947 -55 0
-5947 1077 0
5945 -1094 5947 5946 0
-5948 1194 0
-5949 1085 0
-5950 -61 0
5950 5948 -1094 5949 0
-5951 -28 0
-5951 1204 0
-5952 -64 0
-5952 1090 0
-5953 1088 0
5953 -1094 5951 5952 0
-5954 1213 0
-5955 -69 0
-5955 1097 0
-5956 1093 0
5956 5954 -1094 5955 0
-5957 1216 0
-5958 -71 0
-5958 1100 0
-5959 1095 0
-1094 5959 5957 5958 0
-5963 -2 0
-5964 956 0
-5965 953 0
-1095 5964 5965 5963 0
-5966 -13 0
-5967 1011 0
-5968 -22 0
-1095 5968 5967 5966 0
-5969 1131 0
-5970 1065 0
-5971 -41 0
5969 -1095 5970 5971 0
-5972 1159 0
-5973 -46 0
-5974 -49 0
5973 -1095 5972 5974 0
-5975 1180 0
-5976 1080 0
-5977 -56 0
-5977 1077 0
5975 -1095 5976 5977 0
-5978 -27 0
-5978 1195 0
-5979 -59 0
-5979 1086 0
-5980 -62 0
-5980 1083 0
5980 5978 -1095 5979 0
-5981 -28 0
-5981 1205 0
-5982 -64 0
-5982 1091 0
-5983 -67 0
-5983 1088 0
5982 -1095 5981 5983 0
-5987 1216 0
-5988 -70 0
-5988 1100 0
-5989 -76 0
-5989 1094 0
5989 -1095 5987 5988 0
-6012 1092 0
-6020 1218 0
-6021 -71 0
-6021 1102 0
-6022 1095 0
6021 6022 6020 -1096 0
-6023 -2 0
-6024 955 0
-6025 -10 0
-6025 954 0
-1097 6025 6024 6023 0
-6026 -13 0
-6027 -20 0
-6027 1010 0
-6028 1009 0
-1097 6027 6028 6026 0
-6029 1133 0
-6030 -39 0
-6031 -40 0
6029 6030 -1097 6031 0
-6032 1161 0
-6033 -47 0
-6033 1072 0
-6034 -48 0
-6034 1071 0
6033 -1097 6032 6034 0
-6035 1182 0
-6036 -54 0
-6036 1079 0
-6037 -55 0
-6037 1078 0
6035 -1097 6037 6036 0
-6038 -27 0
-6038 1197 0
-6039 1085 0
-6040 -61 0
-6040 1084 0
6040 6038 -1097 6039 0
-6041 -28 0
-6042 1090 0
-6043 1089 0
6042 -1097 6041 6043 0
-6044 -29 0
-6044 1213 0
-6045 1094 0
-6046 1093 0
6045 -1097 6044 6046 0
-6047 1219 0
-6048 -74 0
-6048 1100 0
-6049 -76 0
-6049 1098 0
-1097 6049 6047 6048 0
-6050 1220 0
-6051 -75 0
-6052 1099 0
6052 6051 -1097 6050 0
-6053 -2 0
-6054 -9 0
-6054 956 0
-6055 954 0
-1098 6054 6055 6053 0
-6062 1162 0
-6063 1073 0
-6064 1071 0
6063 -1098 6062 6064 0
-6065 1183 0
-6066 -54 0
-6066 1080 0
-6067 -56 0
-6067 1078 0
6065 -1098 6066 6067 0
-6068 1198 0
-6069 1086 0
-6070 -62 0
6068 -1098 6069 6070 0
-6071 -28 0
-6071 1208 0
-6072 1091 0
-6073 -67 0
-6073 1089 0
6072 -1098 6071 6073 0
-6077 1219 0
-6078 -73 0
-6078 1100 0
-6079 -76 0
-6079 1097 0
6079 -1098 6077 6078 0
-6080 1221 0
-6081 1102 0
-6082 -78 0
-6082 1099 0
6081 -1098 6082 6080 0
-6083 -2 0
-6084 -9 0
-6085 954 0
-1099 6084 6085 6083 0
-6086 -13 0
-6087 -20 0
-6088 1009 0
-1099 6087 6088 6086 0
1135 -6089 0
-6090 -39 0
-6091 -42 0
6089 6090 -1099 6091 0
-6095 1184 0
-6096 1081 0
-6097 1078 0
-1099 6095 6097 6096 0
-6098 -27 0
-6098 1199 0
-6099 -60 0
-6100 -63 0
-6100 1084 0
6099 6098 -1099 6100 0
-6104 1215 0
-6105 -69 0
-6105 1096 0
-6106 1093 0
6105 6104 -1099 6106 0
-6107 1220 0
-73 -6108 0
-6108 1101 0
-6109 -77 0
-6109 1097 0
6109 -1099 6107 6108 0
-6110 1221 0
-6111 -74 0
-6112 1098 0
6111 -1099 6112 6110 0
-6116 -13 0
-6117 -21 0
-6118 -22 0
-6118 1010 0
-1100 6117 6118 6116 0
-6122 1164 0
-6123 1073 0
-6124 -49 0
-1100 6122 6123 6124 0
-6127 1079 0
-6128 -27 0
-6128 1200 0
-6129 1086 0
-6130 -62 0
6128 -1100 6129 6130 0
-6131 1210 0
-6132 1091 0
-6133 -67 0
6132 6131 -1100 6133 0
-6137 1219 0
-6138 -73 0
-6138 1098 0
-6139 1097 0
6139 6137 -1100 6138 0
-6146 -13 0
-6147 -21 0
-6147 1012 0
-6148 1010 0
-1101 6147 6148 6146 0
1137 -6149 0
-6150 -40 0
-6151 -42 0
6149 -1101 6150 6151 0
1165 -6152 0
-6153 -48 0
-6154 1072 0
6153 6154 6152 -1101 0
-6155 1186 0
-6156 -55 0
-6156 1081 0
-6157 1079 0
6157 6155 -1101 6156 0
-6158 -27 0
-6159 -61 0
-6159 1087 0
-6160 -63 0
-6160 1085 0
6159 6160 -1101 6158 0
-6164 -29 0
-6164 1217 0
-6165 -70 0
1096 -6165 0
-6166 1094 0
6165 6166 -1101 6164 0
-6167 1220 0
-6168 -73 0
-6168 1099 0
-6169 -75 0
-6169 1097 0
6169 6167 -1101 6168 0
-6170 1222 0
-6171 1102 0
-6172 1100 0
-1101 6171 6170 6172 0
-6179 1138 0
-6180 -41 0
-6181 -42 0
-1102 6179 6180 6181 0
-6182 1166 0
-6183 1074 0
-6184 1073 0
-1102 6182 6184 6183 0
-6185 1187 0
-6186 1081 0
-6187 1080 0
-1102 6185 6187 6186 0
-6188 1202 0
-6189 -62 0
-6190 1086 0
-1102 6188 6190 6189 0
-6191 1212 0
-6192 -67 0
-6193 1091 0
-1102 6193 6191 6192 0
-6197 1221 0
-6198 -74 0
-6198 1099 0
-6199 -75 0
-6199 1098 0
-1102 6197 6199 6198 0
-6200 1222 0
-6201 -76 0
-6201 1101 0
-6202 -77 0
-6202 1100 0
-1102 6202 6200 6201 0
-6203 967 0
-6204 -4 0
-6205 -5 0
6203 -1103 6205 6204 0
-6206 1022 0
-6207 1014 0
-6208 -16 0
-1103 6207 6208 6206 0
-6212 1139 0
-6213 -44 0
-6213 1111 0
-6214 -51 0
-6214 1104 0
-1103 6214 6212 6213 0
-6218 -38 0
-6219 1113 0
-6220 -53 0
-6220 1106 0
-1103 6219 6218 6220 0
-6222 1114 0
-6224 -40 0
-6225 -48 0
-6225 1115 0
-6226 -55 0
-6226 1108 0
-1103 6225 6226 6224 0
-6227 -41 0
-6228 -49 0
-6228 1116 0
-6229 -56 0
-6229 1109 0
-1103 6229 6227 6228 0
-6230 -42 0
-6231 1117 0
-6232 1110 0
-1103 6231 6232 6230 0
-6233 968 0
-6234 -4 0
-6235 -6 0
-1104 6233 6235 6234 0
-6236 1023 0
-6237 1015 0
-6238 -17 0
-1104 6237 6238 6236 0
-6239 1068 0
-6240 1060 0
-6241 -27 0
-1104 6239 6240 6241 0
-6242 1139 0
-6243 1111 0
-6244 -51 0
-6244 1103 0
6243 -1104 6242 6244 0
-6248 -38 0
-6249 1119 0
-6250 1106 0
6250 -1104 6248 6249 0
-6254 -40 0
-6255 -48 0
1121 -6255 0
-6256 1108 0
6256 6255 -1104 6254 0
-6257 -41 0
-6258 -49 0
-6258 1122 0
-6259 -62 0
-6259 1109 0
-1104 6259 6257 6258 0
-6260 -42 0
-6261 -50 0
-6261 1123 0
-6262 1110 0
6262 -1104 6261 6260 0
-6263 969 0
-6264 -4 0
-6265 958 0
6263 -1105 6264 6265 0
-6266 1024 0
-6267 1016 0
-6268 1013 0
-1105 6268 6267 6266 0
-6269 1069 0
-6270 1061 0
-6271 1058 0
-1105 6269 6271 6270 0
-6287 -41 0
-6288 1127 0
-6289 1109 0
-1105 6288 6287 6289 0
-6290 -42 0
-6291 1128 0
-6292 1110 0
6291 6292 6290 -1105 0
-6296 1025 0
-6297 1017 0
-6298 1013 0
-1106 6298 6297 6296 0
-6299 1070 0
-6300 1062 0
-6301 1058 0
-1106 6299 6301 6300 0
-6302 1141 0
-6303 -43 0
-6304 -53 0
-1106 6304 6302 6303 0
-6306 1119 0
-6308 -37 0
-6308 1152 0
-6309 -45 0
-6309 1124 0
-6310 1105 0
-1106 6309 6310 6308 0
-6314 -40 0
-6315 -48 0
-6316 1108 0
6316 -1106 6315 6314 0
-6317 -41 0
-6318 -49 0
-6318 1131 0
-6319 1109 0
-1106 6319 6318 6317 0
-6320 -42 0
-6321 -50 0
-6321 1132 0
-6322 1110 0
-1106 6322 6321 6320 0
-6326 1026 0
-6327 1018 0
-6328 1013 0
-1107 6326 6327 6328 0
-6329 1071 0
-6330 1063 0
-6331 1058 0
-1107 6329 6331 6330 0
-6332 1142 0
-6333 -43 0
-6333 1114 0
-6334 -54 0
-6334 1103 0
-1107 6333 6332 6334 0
-6335 1148 0
-6336 -44 0
-6337 -60 0
6337 -1107 6336 6335 0
-6338 -37 0
-6338 1153 0
-6339 -45 0
-6339 1125 0
-6340 1105 0
6339 6340 6338 -1107 0
-6341 -38 0
-6342 -46 0
-6342 1129 0
-6343 1106 0
6343 6341 6342 -1107 0
-6344 -40 0
-6345 -48 0
-6345 1133 0
-6346 1108 0
6346 -1107 6345 6344 0
-6347 -41 0
-6348 -49 0
-6348 1134 0
-6349 1109 0
-1107 6349 6348 6347 0
-6350 -42 0
1135 -6351 0
-6352 1110 0
6351 -1107 6350 6352 0
-6353 972 0
-6354 -4 0
-6355 958 0
-1108 6353 6354 6355 0
-6356 1027 0
-6357 1019 0
-6358 1013 0
-1108 6357 6358 6356 0
-6359 1072 0
-6360 1064 0
-6361 1058 0
-1108 6359 6361 6360 0
-6362 1143 0
-6363 -43 0
-6363 1115 0
-6364 -55 0
-1108 6363 6362 6364 0
-6368 -37 0
-6368 1154 0
-6369 -45 0
-6369 1126 0
-6370 -66 0
-6370 1105 0
-1108 6370 6368 6369 0
-6374 -39 0
-6375 -47 0
-6375 1133 0
-6376 1107 0
6376 -1108 6375 6374 0
-6377 -41 0
-6378 -49 0
-6378 1136 0
-6379 1109 0
-1108 6379 6378 6377 0
-6380 -42 0
-6381 -50 0
1137 -6381 0
-6382 -77 0
-6382 1110 0
-1108 6382 6381 6380 0
-6383 973 0
-6384 -4 0
-6385 958 0
-1109 6383 6385 6384 0
-6392 1144 0
-6393 1116 0
-6394 1103 0
6394 6393 6392 -1109 0
-6404 -39 0
-6405 1134 0
-6406 1107 0
6405 6406 6404 -1109 0
-6408 -48 0
-6410 -42 0
-6411 -50 0
-6411 1138 0
-6412 1110 0
-1109 6412 6411 6410 0
-6413 974 0
-6414 -4 0
-6414 966 0
-6415 958 0
-1110 6413 6415 6414 0
-6422 1145 0
-6423 -43 0
-6423 1117 0
-6424 1103 0
6423 6424 -1110 6422 0
-6431 1160 0
-6432 -46 0
-6433 -72 0
-1110 6433 6431 6432 0
-6437 -40 0
-6438 -48 0
-6438 1137 0
-6439 -77 0
-6439 1108 0
6438 -1110 6439 6437 0
-6441 1138 0
-6443 975 0
-6444 -5 0
-6444 960 0
-6445 -6 0
-6445 959 0
-1111 6443 6444 6445 0
-6446 1030 0
-6447 1015 0
-6448 1014 0
6448 -1111 6447 6446 0
-6449 1075 0
-6450 -26 0
-6450 1060 0
-6451 -27 0
-6451 1059 0
-1111 6450 6449 6451 0
-6452 1139 0
-6453 -43 0
-6454 1103 0
6453 6454 -1111 6452 0
-6455 -37 0
-6455 1167 0
-6456 -52 0
-6456 1118 0
-6457 -58 0
-6457 1112 0
6457 6456 -1111 6455 0
-6458 -38 0
-6459 1119 0
-6460 1113 0
6460 6458 -1111 6459 0
-6461 -39 0
-6462 -54 0
-6462 1120 0
-6463 1114 0
6462 6463 -1111 6461 0
-6467 -41 0
-6468 1122 0
-6469 1116 0
6469 -1111 6467 6468 0
-6470 -42 0
-6471 1123 0
-6472 1117 0
6472 6471 -1111 6470 0
-6473 976 0
-6474 -5 0
-6475 959 0
-1112 6473 6475 6474 0
-6485 1167 0
-6486 -51 0
-6486 1118 0
-6487 -58 0
-6487 1111 0
-1112 6487 6485 6486 0
-6488 -38 0
-6488 1173 0
-6489 -53 0
-6489 1124 0
-6490 -64 0
-6490 1113 0
-1112 6490 6488 6489 0
-6491 -39 0
-6492 1125 0
-6493 1114 0
-1112 6492 6491 6493 0
-6494 -40 0
-6495 1126 0
-6496 1115 0
6496 -1112 6494 6495 0
-6500 -42 0
1128 -6501 0
-6502 1117 0
-1112 6502 6501 6500 0
-6509 1077 0
-6510 1062 0
-6511 -29 0
-6511 1059 0
-1113 6510 6509 6511 0
-6512 1141 0
-6513 1106 0
-6514 1103 0
6513 -1113 6512 6514 0
-6515 1168 0
-6516 1119 0
-6517 1111 0
-1113 6516 6517 6515 0
-6518 -37 0
-6518 1173 0
-6519 -52 0
-6519 1124 0
-6520 -64 0
-6520 1112 0
-1113 6519 6518 6520 0
-6521 -39 0
-6522 1129 0
-6523 1114 0
-1113 6522 6521 6523 0
-6524 -40 0
-6525 -55 0
-6525 1130 0
-6526 1115 0
6526 -1113 6524 6525 0
-6527 -41 0
-6528 1131 0
-6529 1116 0
-1113 6528 6529 6527 0
-6533 978 0
-6534 -5 0
-6534 963 0
-6535 -9 0
-6535 959 0
-1114 6535 6534 6533 0
-6536 1033 0
-6537 -16 0
-6537 1018 0
-6538 1014 0
-1114 6538 6537 6536 0
-6539 1078 0
-6540 1063 0
-6541 1059 0
-1114 6540 6541 6539 0
-6542 1142 0
-6543 -43 0
-6543 1107 0
-6544 -47 0
-6544 1103 0
6543 -1114 6542 6544 0
-6545 1169 0
-6546 -51 0
-6546 1120 0
-6547 -60 0
-6547 1111 0
-1114 6547 6545 6546 0
-6548 1174 0
-6549 1125 0
-6550 1112 0
6549 6550 6548 -1114 0
-6551 -38 0
-6552 -53 0
-6552 1129 0
-6553 1113 0
-1114 6553 6551 6552 0
-6554 -40 0
-6555 -55 0
-6555 1133 0
-6556 -73 0
-6556 1115 0
6556 -1114 6555 6554 0
-6557 -41 0
-6558 -56 0
1134 -6558 0
-6559 -74 0
-6559 1116 0
-1114 6558 6559 6557 0
-6560 -42 0
-6561 -57 0
1135 -6561 0
-6562 -75 0
-6562 1117 0
-1114 6561 6562 6560 0
-6563 979 0
-6564 -5 0
-6564 964 0
-6565 -10 0
-6565 959 0
-1115 6563 6565 6564 0
-6566 1034 0
-6567 -16 0
-6567 1019 0
-6568 -21 0
-6568 1014 0
-1115 6566 6568 6567 0
-6569 1079 0
-6570 1064 0
-6571 1059 0
-1115 6569 6570 6571 0
-6572 1143 0
-6573 -43 0
-6573 1108 0
-6574 -48 0
-6574 1103 0
6573 -1115 6572 6574 0
-6575 1170 0
-6576 -51 0
-6576 1121 0
-6577 -61 0
-6577 1111 0
-1115 6576 6575 6577 0
-6578 -37 0
-6578 1175 0
-6579 -52 0
-6579 1126 0
-6580 -66 0
-6580 1112 0
-1115 6580 6578 6579 0
-6581 -38 0
-6581 1179 0
-6582 -53 0
-6582 1130 0
-6583 -70 0
-6583 1113 0
-1115 6582 6581 6583 0
-6584 -39 0
-6585 -54 0
1133 -6585 0
-6586 1114 0
6585 -1115 6584 6586 0
-6587 -41 0
-6588 -56 0
-6588 1136 0
-6589 -76 0
-6589 1116 0
-1115 6588 6589 6587 0
-6590 -42 0
-6591 -57 0
1137 -6591 0
-6592 -77 0
-6592 1117 0
-1115 6591 6592 6590 0
-6593 980 0
-6594 -5 0
-6594 965 0
-6595 959 0
-1116 6594 6595 6593 0
-6596 1035 0
-6597 -16 0
-6598 -22 0
-6598 1014 0
-1116 6597 6598 6596 0
-6599 1080 0
-6600 1065 0
-6601 1059 0
-1116 6599 6601 6600 0
-6602 1144 0
-6603 1109 0
-6604 1103 0
-1116 6603 6602 6604 0
-6605 1171 0
-6606 -51 0
-6606 1122 0
-6607 -62 0
-6607 1111 0
6607 6606 6605 -1116 0
-6608 -37 0
-6608 1176 0
-6609 -52 0
-6609 1127 0
-6610 -67 0
-6610 1112 0
-1116 6609 6608 6610 0
-6617 -40 0
-6618 -55 0
-6618 1136 0
-6619 1115 0
-1116 6618 6619 6617 0
-6620 -42 0
-6621 -57 0
-6621 1138 0
-6622 1117 0
-1116 6622 6621 6620 0
-6623 981 0
-6624 -5 0
-6625 959 0
-1117 6623 6625 6624 0
-6626 1036 0
-6627 -16 0
-6628 1014 0
-1117 6627 6628 6626 0
-6632 1145 0
-6633 1110 0
-6634 1103 0
-1117 6633 6634 6632 0
-6635 1172 0
-6636 1123 0
-6637 1111 0
6636 6637 6635 -1117 0
-6638 1177 0
-6639 1128 0
-6640 1112 0
6639 -1117 6640 6638 0
-6644 -39 0
-6645 -54 0
-6645 1135 0
-6646 1114 0
-1117 6645 6646 6644 0
-6650 -41 0
-6651 1138 0
-6652 1116 0
-1117 6651 6650 6652 0
-6653 982 0
-6654 961 0
-6655 960 0
-1118 6653 6654 6655 0
-6656 1037 0
-6657 -17 0
-6657 1016 0
-6658 -18 0
-6658 1015 0
-1118 6656 6657 6658 0
-6659 1082 0
-6660 -27 0
-6660 1061 0
-6661 -28 0
-6661 1060 0
-1118 6659 6661 6660 0
-6665 1167 0
-6666 -51 0
-6667 -52 0
-6667 1111 0
-1118 6667 6666 6665 0
-6668 -38 0
-6668 1188 0
-6669 -59 0
-6669 1124 0
-6670 1119 0
-1118 6670 6669 6668 0
-6671 -39 0
-6672 -60 0
-6672 1125 0
-6673 -65 0
-6673 1120 0
-1118 6673 6671 6672 0
-6674 -40 0
-6675 1126 0
-6676 1121 0
-1118 6676 6675 6674 0
-6677 -41 0
-6678 -62 0
-6678 1127 0
-6679 1122 0
-1118 6678 6677 6679 0
-6680 -42 0
-6681 -63 0
-6681 1128 0
-6682 1123 0
-1118 6682 6680 6681 0
-6684 962 0
-6685 960 0
-6686 1038 0
-6687 -17 0
-6688 1015 0
-1119 6688 6687 6686 0
-6689 1083 0
-6690 -27 0
-6690 1062 0
-6691 -29 0
-6691 1060 0
-1119 6689 6690 6691 0
-6695 1168 0
-6696 1113 0
-6697 1111 0
-1119 6696 6695 6697 0
-6698 -37 0
-6698 1188 0
-6699 -58 0
-6699 1124 0
-6700 -64 0
-6700 1118 0
-1119 6699 6698 6700 0
-6701 -39 0
-6702 -60 0
-6702 1129 0
-6703 1120 0
-1119 6703 6702 6701 0
-6704 1194 0
-6705 1130 0
-6706 1121 0
-1119 6706 6705 6704 0
-6707 -41 0
-6708 -62 0
-6709 -71 0
-6709 1122 0
-1119 6708 6709 6707 0
-6710 -42 0
-6711 -63 0
1132 -6711 0
-6712 -72 0
-6712 1123 0
-1119 6712 6711 6710 0
-6713 984 0
-6714 -6 0
-6714 963 0
-6715 -9 0
-6715 960 0
-1120 6714 6715 6713 0
-6716 1039 0
-6717 -17 0
-6717 1018 0
-6718 1015 0
-1120 6718 6717 6716 0
-6719 1084 0
-6720 -27 0
-6720 1063 0
-6721 1060 0
-1120 6721 6720 6719 0
-6722 1148 0
-6723 1107 0
-6724 -47 0
-6724 1104 0
6723 6724 6722 -1120 0
-6725 1169 0
-6726 -51 0
-6726 1114 0
-6727 -54 0
-6727 1111 0
-1120 6726 6727 6725 0
-6728 -37 0
-6728 1189 0
-6729 -58 0
-6729 1125 0
-6730 -65 0
-6730 1118 0
-1120 6729 6730 6728 0
-6731 -38 0
-6731 1193 0
-6732 -59 0
-6732 1129 0
-6733 -69 0
-6733 1119 0
-1120 6732 6731 6733 0
-6734 -40 0
-6735 1133 0
-6736 1121 0
6736 6735 -1120 6734 0
-6740 -42 0
1135 -6741 0
-6742 1123 0
6741 -1120 6742 6740 0
-6743 985 0
-6744 -6 0
-6744 964 0
-6745 -10 0
-6745 960 0
-1121 6743 6745 6744 0
-6746 1040 0
-6747 -17 0
-6747 1019 0
-6748 -21 0
-6748 1015 0
-1121 6747 6748 6746 0
-6749 1085 0
-6750 -27 0
-6750 1064 0
-6751 1060 0
-1121 6749 6750 6751 0
-6752 1149 0
-6753 -44 0
-6753 1108 0
-6754 -48 0
-6754 1104 0
-1121 6754 6752 6753 0
-6755 1170 0
-6756 -51 0
-6757 -55 0
-1121 6756 6757 6755 0
-6758 -37 0
-6758 1190 0
-6759 -58 0
-6759 1126 0
-6760 -66 0
-6760 1118 0
6759 -1121 6758 6760 0
-6761 -38 0
-6761 1194 0
-6762 -59 0
-6762 1130 0
-6763 -70 0
-6763 1119 0
-1121 6763 6761 6762 0
-6764 -39 0
-6765 -60 0
-6765 1133 0
-6766 -73 0
-6766 1120 0
6766 6765 6764 -1121 0
-6767 -41 0
-6768 1136 0
-6769 1122 0
6768 -1121 6769 6767 0
-6770 -42 0
-6771 -63 0
1137 -6771 0
-6772 -77 0
1123 -6772 0
-1121 6772 6770 6771 0
-6773 986 0
-6774 -6 0
-6774 965 0
-6775 960 0
-1122 6773 6775 6774 0
-6776 1041 0
-6777 -17 0
-6778 -22 0
-1122 6776 6777 6778 0
-6779 1086 0
-6780 -27 0
-6780 1065 0
-6781 -32 0
-6781 1060 0
-1122 6779 6781 6780 0
-6782 1150 0
-6783 -44 0
-6783 1109 0
-6784 -49 0
-1122 6783 6782 6784 0
-6785 1171 0
-6786 -51 0
-6786 1116 0
-6787 -56 0
-6787 1111 0
-1122 6786 6785 6787 0
-6788 -37 0
-6788 1191 0
-6789 -58 0
-6789 1127 0
-6790 -67 0
-6790 1118 0
-1122 6789 6788 6790 0
-6791 -38 0
-6791 1195 0
-6792 -59 0
-6792 1131 0
-6793 1119 0
-1122 6792 6791 6793 0
-6794 -39 0
-6795 -60 0
-6796 -74 0
-6796 1120 0
-1122 6795 6794 6796 0
-6797 -40 0
-6798 -61 0
-6798 1136 0
-6799 -76 0
1121 -6799 0
-1122 6798 6797 6799 0
-6800 -42 0
-6801 1138 0
-6802 1123 0
-1122 6802 6801 6800 0
987 -6803 0
-6804 -6 0
-6804 966 0
-6805 960 0
6803 -1123 6804 6805 0
-6806 1042 0
-6807 -17 0
-6807 1021 0
-6808 1015 0
-1123 6807 6808 6806 0
-6809 1087 0
-6810 -27 0
-6811 -33 0
-1123 6809 6810 6811 0
-6812 1151 0
-6813 1110 0
-6814 -50 0
-6814 1104 0
6813 -1123 6814 6812 0
-6815 1172 0
-6816 1117 0
-6817 1111 0
6816 6817 6815 -1123 0
-6818 -37 0
-6818 1192 0
-6819 -58 0
-6819 1128 0
-6820 -68 0
-6820 1118 0
-1123 6819 6818 6820 0
-6821 -38 0
-6821 1196 0
-6822 -59 0
-6822 1132 0
-6823 -72 0
-6823 1119 0
-1123 6822 6821 6823 0
-6824 -39 0
1135 -6825 0
-6826 1120 0
6825 -1123 6826 6824 0
-6827 -40 0
-6828 -61 0
-6828 1137 0
-6829 1121 0
-1123 6828 6829 6827 0
-6833 988 0
-6834 962 0
-6835 961 0
-1124 6833 6834 6835 0
-6836 1043 0
-6837 -18 0
-6837 1017 0
-6838 1016 0
-1124 6836 6838 6837 0
-6842 1152 0
-6843 -45 0
-6844 -46 0
-1124 6843 6842 6844 0
-6845 1173 0
-6846 1113 0
-6847 1112 0
-1124 6846 6847 6845 0
-6851 -39 0
-6852 -65 0
-6853 1125 0
-1124 6853 6852 6851 0
-6854 -40 0
-6855 1130 0
-6856 1126 0
-1124 6855 6856 6854 0
-6860 -42 0
-6861 -68 0
-6862 1128 0
-1124 6861 6862 6860 0
-6863 989 0
-6864 -7 0
-6864 963 0
-6865 -9 0
-6865 961 0
-1125 6864 6865 6863 0
-6866 1044 0
-6867 -18 0
-6867 1018 0
-6868 1016 0
-1125 6866 6867 6868 0
-6869 1089 0
-6870 -28 0
-6871 1061 0
-1125 6869 6870 6871 0
-6872 1153 0
-6873 -45 0
-6873 1107 0
-6874 -47 0
-6874 1105 0
-1125 6874 6872 6873 0
-6875 1174 0
-6876 -52 0
-6876 1114 0
-6877 -54 0
-6877 1112 0
-1125 6877 6875 6876 0
-6878 1189 0
-6879 1120 0
-6880 1118 0
-1125 6879 6878 6880 0
-6881 -38 0
-6882 1129 0
-6883 1124 0
-1125 6883 6881 6882 0
-6884 -40 0
-6885 1133 0
-6886 1126 0
-1125 6885 6886 6884 0
-6887 -41 0
-6888 1134 0
-6889 1127 0
-1125 6888 6889 6887 0
-6890 -42 0
-6891 -68 0
-6892 1128 0
-1125 6891 6890 6892 0
-6893 990 0
-6894 -7 0
-6895 -10 0
-1126 6893 6894 6895 0
-6899 1090 0
-6900 -28 0
-6900 1064 0
-6901 1061 0
-1126 6899 6900 6901 0
-6902 1154 0
-6903 -45 0
-6904 -48 0
-1126 6904 6902 6903 0
-6905 1175 0
-6906 -52 0
-6906 1115 0
-6907 -55 0
-6907 1112 0
-1126 6906 6905 6907 0
-6909 1121 0
-6917 -41 0
-6918 -67 0
-6918 1136 0
-6919 1127 0
-1126 6918 6919 6917 0
-6923 991 0
-6924 965 0
961 -6925 0
-1127 6923 6925 6924 0
-6926 1046 0
-6927 -18 0
-6928 -22 0
-1127 6927 6926 6928 0
-6929 1091 0
-6930 -28 0
-6930 1065 0
-6931 1061 0
-1127 6929 6930 6931 0
-6932 1155 0
-6933 -45 0
-6933 1109 0
-6934 -49 0
-6934 1105 0
6933 -1127 6932 6934 0
-6935 1176 0
-6936 -52 0
-6936 1116 0
-6937 -56 0
-6937 1112 0
6937 6936 6935 -1127 0
-6938 1191 0
-6939 -58 0
-6939 1122 0
-6940 -62 0
-6940 1118 0
-1127 6939 6938 6940 0
-6941 -38 0
-6941 1205 0
-6942 -64 0
-6942 1131 0
-6943 -71 0
-6943 1124 0
6943 6942 6941 -1127 0
-6944 -39 0
-6945 -65 0
-6946 -74 0
-6946 1125 0
6945 -1127 6946 6944 0
-6947 -40 0
-6948 -66 0
-6948 1136 0
-6949 1126 0
-1127 6948 6947 6949 0
-6950 -42 0
-6951 -68 0
-6951 1138 0
-6952 1128 0
-1127 6952 6951 6950 0
-6953 992 0
-6954 966 0
-6955 961 0
-1128 6953 6955 6954 0
-6956 1047 0
-6957 -18 0
-6957 1021 0
-6958 1016 0
-1128 6957 6958 6956 0
-6959 1092 0
-6960 -28 0
-6961 -33 0
-1128 6959 6960 6961 0
-6962 1156 0
-6963 1110 0
-6964 1105 0
-1128 6963 6964 6962 0
-6968 1192 0
-6969 -58 0
-6969 1123 0
-6970 -63 0
-6970 1118 0
-1128 6969 6968 6970 0
-6971 -38 0
-6971 1206 0
-6972 -64 0
-6972 1132 0
-6973 -72 0
-6973 1124 0
-1128 6972 6971 6973 0
-6977 -40 0
-6978 -66 0
1137 -6978 0
-6979 1126 0
-1128 6978 6979 6977 0
-6980 -41 0
-6981 1138 0
-6982 1127 0
-1128 6982 6980 6981 0
-6983 993 0
-6984 -8 0
-6984 963 0
-6985 -9 0
-6985 962 0
-1129 6983 6985 6984 0
-6986 1048 0
-6987 -19 0
-6987 1018 0
-6988 -20 0
-6988 1017 0
-1129 6988 6987 6986 0
-6989 1093 0
-6990 -29 0
-6990 1063 0
-6991 1062 0
-1129 6989 6991 6990 0
-6992 1157 0
-6993 -46 0
-6993 1107 0
-6994 -47 0
-6994 1106 0
6994 -1129 6992 6993 0
-6995 1178 0
-6996 -53 0
-6996 1114 0
-6997 -54 0
6997 -1129 6995 6996 0
-6998 1193 0
-6999 -59 0
-6999 1120 0
-7000 -60 0
-7000 1119 0
-1129 6999 6998 7000 0
-7001 1203 0
-7002 -64 0
-7002 1125 0
-7003 -65 0
-7003 1124 0
7003 -1129 7001 7002 0
-7004 -40 0
-7005 1133 0
-7006 1130 0
7005 7006 7004 -1129 0
-7022 1158 0
-7023 -46 0
-7023 1108 0
-7024 -48 0
-1130 7024 7022 7023 0
-7025 1179 0
-7026 -53 0
-7026 1115 0
-7027 -55 0
-7027 1113 0
-1130 7027 7025 7026 0
-7028 1194 0
-7029 -59 0
-7029 1121 0
-7030 -61 0
-7030 1119 0
7030 -1130 7028 7029 0
-7031 1204 0
-7032 -64 0
-7032 1126 0
-7033 1124 0
7033 -1130 7031 7032 0
-7043 995 0
-7044 965 0
-7045 962 0
-1131 7044 7045 7043 0
-7049 1095 0
-7050 -29 0
-7051 -32 0
-1131 7049 7051 7050 0
-7052 1159 0
-7053 -46 0
-7053 1109 0
-7054 -49 0
1106 -7054 0
-1131 7054 7052 7053 0
-7055 1180 0
-7056 -53 0
-7056 1116 0
-7057 -56 0
-7057 1113 0
7057 -1131 7055 7056 0
-7058 1195 0
-7059 -59 0
-7060 -62 0
7060 7059 7058 -1131 0
-7061 1205 0
-7062 -64 0
-7062 1127 0
-7063 -67 0
-7063 1124 0
-1131 7062 7061 7063 0
-7073 996 0
-7074 966 0
-7075 962 0
-1132 7074 7075 7073 0
-7076 1051 0
-7077 1021 0
-7078 1017 0
-1132 7077 7078 7076 0
1096 -7079 0
-7080 -29 0
-7081 -33 0
7079 -1132 7081 7080 0
-7087 1113 0
-7088 1196 0
-7089 -59 0
-7089 1123 0
-7090 -63 0
-7090 1119 0
-1132 7089 7088 7090 0
-7091 1206 0
-7092 -64 0
-7092 1128 0
-7093 -68 0
-7093 1124 0
-1132 7092 7093 7091 0
-7097 -40 0
-7098 -70 0
1137 -7098 0
-7099 -77 0
-7099 1130 0
-1132 7098 7099 7097 0
-7100 -41 0
-7101 -71 0
1131 -7102 0
-1132 7101 7100 7102 0
-7103 997 0
-7104 -9 0
-7104 964 0
-7105 -10 0
-7105 963 0
-1133 7103 7104 7105 0
-7106 1052 0
-7107 -20 0
-7107 1019 0
-7108 -21 0
-7108 1018 0
-1133 7106 7107 7108 0
-7109 1097 0
-7110 1064 0
-7111 1063 0
-1133 7109 7111 7110 0
-7112 1161 0
-7113 -47 0
-7113 1108 0
-7114 -48 0
-7114 1107 0
7113 7114 7112 -1133 0
-7115 1182 0
-7116 -54 0
1115 -7116 0
-7117 -55 0
-7117 1114 0
-1133 7116 7117 7115 0
-7118 1197 0
-7119 -60 0
1121 -7119 0
-7120 -61 0
-7120 1120 0
7119 -1133 7120 7118 0
-7121 1207 0
-7122 1126 0
-7123 -66 0
-7123 1125 0
7122 7123 7121 -1133 0
-7124 -38 0
-7124 1213 0
-7125 -69 0
-7125 1130 0
-7126 -70 0
-7126 1129 0
7125 7126 7124 -1133 0
-7127 -41 0
-7128 1136 0
-7129 1134 0
7128 -1133 7129 7127 0
1162 -7142 0
-7143 -47 0
-7143 1109 0
-7144 -49 0
-7144 1107 0
7143 7144 7142 -1134 0
-7145 1183 0
-7146 -54 0
-7147 -56 0
-7147 1114 0
7146 -1134 7145 7147 0
-7148 1198 0
-7149 -60 0
-7149 1122 0
-7150 -62 0
-7150 1120 0
7150 -1134 7148 7149 0
-7151 1208 0
-7152 -65 0
-7152 1127 0
-7153 -67 0
-7153 1125 0
-1134 7152 7151 7153 0
-7166 1054 0
-7167 1021 0
-7168 1018 0
-1135 7166 7168 7167 0
1184 -7175 0
-7176 1117 0
-7177 1114 0
7176 7177 7175 -1135 0
1199 -7178 0
-7179 -60 0
-7179 1123 0
-7180 -63 0
-7180 1120 0
7179 7180 7178 -1135 0
-7181 1209 0
-7182 -65 0
-7182 1128 0
-7183 -68 0
-7183 1125 0
7182 7183 7181 -1135 0
-7184 -38 0
1215 -7184 0
-7185 -69 0
-7186 -72 0
7185 7186 7184 -1135 0
-7195 964 0
-7196 1055 0
-7197 -21 0
-7198 -22 0
-1136 7197 7196 7198 0
-7199 1100 0
-7200 1065 0
-7201 1064 0
-1136 7199 7201 7200 0
-7202 1164 0
-7203 -48 0
-7203 1109 0
-7204 -49 0
-7204 1108 0
-1136 7203 7202 7204 0
-7205 1185 0
-7206 -55 0
-7206 1116 0
-7207 -56 0
-7207 1115 0
7207 7206 7205 -1136 0
-7208 1200 0
-7209 -61 0
-7209 1122 0
-7210 -62 0
-7210 1121 0
7210 7209 7208 -1136 0
-7211 1210 0
-7212 -66 0
-7212 1127 0
-7213 -67 0
-7213 1126 0
-1136 7212 7211 7213 0
-7214 1216 0
1131 -7215 0
-7216 1130 0
7215 -1136 7214 7216 0
1186 -7235 0
-7236 -55 0
-7236 1117 0
-7237 -57 0
-7237 1115 0
7237 7236 7235 -1137 0
1201 -7238 0
-7239 -61 0
-7239 1123 0
-7240 -63 0
-7240 1121 0
-1137 7239 7238 7240 0
-7241 1211 0
-7242 -66 0
-7242 1128 0
-7243 -68 0
-7243 1126 0
-1137 7242 7241 7243 0
-7244 1217 0
-7245 1132 0
-7246 1130 0
7245 -1137 7244 7246 0
-7253 1002 0
-7254 966 0
-7255 965 0
-1138 7255 7254 7253 0
-7259 1102 0
-7260 -32 0
-7261 -33 0
7259 -1138 7260 7261 0
-7262 1166 0
-7263 -49 0
-7263 1110 0
-7264 1109 0
7264 7263 7262 -1138 0
-7265 1187 0
-7266 -56 0
-7266 1117 0
-7267 -57 0
-7267 1116 0
7266 7267 7265 -1138 0
-7268 1202 0
-7269 -62 0
-7269 1123 0
-7270 -63 0
7269 7270 7268 -1138 0
-7271 1212 0
-7272 -67 0
-7272 1128 0
-7273 -68 0
7273 7272 -1138 7271 0
-7274 1218 0
-7275 -71 0
-7275 1132 0
-7276 -72 0
-7276 1131 0
7275 -1138 7274 7276 0
-7286 1030 0
-7287 -16 0
-7288 -17 0
-1139 7286 7288 7287 0
-7289 1075 0
-7290 1068 0
-7291 1067 0
-1139 7290 7289 7291 0
-7298 -46 0
-7299 -53 0
-7300 -59 0
-1139 7300 7299 7298 0
-7301 -47 0
-7302 -54 0
-7303 1142 0
-1139 7303 7301 7302 0
-7304 -48 0
-7304 1170 0
-7305 -55 0
-7306 -61 0
-7306 1143 0
-1139 7305 7306 7304 0
-7307 1171 0
-7308 -56 0
-7309 -62 0
-1139 7309 7307 7308 0
-7317 -16 0
-7322 1112 0
-7323 1105 0
-7324 1103 0
-1140 7324 7323 7322 0
-7328 -46 0
-7329 -53 0
-7330 1141 0
-1140 7329 7328 7330 0
-7331 1174 0
-7332 1153 0
-7333 -65 0
-1140 7333 7332 7331 0
-7334 -48 0
-7335 -55 0
-7336 1143 0
-1140 7335 7334 7336 0
-7343 -4 0
-7344 -5 0
-7344 970 0
-7345 967 0
-1141 7345 7343 7344 0
-7352 1113 0
-7353 1106 0
-7354 1103 0
-1141 7354 7352 7353 0
-7355 1168 0
-7359 -52 0
-7364 -48 0
-7365 -55 0
-7365 1158 0
-7366 1143 0
-1141 7366 7364 7365 0
-7370 1181 0
-7371 1160 0
-7372 1145 0
-1141 7372 7370 7371 0
-7373 -4 0
-7374 -5 0
-7374 971 0
-7375 967 0
-1142 7375 7373 7374 0
-7377 1026 0
-7379 1078 0
-7380 1071 0
-7381 1067 0
-1142 7380 7379 7381 0
-7385 -44 0
-7385 1169 0
-7386 -51 0
-7387 1139 0
-1142 7386 7385 7387 0
-7394 -48 0
-7395 -55 0
-7396 1143 0
-1142 7395 7396 7394 0
-7406 1034 0
-7407 -16 0
-7409 1079 0
-7410 1072 0
-7411 1067 0
-1143 7410 7409 7411 0
-7424 -47 0
-7425 -54 0
-7426 1142 0
-1143 7426 7424 7425 0
-7439 1080 0
-7440 1073 0
-7441 1067 0
-1144 7440 7441 7439 0
-7442 1116 0
-7443 1109 0
-7444 -41 0
-1144 7443 7444 7442 0
-7445 -44 0
-7446 1150 0
-7447 -62 0
-7447 1139 0
-1144 7446 7447 7445 0
-7448 -45 0
-7449 -52 0
-7449 1155 0
-7450 -67 0
-1144 7449 7450 7448 0
-7451 -46 0
-7452 -53 0
-7453 1141 0
-1144 7453 7451 7452 0
-7454 -47 0
-7455 -54 0
-7456 1142 0
-1144 7455 7454 7456 0
-7457 -48 0
-7458 -55 0
-7459 1143 0
-1144 7458 7457 7459 0
-7472 1117 0
-7473 1110 0
-7474 -42 0
-1145 7473 7474 7472 0
-7475 -44 0
-7475 1172 0
-7476 -51 0
-7476 1151 0
-7477 -63 0
-7477 1139 0
-1145 7476 7475 7477 0
-7481 -46 0
-7482 1160 0
-7483 -72 0
-1145 7483 7481 7482 0
-7484 -47 0
-7485 -54 0
-7486 -75 0
-7486 1142 0
-1145 7484 7485 7486 0
-7487 -48 0
-7488 -55 0
-7489 1143 0
-1145 7487 7488 7489 0
-7493 -4 0
-7494 -6 0
-7494 969 0
-7495 -7 0
968 -7495 0
-1146 7495 7493 7494 0
-7496 1037 0
-7502 1118 0
-7503 1105 0
-7504 1104 0
-1146 7504 7502 7503 0
-7511 1189 0
-7512 1153 0
-7513 1148 0
-1146 7512 7511 7513 0
-7514 -48 0
-7515 -61 0
-7516 1149 0
7515 -1146 7514 7516 0
-7517 -49 0
-7517 1191 0
-7518 -62 0
-7519 -67 0
7518 -1146 7517 7519 0
-7520 1192 0
-7535 1168 0
-7536 1141 0
-7537 -53 0
-7537 1139 0
-1147 7536 7537 7535 0
-7544 -48 0
-7545 -61 0
-7546 1149 0
-1147 7545 7544 7546 0
-7556 -15 0
-7557 -17 0
-7557 1026 0
-7558 1023 0
-1148 7558 7557 7556 0
-7565 -43 0
-7566 1142 0
-7567 -54 0
-1148 7567 7566 7565 0
-7568 1189 0
-7569 -58 0
-7570 -65 0
-1148 7569 7570 7568 0
-7574 1197 0
-7575 -61 0
-7576 -73 0
-1148 7576 7574 7575 0
-7580 -50 0
-7581 -63 0
-7582 -75 0
-1148 7582 7580 7581 0
-7583 985 0
-7584 972 0
-7585 968 0
-1149 7583 7585 7584 0
-7589 1085 0
-7595 -43 0
-7595 1170 0
-7596 -51 0
-7597 -55 0
-1149 7596 7595 7597 0
-7607 1200 0
-7608 -62 0
-7609 -76 0
-1149 7608 7609 7607 0
-7613 -4 0
-7614 973 0
-7615 968 0
-1150 7613 7614 7615 0
-7616 1041 0
-7617 1028 0
-7618 1023 0
-1150 7616 7617 7618 0
-7619 1086 0
-7620 1073 0
-7621 1068 0
-1150 7620 7621 7619 0
-7622 1122 0
-7623 1109 0
-7624 -41 0
-1150 7623 7624 7622 0
-7625 1171 0
-7626 1144 0
-7627 1139 0
-1150 7626 7627 7625 0
-7637 -48 0
-7646 1042 0
-7647 1029 0
-7648 1023 0
-1151 7647 7648 7646 0
-7658 -45 0
-7659 -58 0
-7660 1146 0
-1151 7659 7660 7658 0
-7682 1124 0
-7685 1173 0
-7686 1141 0
-7687 -53 0
-1152 7686 7687 7685 0
-7688 -44 0
-7688 1188 0
-7689 -58 0
-7689 1147 0
-7690 -59 0
-7690 1146 0
-1152 7689 7690 7688 0
-7694 -48 0
-7695 1158 0
-7696 -70 0
-1152 7696 7695 7694 0
-7700 1206 0
-7701 -68 0
-7701 1160 0
-7702 -72 0
-7702 1156 0
-1152 7701 7702 7700 0
-7703 -4 0
971 -7704 0
-7705 969 0
-1153 7705 7703 7704 0
-7706 1044 0
-7707 1026 0
-7708 1024 0
-1153 7706 7708 7707 0
-7712 1125 0
-7713 -37 0
-7714 -39 0
-1153 7713 7712 7714 0
-7715 -43 0
-7716 1142 0
-7717 -54 0
-1153 7717 7716 7715 0
-7718 -44 0
-7718 1189 0
-7719 -58 0
-7719 1148 0
-7720 1146 0
-1153 7719 7720 7718 0
-7721 -46 0
-7721 1203 0
-7722 -64 0
-7723 -69 0
-7723 1152 0
-1153 7722 7723 7721 0
-7736 1045 0
-7737 -18 0
-7737 1027 0
-7738 1024 0
-1154 7736 7738 7737 0
-7742 1126 0
-7743 -37 0
-7743 1108 0
-7744 -40 0
-1154 7743 7742 7744 0
-7745 -43 0
-7745 1175 0
-7746 -52 0
-7746 1143 0
-7747 1140 0
-1154 7747 7745 7746 0
-7748 -44 0
-7748 1190 0
-7749 1149 0
-7750 -61 0
-7750 1146 0
-1154 7750 7748 7749 0
-7751 -46 0
-7751 1204 0
-7752 -64 0
-7752 1158 0
-7753 1152 0
-1154 7753 7751 7752 0
-7757 -49 0
-7758 -67 0
-7759 -76 0
-1154 7759 7757 7758 0
-7763 -4 0
-7763 991 0
-7764 973 0
-7765 969 0
-1155 7764 7765 7763 0
-7766 1046 0
-7767 1028 0
-7768 -22 0
-7768 1024 0
-1155 7768 7767 7766 0
-7769 1091 0
-7770 -28 0
-7770 1073 0
-7771 1069 0
-1155 7770 7771 7769 0
-7775 -43 0
-7776 -52 0
-7777 1140 0
7776 -1155 7777 7775 0
-7778 -44 0
-7778 1191 0
-7779 -58 0
-7780 -62 0
-7780 1146 0
7779 -1155 7780 7778 0
-7784 -47 0
-7784 1208 0
-7785 -65 0
-7785 1162 0
-7786 -74 0
-7786 1153 0
7785 -1155 7786 7784 0
-7790 1212 0
-7796 1047 0
-7797 1029 0
-7798 1024 0
-1156 7796 7798 7797 0
-7811 -46 0
-7811 1206 0
-7812 -64 0
-7812 1160 0
-7813 -72 0
-1156 7813 7811 7812 0
-7827 1026 0
-7829 1093 0
-7830 1071 0
-7831 1070 0
-1157 7830 7831 7829 0
-7832 1129 0
-7833 -38 0
-7834 -39 0
-1157 7833 7832 7834 0
-7835 -43 0
-7835 1178 0
-7836 -53 0
-7836 1142 0
-7837 -54 0
-7837 1141 0
-1157 7837 7836 7835 0
-7841 -45 0
-7842 -64 0
-7843 1152 0
-1157 7842 7843 7841 0
-7856 1049 0
-7857 1027 0
-7858 -21 0
-7858 1025 0
-1158 7857 7858 7856 0
-7859 1094 0
-7860 1072 0
-7861 1070 0
-1158 7859 7861 7860 0
-7862 1130 0
-7863 -38 0
-7864 -40 0
-1158 7863 7862 7864 0
-7869 1149 0
-7871 -45 0
-7871 1204 0
-7872 -64 0
-7872 1154 0
-7873 1152 0
-1158 7872 7873 7871 0
-7874 -47 0
-7874 1213 0
-7875 1161 0
-7876 1157 0
-1158 7876 7874 7875 0
-7881 -72 0
-7885 970 0
-7886 1050 0
-7887 1028 0
-7888 -22 0
-7888 1025 0
-1159 7886 7887 7888 0
-7898 -44 0
-7899 -59 0
-7900 -62 0
7899 -1159 7900 7898 0
-7911 -72 0
-7915 970 0
-7916 1051 0
-7917 1029 0
-7918 1025 0
-1160 7916 7917 7918 0
-7925 -43 0
-7926 1145 0
-7927 1141 0
-1160 7926 7927 7925 0
-7928 -44 0
-7929 -59 0
-7930 -63 0
-7930 1147 0
-1160 7929 7930 7928 0
-7931 1206 0
-7932 -64 0
-7933 -68 0
-1160 7932 7933 7931 0
-7934 1215 0
-7935 1163 0
-7936 1157 0
7935 7934 7936 -1160 0
-7946 1052 0
-7947 1027 0
-7948 1026 0
-1161 7947 7948 7946 0
-7949 1097 0
-7950 1072 0
-7951 1071 0
-1161 7949 7951 7950 0
-7952 1133 0
-7953 -39 0
-7954 -40 0
-1161 7953 7952 7954 0
-7955 1182 0
-7956 1143 0
-7957 -55 0
-1161 7956 7955 7957 0
-7958 -44 0
-7959 -60 0
-7960 1148 0
-1161 7959 7960 7958 0
-7961 -45 0
-7961 1207 0
-7962 -65 0
-7962 1154 0
-7963 -66 0
-7963 1153 0
-1161 7963 7961 7962 0
-7967 1219 0
-7968 -74 0
-7968 1164 0
-7969 -76 0
-7969 1162 0
-1161 7968 7969 7967 0
-7970 1220 0
-7971 -75 0
-7971 1165 0
-7972 -77 0
-7972 1163 0
-1161 7972 7971 7970 0
-7976 1053 0
-7977 -20 0
-7977 1028 0
-7978 -22 0
-7978 1026 0
-1162 7978 7976 7977 0
-7985 -43 0
-7985 1183 0
-7986 -54 0
-7987 -56 0
-7987 1142 0
-1162 7986 7987 7985 0
-7990 -62 0
-7994 1214 0
-7995 -69 0
-7996 1157 0
-1162 7996 7994 7995 0
-8009 1099 0
-8010 1074 0
-8011 -33 0
-1163 8009 8011 8010 0
1135 -8012 0
-8013 -39 0
-8014 -42 0
-1163 8013 8012 8014 0
-8015 -43 0
-8016 -54 0
-8017 1142 0
-1163 8016 8017 8015 0
-8021 1209 0
-8022 1156 0
-8023 1153 0
-1163 8022 8023 8021 0
-8024 -46 0
-8024 1215 0
-8025 -69 0
-8025 1160 0
-8026 -72 0
-8026 1157 0
-1163 8025 8024 8026 0
-8033 -4 0
-8034 -10 0
-8034 973 0
-8035 972 0
-1164 8033 8035 8034 0
-8042 1136 0
-8043 -40 0
-8044 -41 0
-1164 8042 8043 8044 0
-8054 -46 0
-8054 1216 0
-8055 1159 0
-8056 1158 0
-1164 8056 8054 8055 0
-8058 -73 0
-8060 1222 0
-8061 -77 0
-8061 1166 0
-8062 -78 0
-8062 1165 0
-1164 8061 8062 8060 0
-8069 1101 0
-8070 -31 0
-8070 1074 0
-8071 -33 0
-1165 8069 8070 8071 0
1137 -8072 0
-8073 -40 0
-8074 -42 0
-1165 8072 8073 8074 0
-8084 -46 0
-8084 1217 0
-8085 -70 0
-8085 1160 0
-8086 1158 0
-1165 8085 8086 8084 0
-8087 1220 0
-8088 -73 0
1163 -8088 0
-8089 1161 0
8088 -1165 8089 8087 0
-8090 1222 0
-8091 1166 0
-8092 -78 0
-1165 8091 8092 8090 0
-8093 -4 0
-8093 1002 0
-8094 974 0
-8095 973 0
-1166 8095 8094 8093 0
-8099 1102 0
-8100 -32 0
-8100 1074 0
-8101 -33 0
-1166 8099 8100 8101 0
-8105 -43 0
-8105 1187 0
-8106 1145 0
-8107 1144 0
-1166 8105 8107 8106 0
-8108 -44 0
-8108 1202 0
-8109 -62 0
-8109 1151 0
-8110 -63 0
-8110 1150 0
-1166 8109 8108 8110 0
-8111 -45 0
-8114 -46 0
-8114 1218 0
-8115 -71 0
-8115 1160 0
-8116 -72 0
-8116 1159 0
-1166 8115 8116 8114 0
-8117 1221 0
1163 -8118 0
-8119 -75 0
-8119 1162 0
-1166 8118 8117 8119 0
-8120 1222 0
-8121 1165 0
-8122 1164 0
-1166 8121 8122 8120 0
-8132 1118 0
-8135 -43 0
-8136 -44 0
-8137 -45 0
-8137 1139 0
8135 -1167 8137 8136 0
-8138 1188 0
-8139 -59 0
-8139 1173 0
-8140 -64 0
-1167 8140 8139 8138 0
-8144 -55 0
-8144 1190 0
-8145 -61 0
-8146 1170 0
-1167 8145 8146 8144 0
-8147 -56 0
-8147 1191 0
-8148 -62 0
-8149 -67 0
-8149 1171 0
8148 -1167 8147 8149 0
-8150 -57 0
-8150 1192 0
-8151 -63 0
-8152 -68 0
-1167 8152 8150 8151 0
-8156 1038 0
-8157 -17 0
-8157 1032 0
-8158 1030 0
-1168 8158 8156 8157 0
-8162 1119 0
-8163 1113 0
-8164 1111 0
-1168 8164 8163 8162 0
-8174 -55 0
-8175 -61 0
-8176 1170 0
8175 -1168 8174 8176 0
-8179 1171 0
-8183 -5 0
-8184 978 0
-8185 -9 0
-8185 975 0
-1169 8185 8183 8184 0
-8189 1084 0
-8190 -27 0
-8190 1078 0
-8191 1075 0
-1169 8189 8190 8191 0
-8192 1120 0
-8193 1114 0
-8194 -39 0
-1169 8194 8192 8193 0
-8198 -52 0
-8198 1189 0
-8199 -58 0
-8199 1174 0
-8200 -65 0
-8200 1167 0
-1169 8198 8199 8200 0
-8204 -55 0
-8205 -61 0
-8205 1182 0
-8206 1170 0
-1169 8206 8205 8204 0
-8213 -5 0
-8213 985 0
-8214 979 0
-8215 -10 0
-8215 975 0
-1170 8213 8215 8214 0
-8216 -16 0
-8216 1040 0
-8217 -17 0
-8218 1030 0
-1170 8216 8218 8217 0
-8219 1085 0
-8220 -27 0
-8220 1079 0
-8221 1075 0
-1170 8219 8221 8220 0
-8228 -52 0
-8228 1190 0
-8229 -58 0
-8229 1175 0
-8230 -66 0
-8230 1167 0
-1170 8229 8228 8230 0
-8237 -56 0
-8238 -62 0
-8239 1171 0
-1170 8238 8239 8237 0
-8243 -5 0
-8244 980 0
-8245 975 0
-1171 8243 8245 8244 0
-8249 1086 0
-8250 1080 0
-8251 1075 0
-1171 8249 8251 8250 0
-8258 1191 0
-8259 -58 0
-8260 -67 0
-1171 8258 8260 8259 0
-8261 -53 0
-8262 -59 0
-8262 1180 0
-8263 -71 0
-1171 8261 8263 8262 0
-8264 -54 0
-8264 1198 0
-8265 -60 0
-8266 -74 0
-8266 1169 0
-1171 8265 8264 8266 0
-8267 -55 0
-8267 1200 0
-8268 -61 0
-8269 1170 0
-1171 8268 8267 8269 0
-8270 -57 0
-8270 1202 0
-8271 -63 0
-8271 1187 0
-8272 -78 0
-8272 1172 0
-1171 8270 8272 8271 0
-8273 987 0
-8274 981 0
-8275 975 0
-1172 8274 8275 8273 0
-8276 -16 0
-8282 1123 0
-8283 1117 0
-8284 -42 0
-1172 8283 8284 8282 0
-8285 -43 0
-8286 -44 0
-8286 1145 0
-8287 1139 0
-1172 8285 8286 8287 0
-8288 1192 0
-8289 1177 0
-8290 1167 0
-1172 8289 8288 8290 0
-8291 -53 0
-8292 -59 0
-8292 1181 0
-8293 -72 0
-1172 8292 8291 8293 0
-8297 -55 0
-8298 -61 0
-8299 -77 0
-8299 1170 0
-1172 8298 8297 8299 0
-8300 -56 0
-8300 1202 0
-8301 -62 0
-8302 -78 0
-8302 1171 0
8301 -1172 8302 8300 0
-8303 -5 0
-8304 977 0
-8305 976 0
-1173 8304 8303 8305 0
-8306 -16 0
-8307 1032 0
-8308 1031 0
-1173 8308 8306 8307 0
-8309 1088 0
-8310 -28 0
-8311 1076 0
-1173 8309 8310 8311 0
-8312 1124 0
-8313 1113 0
-8314 1112 0
-1173 8314 8312 8313 0
-8315 -43 0
-8316 1141 0
-8317 -46 0
-1173 8315 8316 8317 0
-8327 -56 0
-8328 -67 0
-8329 1176 0
-1173 8327 8329 8328 0
-8330 1206 0
-8331 -68 0
-8332 -72 0
-1173 8331 8332 8330 0
-8333 -5 0
-8334 978 0
-8335 -9 0
-8335 976 0
-1174 8334 8333 8335 0
-8336 -16 0
-8336 1044 0
-8337 1033 0
-8338 1031 0
-1174 8337 8336 8338 0
-8339 1089 0
-8340 -28 0
-8340 1078 0
-8341 1076 0
-1174 8339 8341 8340 0
-8348 1189 0
-8349 1169 0
-8350 -60 0
-8350 1167 0
-1174 8348 8349 8350 0
-8351 -53 0
-8351 1203 0
-8352 -64 0
-8352 1178 0
-8353 1173 0
-1174 8351 8353 8352 0
-8360 1209 0
-8361 1184 0
-8362 1177 0
-1174 8361 8360 8362 0
-8363 -5 0
-8363 990 0
-8364 979 0
-8365 -10 0
-8365 976 0
-1175 8364 8365 8363 0
-8366 -16 0
-8366 1045 0
-8367 1034 0
-8368 1031 0
-1175 8367 8368 8366 0
-8369 1090 0
-8370 1079 0
-8371 1076 0
-1175 8370 8369 8371 0
-8378 -51 0
-8378 1190 0
-8379 -58 0
-8379 1170 0
-8380 -61 0
-8380 1167 0
-1175 8379 8378 8380 0
-8387 1210 0
-8388 1185 0
-8389 1176 0
-1175 8388 8387 8389 0
-8390 1211 0
-8391 1186 0
-8392 1177 0
8391 8390 8392 -1175 0
-8393 991 0
-8394 980 0
-8395 976 0
-1176 8394 8395 8393 0
-8396 1046 0
-8399 1091 0
-8400 -28 0
-8400 1080 0
-8401 1076 0
-1176 8399 8400 8401 0
-8408 1191 0
-8414 -54 0
-8415 -65 0
-8416 1174 0
8415 -1176 8416 8414 0
-8417 1210 0
-8418 1185 0
-8419 1175 0
8418 -1176 8419 8417 0
-8426 1047 0
-8427 1036 0
-8428 1031 0
-1177 8426 8428 8427 0
-8429 1092 0
-8430 1081 0
-8431 1076 0
-1177 8429 8430 8431 0
-8435 -43 0
-8436 -45 0
-8436 1145 0
-8437 1140 0
-1177 8435 8437 8436 0
-8438 -51 0
-8438 1192 0
-8439 -58 0
-8439 1172 0
-8440 -63 0
-8440 1167 0
-1177 8438 8440 8439 0
-8441 -53 0
-8441 1206 0
-8442 -64 0
-8442 1181 0
-8443 1173 0
-1177 8441 8442 8443 0
-8444 -54 0
-8444 1209 0
-8445 -65 0
-8445 1184 0
-8446 -75 0
-8446 1174 0
8445 -1177 8444 8446 0
-8453 -5 0
-8453 993 0
-8454 978 0
-8455 -9 0
-1178 8455 8453 8454 0
-8462 1129 0
-8463 -38 0
-8463 1114 0
-8464 -39 0
-1178 8463 8464 8462 0
-8465 1157 0
-8466 1142 0
-8467 -47 0
-8467 1141 0
-8468 -51 0
-8469 -59 0
-8470 1168 0
-1178 8468 8470 8469 0
-8474 1213 0
-8483 994 0
-8484 -8 0
-8484 979 0
-8485 -10 0
-8485 977 0
-1179 8484 8483 8485 0
-8486 1049 0
-8487 1034 0
-8488 1032 0
-1179 8487 8488 8486 0
-8489 1094 0
-8490 -29 0
-8490 1079 0
-8491 1077 0
-1179 8489 8491 8490 0
-8492 1130 0
-8493 -38 0
-8493 1115 0
-8494 -40 0
-1179 8493 8492 8494 0
-8495 -43 0
-8496 -46 0
-8496 1143 0
-8497 1141 0
8495 -1179 8496 8497 0
-8498 -51 0
-8498 1194 0
-8499 -59 0
-8499 1170 0
-8500 -61 0
-1179 8498 8500 8499 0
-8501 -52 0
-8502 -64 0
-8503 -66 0
-1179 8502 8503 8501 0
-8509 -76 0
-8516 -16 0
-8516 1050 0
-8517 1035 0
-8518 -22 0
-1180 8518 8517 8516 0
-8521 -32 0
-8525 -43 0
-8526 -46 0
-8527 1141 0
8525 -1180 8526 8527 0
-8528 -51 0
-8528 1195 0
-8529 -59 0
-8530 1168 0
8529 -1180 8530 8528 0
-8540 1218 0
-8541 -72 0
-8542 1181 0
-1180 8540 8542 8541 0
-8543 -5 0
-8544 981 0
-8545 977 0
-1181 8545 8543 8544 0
-8546 1051 0
-8547 1036 0
-8548 1032 0
-1181 8547 8548 8546 0
-8561 1206 0
-8562 -64 0
-8562 1177 0
-8563 -68 0
-1181 8562 8563 8561 0
-8564 1215 0
-8567 -55 0
-8567 1217 0
-8568 1186 0
-8569 -77 0
-8569 1179 0
8568 -1181 8569 8567 0
-8576 -16 0
-8576 1052 0
-8577 -20 0
-8577 1034 0
-8578 -21 0
-8578 1033 0
-1182 8577 8576 8578 0
-8579 1097 0
-8580 1079 0
-8581 1078 0
-1182 8580 8579 8581 0
-8584 -40 0
-8585 -43 0
-8585 1161 0
-8586 -47 0
-8586 1143 0
-8587 -48 0
-8587 1142 0
-1182 8585 8587 8586 0
-8588 -51 0
-8588 1197 0
-8589 -60 0
-8589 1170 0
-8590 -61 0
-8590 1169 0
-1182 8588 8589 8590 0
-8594 -53 0
-8594 1213 0
-8595 -69 0
-8595 1179 0
-8596 -70 0
-8596 1178 0
-1182 8595 8596 8594 0
-8597 1219 0
-8598 -74 0
-8598 1185 0
-8599 -76 0
-8599 1183 0
-1182 8598 8599 8597 0
-8600 1220 0
-8601 -75 0
-8601 1186 0
-8602 -77 0
-8602 1184 0
-1182 8602 8601 8600 0
-8604 980 0
-8606 -16 0
-8606 1053 0
-8607 -20 0
-8607 1035 0
-8608 -22 0
-1183 8608 8606 8607 0
-8609 1098 0
-8610 1080 0
-8611 -32 0
-8611 1078 0
-1183 8610 8611 8609 0
-8612 1134 0
-8613 -39 0
-8614 -41 0
-1183 8613 8614 8612 0
-8615 -43 0
1162 -8615 0
-8616 -47 0
-8617 1142 0
-1183 8615 8616 8617 0
-8621 -52 0
-8622 1176 0
-8623 1174 0
-1183 8621 8622 8623 0
-8627 1219 0
-8628 -73 0
-8628 1185 0
-8629 1182 0
8628 -1183 8629 8627 0
-8630 1221 0
-8631 1187 0
-8632 1184 0
-1183 8631 8632 8630 0
-8633 -5 0
-8633 999 0
-8634 -9 0
-8635 978 0
-1184 8634 8635 8633 0
-8639 1099 0
-8640 1081 0
-8641 -33 0
-1184 8639 8640 8641 0
1135 -8642 0
-8643 -39 0
-8644 -42 0
-1184 8643 8642 8644 0
-8645 -43 0
-8646 -47 0
-8646 1145 0
-8647 1142 0
8645 -1184 8647 8646 0
-8648 -51 0
-8648 1199 0
-8649 -60 0
-8649 1172 0
-8650 -63 0
-8650 1169 0
-1184 8648 8649 8650 0
-8657 1220 0
-8658 1186 0
-8659 1182 0
8658 -1184 8659 8657 0
-8660 1221 0
-8661 1187 0
-8662 -78 0
-8662 1183 0
-1184 8661 8662 8660 0
-8663 -5 0
-8663 1000 0
-8664 -10 0
-8665 979 0
-1185 8664 8665 8663 0
-8669 1100 0
-8670 1080 0
-8671 1079 0
-1185 8669 8671 8670 0
-8672 1136 0
-8673 -40 0
-8674 -41 0
-1185 8672 8673 8674 0
-8675 -43 0
-8675 1164 0
-8676 1144 0
-8677 1143 0
8675 8676 -1185 8677 0
-8678 -51 0
-8679 -61 0
-8679 1171 0
-8680 -62 0
-8680 1170 0
-1185 8679 8680 8678 0
-8681 -52 0
-8682 1176 0
-8683 -67 0
-8683 1175 0
-1185 8682 8683 8681 0
-8684 -53 0
-8684 1216 0
-8685 1180 0
-71 -8686 0
-8686 1179 0
-1185 8685 8686 8684 0
-8687 1219 0
-8688 1183 0
-8689 -74 0
8688 -1185 8689 8687 0
-8690 1222 0
-8691 -77 0
-8691 1187 0
-8692 -78 0
-8692 1186 0
-1185 8691 8692 8690 0
-8693 -5 0
-8693 1001 0
-8694 -10 0
-8694 981 0
-8695 979 0
-1186 8695 8693 8694 0
-8699 1101 0
-8700 -31 0
-8700 1081 0
-8701 -33 0
-8701 1079 0
-1186 8699 8700 8701 0
1137 -8702 0
-8703 -40 0
-8704 -42 0
-1186 8702 8703 8704 0
-8705 -43 0
-8706 -48 0
-8706 1145 0
-8707 -50 0
-8707 1143 0
8705 8707 -1186 8706 0
-8708 -51 0
-8708 1201 0
-8709 -61 0
-8709 1172 0
-8710 -63 0
-8710 1170 0
8708 8710 -1186 8709 0
-8715 -70 0
-8717 1220 0
-8718 1184 0
-8719 1182 0
8718 -1186 8719 8717 0
-8720 1222 0
-8721 1187 0
-8722 -78 0
-8722 1185 0
-1186 8721 8722 8720 0
-8729 1102 0
-8730 -32 0
-8730 1081 0
-8731 -33 0
8729 -1187 8730 8731 0
-8732 1138 0
-8733 -41 0
-8734 -42 0
8732 -1187 8734 8733 0
-8735 -43 0
-8736 -49 0
-8736 1145 0
-8737 -50 0
-8737 1144 0
8735 8736 -1187 8737 0
-8738 -51 0
-8738 1202 0
-8739 1172 0
-8740 1171 0
8738 8740 -1187 8739 0
-8747 1221 0
-8748 -74 0
-8748 1184 0
-8749 -75 0
-8749 1183 0
8748 8749 -1187 8747 0
-8753 988 0
-8754 983 0
-8755 982 0
-1188 8755 8753 8754 0
-8762 1124 0
-8763 1119 0
-8764 -38 0
-1188 8764 8762 8763 0
-8765 -44 0
-8765 1152 0
-8766 -45 0
-8766 1147 0
-8767 -46 0
-8767 1146 0
-1188 8766 8767 8765 0
-8777 -62 0
-8778 -67 0
-8779 1191 0
8777 -1188 8778 8779 0
-8780 -63 0
-8780 1206 0
-8781 -68 0
-8782 -72 0
-8782 1192 0
-1188 8781 8782 8780 0
-8786 -17 0
-8787 -18 0
-8787 1039 0
-8788 1037 0
-1189 8788 8786 8787 0
-8792 1125 0
-8793 1120 0
-8794 -39 0
-1189 8794 8792 8793 0
-8795 -44 0
-8796 1148 0
-8797 -47 0
-1189 8795 8797 8796 0
-8801 -59 0
-8801 1203 0
-8802 -64 0
-8803 -69 0
-8803 1188 0
-1189 8802 8803 8801 0
-8804 -61 0
-8804 1207 0
-8805 1197 0
-8806 -73 0
-8806 1190 0
-1189 8806 8805 8804 0
-8807 -62 0
-8807 1208 0
-8808 -67 0
-8809 -74 0
-8809 1191 0
-1189 8807 8809 8808 0
-8810 -63 0
-8810 1209 0
-8811 -68 0
-8812 1192 0
8811 8810 8812 -1189 0
-8813 -6 0
-8813 990 0
-8814 985 0
-8815 -10 0
-8815 982 0
-1190 8814 8815 8813 0
-8828 -51 0
-8831 1204 0
-8832 -64 0
-8833 1188 0
8832 -1190 8833 8831 0
-8837 -62 0
-8838 -67 0
-8838 1200 0
-8839 1191 0
-1190 8838 8839 8837 0
-8840 -63 0
-8841 -68 0
-8842 1192 0
8841 8842 8840 -1190 0
-8843 -6 0
-8843 991 0
-8844 986 0
-8845 982 0
-1191 8844 8845 8843 0
-8849 -27 0
-8849 1091 0
-8850 -28 0
-8850 1086 0
-8851 -32 0
-8851 1082 0
-1191 8849 8850 8851 0
-8855 -44 0
-8855 1155 0
-8856 -45 0
-8856 1150 0
-8857 -49 0
-8857 1146 0
-1191 8856 8857 8855 0
-8858 -51 0
-8859 1171 0
-8860 1167 0
-1191 8858 8859 8860 0
-8862 -64 0
-8867 -61 0
-8867 1210 0
-8868 1200 0
-8869 1190 0
8867 -1191 8869 8868 0
-8870 -63 0
-8870 1212 0
-8871 -68 0
-8872 -78 0
-8872 1192 0
-1191 8871 8872 8870 0
-8873 992 0
-8874 987 0
-8875 982 0
-1192 8874 8875 8873 0
-8876 -17 0
-8877 1042 0
-8878 1037 0
-1192 8876 8877 8878 0
-8882 1128 0
-8883 -37 0
-8884 -42 0
-1192 8883 8884 8882 0
-8885 -44 0
-8886 -45 0
-8887 1146 0
-1192 8886 8887 8885 0
-8888 -51 0
-8889 -52 0
-8890 1167 0
-1192 8888 8889 8890 0
-8891 -59 0
-8891 1206 0
-8892 -64 0
-8892 1196 0
-8893 -72 0
-1192 8891 8893 8892 0
-8895 -65 0
-8897 1211 0
-8900 -62 0
-8901 -67 0
-8901 1202 0
-8902 1191 0
-1192 8901 8900 8902 0
-8903 993 0
-8904 -8 0
-8904 984 0
-8905 -9 0
-1193 8903 8905 8904 0
-8918 1178 0
-8919 -53 0
-8920 1168 0
-1193 8919 8918 8920 0
-8921 -58 0
-8922 -64 0
-8922 1189 0
-8923 -65 0
-8923 1188 0
-1193 8923 8921 8922 0
-8924 1213 0
-8925 1197 0
-8926 1194 0
-1193 8924 8925 8926 0
-8930 1215 0
-8931 1199 0
-8932 1196 0
-1193 8930 8932 8931 0
-8933 994 0
-8934 985 0
-8935 -10 0
-8935 983 0
-1194 8934 8935 8933 0
-8936 -17 0
-8937 1040 0
-8938 1038 0
-1194 8936 8938 8937 0
-8945 -44 0
-8948 -51 0
-8949 1170 0
-8950 -55 0
-1194 8948 8949 8950 0
-8963 -6 0
-8963 995 0
-8964 986 0
-8965 983 0
-1195 8963 8965 8964 0
-8969 1095 0
-8970 1086 0
-8971 1083 0
-1195 8969 8971 8970 0
-8972 1131 0
-8973 -38 0
-8973 1122 0
-8974 -41 0
-1195 8973 8972 8974 0
-8975 -44 0
-8976 -46 0
-8977 1147 0
-1195 8975 8977 8976 0
-8978 -51 0
-8978 1180 0
-8979 -53 0
-8980 -56 0
-8980 1168 0
-1195 8978 8980 8979 0
-8982 -64 0
-8982 1191 0
-8984 -60 0
-8984 1214 0
-8985 -69 0
-8986 -74 0
-8986 1193 0
-1195 8985 8984 8986 0
-8990 1218 0
-8991 -72 0
-8991 1202 0
-8992 1196 0
-1195 8990 8992 8991 0
-8993 -6 0
-8994 987 0
-8995 983 0
-1196 8993 8995 8994 0
-8996 1051 0
-8997 1042 0
-8998 1038 0
-1196 8996 8998 8997 0
-9002 1132 0
-9003 -38 0
-9004 -42 0
-1196 9003 9002 9004 0
-9005 -44 0
-9006 -46 0
-9006 1151 0
-9007 -50 0
-9007 1147 0
-1196 9005 9007 9006 0
-9008 -51 0
-9009 -53 0
-9009 1172 0
-9010 1168 0
-1196 9008 9009 9010 0
-9011 -58 0
-9011 1206 0
-9012 -64 0
-9012 1192 0
-9013 -68 0
-9013 1188 0
-1196 9011 9012 9013 0
-9014 -60 0
-9014 1215 0
-9015 -69 0
-9016 1193 0
9015 9014 9016 -1196 0
-9017 1217 0
-9018 -70 0
-9019 -77 0
9018 9017 9019 -1196 0
-9020 1218 0
-9021 -71 0
-9022 -78 0
9021 9020 9022 -1196 0
-9023 997 0
-9024 985 0
-9025 -10 0
-9025 984 0
-1197 9024 9025 9023 0
-9026 -17 0
-9026 1052 0
-9027 -20 0
-9027 1040 0
-9028 -21 0
-9028 1039 0
-1197 9027 9026 9028 0
-9035 -44 0
-9035 1161 0
-9036 -47 0
-9036 1149 0
-9037 -48 0
-9037 1148 0
-1197 9037 9035 9036 0
-9038 -51 0
-9038 1182 0
-9039 -54 0
-9039 1170 0
-9040 -55 0
-9040 1169 0
-1197 9039 9038 9040 0
-9041 -58 0
-9042 1190 0
-9043 1189 0
-1197 9041 9042 9043 0
-9044 -59 0
-9045 -69 0
-9045 1194 0
-9046 1193 0
-1197 9044 9046 9045 0
-9047 1219 0
-9048 -74 0
-9048 1200 0
-9049 1198 0
-1197 9048 9049 9047 0
-9050 1220 0
-9051 -75 0
-9051 1201 0
-9052 -77 0
-9052 1199 0
-1197 9052 9051 9050 0
-9053 998 0
-9054 -9 0
-9054 986 0
-9055 984 0
-1198 9054 9055 9053 0
-9056 -17 0
-9057 -20 0
-9057 1041 0
-9058 -22 0
-1198 9057 9056 9058 0
-9059 -27 0
-9059 1098 0
-9060 1086 0
-9061 1084 0
-1198 9059 9061 9060 0
-9065 1162 0
-9066 -47 0
-9066 1150 0
-9067 -49 0
9065 -1198 9067 9066 0
-9071 -58 0
-9072 -65 0
-9073 1189 0
-1198 9071 9073 9072 0
-9074 -59 0
-9074 1214 0
-9075 -69 0
-9075 1195 0
-9076 -71 0
-9076 1193 0
-1198 9074 9075 9076 0
-9077 1219 0
-9078 -73 0
-9078 1200 0
-9079 -76 0
-9079 1197 0
9078 -1198 9079 9077 0
-9080 1221 0
-9081 -75 0
-9081 1202 0
-9082 1199 0
-1198 9081 9082 9080 0
-9089 1099 0
-9090 1087 0
-9091 -33 0
-1199 9089 9091 9090 0
-9098 -51 0
-9099 -54 0
-9100 1169 0
-1199 9098 9099 9100 0
-9101 -58 0
-9102 1192 0
-9103 -68 0
-9103 1189 0
-1199 9101 9102 9103 0
-9104 1215 0
-9105 1196 0
-9106 1193 0
-1199 9104 9105 9106 0
-9107 1220 0
-9108 1201 0
-9109 -77 0
-9109 1197 0
9108 -1199 9109 9107 0
-9110 1221 0
-9111 1202 0
-9112 1198 0
-1199 9110 9112 9111 0
-9116 1055 0
-9117 -21 0
-9117 1041 0
-9118 1040 0
-1200 9117 9116 9118 0
-9122 1136 0
-9123 -40 0
-9124 -41 0
-1200 9122 9123 9124 0
-9128 -51 0
-9128 1185 0
-9129 -55 0
-9129 1171 0
-9130 -56 0
-9130 1170 0
-1200 9128 9130 9129 0
-9131 -58 0
-9132 1191 0
-9133 -67 0
-9133 1190 0
-1200 9131 9132 9133 0
-9134 -59 0
-9134 1216 0
-9135 1195 0
-9136 1194 0
-1200 9134 9135 9136 0
-9137 1219 0
-9138 1198 0
-9139 -74 0
-9139 1197 0
9138 -1200 9139 9137 0
-9140 1222 0
-9141 -77 0
-9141 1202 0
-9142 -78 0
-9142 1201 0
-1200 9141 9142 9140 0
-9143 -6 0
-9143 1001 0
-9144 -10 0
-9145 985 0
-1201 9143 9145 9144 0
-9147 1042 0
-9149 -27 0
-9149 1101 0
-9150 -31 0
-9150 1087 0
-9151 -33 0
-1201 9149 9150 9151 0
-9155 -44 0
-9156 1151 0
-9157 1149 0
9156 -1201 9155 9157 0
-9158 -51 0
-9158 1186 0
-9159 -55 0
-9159 1172 0
-9160 1170 0
-1201 9158 9159 9160 0
-9162 1192 0
-9167 1220 0
-9168 -73 0
-9168 1199 0
-9169 1197 0
9168 -1201 9169 9167 0
-9170 1222 0
-9171 1202 0
-9172 1200 0
-1201 9172 9170 9171 0
-9179 -27 0
-9179 1102 0
-9180 -32 0
-9180 1087 0
-9181 -33 0
-1202 9179 9180 9181 0
-9182 1138 0
-9183 -41 0
-9184 -42 0
-1202 9182 9184 9183 0
-9191 -58 0
-9191 1212 0
-9192 -67 0
-9192 1192 0
-9193 -68 0
-9193 1191 0
-1202 9191 9193 9192 0
-9194 1218 0
-9195 -71 0
-9195 1196 0
-9196 1195 0
-1202 9195 9194 9196 0
-9197 1221 0
-9198 1199 0
-9199 -75 0
-9199 1198 0
-1202 9198 9199 9197 0
-9200 1222 0
-9201 -76 0
-9201 1201 0
-9202 -77 0
-9202 1200 0
-1202 9201 9202 9200 0
-9203 993 0
-9204 989 0
-9205 -9 0
-9205 988 0
-1203 9203 9205 9204 0
-9209 -28 0
-9210 -29 0
-9211 1088 0
-1203 9211 9209 9210 0
-9218 -52 0
-9218 1178 0
-9219 -53 0
-9219 1174 0
-9220 -54 0
-1203 9220 9218 9219 0
-9221 -58 0
-9221 1193 0
-9222 1189 0
-9223 1188 0
-1203 9223 9222 9221 0
-9224 1213 0
-9225 -70 0
-9225 1207 0
-9226 -73 0
-1203 9226 9224 9225 0
-9227 -67 0
-9227 1214 0
-9228 -71 0
-9228 1208 0
-9229 -74 0
-9229 1205 0
9228 -1203 9229 9227 0
-9230 -68 0
-9248 -52 0
-9248 1179 0
-9249 -53 0
-9249 1175 0
-9250 -55 0
-9250 1173 0
-1204 9250 9249 9248 0
-9251 1194 0
-9252 1190 0
-9253 1188 0
-1204 9251 9253 9252 0
-9260 -68 0
-9261 -72 0
-9262 1206 0
-1204 9260 9261 9262 0
-9263 -7 0
-9263 995 0
-9264 -8 0
-9264 991 0
-9265 988 0
-1205 9263 9265 9264 0
-9266 -18 0
-9266 1050 0
-9267 1046 0
-9268 -22 0
-9268 1043 0
-1205 9268 9267 9266 0
-9272 1131 0
-9273 1127 0
-9274 -41 0
-1205 9273 9274 9272 0
-9275 -45 0
1159 -9275 0
-9276 -46 0
-9276 1155 0
-9277 1152 0
9275 -1205 9277 9276 0
-9278 -52 0
-9278 1180 0
-9279 -53 0
-9279 1176 0
-9280 -56 0
-9280 1173 0
-1205 9278 9279 9280 0
-9281 -58 0
-9281 1195 0
-9282 -59 0
-9282 1191 0
-62 -9283 0
-9283 1188 0
9281 -1205 9283 9282 0
-9284 -65 0
-9284 1214 0
-9285 -69 0
-9285 1208 0
-9286 -74 0
-9286 1203 0
-1205 9285 9284 9286 0
-9288 1210 0
-9290 -68 0
-9290 1218 0
-9291 -72 0
-9291 1212 0
-9292 1206 0
-1205 9290 9292 9291 0
-9293 996 0
-9294 992 0
-9295 988 0
-1206 9294 9295 9293 0
1132 -9302 0
-9303 -38 0
-9304 -42 0
-1206 9302 9304 9303 0
-9308 -52 0
-9309 -53 0
-9310 1173 0
-1206 9309 9310 9308 0
-9312 -59 0
-9314 1215 0
-9315 1209 0
-9316 -75 0
-1206 9314 9316 9315 0
-9317 1217 0
-9318 -70 0
-9319 -77 0
-9319 1204 0
9318 -1206 9317 9319 0
-9320 1218 0
-9321 -71 0
-9321 1212 0
-9322 1205 0
-1206 9321 9322 9320 0
-9323 997 0
-9324 990 0
-9325 -10 0
-1207 9324 9325 9323 0
-9326 1052 0
-9327 1045 0
-9328 -21 0
-1207 9326 9327 9328 0
-9335 -45 0
-9335 1161 0
-9336 -47 0
-9336 1154 0
-9337 -48 0
-9337 1153 0
-1207 9336 9335 9337 0
-9338 1182 0
-9339 1175 0
-9340 1174 0
-1207 9340 9338 9339 0
-9341 -58 0
-9341 1197 0
-9342 1190 0
-9343 1189 0
-1207 9342 9341 9343 0
-9344 -64 0
-9344 1213 0
-9345 -69 0
-9345 1204 0
-9346 -70 0
-9346 1203 0
-1207 9344 9346 9345 0
-9347 1219 0
-9350 1220 0
-9351 -75 0
-9351 1211 0
-9352 -77 0
-9352 1209 0
-1207 9350 9352 9351 0
-9353 998 0
-9354 991 0
-9355 989 0
-1208 9354 9355 9353 0
-9356 -18 0
-9356 1053 0
-9357 -20 0
-9357 1046 0
-9358 -22 0
-1208 9358 9356 9357 0
-9365 -45 0
-9366 -47 0
-9366 1155 0
-9367 1153 0
9365 -1208 9366 9367 0
-9371 -58 0
-9371 1198 0
-9372 -60 0
-9372 1191 0
-9373 -62 0
-1208 9371 9373 9372 0
-9374 -64 0
-9374 1214 0
-9375 -69 0
-9375 1205 0
-9376 1203 0
-1208 9374 9375 9376 0
-9377 1219 0
-9378 -73 0
-9378 1210 0
-9379 -76 0
-9379 1207 0
9378 -1208 9379 9377 0
-9380 1221 0
-9381 -75 0
-9381 1212 0
-9382 -78 0
-9382 1209 0
-1208 9381 9382 9380 0
-9383 999 0
-9384 992 0
-9385 989 0
-1209 9384 9385 9383 0
-9386 1054 0
-9387 1047 0
-9388 1044 0
-1209 9387 9388 9386 0
-9389 -28 0
-9389 1099 0
-9390 1092 0
-9391 -33 0
-1209 9390 9389 9391 0
1135 -9392 0
-9393 -39 0
-9394 -42 0
-1209 9393 9394 9392 0
-9401 -58 0
-9402 -60 0
-9403 1189 0
-1209 9401 9403 9402 0
-9404 -64 0
-9404 1215 0
-9405 -69 0
-9405 1206 0
-9406 -72 0
-9406 1203 0
-1209 9404 9406 9405 0
-9408 -73 0
-9408 1211 0
-9410 1221 0
-9411 -74 0
-9411 1212 0
-9412 1208 0
-1209 9411 9412 9410 0
-9415 990 0
-9425 -45 0
-9425 1164 0
-9426 -48 0
-9427 1154 0
-1210 9425 9427 9426 0
-9431 -58 0
-9431 1200 0
-9432 -61 0
-9432 1191 0
-9433 -62 0
-1210 9431 9433 9432 0
-9437 1219 0
-9438 -73 0
-9438 1208 0
-9439 -74 0
-9439 1207 0
-1210 9438 9439 9437 0
-9440 1222 0
-9441 -77 0
-9442 1211 0
-1210 9441 9442 9440 0
-9443 1001 0
-9444 -10 0
-9445 990 0
-1211 9445 9444 9443 0
-9452 -37 0
-9452 1137 0
-9453 -40 0
-9454 -42 0
-1211 9452 9453 9454 0
-9455 -45 0
-9456 -48 0
-9456 1156 0
-9457 -50 0
-9457 1154 0
-1211 9456 9457 9455 0
-9461 -58 0
-9461 1201 0
-9462 -61 0
-9462 1192 0
-9463 -63 0
-9463 1190 0
-1211 9461 9463 9462 0
-9464 -64 0
-9464 1217 0
-9465 1206 0
-9466 -72 0
-1211 9464 9466 9465 0
-9467 1220 0
-9468 -73 0
-9468 1209 0
-9469 1207 0
9468 -1211 9469 9467 0
-9470 1222 0
-9471 -76 0
-9471 1212 0
-9472 1210 0
-1211 9471 9472 9470 0
-9479 -28 0
-9480 1092 0
-9481 -33 0
-1212 9479 9480 9481 0
-9482 -37 0
-9482 1138 0
-9483 -41 0
-9484 -42 0
-1212 9482 9483 9484 0
-9485 -45 0
-9486 -49 0
-9487 -50 0
-1212 9485 9487 9486 0
-9491 -58 0
-9491 1202 0
-9492 -62 0
-9493 1191 0
9491 -1212 9493 9492 0
-9497 1221 0
-9498 -74 0
-9498 1209 0
-9499 -75 0
-9499 1208 0
-1212 9497 9499 9498 0
-9500 1222 0
-9501 -76 0
-9501 1211 0
-9502 -77 0
-9502 1210 0
-1212 9501 9502 9500 0
-9503 997 0
-9504 -9 0
-9504 994 0
-9505 -10 0
-1213 9503 9505 9504 0
-9515 -46 0
-9516 -47 0
-9517 -48 0
-1213 9516 9517 9515 0
-9527 1219 0
-9528 -74 0
-9528 1216 0
-9529 -76 0
-9529 1214 0
-1213 9529 9528 9527 0
-9530 1220 0
-9531 -75 0
-9532 1215 0
-1213 9532 9531 9530 0
-9533 998 0
-9534 -9 0
-9535 993 0
-1214 9534 9535 9533 0
-9548 -53 0
-9554 -64 0
-9554 1208 0
-9555 1205 0
-9556 1203 0
-1214 9554 9555 9556 0
-9560 1221 0
-9561 1218 0
-9562 1215 0
-1214 9561 9562 9560 0
-9563 999 0
-9564 996 0
-9565 993 0
-1215 9564 9565 9563 0
-9566 1054 0
-9567 1051 0
-9568 1048 0
-1215 9567 9568 9566 0
-9575 -46 0
-9576 -47 0
-9577 1157 0
-1215 9577 9575 9576 0
-9581 -59 0
-9582 -60 0
-9583 1193 0
9581 -1215 9583 9582 0
-9584 -64 0
-65 -9585 0
-9585 1206 0
-9586 1203 0
-1215 9584 9585 9586 0
-9587 1220 0
-73 -9588 0
-9588 1217 0
-9589 -77 0
-9589 1213 0
9588 -1215 9589 9587 0
-9590 1221 0
-9591 -74 0
-9591 1218 0
-9592 1214 0
-1215 9590 9592 9591 0
-9599 -29 0
-9600 1095 0
-9601 1094 0
-1216 9599 9601 9600 0
-9605 -46 0
-9606 -48 0
-9606 1159 0
-9607 -49 0
-9607 1158 0
-1216 9606 9607 9605 0
-9608 -53 0
-9609 -55 0
-9609 1180 0
-9610 1179 0
-1216 9609 9610 9608 0
-9611 1200 0
-9612 1195 0
-9613 -62 0
-1216 9612 9613 9611 0
-9614 -64 0
-9614 1210 0
-9615 1205 0
-9616 -67 0
-9616 1204 0
-1216 9614 9615 9616 0
-9617 1219 0
-9618 -73 0
-9618 1214 0
-9619 -74 0
-9619 1213 0
-1216 9618 9619 9617 0
-9623 1001 0
-9624 -10 0
-9624 996 0
-9625 994 0
-1217 9625 9624 9623 0
-9632 -38 0
1137 -9632 0
-9633 -40 0
-9634 -42 0
-1217 9632 9633 9634 0
-9644 -64 0
-9645 1206 0
-9646 -68 0
9644 -1217 9646 9645 0
-9647 1220 0
-9648 1215 0
-9649 1213 0
9648 -1217 9649 9647 0
-9650 1222 0
-9651 -76 0
-9651 1218 0
-9652 1216 0
-1217 9652 9650 9651 0
-9656 1057 0
-9657 1051 0
-9658 1050 0
-1218 9657 9656 9658 0
-9659 -29 0
-9660 -32 0
1096 -9660 0
-9661 -33 0
-1218 9659 9660 9661 0
-9662 1138 0
-9663 -41 0
-9664 -42 0
9662 -1218 9664 9663 0
-9675 1206 0
-9677 1221 0
-9678 -74 0
-9679 1214 0
9678 9679 -1218 9677 0
-9680 1222 0
-9681 -76 0
-9681 1217 0
-9682 -77 0
-9682 1216 0
9681 -1218 9680 9682 0
1 0
2 0
13 0
937 0
-3 0
1003 0
-14 0
948 0
-24 0
938 0
7 4 8 16 20 23 27 31 32 34 37 38 45 46 54 57 61 62 64 75 76 3 0
7 21 8 16 4 23 27 30 32 34 37 38 45 46 55 57 60 62 64 74 77 3 0
7 17 8 4 20 23 26 31 32 34 37 38 45 46 55 56 60 63 64 75 76 3 0
7 21 8 17 4 23 26 30 32 34 37 38 45 46 54 56 61 63 64 74 77 3 0
6 5 7 15 21 22 23 29 30 35 36 37 48 49 50 51 52 58 69 76 77 78 3 0
6 19 15 5 22 23 28 30 31 35 36 46 49 50 51 65 66 71 72 73 78 3 0
6 21 15 5 22 23 28 29 30 35 36 48 49 50 51 64 65 69 76 77 78 3 0
7 6 8 15 16 22 23 30 31 36 37 38 43 49 50 56 57 58 59 64 73 78 3 0
7 15 8 16 20 23 27 31 32 37 38 43 47 50 54 57 61 62 64 75 76 3 0
7 15 16 21 8 23 27 30 32 37 38 43 48 50 55 57 60 62 64 74 77 3 0
7 20 8 15 6 23 26 31 32 36 37 38 47 50 55 56 58 59 64 75 76 3 0
6 7 8 15 21 23 26 30 32 36 37 38 48 50 54 56 58 59 64 74 77 3 0
26 22 8 15 7 23 30 6 31 36 37 38 49 50 54 55 58 59 64 73 78 3 0
6 7 15 19 20 23 26 31 32 36 37 46 47 50 55 56 58 69 72 75 76 3 0
21 26 15 6 46 23 19 30 32 36 37 7 48 50 54 56 58 70 72 74 77 3 0
6 7 15 22 19 23 26 30 31 36 37 46 49 50 54 55 58 71 72 73 78 3 0
26 7 15 19 23 30 31 6 32 36 37 46 50 54 55 56 58 72 73 74 76 3 0
20 7 15 6 21 23 26 29 32 36 37 47 48 50 53 56 58 71 73 75 77 3 0
20 7 15 22 6 23 26 29 31 36 37 47 49 50 53 55 58 70 74 75 78 3 0
53 31 15 29 23 26 7 6 32 36 37 47 50 20 55 56 58 70 71 75 76 3 0
53 7 15 29 23 26 30 6 32 36 37 48 50 21 54 56 58 69 71 74 77 3 0
26 15 8 6 23 28 20 31 32 36 38 47 50 52 55 56 59 66 67 75 76 3 0
26 15 8 6 23 28 21 30 32 36 38 48 50 52 54 56 59 65 67 74 77 3 0
17 15 8 7 20 23 26 31 32 37 38 44 47 50 55 56 60 63 64 75 76 3 0
17 15 8 21 7 23 26 30 32 37 38 44 48 50 54 56 61 63 64 74 77 3 0
26 15 8 20 23 27 7 31 32 37 38 47 50 51 55 56 61 62 64 75 76 3 0
15 21 8 27 23 26 7 30 32 37 38 48 50 51 54 56 60 62 64 74 77 3 0
6 18 5 19 23 25 30 31 32 35 36 47 48 49 51 64 68 72 73 74 76 3 0
18 20 6 5 21 23 25 29 32 35 36 46 49 51 65 66 68 71 73 75 77 3 0
20 6 16 7 8 23 25 31 32 36 37 38 48 49 54 57 58 59 64 75 76 3 0
25 21 8 16 6 23 7 30 32 36 37 38 47 49 55 57 58 59 64 74 77 3 0
20 7 19 16 6 23 25 31 32 36 37 48 49 53 54 57 58 69 72 75 76 3 0
21 19 16 7 6 23 25 30 32 36 37 47 49 53 55 57 58 70 72 74 77 3 0
6 7 19 16 22 23 25 30 31 36 37 47 48 53 56 57 58 71 72 73 78 3 0
25 7 19 31 23 16 30 6 32 36 37 47 48 49 53 57 58 72 73 74 76 3 0
20 6 21 16 7 23 25 29 32 36 37 46 49 54 55 57 58 71 73 75 77 3 0
20 7 22 6 16 23 25 29 31 36 37 46 48 54 56 57 58 70 74 75 78 3 0
25 7 29 20 23 31 16 32 6 36 37 46 48 49 54 57 58 70 71 75 76 3 0
25 7 29 16 23 6 30 21 32 36 37 46 47 49 55 57 58 69 71 74 77 3 0
45 28 16 6 23 25 20 31 32 36 38 8 48 49 54 57 59 66 67 75 76 3 0
25 6 21 16 23 28 8 30 32 36 38 45 47 49 55 57 59 65 67 74 77 3 0
17 51 16 7 20 23 25 31 32 37 38 48 49 8 54 57 60 63 64 75 76 3 0
17 7 21 8 16 23 25 30 32 37 38 47 49 51 55 57 61 63 64 74 77 3 0
44 25 16 20 23 27 7 31 32 37 38 8 48 49 54 57 61 62 64 75 76 3 0
25 44 21 7 23 27 8 30 32 37 38 16 47 49 55 57 60 62 64 74 77 3 0
26 25 8 6 23 7 20 31 32 36 37 38 43 48 49 55 56 58 59 64 75 76 3 0
26 20 6 7 23 25 19 31 32 36 37 43 48 49 55 56 58 69 72 75 76 3 0
26 17 7 20 23 25 8 31 32 37 38 43 48 49 55 56 60 63 64 75 76 3 0
25 17 8 7 23 43 26 30 32 37 38 21 47 49 54 56 61 63 64 74 77 3 0
4 11 6 12 16 18 19 30 31 35 37 38 44 49 50 52 53 62 63 64 73 78 14 0
10 12 6 5 15 19 28 30 32 34 38 46 51 55 57 61 63 65 67 74 77 14 0
11 12 6 5 15 19 28 30 31 34 38 46 51 56 57 62 63 65 66 73 78 14 0
11 12 17 15 5 18 29 30 31 34 36 37 44 45 56 57 58 69 70 73 78 14 0
12 7 5 27 15 19 10 30 32 34 38 46 52 55 57 60 62 66 68 74 77 14 0
11 7 5 12 15 19 27 30 31 34 38 46 52 56 57 60 61 67 68 73 78 14 0
18 5 8 12 15 10 27 30 32 34 37 45 53 55 57 60 62 70 72 74 77 14 0
11 5 8 12 15 18 27 30 31 34 37 45 53 56 57 60 61 71 72 73 78 14 0
18 12 5 15 10 19 27 30 32 34 37 38 45 46 55 57 60 62 64 74 77 14 0
11 18 12 15 19 5 27 30 31 34 37 38 45 46 56 57 60 61 64 73 78 14 0
9 12 29 5 15 18 27 10 32 34 37 45 54 55 57 59 62 71 73 75 77 14 0
9 11 5 12 15 18 27 29 31 34 37 45 54 56 57 59 61 70 74 75 78 14 0
12 18 29 15 5 27 32 31 9 34 37 45 54 57 59 61 62 70 71 75 76 14 0
11 10 5 12 15 18 27 29 30 34 37 45 55 56 57 59 60 69 76 77 78 14 0
12 59 29 15 18 27 32 5 10 34 37 45 55 57 30 60 62 69 71 74 77 14 0
11 12 31 15 18 27 29 30 5 34 37 45 56 57 59 60 61 69 70 73 78 14 0
12 28 27 15 5 58 10 30 32 34 38 46 55 57 19 60 62 65 67 74 77 14 0
11 12 31 15 19 27 28 30 5 34 38 46 56 57 58 60 61 65 66 73 78 14 0
12 10 15 16 6 19 28 30 32 34 35 38 43 46 53 61 63 65 67 74 77 14 0
11 12 16 15 6 19 28 30 31 34 35 38 43 46 53 62 63 65 66 73 78 14 0
12 7 19 15 27 16 10 30 32 34 35 38 43 46 53 60 62 66 68 74 77 14 0
11 12 7 15 16 19 27 30 31 34 35 38 43 46 53 60 61 67 68 73 78 14 0
11 12 16 15 8 18 27 30 31 34 35 37 43 45 52 60 61 71 72 73 78 14 0
11 12 15 16 19 27 28 30 31 34 35 38 43 46 53 58 60 61 65 66 73 78 14 0
6 9 7 12 15 19 26 31 32 34 38 46 55 56 58 60 63 65 68 75 76 14 0
10 12 6 7 15 19 26 30 32 34 38 46 54 56 58 61 63 66 68 74 77 14 0
11 12 7 30 15 19 26 6 31 34 38 46 54 55 58 62 63 67 68 73 78 14 0
10 12 6 8 15 18 26 30 32 34 37 45 54 56 59 61 63 70 72 74 77 14 0
11 12 8 6 15 18 26 30 31 34 37 45 54 55 59 62 63 71 72 73 78 14 0
26 12 6 15 18 19 10 30 32 34 37 38 45 46 54 56 61 63 64 74 77 14 0
11 18 12 15 6 19 26 30 31 34 37 38 45 46 54 55 62 63 64 73 78 14 0
18 12 6 29 15 9 26 10 32 34 37 45 53 56 60 61 63 71 73 75 77 14 0
11 9 6 12 15 18 26 29 31 34 37 45 53 55 60 62 63 70 74 75 78 14 0
26 12 6 15 18 29 32 31 9 34 37 45 53 55 56 60 63 70 71 75 76 14 0
11 10 6 12 15 18 26 29 30 34 37 45 53 54 61 62 63 69 76 77 78 14 0
26 12 6 15 18 29 32 30 10 34 37 45 53 54 56 61 63 69 71 74 77 14 0
11 26 12 15 18 29 30 6 31 34 37 45 53 54 55 62 63 69 70 73 78 14 0
26 12 6 15 10 19 28 30 32 34 38 46 52 54 56 61 63 65 67 74 77 14 0
11 26 12 15 19 6 28 30 31 34 38 46 52 54 55 62 63 65 66 73 78 14 0
26 12 17 15 11 19 7 30 31 34 36 38 44 46 54 55 59 67 68 73 78 14 0
11 9 17 12 15 10 26 28 29 34 36 44 52 53 64 73 74 75 76 77 78 14 0
9 10 8 7 11 12 15 26 27 34 51 64 65 66 67 68 69 70 71 72 73 74 75 76 77 78 14 0
26 12 27 15 51 7 10 30 32 34 38 46 19 54 56 60 62 66 68 74 77 14 0
11 26 12 15 27 19 7 30 31 34 38 46 51 54 55 60 61 67 68 73 78 14 0
11 12 16 8 6 18 25 30 31 35 37 47 48 52 59 62 63 71 72 73 78 14 0
11 12 16 19 18 6 25 30 31 35 37 38 47 48 52 53 62 63 64 73 78 14 0
12 11 16 20 18 8 21 25 27 34 36 44 52 54 55 65 66 71 72 73 78 24 0
11 10 6 7 19 20 23 25 26 34 35 43 58 61 62 66 67 69 72 75 76 24 0
12 10 20 7 6 19 22 25 26 34 35 43 58 61 63 66 68 69 71 74 77 24 0
6 9 8 10 11 18 23 25 26 34 35 43 59 60 61 62 68 69 70 71 73 74 76 24 0
18 9 6 10 8 22 23 25 26 34 35 43 59 60 61 67 68 69 70 73 78 24 0
18 9 21 6 8 22 23 25 26 34 35 43 59 60 66 67 68 69 76 77 78 24 0
11 10 8 6 18 20 23 25 26 34 35 43 59 61 62 65 68 70 71 75 76 24 0
18 12 6 20 10 8 22 25 26 34 35 43 59 61 63 65 67 70 72 74 77 24 0
11 9 6 10 18 19 23 25 26 34 35 43 60 61 62 64 68 72 73 74 76 24 0
18 9 12 19 6 10 22 25 26 34 35 43 60 61 63 64 67 71 73 75 77 24 0
18 10 19 6 23 22 9 25 26 34 35 43 60 61 64 67 68 71 72 73 78 24 0
11 18 12 19 6 9 21 25 26 34 35 43 60 62 63 64 66 70 74 75 78 24 0
11 18 6 23 19 21 9 25 26 34 35 43 60 62 64 66 68 70 72 74 77 24 0
18 9 21 6 19 12 22 25 26 34 35 43 60 63 64 66 67 70 71 75 76 24 0
65 18 19 6 20 10 23 25 26 34 35 43 61 62 64 11 68 69 72 75 76 24 0
18 65 10 19 20 6 22 25 26 34 35 43 61 63 64 12 67 69 71 74 77 24 0
11 18 19 6 21 20 12 25 26 34 35 43 62 63 64 65 66 69 70 73 78 24 0
10 11 7 17 8 20 23 25 26 34 35 43 60 63 64 66 67 70 71 75 76 24 0
10 12 7 8 17 20 22 25 26 34 35 43 60 62 64 66 68 70 72 74 77 24 0
11 10 7 17 9 19 23 25 26 34 35 43 59 63 65 66 67 72 73 74 76 24 0
10 12 7 17 9 19 22 25 26 34 35 43 59 62 65 66 68 71 73 75 77 24 0
10 17 23 7 19 22 9 25 26 34 35 43 59 62 63 65 66 71 72 73 78 24 0
11 12 7 9 17 19 21 25 26 34 35 43 59 61 65 67 68 70 74 75 78 24 0
11 17 23 7 19 21 9 25 26 34 35 43 59 61 63 65 67 70 72 74 77 24 0
9 17 7 21 19 12 22 25 26 34 35 43 59 61 62 65 68 70 71 75 76 24 0
11 12 7 10 17 19 20 25 26 34 35 43 59 60 66 67 68 69 76 77 78 24 0
11 17 23 7 19 20 10 25 26 34 35 43 59 60 63 66 67 69 72 75 76 24 0
10 17 7 20 19 22 12 25 26 34 35 43 59 60 62 66 68 69 71 74 77 24 0
11 12 20 7 19 17 21 25 26 34 35 43 59 60 61 67 68 69 70 73 78 24 0
10 11 8 17 18 20 23 25 26 34 35 43 58 60 63 65 68 70 71 75 76 24 0
18 12 17 10 58 20 22 25 26 34 35 43 8 60 62 65 67 70 72 74 77 24 0
9 10 23 7 19 22 25 26 27 34 35 36 43 44 51 65 66 71 72 73 78 24 0
9 11 7 21 19 23 25 26 27 34 35 36 43 44 51 65 67 70 72 74 77 24 0
10 11 20 7 19 23 25 26 27 34 35 36 43 44 51 66 67 69 72 75 76 24 0
10 20 22 7 19 12 25 26 27 34 35 36 43 44 51 66 68 69 71 74 77 24 0
18 10 27 20 8 23 25 26 11 34 35 36 43 44 51 65 68 70 71 75 76 24 0
12 10 8 20 27 22 25 26 18 34 35 36 43 44 51 65 67 70 72 74 77 24 0
26 12 20 18 8 11 25 21 27 34 35 36 43 44 51 65 66 71 72 73 78 24 0
26 11 19 21 20 18 25 12 27 34 35 36 43 44 51 64 65 66 69 70 73 78 24 0
26 -4 35 34 16 15 25 5 0
34 25 16 5 -15 26 4 35 0
-5 -15 34 16 25 26 4 35 0
-15 -4 5 25 26 16 34 35 0
-15 -4 35 26 25 16 -5 34 0
-15 -4 5 25 -16 34 35 26 0
26 -25 34 15 16 4 5 35 0
4 -5 34 15 -25 26 35 16 0
26 -16 34 4 5 -25 15 35 0
-16 -25 15 4 -5 34 35 26 0
-25 -4 15 16 5 26 34 35 0
-25 -4 -5 16 15 26 34 35 0
26 -4 -16 -25 15 5 34 35 0
-25 -4 -16 -5 15 26 34 35 0
-25 -15 4 5 16 26 34 35 0
-25 -15 4 -5 16 26 34 35 0
-15 -16 34 5 4 -25 35 26 0
-15 -16 34 -5 4 26 -25 35 0
-15 -25 4 -26 -5 16 34 35 0
26 -34 16 4 15 25 5 35 0
26 -34 16 4 15 25 -5 35 0
-16 15 4 5 -34 25 26 35 0
-5 -34 15 4 -16 25 26 35 0
-26 -34 16 4 5 15 25 35 0
-5 -34 15 4 -26 16 25 35 0
-16 -34 15 4 5 -26 25 35 0
26 -34 16 15 5 25 -4 35 0
26 -4 16 -34 15 25 -5 35 0
26 -4 -16 5 15 25 -34 35 0
-16 -4 -34 -5 15 25 26 35 0
-26 -4 16 -34 15 5 25 35 0
-26 -34 16 -4 15 -5 25 35 0
-26 -4 -16 -34 5 15 25 35 0
-35 -4 5 15 -34 16 25 26 0
-15 5 4 16 26 25 -34 35 0
-15 -5 16 4 26 25 -34 35 0
-15 -34 -16 4 5 25 26 35 0
-15 -5 -16 -34 4 25 26 35 0
-15 -34 16 4 5 -26 25 35 0
-15 -5 -34 -26 4 16 25 35 0
-15 -26 -16 -34 4 5 25 35 0
-35 -15 -34 4 5 16 25 26 0
-5 -35 -34 -15 4 16 25 26 0
-34 -4 -35 5 -15 16 25 26 0
-34 16 35 5 4 15 26 -25 0
-5 -34 15 4 -25 16 26 35 0
-16 -25 15 4 -34 5 26 35 0
-16 -25 15 -34 4 -5 35 26 0
-26 -34 16 4 5 15 -25 35 0
-26 -25 -5 -34 4 15 16 35 0
-26 -25 -34 -16 4 5 15 35 0
-34 -25 16 4 5 15 -35 26 0
-25 -5 -34 -35 4 15 16 26 0
-16 -34 -25 -35 4 5 15 26 0
-15 -25 -16 -34 -5 4 35 26 0
6 35 16 26 36 27 -5 17 0
6 35 5 27 -16 17 26 36 0
-6 35 5 36 26 27 -16 17 0
6 -16 17 -5 26 27 35 36 0
-6 -16 36 -5 26 27 35 17 0
-17 -16 35 6 -5 26 36 27 0
35 6 27 16 5 -26 17 36 0
-6 35 16 36 -26 5 27 17 0
-17 35 16 5 -26 27 6 36 0
-6 35 16 36 -26 5 27 -17 0
6 -26 17 -5 16 27 35 36 0
-6 -26 17 16 -5 27 35 36 0
-5 -26 27 -17 6 16 35 36 0
-6 -17 -26 -5 16 27 35 36 0
-27 -26 17 -5 16 6 35 36 0
6 -26 27 5 -16 17 35 36 0
-6 -16 35 36 27 5 17 -26 0
6 -26 27 5 -16 -17 35 36 0
-17 -6 -16 5 -26 27 35 36 0
-16 17 6 5 -26 -27 35 36 0
-6 -27 -16 -26 5 17 35 36 0
6 -17 -26 -5 -16 27 35 36 0
6 -35 16 5 17 26 27 36 0
-6 5 17 16 -35 26 27 36 0
6 -17 16 5 -35 26 27 36 0
-17 -6 5 -35 16 26 27 36 0
6 -27 5 26 16 -35 17 36 0
-27 -6 5 -35 16 17 26 36 0
6 -27 -35 5 -17 16 26 36 0
-35 17 6 16 -5 26 27 36 0
-6 -35 17 16 -5 26 27 36 0
6 -17 -5 -35 16 26 27 36 0
-17 -6 -35 -5 16 26 27 36 0
6 -27 -5 17 16 -35 26 36 0
-35 -5 -27 -6 16 17 26 36 0
-17 -5 -35 -27 6 16 26 36 0
-36 -35 6 -5 17 16 27 26 0
6 17 5 -35 -16 26 27 36 0
-6 -35 17 5 -16 26 27 36 0
6 -16 -35 5 -17 26 27 36 0
-6 -16 -35 -17 5 26 27 36 0
-27 -16 17 5 6 -35 26 36 0
-6 -27 -16 -35 5 17 36 26 0
-17 -16 -35 -27 5 6 26 36 0
-36 6 -16 -35 5 17 26 27 0
-36 -6 -16 -35 5 17 26 27 0
6 -26 16 5 27 17 -35 36 0
-6 -26 -35 16 27 5 17 36 0
6 -26 27 5 -35 16 -17 36 0
-6 -17 -26 -35 5 16 27 36 0
6 -27 -26 5 -35 16 17 36 0
-6 -27 -26 -35 5 16 17 36 0
6 -26 5 -35 -17 -27 16 36 0
-6 -17 -26 -27 -35 5 16 36 0
-36 -26 17 -35 6 16 5 27 0
-36 -26 17 -6 5 16 -35 27 0
-17 -36 5 -35 -26 6 16 27 0
7 18 28 37 27 17 36 -6 0
7 6 18 27 28 -17 36 37 0
18 6 27 36 37 28 -7 -17 0
7 -17 18 -6 28 27 36 37 0
-7 -17 18 -6 27 36 28 37 0
-6 -18 -17 7 27 28 36 37 0
7 18 28 6 -27 17 36 37 0
-27 18 28 36 6 17 -7 37 0
-18 -27 36 28 6 17 7 37 0
-18 -27 36 28 6 17 -7 37 0
7 -27 18 -6 28 17 36 37 0
-7 -27 18 -6 17 28 36 37 0
7 -6 -18 -27 36 28 17 37 0
-7 -18 -6 -27 17 28 36 37 0
7 -28 -27 -6 17 18 36 37 0
6 -17 18 -27 7 28 36 37 0
6 -17 18 -27 -7 28 36 37 0
-18 -17 6 -27 7 28 36 37 0
-18 -17 -7 -27 6 28 36 37 0
6 -17 18 -27 -28 7 36 37 0
-17 -28 -27 -7 6 18 36 37 0
7 18 17 27 -36 6 28 37 0
-7 -36 18 17 27 6 28 37 0
7 -18 -36 17 27 6 28 37 0
-18 17 27 -7 6 -36 28 37 0
7 -36 27 18 17 -28 6 37 0
-28 -7 18 27 6 -36 17 37 0
7 -18 17 -36 6 -28 27 37 0
-28 -7 27 -36 17 6 -18 37 0
7 -6 18 -36 17 27 28 37 0
-6 28 27 18 -7 17 -36 37 0
7 -6 -18 -36 17 27 28 37 0
-18 -6 28 -7 17 27 -36 37 0
7 -6 18 17 -28 -36 27 37 0
-6 -7 18 -28 17 -36 27 37 0
-6 -36 -28 -18 7 17 27 37 0
7 -6 27 18 28 -36 -37 17 0
7 6 18 -36 -17 27 28 37 0
-7 -36 18 6 -17 27 28 37 0
7 6 -17 -18 28 27 -36 37 0
-17 -7 -36 -18 6 27 28 37 0
7 -17 18 6 -36 -28 27 37 0
-17 -28 18 -7 6 -36 27 37 0
-17 -36 -28 -18 6 7 27 37 0
-17 -36 -28 -18 -7 6 27 37 0
7 -37 27 6 -36 18 -17 28 0
-37 -17 -7 -36 6 18 27 28 0
-17 -37 -36 -18 7 27 -6 28 0
7 18 28 6 37 -27 17 -36 0
-7 -36 28 17 18 -27 6 37 0
6 -36 28 -27 7 17 37 -18 0
-27 -7 6 28 -18 17 -36 37 0
7 -28 -27 6 -36 17 18 37 0
-27 -36 -7 -28 6 17 18 37 0
-27 -36 -18 -28 6 7 17 37 0
-37 -27 18 -36 7 28 6 17 0
-7 -36 28 17 18 6 -37 -27 0
-36 6 7 -37 28 -18 -27 17 0
7 29 8 37 19 38 28 -18 0
18 19 7 37 8 29 -28 38 0
-8 7 29 37 19 -28 18 38 0
-19 -28 8 37 18 29 7 38 0
7 -19 37 18 -28 29 -8 38 0
-7 -28 18 29 19 8 37 38 0
-28 -7 -8 18 19 29 37 38 0
-7 8 29 -28 18 -19 37 38 0
-28 -7 -19 -8 18 29 37 38 0
-29 -7 19 -28 18 8 37 38 0
7 -28 19 8 -18 29 37 38 0
7 -18 -8 -28 19 29 37 38 0
7 -18 8 -28 -19 29 37 38 0
-18 -19 37 -8 7 29 -28 38 0
-29 19 8 -28 7 -18 37 38 0
-18 -28 -8 -29 7 19 37 38 0
-28 -7 -29 -18 8 19 37 38 0
7 -37 19 28 18 8 29 38 0
7 -8 18 -37 19 28 29 38 0
-19 28 8 18 7 -37 29 38 0
7 -19 28 18 -37 -8 29 38 0
-29 19 8 18 -37 7 28 38 0
-29 18 28 19 -37 7 -8 38 0
-19 -29 8 28 7 18 -37 38 0
-37 8 19 18 -7 28 29 38 0
-8 18 29 38 19 -37 28 -7 0
-7 -19 29 38 8 28 -37 18 0
-7 -19 18 -8 38 28 29 -37 0
-37 -7 -29 8 18 19 28 38 0
-7 -29 18 19 -8 -37 28 38 0
-7 -37 -29 -19 8 18 28 38 0
-38 -7 8 -37 19 18 29 28 0
-18 19 8 7 -37 28 29 38 0
-18 -37 -8 7 19 28 29 38 0
7 29 8 28 -19 -37 38 -18 0
-18 -37 -19 -8 7 28 29 38 0
-29 -18 8 -37 7 19 28 38 0
7 -18 -8 -29 -37 19 28 38 0
-18 -37 -19 -29 7 8 28 38 0
-37 -38 28 19 29 8 7 -18 0
7 -38 28 -8 -37 19 29 -18 0
38 29 8 7 19 -28 -37 18 0
-28 -8 18 38 -37 29 7 19 0
-19 18 38 8 -28 -37 29 7 0
-37 -19 18 -8 7 -28 29 38 0
-29 -28 19 7 8 18 -37 38 0
-28 -37 -8 -29 7 18 19 38 0
-28 -37 -29 -19 7 8 18 38 0
-37 7 -38 8 19 18 -28 29 0
7 -38 19 -28 -37 18 -8 29 0
7 -28 -38 -19 -37 8 18 29 0
-37 -28 -8 -18 7 19 29 38 0
-38 -37 -28 -18 -29 7 8 19 0
-29 9 19 38 20 30 8 39 0
-29 -9 19 8 20 30 38 39 0
-20 9 19 38 8 30 -29 39 0
39 9 19 38 20 -29 30 -8 0
-9 -29 19 -8 20 30 38 39 0
-20 -29 9 -8 19 30 38 39 0
-8 -30 19 20 9 38 39 -29 0
-29 -19 8 9 20 30 38 39 0
-9 -29 8 -19 20 30 38 39 0
-20 -19 8 -29 9 30 38 39 0
-38 29 19 9 20 8 30 39 0
-9 19 8 -38 20 29 30 39 0
-20 8 19 9 -38 29 30 39 0
8 -20 19 -9 -38 29 30 39 0
-30 29 19 9 -38 20 8 39 0
-30 29 19 -9 8 20 -38 39 0
-20 -38 19 -30 9 29 8 39 0
-38 9 30 29 20 -8 19 39 0
-38 -9 19 30 20 29 -8 39 0
-8 -20 19 39 30 -38 29 9 0
-8 -20 19 -9 30 29 -38 39 0
-38 -30 19 20 9 -8 29 39 0
-8 -30 19 20 -9 -38 29 39 0
-20 -30 -8 19 9 -38 29 39 0
-38 -39 -8 20 30 9 19 29 0
-19 39 8 20 9 30 -38 29 0
-19 -38 -9 8 20 29 30 39 0
-20 -38 -19 8 9 29 30 39 0
-20 -9 -19 -38 8 29 30 39 0
-19 -38 -30 9 8 20 29 39 0
-19 -38 -30 -9 8 20 29 39 0
-20 -30 -19 9 -38 8 29 39 0
-19 -38 -39 20 30 9 29 8 0
-19 -38 -39 -9 8 20 29 30 0
-38 -29 8 9 19 20 30 39 0
-9 -38 20 19 -29 30 8 39 0
-29 9 30 -38 19 -20 39 8 0
-20 -38 19 30 -9 -29 8 39 0
-29 -38 19 9 39 20 8 -30 0
-29 -30 19 20 -9 8 -38 39 0
-29 -30 8 -20 9 -38 19 39 0
-29 -39 8 9 -38 19 20 30 0
-29 -38 19 20 -9 30 8 -39 0
-38 -39 -29 -20 8 9 19 30 0
-38 -8 9 -29 19 20 30 39 0
39 9 21 10 30 31 -20 40 0
-20 -9 21 10 30 31 39 40 0
9 10 21 20 39 31 -30 40 0
-30 -21 9 10 20 31 39 40 0
39 -9 10 20 21 31 -30 40 0
-30 -9 -21 10 20 31 39 40 0
-20 -30 9 10 21 31 39 40 0
-20 -21 9 10 39 31 -30 40 0
-20 -30 -31 9 10 21 39 40 0
-20 -30 -21 10 -9 31 39 40 0
-39 9 31 10 21 20 30 40 0
-39 20 30 9 21 -10 31 40 0
-39 -21 9 10 20 30 31 40 0
-10 9 20 -21 30 -39 31 40 0
-39 -31 9 10 20 21 30 40 0
-10 -31 9 21 -39 20 30 40 0
-21 -31 9 10 20 30 40 -39 0
-9 -39 31 10 21 20 30 40 0
-9 20 30 21 31 -10 40 -39 0
-39 -9 -21 10 20 30 31 40 0
-39 -9 -10 -21 20 30 31 40 0
-39 -9 -31 10 20 21 30 40 0
-39 -9 -31 -10 20 21 30 40 0
-9 -21 -31 10 20 40 30 -39 0
-9 -39 -40 10 21 31 30 20 0
40 9 31 10 21 -20 -39 30 0
-39 -20 -10 9 21 30 31 40 0
-20 -39 -21 9 10 30 31 40 0
-20 -10 9 -21 30 40 31 -39 0
-39 -20 -31 9 10 21 30 40 0
-20 -31 -10 21 9 -39 30 40 0
-21 -31 9 10 30 -20 40 -39 0
-39 -40 30 21 31 -20 10 9 0
-20 -10 9 -40 30 -39 21 31 0
40 10 21 9 31 20 -30 -39 0
-39 -30 -10 9 20 21 31 40 0
-39 -21 9 10 40 20 31 -30 0
-30 -39 -21 -10 9 20 31 40 0
-30 9 21 10 40 20 -31 -39 0
-10 -31 9 21 -30 40 20 -39 0
-21 -31 9 10 40 20 -30 -39 0
-21 -10 -31 -30 9 20 40 -39 0
-39 -40 9 10 21 31 20 -30 0
-39 -30 -40 -10 9 20 21 31 0
-39 10 20 31 -21 -30 9 -40 0
-30 -9 -31 10 20 21 40 -39 0
-40 10 21 11 22 31 32 41 0
-11 31 21 22 -40 32 10 41 0
41 10 21 11 32 31 -40 -22 0
-22 -11 21 31 -40 10 32 41 0
-32 -40 22 11 10 21 31 41 0
-40 -11 21 10 -32 22 31 41 0
-22 -40 10 -32 11 21 31 41 0
-10 11 22 21 32 41 -40 31 0
-10 -11 21 22 32 41 -40 31 0
-10 41 32 11 21 -22 -40 31 0
-11 31 21 32 -10 41 -40 -22 0
-40 11 22 21 -32 -10 31 41 0
-10 -11 21 -32 22 41 31 -40 0
-10 -40 -22 -32 11 21 31 41 0
-41 -40 22 31 11 32 21 -10 0
-21 -40 10 11 22 31 32 41 0
-21 -11 41 10 22 32 -40 31 0
-21 -22 10 11 41 32 -40 31 0
-21 -11 41 32 31 -22 -40 10 0
-21 -32 41 22 10 11 31 -40 0
-21 -32 -40 -11 10 22 31 41 0
-21 -22 -32 31 11 41 10 -40 0
-21 10 31 11 22 -40 32 -41 0
-41 10 31 -11 32 -40 22 -21 0
-10 -21 -32 11 22 41 31 -40 0
-31 41 22 11 10 21 32 -40 0
-11 32 22 -40 21 10 -31 41 0
41 -22 -40 32 11 10 -31 21 0
-31 -40 -22 -11 10 21 32 41 0
-32 41 22 10 11 -31 21 -40 0
-31 -32 21 22 -11 10 41 -40 0
-31 10 21 -32 -22 11 41 -40 0
-41 -31 10 22 11 21 -40 32 0
-41 -11 10 22 -31 32 21 -40 0
-31 -41 -40 -22 10 11 21 32 0
-10 -31 -11 -32 21 22 41 -40 0
-31 -10 -22 -32 11 21 41 -40 0
-21 -41 10 11 -22 32 -40 -31 0
-41 11 22 12 23 32 33 42 0
-12 -41 11 22 23 32 33 42 0
-23 22 11 -41 12 32 33 42 0
-12 -41 11 22 -23 32 33 42 0
-33 11 22 12 23 -41 32 42 0
-12 -33 11 22 23 -41 32 42 0
-33 11 22 12 32 -23 42 -41 0
-12 -33 11 22 32 -23 42 -41 0
33 -41 23 22 -11 32 12 42 0
33 -41 23 22 -11 32 -12 42 0
-23 33 -11 -41 22 32 12 42 0
-12 -23 -41 -11 22 32 33 42 0
-33 -11 23 12 22 -41 32 42 0
-12 -11 23 22 -33 32 42 -41 0
-23 -33 -41 -11 12 22 32 42 0
33 11 23 12 -22 32 -41 42 0
-22 -41 -12 11 23 32 33 42 0
33 -22 12 11 -41 32 -23 42 0
-41 -22 -23 -12 11 32 33 42 0
-33 -22 12 11 -41 23 32 42 0
-12 -33 -22 -41 11 23 32 42 0
-23 -22 12 11 -33 32 42 -41 0
-42 -41 12 11 -22 23 32 33 0
-12 -42 -41 -22 11 23 32 33 0
-23 -22 12 -11 32 33 -41 -42 0
33 -32 12 11 22 -41 23 42 0
-12 -32 23 11 22 -41 33 42 0
-41 -32 12 11 33 22 -23 42 0
-12 -23 -32 11 22 33 42 -41 0
-32 12 23 11 -41 22 -33 42 0
-12 -41 -32 23 11 22 -33 42 0
-41 -32 12 -33 11 -23 22 42 0
-12 -23 -32 -33 11 22 42 -41 0
-42 -32 23 11 12 22 -41 33 0
-12 -42 11 22 -32 23 -41 33 0
-23 -42 -32 -41 11 12 22 33 0
-22 -41 -32 11 -33 23 12 -42 0
