p cnf 1222 24694
365 366 367 368 369 370 371 372 373 374 375 0
-365 2 0
-365 13 0
-366 3 0
-366 14 0
-367 4 0
-367 15 0
-368 5 0
-368 16 0
-369 6 0
-369 17 0
-370 7 0
-370 18 0
-371 8 0
-371 19 0
-372 9 0
-372 20 0
-373 10 0
-373 21 0
-374 11 0
-374 22 0
-375 12 0
-375 23 0
376 377 378 379 380 381 382 383 384 385 386 0
-376 1 0
-376 13 0
-377 3 0
-377 24 0
-378 4 0
-378 25 0
-379 5 0
-379 26 0
-380 6 0
-380 27 0
-381 7 0
-381 28 0
-382 8 0
-382 29 0
-383 9 0
-383 30 0
-384 10 0
-384 31 0
-385 11 0
-385 32 0
-386 12 0
-386 33 0
387 388 389 390 391 392 393 394 395 396 397 0
-387 1 0
-387 14 0
-388 2 0
-388 24 0
-389 4 0
-389 34 0
-390 5 0
-390 35 0
-391 6 0
-391 36 0
-392 7 0
-392 37 0
-393 8 0
-393 38 0
-394 9 0
-394 39 0
-395 10 0
-395 40 0
-396 11 0
-396 41 0
-397 12 0
-397 42 0
398 399 400 401 402 403 404 405 406 407 408 0
-398 1 0
-398 15 0
-399 2 0
-399 25 0
-400 3 0
-400 34 0
-401 5 0
-401 43 0
-402 6 0
-402 44 0
-403 7 0
-403 45 0
-404 8 0
-404 46 0
-405 9 0
-405 47 0
-406 10 0
-406 48 0
-407 11 0
-407 49 0
-408 12 0
-408 50 0
409 410 411 412 413 414 415 416 417 418 419 0
-409 1 0
-409 16 0
-410 2 0
-410 26 0
-411 3 0
-411 35 0
-412 4 0
-412 43 0
-413 6 0
-413 51 0
-414 7 0
-414 52 0
-415 8 0
-415 53 0
-416 9 0
-416 54 0
-417 10 0
-417 55 0
-418 11 0
-418 56 0
-419 12 0
-419 57 0
420 421 422 423 424 425 426 427 428 429 430 0
-420 1 0
-420 17 0
-421 2 0
-421 27 0
-422 3 0
-422 36 0
-423 4 0
-423 44 0
-424 5 0
-424 51 0
-425 7 0
-425 58 0
-426 8 0
-426 59 0
-427 9 0
-427 60 0
-428 10 0
-428 61 0
-429 11 0
-429 62 0
-430 12 0
-430 63 0
431 432 433 434 435 436 437 438 439 440 441 0
-431 1 0
-431 18 0
-432 2 0
-432 28 0
-433 3 0
-433 37 0
-434 4 0
-434 45 0
-435 5 0
-435 52 0
-436 6 0
-436 58 0
-437 8 0
-437 64 0
-438 9 0
-438 65 0
-439 10 0
-439 66 0
-440 11 0
-440 67 0
-441 12 0
-441 68 0
442 443 444 445 446 447 448 449 450 451 452 0
-442 1 0
-442 19 0
-443 2 0
-443 29 0
-444 3 0
-444 38 0
-445 4 0
-445 46 0
-446 5 0
-446 53 0
-447 6 0
-447 59 0
-448 7 0
-448 64 0
-449 9 0
-449 69 0
-450 10 0
-450 70 0
-451 11 0
-451 71 0
-452 12 0
-452 72 0
453 454 455 456 457 458 459 460 461 462 463 0
-453 1 0
-453 20 0
-454 2 0
-454 30 0
-455 3 0
-455 39 0
-456 4 0
-456 47 0
-457 5 0
-457 54 0
-458 6 0
-458 60 0
-459 7 0
-459 65 0
-460 8 0
-460 69 0
-461 10 0
-461 73 0
-462 11 0
-462 74 0
-463 12 0
-463 75 0
464 465 466 467 468 469 470 471 472 473 474 0
-464 1 0
-464 21 0
-465 2 0
-465 31 0
-466 3 0
-466 40 0
-467 4 0
-467 48 0
-468 5 0
-468 55 0
-469 6 0
-469 61 0
-470 7 0
-470 66 0
-471 8 0
-471 70 0
-472 9 0
-472 73 0
-473 11 0
-473 76 0
-474 12 0
-474 77 0
475 476 477 478 479 480 481 482 483 484 485 0
-475 1 0
-475 22 0
-476 2 0
-476 32 0
-477 3 0
-477 41 0
-478 4 0
-478 49 0
-479 5 0
-479 56 0
-480 6 0
-480 62 0
-481 7 0
-481 67 0
-482 8 0
-482 71 0
-483 9 0
-483 74 0
-484 10 0
-484 76 0
-485 12 0
-485 78 0
486 487 488 489 490 491 492 493 494 495 496 0
-486 1 0
-486 23 0
-487 2 0
-487 33 0
-488 3 0
-488 42 0
-489 4 0
-489 50 0
-490 5 0
-490 57 0
-491 6 0
-491 63 0
-492 7 0
-492 68 0
-493 8 0
-493 72 0
-494 9 0
-494 75 0
-495 10 0
-495 77 0
-496 11 0
-496 78 0
497 498 499 500 501 502 503 504 505 506 507 0
-497 1 0
-497 2 0
-498 14 0
-498 24 0
-499 15 0
-499 25 0
-500 16 0
-500 26 0
-501 17 0
-501 27 0
-502 18 0
-502 28 0
-503 19 0
-503 29 0
-504 20 0
-504 30 0
-505 21 0
-505 31 0
-506 22 0
-506 32 0
-507 23 0
-507 33 0
508 509 510 511 512 513 514 515 516 517 518 0
-508 1 0
-508 3 0
-509 13 0
-509 24 0
-510 15 0
-510 34 0
-511 16 0
-511 35 0
-512 17 0
-512 36 0
-513 18 0
-513 37 0
-514 19 0
-514 38 0
-515 20 0
-515 39 0
-516 21 0
-516 40 0
-517 22 0
-517 41 0
-518 23 0
-518 42 0
519 520 521 522 523 524 525 526 527 528 529 0
-519 1 0
-519 4 0
-520 13 0
-520 25 0
-521 14 0
-521 34 0
-522 16 0
-522 43 0
-523 17 0
-523 44 0
-524 18 0
-524 45 0
-525 19 0
-525 46 0
-526 20 0
-526 47 0
-527 21 0
-527 48 0
-528 22 0
-528 49 0
-529 23 0
-529 50 0
530 531 532 533 534 535 536 537 538 539 540 0
-530 1 0
-530 5 0
-531 13 0
-531 26 0
-532 14 0
-532 35 0
-533 15 0
-533 43 0
-534 17 0
-534 51 0
-535 18 0
-535 52 0
-536 19 0
-536 53 0
-537 20 0
-537 54 0
-538 21 0
-538 55 0
-539 22 0
-539 56 0
-540 23 0
-540 57 0
541 542 543 544 545 546 547 548 549 550 551 0
-541 1 0
-541 6 0
-542 13 0
-542 27 0
-543 14 0
-543 36 0
-544 15 0
-544 44 0
-545 16 0
-545 51 0
-546 18 0
-546 58 0
-547 19 0
-547 59 0
-548 20 0
-548 60 0
-549 21 0
-549 61 0
-550 22 0
-550 62 0
-551 23 0
-551 63 0
552 553 554 555 556 557 558 559 560 561 562 0
-552 1 0
-552 7 0
-553 13 0
-553 28 0
-554 14 0
-554 37 0
-555 15 0
-555 45 0
-556 16 0
-556 52 0
-557 17 0
-557 58 0
-558 19 0
-558 64 0
-559 20 0
-559 65 0
-560 21 0
-560 66 0
-561 22 0
-561 67 0
-562 23 0
-562 68 0
563 564 565 566 567 568 569 570 571 572 573 0
-563 1 0
-563 8 0
-564 13 0
-564 29 0
-565 14 0
-565 38 0
-566 15 0
-566 46 0
-567 16 0
-567 53 0
-568 17 0
-568 59 0
-569 18 0
-569 64 0
-570 20 0
-570 69 0
-571 21 0
-571 70 0
-572 22 0
-572 71 0
-573 23 0
-573 72 0
574 575 576 577 578 579 580 581 582 583 584 0
-574 1 0
-574 9 0
-575 13 0
-575 30 0
-576 14 0
-576 39 0
-577 15 0
-577 47 0
-578 16 0
-578 54 0
-579 17 0
-579 60 0
-580 18 0
-580 65 0
-581 19 0
-581 69 0
-582 21 0
-582 73 0
-583 22 0
-583 74 0
-584 23 0
-584 75 0
585 586 587 588 589 590 591 592 593 594 595 0
-585 1 0
-585 10 0
-586 13 0
-586 31 0
-587 14 0
-587 40 0
-588 15 0
-588 48 0
-589 16 0
-589 55 0
-590 17 0
-590 61 0
-591 18 0
-591 66 0
-592 19 0
-592 70 0
-593 20 0
-593 73 0
-594 22 0
-594 76 0
-595 23 0
-595 77 0
596 597 598 599 600 601 602 603 604 605 606 0
-596 1 0
-596 11 0
-597 13 0
-597 32 0
-598 14 0
-598 41 0
-599 15 0
-599 49 0
-600 16 0
-600 56 0
-601 17 0
-601 62 0
-602 18 0
-602 67 0
-603 19 0
-603 71 0
-604 20 0
-604 74 0
-605 21 0
-605 76 0
-606 23 0
-606 78 0
607 608 609 610 611 612 613 614 615 616 617 0
-607 1 0
-607 12 0
-608 13 0
-608 33 0
-609 14 0
-609 42 0
-610 15 0
-610 50 0
-611 16 0
-611 57 0
-612 17 0
-612 63 0
-613 18 0
-613 68 0
-614 19 0
-614 72 0
-615 20 0
-615 75 0
-616 21 0
-616 77 0
-617 22 0
-617 78 0
618 619 620 621 622 623 624 625 626 627 628 0
-618 2 0
-618 3 0
-619 13 0
-619 14 0
-620 25 0
-620 34 0
-621 26 0
-621 35 0
-622 27 0
-622 36 0
-623 28 0
-623 37 0
-624 29 0
-624 38 0
-625 30 0
-625 39 0
-626 31 0
-626 40 0
-627 32 0
-627 41 0
-628 33 0
-628 42 0
629 630 631 632 633 634 635 636 637 638 639 0
-629 2 0
-629 4 0
-630 13 0
-630 15 0
-631 24 0
-631 34 0
-632 26 0
-632 43 0
-633 27 0
-633 44 0
-634 28 0
-634 45 0
-635 29 0
-635 46 0
-636 30 0
-636 47 0
-637 31 0
-637 48 0
-638 32 0
-638 49 0
-639 33 0
-639 50 0
640 641 642 643 644 645 646 647 648 649 650 0
-640 2 0
-640 5 0
-641 13 0
-641 16 0
-642 24 0
-642 35 0
-643 25 0
-643 43 0
-644 27 0
-644 51 0
-645 28 0
-645 52 0
-646 29 0
-646 53 0
-647 30 0
-647 54 0
-648 31 0
-648 55 0
-649 32 0
-649 56 0
-650 33 0
-650 57 0
651 652 653 654 655 656 657 658 659 660 661 0
-651 2 0
-651 6 0
-652 13 0
-652 17 0
-653 24 0
-653 36 0
-654 25 0
-654 44 0
-655 26 0
-655 51 0
-656 28 0
-656 58 0
-657 29 0
-657 59 0
-658 30 0
-658 60 0
-659 31 0
-659 61 0
-660 32 0
-660 62 0
-661 33 0
-661 63 0
662 663 664 665 666 667 668 669 670 671 672 0
-662 2 0
-662 7 0
-663 13 0
-663 18 0
-664 24 0
-664 37 0
-665 25 0
-665 45 0
-666 26 0
-666 52 0
-667 27 0
-667 58 0
-668 29 0
-668 64 0
-669 30 0
-669 65 0
-670 31 0
-670 66 0
-671 32 0
-671 67 0
-672 33 0
-672 68 0
673 674 675 676 677 678 679 680 681 682 683 0
-673 2 0
-673 8 0
-674 13 0
-674 19 0
-675 24 0
-675 38 0
-676 25 0
-676 46 0
-677 26 0
-677 53 0
-678 27 0
-678 59 0
-679 28 0
-679 64 0
-680 30 0
-680 69 0
-681 31 0
-681 70 0
-682 32 0
-682 71 0
-683 33 0
-683 72 0
684 685 686 687 688 689 690 691 692 693 694 0
-684 2 0
-684 9 0
-685 13 0
-685 20 0
-686 24 0
-686 39 0
-687 25 0
-687 47 0
-688 26 0
-688 54 0
-689 27 0
-689 60 0
-690 28 0
-690 65 0
-691 29 0
-691 69 0
-692 31 0
-692 73 0
-693 32 0
-693 74 0
-694 33 0
-694 75 0
695 696 697 698 699 700 701 702 703 704 705 0
-695 2 0
-695 10 0
-696 13 0
-696 21 0
-697 24 0
-697 40 0
-698 25 0
-698 48 0
-699 26 0
-699 55 0
-700 27 0
-700 61 0
-701 28 0
-701 66 0
-702 29 0
-702 70 0
-703 30 0
-703 73 0
-704 32 0
-704 76 0
-705 33 0
-705 77 0
706 707 708 709 710 711 712 713 714 715 716 0
-706 2 0
-706 11 0
-707 13 0
-707 22 0
-708 24 0
-708 41 0
-709 25 0
-709 49 0
-710 26 0
-710 56 0
-711 27 0
-711 62 0
-712 28 0
-712 67 0
-713 29 0
-713 71 0
-714 30 0
-714 74 0
-715 31 0
-715 76 0
-716 33 0
-716 78 0
717 718 719 720 721 722 723 724 725 726 727 0
-717 2 0
-717 12 0
-718 13 0
-718 23 0
-719 24 0
-719 42 0
-720 25 0
-720 50 0
-721 26 0
-721 57 0
-722 27 0
-722 63 0
-723 28 0
-723 68 0
-724 29 0
-724 72 0
-725 30 0
-725 75 0
-726 31 0
-726 77 0
-727 32 0
-727 78 0
728 729 730 731 732 733 734 735 736 737 738 0
-728 3 0
-728 4 0
-729 14 0
-729 15 0
-730 24 0
-730 25 0
-731 35 0
-731 43 0
-732 36 0
-732 44 0
-733 37 0
-733 45 0
-734 38 0
-734 46 0
-735 39 0
-735 47 0
-736 40 0
-736 48 0
-737 41 0
-737 49 0
-738 42 0
-738 50 0
739 740 741 742 743 744 745 746 747 748 749 0
-739 3 0
-739 5 0
-740 14 0
-740 16 0
-741 24 0
-741 26 0
-742 34 0
-742 43 0
-743 36 0
-743 51 0
-744 37 0
-744 52 0
-745 38 0
-745 53 0
-746 39 0
-746 54 0
-747 40 0
-747 55 0
-748 41 0
-748 56 0
-749 42 0
-749 57 0
750 751 752 753 754 755 756 757 758 759 760 0
-750 3 0
-750 6 0
-751 14 0
-751 17 0
-752 24 0
-752 27 0
-753 34 0
-753 44 0
-754 35 0
-754 51 0
-755 37 0
-755 58 0
-756 38 0
-756 59 0
-757 39 0
-757 60 0
-758 40 0
-758 61 0
-759 41 0
-759 62 0
-760 42 0
-760 63 0
761 762 763 764 765 766 767 768 769 770 771 0
-761 3 0
-761 7 0
-762 14 0
-762 18 0
-763 24 0
-763 28 0
-764 34 0
-764 45 0
-765 35 0
-765 52 0
-766 36 0
-766 58 0
-767 38 0
-767 64 0
-768 39 0
-768 65 0
-769 40 0
-769 66 0
-770 41 0
-770 67 0
-771 42 0
-771 68 0
772 773 774 775 776 777 778 779 780 781 782 0
-772 3 0
-772 8 0
-773 14 0
-773 19 0
-774 24 0
-774 29 0
-775 34 0
-775 46 0
-776 35 0
-776 53 0
-777 36 0
-777 59 0
-778 37 0
-778 64 0
-779 39 0
-779 69 0
-780 40 0
-780 70 0
-781 41 0
-781 71 0
-782 42 0
-782 72 0
783 784 785 786 787 788 789 790 791 792 793 0
-783 3 0
-783 9 0
-784 14 0
-784 20 0
-785 24 0
-785 30 0
-786 34 0
-786 47 0
-787 35 0
-787 54 0
-788 36 0
-788 60 0
-789 37 0
-789 65 0
-790 38 0
-790 69 0
-791 40 0
-791 73 0
-792 41 0
-792 74 0
-793 42 0
-793 75 0
794 795 796 797 798 799 800 801 802 803 804 0
-794 3 0
-794 10 0
-795 14 0
-795 21 0
-796 24 0
-796 31 0
-797 34 0
-797 48 0
-798 35 0
-798 55 0
-799 36 0
-799 61 0
-800 37 0
-800 66 0
-801 38 0
-801 70 0
-802 39 0
-802 73 0
-803 41 0
-803 76 0
-804 42 0
-804 77 0
805 806 807 808 809 810 811 812 813 814 815 0
-805 3 0
-805 11 0
-806 14 0
-806 22 0
-807 24 0
-807 32 0
-808 34 0
-808 49 0
-809 35 0
-809 56 0
-810 36 0
-810 62 0
-811 37 0
-811 67 0
-812 38 0
-812 71 0
-813 39 0
-813 74 0
-814 40 0
-814 76 0
-815 42 0
-815 78 0
816 817 818 819 820 821 822 823 824 825 826 0
-816 3 0
-816 12 0
-817 14 0
-817 23 0
-818 24 0
-818 33 0
-819 34 0
-819 50 0
-820 35 0
-820 57 0
-821 36 0
-821 63 0
-822 37 0
-822 68 0
-823 38 0
-823 72 0
-824 39 0
-824 75 0
-825 40 0
-825 77 0
-826 41 0
-826 78 0
827 828 829 830 831 832 833 834 835 836 837 0
-827 4 0
-827 5 0
-828 15 0
-828 16 0
-829 25 0
-829 26 0
-830 34 0
-830 35 0
-831 44 0
-831 51 0
-832 45 0
-832 52 0
-833 46 0
-833 53 0
-834 47 0
-834 54 0
-835 48 0
-835 55 0
-836 49 0
-836 56 0
-837 50 0
-837 57 0
838 839 840 841 842 843 844 845 846 847 848 0
-838 4 0
-838 6 0
-839 15 0
-839 17 0
-840 25 0
-840 27 0
-841 34 0
-841 36 0
-842 43 0
-842 51 0
-843 45 0
-843 58 0
-844 46 0
-844 59 0
-845 47 0
-845 60 0
-846 48 0
-846 61 0
-847 49 0
-847 62 0
-848 50 0
-848 63 0
849 850 851 852 853 854 855 856 857 858 859 0
-849 4 0
-849 7 0
-850 15 0
-850 18 0
-851 25 0
-851 28 0
-852 34 0
-852 37 0
-853 43 0
-853 52 0
-854 44 0
-854 58 0
-855 46 0
-855 64 0
-856 47 0
-856 65 0
-857 48 0
-857 66 0
-858 49 0
-858 67 0
-859 50 0
-859 68 0
860 861 862 863 864 865 866 867 868 869 870 0
-860 4 0
-860 8 0
-861 15 0
-861 19 0
-862 25 0
-862 29 0
-863 34 0
-863 38 0
-864 43 0
-864 53 0
-865 44 0
-865 59 0
-866 45 0
-866 64 0
-867 47 0
-867 69 0
-868 48 0
-868 70 0
-869 49 0
-869 71 0
-870 50 0
-870 72 0
871 872 873 874 875 876 877 878 879 880 881 0
-871 4 0
-871 9 0
-872 15 0
-872 20 0
-873 25 0
-873 30 0
-874 34 0
-874 39 0
-875 43 0
-875 54 0
-876 44 0
-876 60 0
-877 45 0
-877 65 0
-878 46 0
-878 69 0
-879 48 0
-879 73 0
-880 49 0
-880 74 0
-881 50 0
-881 75 0
882 883 884 885 886 887 888 889 890 891 892 0
-882 4 0
-882 10 0
-883 15 0
-883 21 0
-884 25 0
-884 31 0
-885 34 0
-885 40 0
-886 43 0
-886 55 0
-887 44 0
-887 61 0
-888 45 0
-888 66 0
-889 46 0
-889 70 0
-890 47 0
-890 73 0
-891 49 0
-891 76 0
-892 50 0
-892 77 0
893 894 895 896 897 898 899 900 901 902 903 0
-893 4 0
-893 11 0
-894 15 0
-894 22 0
-895 25 0
-895 32 0
-896 34 0
-896 41 0
-897 43 0
-897 56 0
-898 44 0
-898 62 0
-899 45 0
-899 67 0
-900 46 0
-900 71 0
-901 47 0
-901 74 0
-902 48 0
-902 76 0
-903 50 0
-903 78 0
904 905 906 907 908 909 910 911 912 913 914 0
-904 4 0
-904 12 0
-905 15 0
-905 23 0
-906 25 0
-906 33 0
-907 34 0
-907 42 0
-908 43 0
-908 57 0
-909 44 0
-909 63 0
-910 45 0
-910 68 0
-911 46 0
-911 72 0
-912 47 0
-912 75 0
-913 48 0
-913 77 0
-914 49 0
-914 78 0
915 916 917 918 919 920 921 922 923 924 925 0
-915 5 0
-915 6 0
-916 16 0
-916 17 0
-917 26 0
-917 27 0
-918 35 0
-918 36 0
-919 43 0
-919 44 0
-920 52 0
-920 58 0
-921 53 0
-921 59 0
-922 54 0
-922 60 0
-923 55 0
-923 61 0
-924 56 0
-924 62 0
-925 57 0
-925 63 0
926 927 928 929 930 931 932 933 934 935 936 0
-926 5 0
-926 7 0
-927 16 0
-927 18 0
-928 26 0
-928 28 0
-929 35 0
-929 37 0
-930 43 0
-930 45 0
-931 51 0
-931 58 0
-932 53 0
-932 64 0
-933 54 0
-933 65 0
-934 55 0
-934 66 0
-935 56 0
-935 67 0
-936 57 0
-936 68 0
937 938 939 940 941 942 943 944 945 946 947 0
-937 5 0
-937 8 0
-938 16 0
-938 19 0
-939 26 0
-939 29 0
-940 35 0
-940 38 0
-941 43 0
-941 46 0
-942 51 0
-942 59 0
-943 52 0
-943 64 0
-944 54 0
-944 69 0
-945 55 0
-945 70 0
-946 56 0
-946 71 0
-947 57 0
-947 72 0
948 949 950 951 952 953 954 955 956 957 958 0
-948 5 0
-948 9 0
-949 16 0
-949 20 0
-950 26 0
-950 30 0
-951 35 0
-951 39 0
-952 43 0
-952 47 0
-953 51 0
-953 60 0
-954 52 0
-954 65 0
-955 53 0
-955 69 0
-956 55 0
-956 73 0
-957 56 0
-957 74 0
-958 57 0
-958 75 0
959 960 961 962 963 964 965 966 967 968 969 0
-959 5 0
-959 10 0
-960 16 0
-960 21 0
-961 26 0
-961 31 0
-962 35 0
-962 40 0
-963 43 0
-963 48 0
-964 51 0
-964 61 0
-965 52 0
-965 66 0
-966 53 0
-966 70 0
-967 54 0
-967 73 0
-968 56 0
-968 76 0
-969 57 0
-969 77 0
970 971 972 973 974 975 976 977 978 979 980 0
-970 5 0
-970 11 0
-971 16 0
-971 22 0
-972 26 0
-972 32 0
-973 35 0
-973 41 0
-974 43 0
-974 49 0
-975 51 0
-975 62 0
-976 52 0
-976 67 0
-977 53 0
-977 71 0
-978 54 0
-978 74 0
-979 55 0
-979 76 0
-980 57 0
-980 78 0
981 982 983 984 985 986 987 988 989 990 991 0
-981 5 0
-981 12 0
-982 16 0
-982 23 0
-983 26 0
-983 33 0
-984 35 0
-984 42 0
-985 43 0
-985 50 0
-986 51 0
-986 63 0
-987 52 0
-987 68 0
-988 53 0
-988 72 0
-989 54 0
-989 75 0
-990 55 0
-990 77 0
-991 56 0
-991 78 0
992 993 994 995 996 997 998 999 1000 1001 1002 0
-992 6 0
-992 7 0
-993 17 0
-993 18 0
-994 27 0
-994 28 0
-995 36 0
-995 37 0
-996 44 0
-996 45 0
-997 51 0
-997 52 0
-998 59 0
-998 64 0
-999 60 0
-999 65 0
-1000 61 0
-1000 66 0
-1001 62 0
-1001 67 0
-1002 63 0
-1002 68 0
1003 1004 1005 1006 1007 1008 1009 1010 1011 1012 1013 0
-1003 6 0
-1003 8 0
-1004 17 0
-1004 19 0
-1005 27 0
-1005 29 0
-1006 36 0
-1006 38 0
-1007 44 0
-1007 46 0
-1008 51 0
-1008 53 0
-1009 58 0
-1009 64 0
-1010 60 0
-1010 69 0
-1011 61 0
-1011 70 0
-1012 62 0
-1012 71 0
-1013 63 0
-1013 72 0
1014 1015 1016 1017 1018 1019 1020 1021 1022 1023 1024 0
-1014 6 0
-1014 9 0
-1015 17 0
-1015 20 0
-1016 27 0
-1016 30 0
-1017 36 0
-1017 39 0
-1018 44 0
-1018 47 0
-1019 51 0
-1019 54 0
-1020 58 0
-1020 65 0
-1021 59 0
-1021 69 0
-1022 61 0
-1022 73 0
-1023 62 0
-1023 74 0
-1024 63 0
-1024 75 0
1025 1026 1027 1028 1029 1030 1031 1032 1033 1034 1035 0
-1025 6 0
-1025 10 0
-1026 17 0
-1026 21 0
-1027 27 0
-1027 31 0
-1028 36 0
-1028 40 0
-1029 44 0
-1029 48 0
-1030 51 0
-1030 55 0
-1031 58 0
-1031 66 0
-1032 59 0
-1032 70 0
-1033 60 0
-1033 73 0
-1034 62 0
-1034 76 0
-1035 63 0
-1035 77 0
1036 1037 1038 1039 1040 1041 1042 1043 1044 1045 1046 0
-1036 6 0
-1036 11 0
-1037 17 0
-1037 22 0
-1038 27 0
-1038 32 0
-1039 36 0
-1039 41 0
-1040 44 0
-1040 49 0
-1041 51 0
-1041 56 0
-1042 58 0
-1042 67 0
-1043 59 0
-1043 71 0
-1044 60 0
-1044 74 0
-1045 61 0
-1045 76 0
-1046 63 0
-1046 78 0
1047 1048 1049 1050 1051 1052 1053 1054 1055 1056 1057 0
-1047 6 0
-1047 12 0
-1048 17 0
-1048 23 0
-1049 27 0
-1049 33 0
-1050 36 0
-1050 42 0
-1051 44 0
-1051 50 0
-1052 51 0
-1052 57 0
-1053 58 0
-1053 68 0
-1054 59 0
-1054 72 0
-1055 60 0
-1055 75 0
-1056 61 0
-1056 77 0
-1057 62 0
-1057 78 0
1058 1059 1060 1061 1062 1063 1064 1065 1066 1067 1068 0
-1058 7 0
-1058 8 0
-1059 18 0
-1059 19 0
-1060 28 0
-1060 29 0
-1061 37 0
-1061 38 0
-1062 45 0
-1062 46 0
-1063 52 0
-1063 53 0
-1064 58 0
-1064 59 0
-1065 65 0
-1065 69 0
-1066 66 0
-1066 70 0
-1067 67 0
-1067 71 0
-1068 68 0
-1068 72 0
1069 1070 1071 1072 1073 1074 1075 1076 1077 1078 1079 0
-1069 7 0
-1069 9 0
-1070 18 0
-1070 20 0
-1071 28 0
-1071 30 0
-1072 37 0
-1072 39 0
-1073 45 0
-1073 47 0
-1074 52 0
-1074 54 0
-1075 58 0
-1075 60 0
-1076 64 0
-1076 69 0
-1077 66 0
-1077 73 0
-1078 67 0
-1078 74 0
-1079 68 0
-1079 75 0
1080 1081 1082 1083 1084 1085 1086 1087 1088 1089 1090 0
-1080 7 0
-1080 10 0
-1081 18 0
-1081 21 0
-1082 28 0
-1082 31 0
-1083 37 0
-1083 40 0
-1084 45 0
-1084 48 0
-1085 52 0
-1085 55 0
-1086 58 0
-1086 61 0
-1087 64 0
-1087 70 0
-1088 65 0
-1088 73 0
-1089 67 0
-1089 76 0
-1090 68 0
-1090 77 0
1091 1092 1093 1094 1095 1096 1097 1098 1099 1100 1101 0
-1091 7 0
-1091 11 0
-1092 18 0
-1092 22 0
-1093 28 0
-1093 32 0
-1094 37 0
-1094 41 0
-1095 45 0
-1095 49 0
-1096 52 0
-1096 56 0
-1097 58 0
-1097 62 0
-1098 64 0
-1098 71 0
-1099 65 0
-1099 74 0
-1100 66 0
-1100 76 0
-1101 68 0
-1101 78 0
1102 1103 1104 1105 1106 1107 1108 1109 1110 1111 1112 0
-1102 7 0
-1102 12 0
-1103 18 0
-1103 23 0
-1104 28 0
-1104 33 0
-1105 37 0
-1105 42 0
-1106 45 0
-1106 50 0
-1107 52 0
-1107 57 0
-1108 58 0
-1108 63 0
-1109 64 0
-1109 72 0
-1110 65 0
-1110 75 0
-1111 66 0
-1111 77 0
-1112 67 0
-1112 78 0
1113 1114 1115 1116 1117 1118 1119 1120 1121 1122 1123 0
-1113 8 0
-1113 9 0
-1114 19 0
-1114 20 0
-1115 29 0
-1115 30 0
-1116 38 0
-1116 39 0
-1117 46 0
-1117 47 0
-1118 53 0
-1118 54 0
-1119 59 0
-1119 60 0
-1120 64 0
-1120 65 0
-1121 70 0
-1121 73 0
-1122 71 0
-1122 74 0
-1123 72 0
-1123 75 0
1124 1125 1126 1127 1128 1129 1130 1131 1132 1133 1134 0
-1124 8 0
-1124 10 0
-1125 19 0
-1125 21 0
-1126 29 0
-1126 31 0
-1127 38 0
-1127 40 0
-1128 46 0
-1128 48 0
-1129 53 0
-1129 55 0
-1130 59 0
-1130 61 0
-1131 64 0
-1131 66 0
-1132 69 0
-1132 73 0
-1133 71 0
-1133 76 0
-1134 72 0
-1134 77 0
1135 1136 1137 1138 1139 1140 1141 1142 1143 1144 1145 0
-1135 8 0
-1135 11 0
-1136 19 0
-1136 22 0
-1137 29 0
-1137 32 0
-1138 38 0
-1138 41 0
-1139 46 0
-1139 49 0
-1140 53 0
-1140 56 0
-1141 59 0
-1141 62 0
-1142 64 0
-1142 67 0
-1143 69 0
-1143 74 0
-1144 70 0
-1144 76 0
-1145 72 0
-1145 78 0
1146 1147 1148 1149 1150 1151 1152 1153 1154 1155 1156 0
-1146 8 0
-1146 12 0
-1147 19 0
-1147 23 0
-1148 29 0
-1148 33 0
-1149 38 0
-1149 42 0
-1150 46 0
-1150 50 0
-1151 53 0
-1151 57 0
-1152 59 0
-1152 63 0
-1153 64 0
-1153 68 0
-1154 69 0
-1154 75 0
-1155 70 0
-1155 77 0
-1156 71 0
-1156 78 0
1157 1158 1159 1160 1161 1162 1163 1164 1165 1166 1167 0
-1157 9 0
-1157 10 0
-1158 20 0
-1158 21 0
-1159 30 0
-1159 31 0
-1160 39 0
-1160 40 0
-1161 47 0
-1161 48 0
-1162 54 0
-1162 55 0
-1163 60 0
-1163 61 0
-1164 65 0
-1164 66 0
-1165 69 0
-1165 70 0
-1166 74 0
-1166 76 0
-1167 75 0
-1167 77 0
1168 1169 1170 1171 1172 1173 1174 1175 1176 1177 1178 0
-1168 9 0
-1168 11 0
-1169 20 0
-1169 22 0
-1170 30 0
-1170 32 0
-1171 39 0
-1171 41 0
-1172 47 0
-1172 49 0
-1173 54 0
-1173 56 0
-1174 60 0
-1174 62 0
-1175 65 0
-1175 67 0
-1176 69 0
-1176 71 0
-1177 73 0
-1177 76 0
-1178 75 0
-1178 78 0
1179 1180 1181 1182 1183 1184 1185 1186 1187 1188 1189 0
-1179 9 0
-1179 12 0
-1180 20 0
-1180 23 0
-1181 30 0
-1181 33 0
-1182 39 0
-1182 42 0
-1183 47 0
-1183 50 0
-1184 54 0
-1184 57 0
-1185 60 0
-1185 63 0
-1186 65 0
-1186 68 0
-1187 69 0
-1187 72 0
-1188 73 0
-1188 77 0
-1189 74 0
-1189 78 0
1190 1191 1192 1193 1194 1195 1196 1197 1198 1199 1200 0
-1190 10 0
-1190 11 0
-1191 21 0
-1191 22 0
-1192 31 0
-1192 32 0
-1193 40 0
-1193 41 0
-1194 48 0
-1194 49 0
-1195 55 0
-1195 56 0
-1196 61 0
-1196 62 0
-1197 66 0
-1197 67 0
-1198 70 0
-1198 71 0
-1199 73 0
-1199 74 0
-1200 77 0
-1200 78 0
1201 1202 1203 1204 1205 1206 1207 1208 1209 1210 1211 0
-1201 10 0
-1201 12 0
-1202 21 0
-1202 23 0
-1203 31 0
-1203 33 0
-1204 40 0
-1204 42 0
-1205 48 0
-1205 50 0
-1206 55 0
-1206 57 0
-1207 61 0
-1207 63 0
-1208 66 0
-1208 68 0
-1209 70 0
-1209 72 0
-1210 73 0
-1210 75 0
-1211 76 0
-1211 78 0
1212 1213 1214 1215 1216 1217 1218 1219 1220 1221 1222 0
-1212 11 0
-1212 12 0
-1213 22 0
-1213 23 0
-1214 32 0
-1214 33 0
-1215 41 0
-1215 42 0
-1216 49 0
-1216 50 0
-1217 56 0
-1217 57 0
-1218 62 0
-1218 63 0
-1219 67 0
-1219 68 0
-1220 71 0
-1220 72 0
-1221 74 0
-1221 75 0
-1222 76 0
-1222 77 0
-79 -3 -14 -24 0
-79 -3 -14 80 0
-79 -3 90 -24 0
-79 -3 90 80 0
-79 145 -14 -24 0
-79 145 -14 80 0
-79 145 90 -24 0
-79 145 90 80 0
-79 -4 -15 -25 0
-79 -4 -15 81 0
-79 -4 91 -25 0
-79 -4 91 81 0
-79 146 -15 -25 0
-79 146 -15 81 0
-79 146 91 -25 0
-79 146 91 81 0
-79 -5 -16 -26 0
-79 -5 -16 82 0
-79 -5 92 -26 0
-79 -5 92 82 0
-79 147 -16 -26 0
-79 147 -16 82 0
-79 147 92 -26 0
-79 147 92 82 0
-79 -6 -17 -27 0
-79 -6 -17 83 0
-79 -6 93 -27 0
-79 -6 93 83 0
-79 148 -17 -27 0
-79 148 -17 83 0
-79 148 93 -27 0
-79 148 93 83 0
-79 -7 -18 -28 0
-79 -7 -18 84 0
-79 -7 94 -28 0
-79 -7 94 84 0
-79 149 -18 -28 0
-79 149 -18 84 0
-79 149 94 -28 0
-79 149 94 84 0
-79 -8 -19 -29 0
-79 -8 -19 85 0
-79 -8 95 -29 0
-79 -8 95 85 0
-79 150 -19 -29 0
-79 150 -19 85 0
-79 150 95 -29 0
-79 150 95 85 0
-79 -9 -20 -30 0
-79 -9 -20 86 0
-79 -9 96 -30 0
-79 -9 96 86 0
-79 151 -20 -30 0
-79 151 -20 86 0
-79 151 96 -30 0
-79 151 96 86 0
-79 -10 -21 -31 0
-79 -10 -21 87 0
-79 -10 97 -31 0
-79 -10 97 87 0
-79 152 -21 -31 0
-79 152 -21 87 0
-79 152 97 -31 0
-79 152 97 87 0
-79 -11 -22 -32 0
-79 -11 -22 88 0
-79 -11 98 -32 0
-79 -11 98 88 0
-79 153 -22 -32 0
-79 153 -22 88 0
-79 153 98 -32 0
-79 153 98 88 0
-79 -12 -23 -33 0
-79 -12 -23 89 0
-79 -12 99 -33 0
-79 -12 99 89 0
-79 154 -23 -33 0
-79 154 -23 89 0
-79 154 99 -33 0
-79 154 99 89 0
-80 -2 -13 -24 0
-80 -2 -13 79 0
-80 -2 90 -24 0
-80 -2 90 79 0
-80 145 -13 -24 0
-80 145 -13 79 0
-80 145 90 -24 0
-80 145 90 79 0
-80 -4 -15 -34 0
-80 -4 -15 81 0
-80 -4 100 -34 0
-80 -4 100 81 0
-80 155 -15 -34 0
-80 155 -15 81 0
-80 155 100 -34 0
-80 155 100 81 0
-80 -5 -16 -35 0
-80 -5 -16 82 0
-80 -5 101 -35 0
-80 -5 101 82 0
-80 156 -16 -35 0
-80 156 -16 82 0
-80 156 101 -35 0
-80 156 101 82 0
-80 -6 -17 -36 0
-80 -6 -17 83 0
-80 -6 102 -36 0
-80 -6 102 83 0
-80 157 -17 -36 0
-80 157 -17 83 0
-80 157 102 -36 0
-80 157 102 83 0
-80 -7 -18 -37 0
-80 -7 -18 84 0
-80 -7 103 -37 0
-80 -7 103 84 0
-80 158 -18 -37 0
-80 158 -18 84 0
-80 158 103 -37 0
-80 158 103 84 0
-80 -8 -19 -38 0
-80 -8 -19 85 0
-80 -8 104 -38 0
-80 -8 104 85 0
-80 159 -19 -38 0
-80 159 -19 85 0
-80 159 104 -38 0
-80 159 104 85 0
-80 -9 -20 -39 0
-80 -9 -20 86 0
-80 -9 105 -39 0
-80 -9 105 86 0
-80 160 -20 -39 0
-80 160 -20 86 0
-80 160 105 -39 0
-80 160 105 86 0
-80 -10 -21 -40 0
-80 -10 -21 87 0
-80 -10 106 -40 0
-80 -10 106 87 0
-80 161 -21 -40 0
-80 161 -21 87 0
-80 161 106 -40 0
-80 161 106 87 0
-80 -11 -22 -41 0
-80 -11 -22 88 0
-80 -11 107 -41 0
-80 -11 107 88 0
-80 162 -22 -41 0
-80 162 -22 88 0
-80 162 107 -41 0
-80 162 107 88 0
-80 -12 -23 -42 0
-80 -12 -23 89 0
-80 -12 108 -42 0
-80 -12 108 89 0
-80 163 -23 -42 0
-80 163 -23 89 0
-80 163 108 -42 0
-80 163 108 89 0
-81 -2 -13 -25 0
-81 -2 -13 79 0
-81 -2 91 -25 0
-81 -2 91 79 0
-81 146 -13 -25 0
-81 146 -13 79 0
-81 146 91 -25 0
-81 146 91 79 0
-81 -3 -14 -34 0
-81 -3 -14 80 0
-81 -3 100 -34 0
-81 -3 100 80 0
-81 155 -14 -34 0
-81 155 -14 80 0
-81 155 100 -34 0
-81 155 100 80 0
-81 -5 -16 -43 0
-81 -5 -16 82 0
-81 -5 109 -43 0
-81 -5 109 82 0
-81 164 -16 -43 0
-81 164 -16 82 0
-81 164 109 -43 0
-81 164 109 82 0
-81 -6 -17 -44 0
-81 -6 -17 83 0
-81 -6 110 -44 0
-81 -6 110 83 0
-81 165 -17 -44 0
-81 165 -17 83 0
-81 165 110 -44 0
-81 165 110 83 0
-81 -7 -18 -45 0
-81 -7 -18 84 0
-81 -7 111 -45 0
-81 -7 111 84 0
-81 166 -18 -45 0
-81 166 -18 84 0
-81 166 111 -45 0
-81 166 111 84 0
-81 -8 -19 -46 0
-81 -8 -19 85 0
-81 -8 112 -46 0
-81 -8 112 85 0
-81 167 -19 -46 0
-81 167 -19 85 0
-81 167 112 -46 0
-81 167 112 85 0
-81 -9 -20 -47 0
-81 -9 -20 86 0
-81 -9 113 -47 0
-81 -9 113 86 0
-81 168 -20 -47 0
-81 168 -20 86 0
-81 168 113 -47 0
-81 168 113 86 0
-81 -10 -21 -48 0
-81 -10 -21 87 0
-81 -10 114 -48 0
-81 -10 114 87 0
-81 169 -21 -48 0
-81 169 -21 87 0
-81 169 114 -48 0
-81 169 114 87 0
-81 -11 -22 -49 0
-81 -11 -22 88 0
-81 -11 115 -49 0
-81 -11 115 88 0
-81 170 -22 -49 0
-81 170 -22 88 0
-81 170 115 -49 0
-81 170 115 88 0
-81 -12 -23 -50 0
-81 -12 -23 89 0
-81 -12 116 -50 0
-81 -12 116 89 0
-81 171 -23 -50 0
-81 171 -23 89 0
-81 171 116 -50 0
-81 171 116 89 0
-82 -2 -13 -26 0
-82 -2 -13 79 0
-82 -2 92 -26 0
-82 -2 92 79 0
-82 147 -13 -26 0
-82 147 -13 79 0
-82 147 92 -26 0
-82 147 92 79 0
-82 -3 -14 -35 0
-82 -3 -14 80 0
-82 -3 101 -35 0
-82 -3 101 80 0
-82 156 -14 -35 0
-82 156 -14 80 0
-82 156 101 -35 0
-82 156 101 80 0
-82 -4 -15 -43 0
-82 -4 -15 81 0
-82 -4 109 -43 0
-82 -4 109 81 0
-82 164 -15 -43 0
-82 164 -15 81 0
-82 164 109 -43 0
-82 164 109 81 0
-82 -6 -17 -51 0
-82 -6 -17 83 0
-82 -6 117 -51 0
-82 -6 117 83 0
-82 172 -17 -51 0
-82 172 -17 83 0
-82 172 117 -51 0
-82 172 117 83 0
-82 -7 -18 -52 0
-82 -7 -18 84 0
-82 -7 118 -52 0
-82 -7 118 84 0
-82 173 -18 -52 0
-82 173 -18 84 0
-82 173 118 -52 0
-82 173 118 84 0
-82 -8 -19 -53 0
-82 -8 -19 85 0
-82 -8 119 -53 0
-82 -8 119 85 0
-82 174 -19 -53 0
-82 174 -19 85 0
-82 174 119 -53 0
-82 174 119 85 0
-82 -9 -20 -54 0
-82 -9 -20 86 0
-82 -9 120 -54 0
-82 -9 120 86 0
-82 175 -20 -54 0
-82 175 -20 86 0
-82 175 120 -54 0
-82 175 120 86 0
-82 -10 -21 -55 0
-82 -10 -21 87 0
-82 -10 121 -55 0
-82 -10 121 87 0
-82 176 -21 -55 0
-82 176 -21 87 0
-82 176 121 -55 0
-82 176 121 87 0
-82 -11 -22 -56 0
-82 -11 -22 88 0
-82 -11 122 -56 0
-82 -11 122 88 0
-82 177 -22 -56 0
-82 177 -22 88 0
-82 177 122 -56 0
-82 177 122 88 0
-82 -12 -23 -57 0
-82 -12 -23 89 0
-82 -12 123 -57 0
-82 -12 123 89 0
-82 178 -23 -57 0
-82 178 -23 89 0
-82 178 123 -57 0
-82 178 123 89 0
-83 -2 -13 -27 0
-83 -2 -13 79 0
-83 -2 93 -27 0
-83 -2 93 79 0
-83 148 -13 -27 0
-83 148 -13 79 0
-83 148 93 -27 0
-83 148 93 79 0
-83 -3 -14 -36 0
-83 -3 -14 80 0
-83 -3 102 -36 0
-83 -3 102 80 0
-83 157 -14 -36 0
-83 157 -14 80 0
-83 157 102 -36 0
-83 157 102 80 0
-83 -4 -15 -44 0
-83 -4 -15 81 0
-83 -4 110 -44 0
-83 -4 110 81 0
-83 165 -15 -44 0
-83 165 -15 81 0
-83 165 110 -44 0
-83 165 110 81 0
-83 -5 -16 -51 0
-83 -5 -16 82 0
-83 -5 117 -51 0
-83 -5 117 82 0
-83 172 -16 -51 0
-83 172 -16 82 0
-83 172 117 -51 0
-83 172 117 82 0
-83 -7 -18 -58 0
-83 -7 -18 84 0
-83 -7 124 -58 0
-83 -7 124 84 0
-83 179 -18 -58 0
-83 179 -18 84 0
-83 179 124 -58 0
-83 179 124 84 0
-83 -8 -19 -59 0
-83 -8 -19 85 0
-83 -8 125 -59 0
-83 -8 125 85 0
-83 180 -19 -59 0
-83 180 -19 85 0
-83 180 125 -59 0
-83 180 125 85 0
-83 -9 -20 -60 0
-83 -9 -20 86 0
-83 -9 126 -60 0
-83 -9 126 86 0
-83 181 -20 -60 0
-83 181 -20 86 0
-83 181 126 -60 0
-83 181 126 86 0
-83 -10 -21 -61 0
-83 -10 -21 87 0
-83 -10 127 -61 0
-83 -10 127 87 0
-83 182 -21 -61 0
-83 182 -21 87 0
-83 182 127 -61 0
-83 182 127 87 0
-83 -11 -22 -62 0
-83 -11 -22 88 0
-83 -11 128 -62 0
-83 -11 128 88 0
-83 183 -22 -62 0
-83 183 -22 88 0
-83 183 128 -62 0
-83 183 128 88 0
-83 -12 -23 -63 0
-83 -12 -23 89 0
-83 -12 129 -63 0
-83 -12 129 89 0
-83 184 -23 -63 0
-83 184 -23 89 0
-83 184 129 -63 0
-83 184 129 89 0
-84 -2 -13 -28 0
-84 -2 -13 79 0
-84 -2 94 -28 0
-84 -2 94 79 0
-84 149 -13 -28 0
-84 149 -13 79 0
-84 149 94 -28 0
-84 149 94 79 0
-84 -3 -14 -37 0
-84 -3 -14 80 0
-84 -3 103 -37 0
-84 -3 103 80 0
-84 158 -14 -37 0
-84 158 -14 80 0
-84 158 103 -37 0
-84 158 103 80 0
-84 -4 -15 -45 0
-84 -4 -15 81 0
-84 -4 111 -45 0
-84 -4 111 81 0
-84 166 -15 -45 0
-84 166 -15 81 0
-84 166 111 -45 0
-84 166 111 81 0
-84 -5 -16 -52 0
-84 -5 -16 82 0
-84 -5 118 -52 0
-84 -5 118 82 0
-84 173 -16 -52 0
-84 173 -16 82 0
-84 173 118 -52 0
-84 173 118 82 0
-84 -6 -17 -58 0
-84 -6 -17 83 0
-84 -6 124 -58 0
-84 -6 124 83 0
-84 179 -17 -58 0
-84 179 -17 83 0
-84 179 124 -58 0
-84 179 124 83 0
-84 -8 -19 -64 0
-84 -8 -19 85 0
-84 -8 130 -64 0
-84 -8 130 85 0
-84 185 -19 -64 0
-84 185 -19 85 0
-84 185 130 -64 0
-84 185 130 85 0
-84 -9 -20 -65 0
-84 -9 -20 86 0
-84 -9 131 -65 0
-84 -9 131 86 0
-84 186 -20 -65 0
-84 186 -20 86 0
-84 186 131 -65 0
-84 186 131 86 0
-84 -10 -21 -66 0
-84 -10 -21 87 0
-84 -10 132 -66 0
-84 -10 132 87 0
-84 187 -21 -66 0
-84 187 -21 87 0
-84 187 132 -66 0
-84 187 132 87 0
-84 -11 -22 -67 0
-84 -11 -22 88 0
-84 -11 133 -67 0
-84 -11 133 88 0
-84 188 -22 -67 0
-84 188 -22 88 0
-84 188 133 -67 0
-84 188 133 88 0
-84 -12 -23 -68 0
-84 -12 -23 89 0
-84 -12 134 -68 0
-84 -12 134 89 0
-84 189 -23 -68 0
-84 189 -23 89 0
-84 189 134 -68 0
-84 189 134 89 0
-85 -2 -13 -29 0
-85 -2 -13 79 0
-85 -2 95 -29 0
-85 -2 95 79 0
-85 150 -13 -29 0
-85 150 -13 79 0
-85 150 95 -29 0
-85 150 95 79 0
-85 -3 -14 -38 0
-85 -3 -14 80 0
-85 -3 104 -38 0
-85 -3 104 80 0
-85 159 -14 -38 0
-85 159 -14 80 0
-85 159 104 -38 0
-85 159 104 80 0
-85 -4 -15 -46 0
-85 -4 -15 81 0
-85 -4 112 -46 0
-85 -4 112 81 0
-85 167 -15 -46 0
-85 167 -15 81 0
-85 167 112 -46 0
-85 167 112 81 0
-85 -5 -16 -53 0
-85 -5 -16 82 0
-85 -5 119 -53 0
-85 -5 119 82 0
-85 174 -16 -53 0
-85 174 -16 82 0
-85 174 119 -53 0
-85 174 119 82 0
-85 -6 -17 -59 0
-85 -6 -17 83 0
-85 -6 125 -59 0
-85 -6 125 83 0
-85 180 -17 -59 0
-85 180 -17 83 0
-85 180 125 -59 0
-85 180 125 83 0
-85 -7 -18 -64 0
-85 -7 -18 84 0
-85 -7 130 -64 0
-85 -7 130 84 0
-85 185 -18 -64 0
-85 185 -18 84 0
-85 185 130 -64 0
-85 185 130 84 0
-85 -9 -20 -69 0
-85 -9 -20 86 0
-85 -9 135 -69 0
-85 -9 135 86 0
-85 190 -20 -69 0
-85 190 -20 86 0
-85 190 135 -69 0
-85 190 135 86 0
-85 -10 -21 -70 0
-85 -10 -21 87 0
-85 -10 136 -70 0
-85 -10 136 87 0
-85 191 -21 -70 0
-85 191 -21 87 0
-85 191 136 -70 0
-85 191 136 87 0
-85 -11 -22 -71 0
-85 -11 -22 88 0
-85 -11 137 -71 0
-85 -11 137 88 0
-85 192 -22 -71 0
-85 192 -22 88 0
-85 192 137 -71 0
-85 192 137 88 0
-85 -12 -23 -72 0
-85 -12 -23 89 0
-85 -12 138 -72 0
-85 -12 138 89 0
-85 193 -23 -72 0
-85 193 -23 89 0
-85 193 138 -72 0
-85 193 138 89 0
-86 -2 -13 -30 0
-86 -2 -13 79 0
-86 -2 96 -30 0
-86 -2 96 79 0
-86 151 -13 -30 0
-86 151 -13 79 0
-86 151 96 -30 0
-86 151 96 79 0
-86 -3 -14 -39 0
-86 -3 -14 80 0
-86 -3 105 -39 0
-86 -3 105 80 0
-86 160 -14 -39 0
-86 160 -14 80 0
-86 160 105 -39 0
-86 160 105 80 0
-86 -4 -15 -47 0
-86 -4 -15 81 0
-86 -4 113 -47 0
-86 -4 113 81 0
-86 168 -15 -47 0
-86 168 -15 81 0
-86 168 113 -47 0
-86 168 113 81 0
-86 -5 -16 -54 0
-86 -5 -16 82 0
-86 -5 120 -54 0
-86 -5 120 82 0
-86 175 -16 -54 0
-86 175 -16 82 0
-86 175 120 -54 0
-86 175 120 82 0
-86 -6 -17 -60 0
-86 -6 -17 83 0
-86 -6 126 -60 0
-86 -6 126 83 0
-86 181 -17 -60 0
-86 181 -17 83 0
-86 181 126 -60 0
-86 181 126 83 0
-86 -7 -18 -65 0
-86 -7 -18 84 0
-86 -7 131 -65 0
-86 -7 131 84 0
-86 186 -18 -65 0
-86 186 -18 84 0
-86 186 131 -65 0
-86 186 131 84 0
-86 -8 -19 -69 0
-86 -8 -19 85 0
-86 -8 135 -69 0
-86 -8 135 85 0
-86 190 -19 -69 0
-86 190 -19 85 0
-86 190 135 -69 0
-86 190 135 85 0
-86 -10 -21 -73 0
-86 -10 -21 87 0
-86 -10 139 -73 0
-86 -10 139 87 0
-86 194 -21 -73 0
-86 194 -21 87 0
-86 194 139 -73 0
-86 194 139 87 0
-86 -11 -22 -74 0
-86 -11 -22 88 0
-86 -11 140 -74 0
-86 -11 140 88 0
-86 195 -22 -74 0
-86 195 -22 88 0
-86 195 140 -74 0
-86 195 140 88 0
-86 -12 -23 -75 0
-86 -12 -23 89 0
-86 -12 141 -75 0
-86 -12 141 89 0
-86 196 -23 -75 0
-86 196 -23 89 0
-86 196 141 -75 0
-86 196 141 89 0
-87 -2 -13 -31 0
-87 -2 -13 79 0
-87 -2 97 -31 0
-87 -2 97 79 0
-87 152 -13 -31 0
-87 152 -13 79 0
-87 152 97 -31 0
-87 152 97 79 0
-87 -3 -14 -40 0
-87 -3 -14 80 0
-87 -3 106 -40 0
-87 -3 106 80 0
-87 161 -14 -40 0
-87 161 -14 80 0
-87 161 106 -40 0
-87 161 106 80 0
-87 -4 -15 -48 0
-87 -4 -15 81 0
-87 -4 114 -48 0
-87 -4 114 81 0
-87 169 -15 -48 0
-87 169 -15 81 0
-87 169 114 -48 0
-87 169 114 81 0
-87 -5 -16 -55 0
-87 -5 -16 82 0
-87 -5 121 -55 0
-87 -5 121 82 0
-87 176 -16 -55 0
-87 176 -16 82 0
-87 176 121 -55 0
-87 176 121 82 0
-87 -6 -17 -61 0
-87 -6 -17 83 0
-87 -6 127 -61 0
-87 -6 127 83 0
-87 182 -17 -61 0
-87 182 -17 83 0
-87 182 127 -61 0
-87 182 127 83 0
-87 -7 -18 -66 0
-87 -7 -18 84 0
-87 -7 132 -66 0
-87 -7 132 84 0
-87 187 -18 -66 0
-87 187 -18 84 0
-87 187 132 -66 0
-87 187 132 84 0
-87 -8 -19 -70 0
-87 -8 -19 85 0
-87 -8 136 -70 0
-87 -8 136 85 0
-87 191 -19 -70 0
-87 191 -19 85 0
-87 191 136 -70 0
-87 191 136 85 0
-87 -9 -20 -73 0
-87 -9 -20 86 0
-87 -9 139 -73 0
-87 -9 139 86 0
-87 194 -20 -73 0
-87 194 -20 86 0
-87 194 139 -73 0
-87 194 139 86 0
-87 -11 -22 -76 0
-87 -11 -22 88 0
-87 -11 142 -76 0
-87 -11 142 88 0
-87 197 -22 -76 0
-87 197 -22 88 0
-87 197 142 -76 0
-87 197 142 88 0
-87 -12 -23 -77 0
-87 -12 -23 89 0
-87 -12 143 -77 0
-87 -12 143 89 0
-87 198 -23 -77 0
-87 198 -23 89 0
-87 198 143 -77 0
-87 198 143 89 0
-88 -2 -13 -32 0
-88 -2 -13 79 0
-88 -2 98 -32 0
-88 -2 98 79 0
-88 153 -13 -32 0
-88 153 -13 79 0
-88 153 98 -32 0
-88 153 98 79 0
-88 -3 -14 -41 0
-88 -3 -14 80 0
-88 -3 107 -41 0
-88 -3 107 80 0
-88 162 -14 -41 0
-88 162 -14 80 0
-88 162 107 -41 0
-88 162 107 80 0
-88 -4 -15 -49 0
-88 -4 -15 81 0
-88 -4 115 -49 0
-88 -4 115 81 0
-88 170 -15 -49 0
-88 170 -15 81 0
-88 170 115 -49 0
-88 170 115 81 0
-88 -5 -16 -56 0
-88 -5 -16 82 0
-88 -5 122 -56 0
-88 -5 122 82 0
-88 177 -16 -56 0
-88 177 -16 82 0
-88 177 122 -56 0
-88 177 122 82 0
-88 -6 -17 -62 0
-88 -6 -17 83 0
-88 -6 128 -62 0
-88 -6 128 83 0
-88 183 -17 -62 0
-88 183 -17 83 0
-88 183 128 -62 0
-88 183 128 83 0
-88 -7 -18 -67 0
-88 -7 -18 84 0
-88 -7 133 -67 0
-88 -7 133 84 0
-88 188 -18 -67 0
-88 188 -18 84 0
-88 188 133 -67 0
-88 188 133 84 0
-88 -8 -19 -71 0
-88 -8 -19 85 0
-88 -8 137 -71 0
-88 -8 137 85 0
-88 192 -19 -71 0
-88 192 -19 85 0
-88 192 137 -71 0
-88 192 137 85 0
-88 -9 -20 -74 0
-88 -9 -20 86 0
-88 -9 140 -74 0
-88 -9 140 86 0
-88 195 -20 -74 0
-88 195 -20 86 0
-88 195 140 -74 0
-88 195 140 86 0
-88 -10 -21 -76 0
-88 -10 -21 87 0
-88 -10 142 -76 0
-88 -10 142 87 0
-88 197 -21 -76 0
-88 197 -21 87 0
-88 197 142 -76 0
-88 197 142 87 0
-88 -12 -23 -78 0
-88 -12 -23 89 0
-88 -12 144 -78 0
-88 -12 144 89 0
-88 199 -23 -78 0
-88 199 -23 89 0
-88 199 144 -78 0
-88 199 144 89 0
-89 -2 -13 -33 0
-89 -2 -13 79 0
-89 -2 99 -33 0
-89 -2 99 79 0
-89 154 -13 -33 0
-89 154 -13 79 0
-89 154 99 -33 0
-89 154 99 79 0
-89 -3 -14 -42 0
-89 -3 -14 80 0
-89 -3 108 -42 0
-89 -3 108 80 0
-89 163 -14 -42 0
-89 163 -14 80 0
-89 163 108 -42 0
-89 163 108 80 0
-89 -4 -15 -50 0
-89 -4 -15 81 0
-89 -4 116 -50 0
-89 -4 116 81 0
-89 171 -15 -50 0
-89 171 -15 81 0
-89 171 116 -50 0
-89 171 116 81 0
-89 -5 -16 -57 0
-89 -5 -16 82 0
-89 -5 123 -57 0
-89 -5 123 82 0
-89 178 -16 -57 0
-89 178 -16 82 0
-89 178 123 -57 0
-89 178 123 82 0
-89 -6 -17 -63 0
-89 -6 -17 83 0
-89 -6 129 -63 0
-89 -6 129 83 0
-89 184 -17 -63 0
-89 184 -17 83 0
-89 184 129 -63 0
-89 184 129 83 0
-89 -7 -18 -68 0
-89 -7 -18 84 0
-89 -7 134 -68 0
-89 -7 134 84 0
-89 189 -18 -68 0
-89 189 -18 84 0
-89 189 134 -68 0
-89 189 134 84 0
-89 -8 -19 -72 0
-89 -8 -19 85 0
-89 -8 138 -72 0
-89 -8 138 85 0
-89 193 -19 -72 0
-89 193 -19 85 0
-89 193 138 -72 0
-89 193 138 85 0
-89 -9 -20 -75 0
-89 -9 -20 86 0
-89 -9 141 -75 0
-89 -9 141 86 0
-89 196 -20 -75 0
-89 196 -20 86 0
-89 196 141 -75 0
-89 196 141 86 0
-89 -10 -21 -77 0
-89 -10 -21 87 0
-89 -10 143 -77 0
-89 -10 143 87 0
-89 198 -21 -77 0
-89 198 -21 87 0
-89 198 143 -77 0
-89 198 143 87 0
-89 -11 -22 -78 0
-89 -11 -22 88 0
-89 -11 144 -78 0
-89 -11 144 88 0
-89 199 -22 -78 0
-89 199 -22 88 0
-89 199 144 -78 0
-89 199 144 88 0
-90 -1 -13 -14 0
-90 -1 -13 79 0
-90 -1 80 -14 0
-90 -1 80 79 0
-90 145 -13 -14 0
-90 145 -13 79 0
-90 145 80 -14 0
-90 145 80 79 0
-90 -4 -25 -34 0
-90 -4 -25 91 0
-90 -4 100 -34 0
-90 -4 100 91 0
-90 200 -25 -34 0
-90 200 -25 91 0
-90 200 100 -34 0
-90 200 100 91 0
-90 -5 -26 -35 0
-90 -5 -26 92 0
-90 -5 101 -35 0
-90 -5 101 92 0
-90 201 -26 -35 0
-90 201 -26 92 0
-90 201 101 -35 0
-90 201 101 92 0
-90 -6 -27 -36 0
-90 -6 -27 93 0
-90 -6 102 -36 0
-90 -6 102 93 0
-90 202 -27 -36 0
-90 202 -27 93 0
-90 202 102 -36 0
-90 202 102 93 0
-90 -7 -28 -37 0
-90 -7 -28 94 0
-90 -7 103 -37 0
-90 -7 103 94 0
-90 203 -28 -37 0
-90 203 -28 94 0
-90 203 103 -37 0
-90 203 103 94 0
-90 -8 -29 -38 0
-90 -8 -29 95 0
-90 -8 104 -38 0
-90 -8 104 95 0
-90 204 -29 -38 0
-90 204 -29 95 0
-90 204 104 -38 0
-90 204 104 95 0
-90 -9 -30 -39 0
-90 -9 -30 96 0
-90 -9 105 -39 0
-90 -9 105 96 0
-90 205 -30 -39 0
-90 205 -30 96 0
-90 205 105 -39 0
-90 205 105 96 0
-90 -10 -31 -40 0
-90 -10 -31 97 0
-90 -10 106 -40 0
-90 -10 106 97 0
-90 206 -31 -40 0
-90 206 -31 97 0
-90 206 106 -40 0
-90 206 106 97 0
-90 -11 -32 -41 0
-90 -11 -32 98 0
-90 -11 107 -41 0
-90 -11 107 98 0
-90 207 -32 -41 0
-90 207 -32 98 0
-90 207 107 -41 0
-90 207 107 98 0
-90 -12 -33 -42 0
-90 -12 -33 99 0
-90 -12 108 -42 0
-90 -12 108 99 0
-90 208 -33 -42 0
-90 208 -33 99 0
-90 208 108 -42 0
-90 208 108 99 0
-91 -1 -13 -15 0
-91 -1 -13 79 0
-91 -1 81 -15 0
-91 -1 81 79 0
-91 146 -13 -15 0
-91 146 -13 79 0
-91 146 81 -15 0
-91 146 81 79 0
-91 -3 -24 -34 0
-91 -3 -24 90 0
-91 -3 100 -34 0
-91 -3 100 90 0
-91 200 -24 -34 0
-91 200 -24 90 0
-91 200 100 -34 0
-91 200 100 90 0
-91 -5 -26 -43 0
-91 -5 -26 92 0
-91 -5 109 -43 0
-91 -5 109 92 0
-91 209 -26 -43 0
-91 209 -26 92 0
-91 209 109 -43 0
-91 209 109 92 0
-91 -6 -27 -44 0
-91 -6 -27 93 0
-91 -6 110 -44 0
-91 -6 110 93 0
-91 210 -27 -44 0
-91 210 -27 93 0
-91 210 110 -44 0
-91 210 110 93 0
-91 -7 -28 -45 0
-91 -7 -28 94 0
-91 -7 111 -45 0
-91 -7 111 94 0
-91 211 -28 -45 0
-91 211 -28 94 0
-91 211 111 -45 0
-91 211 111 94 0
-91 -8 -29 -46 0
-91 -8 -29 95 0
-91 -8 112 -46 0
-91 -8 112 95 0
-91 212 -29 -46 0
-91 212 -29 95 0
-91 212 112 -46 0
-91 212 112 95 0
-91 -9 -30 -47 0
-91 -9 -30 96 0
-91 -9 113 -47 0
-91 -9 113 96 0
-91 213 -30 -47 0
-91 213 -30 96 0
-91 213 113 -47 0
-91 213 113 96 0
-91 -10 -31 -48 0
-91 -10 -31 97 0
-91 -10 114 -48 0
-91 -10 114 97 0
-91 214 -31 -48 0
-91 214 -31 97 0
-91 214 114 -48 0
-91 214 114 97 0
-91 -11 -32 -49 0
-91 -11 -32 98 0
-91 -11 115 -49 0
-91 -11 115 98 0
-91 215 -32 -49 0
-91 215 -32 98 0
-91 215 115 -49 0
-91 215 115 98 0
-91 -12 -33 -50 0
-91 -12 -33 99 0
-91 -12 116 -50 0
-91 -12 116 99 0
-91 216 -33 -50 0
-91 216 -33 99 0
-91 216 116 -50 0
-91 216 116 99 0
-92 -1 -13 -16 0
-92 -1 -13 79 0
-92 -1 82 -16 0
-92 -1 82 79 0
-92 147 -13 -16 0
-92 147 -13 79 0
-92 147 82 -16 0
-92 147 82 79 0
-92 -3 -24 -35 0
-92 -3 -24 90 0
-92 -3 101 -35 0
-92 -3 101 90 0
-92 201 -24 -35 0
-92 201 -24 90 0
-92 201 101 -35 0
-92 201 101 90 0
-92 -4 -25 -43 0
-92 -4 -25 91 0
-92 -4 109 -43 0
-92 -4 109 91 0
-92 209 -25 -43 0
-92 209 -25 91 0
-92 209 109 -43 0
-92 209 109 91 0
-92 -6 -27 -51 0
-92 -6 -27 93 0
-92 -6 117 -51 0
-92 -6 117 93 0
-92 217 -27 -51 0
-92 217 -27 93 0
-92 217 117 -51 0
-92 217 117 93 0
-92 -7 -28 -52 0
-92 -7 -28 94 0
-92 -7 118 -52 0
-92 -7 118 94 0
-92 218 -28 -52 0
-92 218 -28 94 0
-92 218 118 -52 0
-92 218 118 94 0
-92 -8 -29 -53 0
-92 -8 -29 95 0
-92 -8 119 -53 0
-92 -8 119 95 0
-92 219 -29 -53 0
-92 219 -29 95 0
-92 219 119 -53 0
-92 219 119 95 0
-92 -9 -30 -54 0
-92 -9 -30 96 0
-92 -9 120 -54 0
-92 -9 120 96 0
-92 220 -30 -54 0
-92 220 -30 96 0
-92 220 120 -54 0
-92 220 120 96 0
-92 -10 -31 -55 0
-92 -10 -31 97 0
-92 -10 121 -55 0
-92 -10 121 97 0
-92 221 -31 -55 0
-92 221 -31 97 0
-92 221 121 -55 0
-92 221 121 97 0
-92 -11 -32 -56 0
-92 -11 -32 98 0
-92 -11 122 -56 0
-92 -11 122 98 0
-92 222 -32 -56 0
-92 222 -32 98 0
-92 222 122 -56 0
-92 222 122 98 0
-92 -12 -33 -57 0
-92 -12 -33 99 0
-92 -12 123 -57 0
-92 -12 123 99 0
-92 223 -33 -57 0
-92 223 -33 99 0
-92 223 123 -57 0
-92 223 123 99 0
-93 -1 -13 -17 0
-93 -1 -13 79 0
-93 -1 83 -17 0
-93 -1 83 79 0
-93 148 -13 -17 0
-93 148 -13 79 0
-93 148 83 -17 0
-93 148 83 79 0
-93 -3 -24 -36 0
-93 -3 -24 90 0
-93 -3 102 -36 0
-93 -3 102 90 0
-93 202 -24 -36 0
-93 202 -24 90 0
-93 202 102 -36 0
-93 202 102 90 0
-93 -4 -25 -44 0
-93 -4 -25 91 0
-93 -4 110 -44 0
-93 -4 110 91 0
-93 210 -25 -44 0
-93 210 -25 91 0
-93 210 110 -44 0
-93 210 110 91 0
-93 -5 -26 -51 0
-93 -5 -26 92 0
-93 -5 117 -51 0
-93 -5 117 92 0
-93 217 -26 -51 0
-93 217 -26 92 0
-93 217 117 -51 0
-93 217 117 92 0
-93 -7 -28 -58 0
-93 -7 -28 94 0
-93 -7 124 -58 0
-93 -7 124 94 0
-93 224 -28 -58 0
-93 224 -28 94 0
-93 224 124 -58 0
-93 224 124 94 0
-93 -8 -29 -59 0
-93 -8 -29 95 0
-93 -8 125 -59 0
-93 -8 125 95 0
-93 225 -29 -59 0
-93 225 -29 95 0
-93 225 125 -59 0
-93 225 125 95 0
-93 -9 -30 -60 0
-93 -9 -30 96 0
-93 -9 126 -60 0
-93 -9 126 96 0
-93 226 -30 -60 0
-93 226 -30 96 0
-93 226 126 -60 0
-93 226 126 96 0
-93 -10 -31 -61 0
-93 -10 -31 97 0
-93 -10 127 -61 0
-93 -10 127 97 0
-93 227 -31 -61 0
-93 227 -31 97 0
-93 227 127 -61 0
-93 227 127 97 0
-93 -11 -32 -62 0
-93 -11 -32 98 0
-93 -11 128 -62 0
-93 -11 128 98 0
-93 228 -32 -62 0
-93 228 -32 98 0
-93 228 128 -62 0
-93 228 128 98 0
-93 -12 -33 -63 0
-93 -12 -33 99 0
-93 -12 129 -63 0
-93 -12 129 99 0
-93 229 -33 -63 0
-93 229 -33 99 0
-93 229 129 -63 0
-93 229 129 99 0
-94 -1 -13 -18 0
-94 -1 -13 79 0
-94 -1 84 -18 0
-94 -1 84 79 0
-94 149 -13 -18 0
-94 149 -13 79 0
-94 149 84 -18 0
-94 149 84 79 0
-94 -3 -24 -37 0
-94 -3 -24 90 0
-94 -3 103 -37 0
-94 -3 103 90 0
-94 203 -24 -37 0
-94 203 -24 90 0
-94 203 103 -37 0
-94 203 103 90 0
-94 -4 -25 -45 0
-94 -4 -25 91 0
-94 -4 111 -45 0
-94 -4 111 91 0
-94 211 -25 -45 0
-94 211 -25 91 0
-94 211 111 -45 0
-94 211 111 91 0
-94 -5 -26 -52 0
-94 -5 -26 92 0
-94 -5 118 -52 0
-94 -5 118 92 0
-94 218 -26 -52 0
-94 218 -26 92 0
-94 218 118 -52 0
-94 218 118 92 0
-94 -6 -27 -58 0
-94 -6 -27 93 0
-94 -6 124 -58 0
-94 -6 124 93 0
-94 224 -27 -58 0
-94 224 -27 93 0
-94 224 124 -58 0
-94 224 124 93 0
-94 -8 -29 -64 0
-94 -8 -29 95 0
-94 -8 130 -64 0
-94 -8 130 95 0
-94 230 -29 -64 0
-94 230 -29 95 0
-94 230 130 -64 0
-94 230 130 95 0
-94 -9 -30 -65 0
-94 -9 -30 96 0
-94 -9 131 -65 0
-94 -9 131 96 0
-94 231 -30 -65 0
-94 231 -30 96 0
-94 231 131 -65 0
-94 231 131 96 0
-94 -10 -31 -66 0
-94 -10 -31 97 0
-94 -10 132 -66 0
-94 -10 132 97 0
-94 232 -31 -66 0
-94 232 -31 97 0
-94 232 132 -66 0
-94 232 132 97 0
-94 -11 -32 -67 0
-94 -11 -32 98 0
-94 -11 133 -67 0
-94 -11 133 98 0
-94 233 -32 -67 0
-94 233 -32 98 0
-94 233 133 -67 0
-94 233 133 98 0
-94 -12 -33 -68 0
-94 -12 -33 99 0
-94 -12 134 -68 0
-94 -12 134 99 0
-94 234 -33 -68 0
-94 234 -33 99 0
-94 234 134 -68 0
-94 234 134 99 0
-95 -1 -13 -19 0
-95 -1 -13 79 0
-95 -1 85 -19 0
-95 -1 85 79 0
-95 150 -13 -19 0
-95 150 -13 79 0
-95 150 85 -19 0
-95 150 85 79 0
-95 -3 -24 -38 0
-95 -3 -24 90 0
-95 -3 104 -38 0
-95 -3 104 90 0
-95 204 -24 -38 0
-95 204 -24 90 0
-95 204 104 -38 0
-95 204 104 90 0
-95 -4 -25 -46 0
-95 -4 -25 91 0
-95 -4 112 -46 0
-95 -4 112 91 0
-95 212 -25 -46 0
-95 212 -25 91 0
-95 212 112 -46 0
-95 212 112 91 0
-95 -5 -26 -53 0
-95 -5 -26 92 0
-95 -5 119 -53 0
-95 -5 119 92 0
-95 219 -26 -53 0
-95 219 -26 92 0
-95 219 119 -53 0
-95 219 119 92 0
-95 -6 -27 -59 0
-95 -6 -27 93 0
-95 -6 125 -59 0
-95 -6 125 93 0
-95 225 -27 -59 0
-95 225 -27 93 0
-95 225 125 -59 0
-95 225 125 93 0
-95 -7 -28 -64 0
-95 -7 -28 94 0
-95 -7 130 -64 0
-95 -7 130 94 0
-95 230 -28 -64 0
-95 230 -28 94 0
-95 230 130 -64 0
-95 230 130 94 0
-95 -9 -30 -69 0
-95 -9 -30 96 0
-95 -9 135 -69 0
-95 -9 135 96 0
-95 235 -30 -69 0
-95 235 -30 96 0
-95 235 135 -69 0
-95 235 135 96 0
-95 -10 -31 -70 0
-95 -10 -31 97 0
-95 -10 136 -70 0
-95 -10 136 97 0
-95 236 -31 -70 0
-95 236 -31 97 0
-95 236 136 -70 0
-95 236 136 97 0
-95 -11 -32 -71 0
-95 -11 -32 98 0
-95 -11 137 -71 0
-95 -11 137 98 0
-95 237 -32 -71 0
-95 237 -32 98 0
-95 237 137 -71 0
-95 237 137 98 0
-95 -12 -33 -72 0
-95 -12 -33 99 0
-95 -12 138 -72 0
-95 -12 138 99 0
-95 238 -33 -72 0
-95 238 -33 99 0
-95 238 138 -72 0
-95 238 138 99 0
-96 -1 -13 -20 0
-96 -1 -13 79 0
-96 -1 86 -20 0
-96 -1 86 79 0
-96 151 -13 -20 0
-96 151 -13 79 0
-96 151 86 -20 0
-96 151 86 79 0
-96 -3 -24 -39 0
-96 -3 -24 90 0
-96 -3 105 -39 0
-96 -3 105 90 0
-96 205 -24 -39 0
-96 205 -24 90 0
-96 205 105 -39 0
-96 205 105 90 0
-96 -4 -25 -47 0
-96 -4 -25 91 0
-96 -4 113 -47 0
-96 -4 113 91 0
-96 213 -25 -47 0
-96 213 -25 91 0
-96 213 113 -47 0
-96 213 113 91 0
-96 -5 -26 -54 0
-96 -5 -26 92 0
-96 -5 120 -54 0
-96 -5 120 92 0
-96 220 -26 -54 0
-96 220 -26 92 0
-96 220 120 -54 0
-96 220 120 92 0
-96 -6 -27 -60 0
-96 -6 -27 93 0
-96 -6 126 -60 0
-96 -6 126 93 0
-96 226 -27 -60 0
-96 226 -27 93 0
-96 226 126 -60 0
-96 226 126 93 0
-96 -7 -28 -65 0
-96 -7 -28 94 0
-96 -7 131 -65 0
-96 -7 131 94 0
-96 231 -28 -65 0
-96 231 -28 94 0
-96 231 131 -65 0
-96 231 131 94 0
-96 -8 -29 -69 0
-96 -8 -29 95 0
-96 -8 135 -69 0
-96 -8 135 95 0
-96 235 -29 -69 0
-96 235 -29 95 0
-96 235 135 -69 0
-96 235 135 95 0
-96 -10 -31 -73 0
-96 -10 -31 97 0
-96 -10 139 -73 0
-96 -10 139 97 0
-96 239 -31 -73 0
-96 239 -31 97 0
-96 239 139 -73 0
-96 239 139 97 0
-96 -11 -32 -74 0
-96 -11 -32 98 0
-96 -11 140 -74 0
-96 -11 140 98 0
-96 240 -32 -74 0
-96 240 -32 98 0
-96 240 140 -74 0
-96 240 140 98 0
-96 -12 -33 -75 0
-96 -12 -33 99 0
-96 -12 141 -75 0
-96 -12 141 99 0
-96 241 -33 -75 0
-96 241 -33 99 0
-96 241 141 -75 0
-96 241 141 99 0
-97 -1 -13 -21 0
-97 -1 -13 79 0
-97 -1 87 -21 0
-97 -1 87 79 0
-97 152 -13 -21 0
-97 152 -13 79 0
-97 152 87 -21 0
-97 152 87 79 0
-97 -3 -24 -40 0
-97 -3 -24 90 0
-97 -3 106 -40 0
-97 -3 106 90 0
-97 206 -24 -40 0
-97 206 -24 90 0
-97 206 106 -40 0
-97 206 106 90 0
-97 -4 -25 -48 0
-97 -4 -25 91 0
-97 -4 114 -48 0
-97 -4 114 91 0
-97 214 -25 -48 0
-97 214 -25 91 0
-97 214 114 -48 0
-97 214 114 91 0
-97 -5 -26 -55 0
-97 -5 -26 92 0
-97 -5 121 -55 0
-97 -5 121 92 0
-97 221 -26 -55 0
-97 221 -26 92 0
-97 221 121 -55 0
-97 221 121 92 0
-97 -6 -27 -61 0
-97 -6 -27 93 0
-97 -6 127 -61 0
-97 -6 127 93 0
-97 227 -27 -61 0
-97 227 -27 93 0
-97 227 127 -61 0
-97 227 127 93 0
-97 -7 -28 -66 0
-97 -7 -28 94 0
-97 -7 132 -66 0
-97 -7 132 94 0
-97 232 -28 -66 0
-97 232 -28 94 0
-97 232 132 -66 0
-97 232 132 94 0
-97 -8 -29 -70 0
-97 -8 -29 95 0
-97 -8 136 -70 0
-97 -8 136 95 0
-97 236 -29 -70 0
-97 236 -29 95 0
-97 236 136 -70 0
-97 236 136 95 0
-97 -9 -30 -73 0
-97 -9 -30 96 0
-97 -9 139 -73 0
-97 -9 139 96 0
-97 239 -30 -73 0
-97 239 -30 96 0
-97 239 139 -73 0
-97 239 139 96 0
-97 -11 -32 -76 0
-97 -11 -32 98 0
-97 -11 142 -76 0
-97 -11 142 98 0
-97 242 -32 -76 0
-97 242 -32 98 0
-97 242 142 -76 0
-97 242 142 98 0
-97 -12 -33 -77 0
-97 -12 -33 99 0
-97 -12 143 -77 0
-97 -12 143 99 0
-97 243 -33 -77 0
-97 243 -33 99 0
-97 243 143 -77 0
-97 243 143 99 0
-98 -1 -13 -22 0
-98 -1 -13 79 0
-98 -1 88 -22 0
-98 -1 88 79 0
-98 153 -13 -22 0
-98 153 -13 79 0
-98 153 88 -22 0
-98 153 88 79 0
-98 -3 -24 -41 0
-98 -3 -24 90 0
-98 -3 107 -41 0
-98 -3 107 90 0
-98 207 -24 -41 0
-98 207 -24 90 0
-98 207 107 -41 0
-98 207 107 90 0
-98 -4 -25 -49 0
-98 -4 -25 91 0
-98 -4 115 -49 0
-98 -4 115 91 0
-98 215 -25 -49 0
-98 215 -25 91 0
-98 215 115 -49 0
-98 215 115 91 0
-98 -5 -26 -56 0
-98 -5 -26 92 0
-98 -5 122 -56 0
-98 -5 122 92 0
-98 222 -26 -56 0
-98 222 -26 92 0
-98 222 122 -56 0
-98 222 122 92 0
-98 -6 -27 -62 0
-98 -6 -27 93 0
-98 -6 128 -62 0
-98 -6 128 93 0
-98 228 -27 -62 0
-98 228 -27 93 0
-98 228 128 -62 0
-98 228 128 93 0
-98 -7 -28 -67 0
-98 -7 -28 94 0
-98 -7 133 -67 0
-98 -7 133 94 0
-98 233 -28 -67 0
-98 233 -28 94 0
-98 233 133 -67 0
-98 233 133 94 0
-98 -8 -29 -71 0
-98 -8 -29 95 0
-98 -8 137 -71 0
-98 -8 137 95 0
-98 237 -29 -71 0
-98 237 -29 95 0
-98 237 137 -71 0
-98 237 137 95 0
-98 -9 -30 -74 0
-98 -9 -30 96 0
-98 -9 140 -74 0
-98 -9 140 96 0
-98 240 -30 -74 0
-98 240 -30 96 0
-98 240 140 -74 0
-98 240 140 96 0
-98 -10 -31 -76 0
-98 -10 -31 97 0
-98 -10 142 -76 0
-98 -10 142 97 0
-98 242 -31 -76 0
-98 242 -31 97 0
-98 242 142 -76 0
-98 242 142 97 0
-98 -12 -33 -78 0
-98 -12 -33 99 0
-98 -12 144 -78 0
-98 -12 144 99 0
-98 244 -33 -78 0
-98 244 -33 99 0
-98 244 144 -78 0
-98 244 144 99 0
-99 -1 -13 -23 0
-99 -1 -13 79 0
-99 -1 89 -23 0
-99 -1 89 79 0
-99 154 -13 -23 0
-99 154 -13 79 0
-99 154 89 -23 0
-99 154 89 79 0
-99 -3 -24 -42 0
-99 -3 -24 90 0
-99 -3 108 -42 0
-99 -3 108 90 0
-99 208 -24 -42 0
-99 208 -24 90 0
-99 208 108 -42 0
-99 208 108 90 0
-99 -4 -25 -50 0
-99 -4 -25 91 0
-99 -4 116 -50 0
-99 -4 116 91 0
-99 216 -25 -50 0
-99 216 -25 91 0
-99 216 116 -50 0
-99 216 116 91 0
-99 -5 -26 -57 0
-99 -5 -26 92 0
-99 -5 123 -57 0
-99 -5 123 92 0
-99 223 -26 -57 0
-99 223 -26 92 0
-99 223 123 -57 0
-99 223 123 92 0
-99 -6 -27 -63 0
-99 -6 -27 93 0
-99 -6 129 -63 0
-99 -6 129 93 0
-99 229 -27 -63 0
-99 229 -27 93 0
-99 229 129 -63 0
-99 229 129 93 0
-99 -7 -28 -68 0
-99 -7 -28 94 0
-99 -7 134 -68 0
-99 -7 134 94 0
-99 234 -28 -68 0
-99 234 -28 94 0
-99 234 134 -68 0
-99 234 134 94 0
-99 -8 -29 -72 0
-99 -8 -29 95 0
-99 -8 138 -72 0
-99 -8 138 95 0
-99 238 -29 -72 0
-99 238 -29 95 0
-99 238 138 -72 0
-99 238 138 95 0
-99 -9 -30 -75 0
-99 -9 -30 96 0
-99 -9 141 -75 0
-99 -9 141 96 0
-99 241 -30 -75 0
-99 241 -30 96 0
-99 241 141 -75 0
-99 241 141 96 0
-99 -10 -31 -77 0
-99 -10 -31 97 0
-99 -10 143 -77 0
-99 -10 143 97 0
-99 243 -31 -77 0
-99 243 -31 97 0
-99 243 143 -77 0
-99 243 143 97 0
-99 -11 -32 -78 0
-99 -11 -32 98 0
-99 -11 144 -78 0
-99 -11 144 98 0
-99 244 -32 -78 0
-99 244 -32 98 0
-99 244 144 -78 0
-99 244 144 98 0
-100 -1 -14 -15 0
-100 -1 -14 80 0
-100 -1 81 -15 0
-100 -1 81 80 0
-100 155 -14 -15 0
-100 155 -14 80 0
-100 155 81 -15 0
-100 155 81 80 0
-100 -2 -24 -25 0
-100 -2 -24 90 0
-100 -2 91 -25 0
-100 -2 91 90 0
-100 200 -24 -25 0
-100 200 -24 90 0
-100 200 91 -25 0
-100 200 91 90 0
-100 -5 -35 -43 0
-100 -5 -35 101 0
-100 -5 109 -43 0
-100 -5 109 101 0
-100 245 -35 -43 0
-100 245 -35 101 0
-100 245 109 -43 0
-100 245 109 101 0
-100 -6 -36 -44 0
-100 -6 -36 102 0
-100 -6 110 -44 0
-100 -6 110 102 0
-100 246 -36 -44 0
-100 246 -36 102 0
-100 246 110 -44 0
-100 246 110 102 0
-100 -7 -37 -45 0
-100 -7 -37 103 0
-100 -7 111 -45 0
-100 -7 111 103 0
-100 247 -37 -45 0
-100 247 -37 103 0
-100 247 111 -45 0
-100 247 111 103 0
-100 -8 -38 -46 0
-100 -8 -38 104 0
-100 -8 112 -46 0
-100 -8 112 104 0
-100 248 -38 -46 0
-100 248 -38 104 0
-100 248 112 -46 0
-100 248 112 104 0
-100 -9 -39 -47 0
-100 -9 -39 105 0
-100 -9 113 -47 0
-100 -9 113 105 0
-100 249 -39 -47 0
-100 249 -39 105 0
-100 249 113 -47 0
-100 249 113 105 0
-100 -10 -40 -48 0
-100 -10 -40 106 0
-100 -10 114 -48 0
-100 -10 114 106 0
-100 250 -40 -48 0
-100 250 -40 106 0
-100 250 114 -48 0
-100 250 114 106 0
-100 -11 -41 -49 0
-100 -11 -41 107 0
-100 -11 115 -49 0
-100 -11 115 107 0
-100 251 -41 -49 0
-100 251 -41 107 0
-100 251 115 -49 0
-100 251 115 107 0
-100 -12 -42 -50 0
-100 -12 -42 108 0
-100 -12 116 -50 0
-100 -12 116 108 0
-100 252 -42 -50 0
-100 252 -42 108 0
-100 252 116 -50 0
-100 252 116 108 0
-101 -1 -14 -16 0
-101 -1 -14 80 0
-101 -1 82 -16 0
-101 -1 82 80 0
-101 156 -14 -16 0
-101 156 -14 80 0
-101 156 82 -16 0
-101 156 82 80 0
-101 -2 -24 -26 0
-101 -2 -24 90 0
-101 -2 92 -26 0
-101 -2 92 90 0
-101 201 -24 -26 0
-101 201 -24 90 0
-101 201 92 -26 0
-101 201 92 90 0
-101 -4 -34 -43 0
-101 -4 -34 100 0
-101 -4 109 -43 0
-101 -4 109 100 0
-101 245 -34 -43 0
-101 245 -34 100 0
-101 245 109 -43 0
-101 245 109 100 0
-101 -6 -36 -51 0
-101 -6 -36 102 0
-101 -6 117 -51 0
-101 -6 117 102 0
-101 253 -36 -51 0
-101 253 -36 102 0
-101 253 117 -51 0
-101 253 117 102 0
-101 -7 -37 -52 0
-101 -7 -37 103 0
-101 -7 118 -52 0
-101 -7 118 103 0
-101 254 -37 -52 0
-101 254 -37 103 0
-101 254 118 -52 0
-101 254 118 103 0
-101 -8 -38 -53 0
-101 -8 -38 104 0
-101 -8 119 -53 0
-101 -8 119 104 0
-101 255 -38 -53 0
-101 255 -38 104 0
-101 255 119 -53 0
-101 255 119 104 0
-101 -9 -39 -54 0
-101 -9 -39 105 0
-101 -9 120 -54 0
-101 -9 120 105 0
-101 256 -39 -54 0
-101 256 -39 105 0
-101 256 120 -54 0
-101 256 120 105 0
-101 -10 -40 -55 0
-101 -10 -40 106 0
-101 -10 121 -55 0
-101 -10 121 106 0
-101 257 -40 -55 0
-101 257 -40 106 0
-101 257 121 -55 0
-101 257 121 106 0
-101 -11 -41 -56 0
-101 -11 -41 107 0
-101 -11 122 -56 0
-101 -11 122 107 0
-101 258 -41 -56 0
-101 258 -41 107 0
-101 258 122 -56 0
-101 258 122 107 0
-101 -12 -42 -57 0
-101 -12 -42 108 0
-101 -12 123 -57 0
-101 -12 123 108 0
-101 259 -42 -57 0
-101 259 -42 108 0
-101 259 123 -57 0
-101 259 123 108 0
-102 -1 -14 -17 0
-102 -1 -14 80 0
-102 -1 83 -17 0
-102 -1 83 80 0
-102 157 -14 -17 0
-102 157 -14 80 0
-102 157 83 -17 0
-102 157 83 80 0
-102 -2 -24 -27 0
-102 -2 -24 90 0
-102 -2 93 -27 0
-102 -2 93 90 0
-102 202 -24 -27 0
-102 202 -24 90 0
-102 202 93 -27 0
-102 202 93 90 0
-102 -4 -34 -44 0
-102 -4 -34 100 0
-102 -4 110 -44 0
-102 -4 110 100 0
-102 246 -34 -44 0
-102 246 -34 100 0
-102 246 110 -44 0
-102 246 110 100 0
-102 -5 -35 -51 0
-102 -5 -35 101 0
-102 -5 117 -51 0
-102 -5 117 101 0
-102 253 -35 -51 0
-102 253 -35 101 0
-102 253 117 -51 0
-102 253 117 101 0
-102 -7 -37 -58 0
-102 -7 -37 103 0
-102 -7 124 -58 0
-102 -7 124 103 0
-102 260 -37 -58 0
-102 260 -37 103 0
-102 260 124 -58 0
-102 260 124 103 0
-102 -8 -38 -59 0
-102 -8 -38 104 0
-102 -8 125 -59 0
-102 -8 125 104 0
-102 261 -38 -59 0
-102 261 -38 104 0
-102 261 125 -59 0
-102 261 125 104 0
-102 -9 -39 -60 0
-102 -9 -39 105 0
-102 -9 126 -60 0
-102 -9 126 105 0
-102 262 -39 -60 0
-102 262 -39 105 0
-102 262 126 -60 0
-102 262 126 105 0
-102 -10 -40 -61 0
-102 -10 -40 106 0
-102 -10 127 -61 0
-102 -10 127 106 0
-102 263 -40 -61 0
-102 263 -40 106 0
-102 263 127 -61 0
-102 263 127 106 0
-102 -11 -41 -62 0
-102 -11 -41 107 0
-102 -11 128 -62 0
-102 -11 128 107 0
-102 264 -41 -62 0
-102 264 -41 107 0
-102 264 128 -62 0
-102 264 128 107 0
-102 -12 -42 -63 0
-102 -12 -42 108 0
-102 -12 129 -63 0
-102 -12 129 108 0
-102 265 -42 -63 0
-102 265 -42 108 0
-102 265 129 -63 0
-102 265 129 108 0
-103 -1 -14 -18 0
-103 -1 -14 80 0
-103 -1 84 -18 0
-103 -1 84 80 0
-103 158 -14 -18 0
-103 158 -14 80 0
-103 158 84 -18 0
-103 158 84 80 0
-103 -2 -24 -28 0
-103 -2 -24 90 0
-103 -2 94 -28 0
-103 -2 94 90 0
-103 203 -24 -28 0
-103 203 -24 90 0
-103 203 94 -28 0
-103 203 94 90 0
-103 -4 -34 -45 0
-103 -4 -34 100 0
-103 -4 111 -45 0
-103 -4 111 100 0
-103 247 -34 -45 0
-103 247 -34 100 0
-103 247 111 -45 0
-103 247 111 100 0
-103 -5 -35 -52 0
-103 -5 -35 101 0
-103 -5 118 -52 0
-103 -5 118 101 0
-103 254 -35 -52 0
-103 254 -35 101 0
-103 254 118 -52 0
-103 254 118 101 0
-103 -6 -36 -58 0
-103 -6 -36 102 0
-103 -6 124 -58 0
-103 -6 124 102 0
-103 260 -36 -58 0
-103 260 -36 102 0
-103 260 124 -58 0
-103 260 124 102 0
-103 -8 -38 -64 0
-103 -8 -38 104 0
-103 -8 130 -64 0
-103 -8 130 104 0
-103 266 -38 -64 0
-103 266 -38 104 0
-103 266 130 -64 0
-103 266 130 104 0
-103 -9 -39 -65 0
-103 -9 -39 105 0
-103 -9 131 -65 0
-103 -9 131 105 0
-103 267 -39 -65 0
-103 267 -39 105 0
-103 267 131 -65 0
-103 267 131 105 0
-103 -10 -40 -66 0
-103 -10 -40 106 0
-103 -10 132 -66 0
-103 -10 132 106 0
-103 268 -40 -66 0
-103 268 -40 106 0
-103 268 132 -66 0
-103 268 132 106 0
-103 -11 -41 -67 0
-103 -11 -41 107 0
-103 -11 133 -67 0
-103 -11 133 107 0
-103 269 -41 -67 0
-103 269 -41 107 0
-103 269 133 -67 0
-103 269 133 107 0
-103 -12 -42 -68 0
-103 -12 -42 108 0
-103 -12 134 -68 0
-103 -12 134 108 0
-103 270 -42 -68 0
-103 270 -42 108 0
-103 270 134 -68 0
-103 270 134 108 0
-104 -1 -14 -19 0
-104 -1 -14 80 0
-104 -1 85 -19 0
-104 -1 85 80 0
-104 159 -14 -19 0
-104 159 -14 80 0
-104 159 85 -19 0
-104 159 85 80 0
-104 -2 -24 -29 0
-104 -2 -24 90 0
-104 -2 95 -29 0
-104 -2 95 90 0
-104 204 -24 -29 0
-104 204 -24 90 0
-104 204 95 -29 0
-104 204 95 90 0
-104 -4 -34 -46 0
-104 -4 -34 100 0
-104 -4 112 -46 0
-104 -4 112 100 0
-104 248 -34 -46 0
-104 248 -34 100 0
-104 248 112 -46 0
-104 248 112 100 0
-104 -5 -35 -53 0
-104 -5 -35 101 0
-104 -5 119 -53 0
-104 -5 119 101 0
-104 255 -35 -53 0
-104 255 -35 101 0
-104 255 119 -53 0
-104 255 119 101 0
-104 -6 -36 -59 0
-104 -6 -36 102 0
-104 -6 125 -59 0
-104 -6 125 102 0
-104 261 -36 -59 0
-104 261 -36 102 0
-104 261 125 -59 0
-104 261 125 102 0
-104 -7 -37 -64 0
-104 -7 -37 103 0
-104 -7 130 -64 0
-104 -7 130 103 0
-104 266 -37 -64 0
-104 266 -37 103 0
-104 266 130 -64 0
-104 266 130 103 0
-104 -9 -39 -69 0
-104 -9 -39 105 0
-104 -9 135 -69 0
-104 -9 135 105 0
-104 271 -39 -69 0
-104 271 -39 105 0
-104 271 135 -69 0
-104 271 135 105 0
-104 -10 -40 -70 0
-104 -10 -40 106 0
-104 -10 136 -70 0
-104 -10 136 106 0
-104 272 -40 -70 0
-104 272 -40 106 0
-104 272 136 -70 0
-104 272 136 106 0
-104 -11 -41 -71 0
-104 -11 -41 107 0
-104 -11 137 -71 0
-104 -11 137 107 0
-104 273 -41 -71 0
-104 273 -41 107 0
-104 273 137 -71 0
-104 273 137 107 0
-104 -12 -42 -72 0
-104 -12 -42 108 0
-104 -12 138 -72 0
-104 -12 138 108 0
-104 274 -42 -72 0
-104 274 -42 108 0
-104 274 138 -72 0
-104 274 138 108 0
-105 -1 -14 -20 0
-105 -1 -14 80 0
-105 -1 86 -20 0
-105 -1 86 80 0
-105 160 -14 -20 0
-105 160 -14 80 0
-105 160 86 -20 0
-105 160 86 80 0
-105 -2 -24 -30 0
-105 -2 -24 90 0
-105 -2 96 -30 0
-105 -2 96 90 0
-105 205 -24 -30 0
-105 205 -24 90 0
-105 205 96 -30 0
-105 205 96 90 0
-105 -4 -34 -47 0
-105 -4 -34 100 0
-105 -4 113 -47 0
-105 -4 113 100 0
-105 249 -34 -47 0
-105 249 -34 100 0
-105 249 113 -47 0
-105 249 113 100 0
-105 -5 -35 -54 0
-105 -5 -35 101 0
-105 -5 120 -54 0
-105 -5 120 101 0
-105 256 -35 -54 0
-105 256 -35 101 0
-105 256 120 -54 0
-105 256 120 101 0
-105 -6 -36 -60 0
-105 -6 -36 102 0
-105 -6 126 -60 0
-105 -6 126 102 0
-105 262 -36 -60 0
-105 262 -36 102 0
-105 262 126 -60 0
-105 262 126 102 0
-105 -7 -37 -65 0
-105 -7 -37 103 0
-105 -7 131 -65 0
-105 -7 131 103 0
-105 267 -37 -65 0
-105 267 -37 103 0
-105 267 131 -65 0
-105 267 131 103 0
-105 -8 -38 -69 0
-105 -8 -38 104 0
-105 -8 135 -69 0
-105 -8 135 104 0
-105 271 -38 -69 0
-105 271 -38 104 0
-105 271 135 -69 0
-105 271 135 104 0
-105 -10 -40 -73 0
-105 -10 -40 106 0
-105 -10 139 -73 0
-105 -10 139 106 0
-105 275 -40 -73 0
-105 275 -40 106 0
-105 275 139 -73 0
-105 275 139 106 0
-105 -11 -41 -74 0
-105 -11 -41 107 0
-105 -11 140 -74 0
-105 -11 140 107 0
-105 276 -41 -74 0
-105 276 -41 107 0
-105 276 140 -74 0
-105 276 140 107 0
-105 -12 -42 -75 0
-105 -12 -42 108 0
-105 -12 141 -75 0
-105 -12 141 108 0
-105 277 -42 -75 0
-105 277 -42 108 0
-105 277 141 -75 0
-105 277 141 108 0
-106 -1 -14 -21 0
-106 -1 -14 80 0
-106 -1 87 -21 0
-106 -1 87 80 0
-106 161 -14 -21 0
-106 161 -14 80 0
-106 161 87 -21 0
-106 161 87 80 0
-106 -2 -24 -31 0
-106 -2 -24 90 0
-106 -2 97 -31 0
-106 -2 97 90 0
-106 206 -24 -31 0
-106 206 -24 90 0
-106 206 97 -31 0
-106 206 97 90 0
-106 -4 -34 -48 0
-106 -4 -34 100 0
-106 -4 114 -48 0
-106 -4 114 100 0
-106 250 -34 -48 0
-106 250 -34 100 0
-106 250 114 -48 0
-106 250 114 100 0
-106 -5 -35 -55 0
-106 -5 -35 101 0
-106 -5 121 -55 0
-106 -5 121 101 0
-106 257 -35 -55 0
-106 257 -35 101 0
-106 257 121 -55 0
-106 257 121 101 0
-106 -6 -36 -61 0
-106 -6 -36 102 0
-106 -6 127 -61 0
-106 -6 127 102 0
-106 263 -36 -61 0
-106 263 -36 102 0
-106 263 127 -61 0
-106 263 127 102 0
-106 -7 -37 -66 0
-106 -7 -37 103 0
-106 -7 132 -66 0
-106 -7 132 103 0
-106 268 -37 -66 0
-106 268 -37 103 0
-106 268 132 -66 0
-106 268 132 103 0
-106 -8 -38 -70 0
-106 -8 -38 104 0
-106 -8 136 -70 0
-106 -8 136 104 0
-106 272 -38 -70 0
-106 272 -38 104 0
-106 272 136 -70 0
-106 272 136 104 0
-106 -9 -39 -73 0
-106 -9 -39 105 0
-106 -9 139 -73 0
-106 -9 139 105 0
-106 275 -39 -73 0
-106 275 -39 105 0
-106 275 139 -73 0
-106 275 139 105 0
-106 -11 -41 -76 0
-106 -11 -41 107 0
-106 -11 142 -76 0
-106 -11 142 107 0
-106 278 -41 -76 0
-106 278 -41 107 0
-106 278 142 -76 0
-106 278 142 107 0
-106 -12 -42 -77 0
-106 -12 -42 108 0
-106 -12 143 -77 0
-106 -12 143 108 0
-106 279 -42 -77 0
-106 279 -42 108 0
-106 279 143 -77 0
-106 279 143 108 0
-107 -1 -14 -22 0
-107 -1 -14 80 0
-107 -1 88 -22 0
-107 -1 88 80 0
-107 162 -14 -22 0
-107 162 -14 80 0
-107 162 88 -22 0
-107 162 88 80 0
-107 -2 -24 -32 0
-107 -2 -24 90 0
-107 -2 98 -32 0
-107 -2 98 90 0
-107 207 -24 -32 0
-107 207 -24 90 0
-107 207 98 -32 0
-107 207 98 90 0
-107 -4 -34 -49 0
-107 -4 -34 100 0
-107 -4 115 -49 0
-107 -4 115 100 0
-107 251 -34 -49 0
-107 251 -34 100 0
-107 251 115 -49 0
-107 251 115 100 0
-107 -5 -35 -56 0
-107 -5 -35 101 0
-107 -5 122 -56 0
-107 -5 122 101 0
-107 258 -35 -56 0
-107 258 -35 101 0
-107 258 122 -56 0
-107 258 122 101 0
-107 -6 -36 -62 0
-107 -6 -36 102 0
-107 -6 128 -62 0
-107 -6 128 102 0
-107 264 -36 -62 0
-107 264 -36 102 0
-107 264 128 -62 0
-107 264 128 102 0
-107 -7 -37 -67 0
-107 -7 -37 103 0
-107 -7 133 -67 0
-107 -7 133 103 0
-107 269 -37 -67 0
-107 269 -37 103 0
-107 269 133 -67 0
-107 269 133 103 0
-107 -8 -38 -71 0
-107 -8 -38 104 0
-107 -8 137 -71 0
-107 -8 137 104 0
-107 273 -38 -71 0
-107 273 -38 104 0
-107 273 137 -71 0
-107 273 137 104 0
-107 -9 -39 -74 0
-107 -9 -39 105 0
-107 -9 140 -74 0
-107 -9 140 105 0
-107 276 -39 -74 0
-107 276 -39 105 0
-107 276 140 -74 0
-107 276 140 105 0
-107 -10 -40 -76 0
-107 -10 -40 106 0
-107 -10 142 -76 0
-107 -10 142 106 0
-107 278 -40 -76 0
-107 278 -40 106 0
-107 278 142 -76 0
-107 278 142 106 0
-107 -12 -42 -78 0
-107 -12 -42 108 0
-107 -12 144 -78 0
-107 -12 144 108 0
-107 280 -42 -78 0
-107 280 -42 108 0
-107 280 144 -78 0
-107 280 144 108 0
-108 -1 -14 -23 0
-108 -1 -14 80 0
-108 -1 89 -23 0
-108 -1 89 80 0
-108 163 -14 -23 0
-108 163 -14 80 0
-108 163 89 -23 0
-108 163 89 80 0
-108 -2 -24 -33 0
-108 -2 -24 90 0
-108 -2 99 -33 0
-108 -2 99 90 0
-108 208 -24 -33 0
-108 208 -24 90 0
-108 208 99 -33 0
-108 208 99 90 0
-108 -4 -34 -50 0
-108 -4 -34 100 0
-108 -4 116 -50 0
-108 -4 116 100 0
-108 252 -34 -50 0
-108 252 -34 100 0
-108 252 116 -50 0
-108 252 116 100 0
-108 -5 -35 -57 0
-108 -5 -35 101 0
-108 -5 123 -57 0
-108 -5 123 101 0
-108 259 -35 -57 0
-108 259 -35 101 0
-108 259 123 -57 0
-108 259 123 101 0
-108 -6 -36 -63 0
-108 -6 -36 102 0
-108 -6 129 -63 0
-108 -6 129 102 0
-108 265 -36 -63 0
-108 265 -36 102 0
-108 265 129 -63 0
-108 265 129 102 0
-108 -7 -37 -68 0
-108 -7 -37 103 0
-108 -7 134 -68 0
-108 -7 134 103 0
-108 270 -37 -68 0
-108 270 -37 103 0
-108 270 134 -68 0
-108 270 134 103 0
-108 -8 -38 -72 0
-108 -8 -38 104 0
-108 -8 138 -72 0
-108 -8 138 104 0
-108 274 -38 -72 0
-108 274 -38 104 0
-108 274 138 -72 0
-108 274 138 104 0
-108 -9 -39 -75 0
-108 -9 -39 105 0
-108 -9 141 -75 0
-108 -9 141 105 0
-108 277 -39 -75 0
-108 277 -39 105 0
-108 277 141 -75 0
-108 277 141 105 0
-108 -10 -40 -77 0
-108 -10 -40 106 0
-108 -10 143 -77 0
-108 -10 143 106 0
-108 279 -40 -77 0
-108 279 -40 106 0
-108 279 143 -77 0
-108 279 143 106 0
-108 -11 -41 -78 0
-108 -11 -41 107 0
-108 -11 144 -78 0
-108 -11 144 107 0
-108 280 -41 -78 0
-108 280 -41 107 0
-108 280 144 -78 0
-108 280 144 107 0
-109 -1 -15 -16 0
-109 -1 -15 81 0
-109 -1 82 -16 0
-109 -1 82 81 0
-109 164 -15 -16 0
-109 164 -15 81 0
-109 164 82 -16 0
-109 164 82 81 0
-109 -2 -25 -26 0
-109 -2 -25 91 0
-109 -2 92 -26 0
-109 -2 92 91 0
-109 209 -25 -26 0
-109 209 -25 91 0
-109 209 92 -26 0
-109 209 92 91 0
-109 -3 -34 -35 0
-109 -3 -34 100 0
-109 -3 101 -35 0
-109 -3 101 100 0
-109 245 -34 -35 0
-109 245 -34 100 0
-109 245 101 -35 0
-109 245 101 100 0
-109 -6 -44 -51 0
-109 -6 -44 110 0
-109 -6 117 -51 0
-109 -6 117 110 0
-109 281 -44 -51 0
-109 281 -44 110 0
-109 281 117 -51 0
-109 281 117 110 0
-109 -7 -45 -52 0
-109 -7 -45 111 0
-109 -7 118 -52 0
-109 -7 118 111 0
-109 282 -45 -52 0
-109 282 -45 111 0
-109 282 118 -52 0
-109 282 118 111 0
-109 -8 -46 -53 0
-109 -8 -46 112 0
-109 -8 119 -53 0
-109 -8 119 112 0
-109 283 -46 -53 0
-109 283 -46 112 0
-109 283 119 -53 0
-109 283 119 112 0
-109 -9 -47 -54 0
-109 -9 -47 113 0
-109 -9 120 -54 0
-109 -9 120 113 0
-109 284 -47 -54 0
-109 284 -47 113 0
-109 284 120 -54 0
-109 284 120 113 0
-109 -10 -48 -55 0
-109 -10 -48 114 0
-109 -10 121 -55 0
-109 -10 121 114 0
-109 285 -48 -55 0
-109 285 -48 114 0
-109 285 121 -55 0
-109 285 121 114 0
-109 -11 -49 -56 0
-109 -11 -49 115 0
-109 -11 122 -56 0
-109 -11 122 115 0
-109 286 -49 -56 0
-109 286 -49 115 0
-109 286 122 -56 0
-109 286 122 115 0
-109 -12 -50 -57 0
-109 -12 -50 116 0
-109 -12 123 -57 0
-109 -12 123 116 0
-109 287 -50 -57 0
-109 287 -50 116 0
-109 287 123 -57 0
-109 287 123 116 0
-110 -1 -15 -17 0
-110 -1 -15 81 0
-110 -1 83 -17 0
-110 -1 83 81 0
-110 165 -15 -17 0
-110 165 -15 81 0
-110 165 83 -17 0
-110 165 83 81 0
-110 -2 -25 -27 0
-110 -2 -25 91 0
-110 -2 93 -27 0
-110 -2 93 91 0
-110 210 -25 -27 0
-110 210 -25 91 0
-110 210 93 -27 0
-110 210 93 91 0
-110 -3 -34 -36 0
-110 -3 -34 100 0
-110 -3 102 -36 0
-110 -3 102 100 0
-110 246 -34 -36 0
-110 246 -34 100 0
-110 246 102 -36 0
-110 246 102 100 0
-110 -5 -43 -51 0
-110 -5 -43 109 0
-110 -5 117 -51 0
-110 -5 117 109 0
-110 281 -43 -51 0
-110 281 -43 109 0
-110 281 117 -51 0
-110 281 117 109 0
-110 -7 -45 -58 0
-110 -7 -45 111 0
-110 -7 124 -58 0
-110 -7 124 111 0
-110 288 -45 -58 0
-110 288 -45 111 0
-110 288 124 -58 0
-110 288 124 111 0
-110 -8 -46 -59 0
-110 -8 -46 112 0
-110 -8 125 -59 0
-110 -8 125 112 0
-110 289 -46 -59 0
-110 289 -46 112 0
-110 289 125 -59 0
-110 289 125 112 0
-110 -9 -47 -60 0
-110 -9 -47 113 0
-110 -9 126 -60 0
-110 -9 126 113 0
-110 290 -47 -60 0
-110 290 -47 113 0
-110 290 126 -60 0
-110 290 126 113 0
-110 -10 -48 -61 0
-110 -10 -48 114 0
-110 -10 127 -61 0
-110 -10 127 114 0
-110 291 -48 -61 0
-110 291 -48 114 0
-110 291 127 -61 0
-110 291 127 114 0
-110 -11 -49 -62 0
-110 -11 -49 115 0
-110 -11 128 -62 0
-110 -11 128 115 0
-110 292 -49 -62 0
-110 292 -49 115 0
-110 292 128 -62 0
-110 292 128 115 0
-110 -12 -50 -63 0
-110 -12 -50 116 0
-110 -12 129 -63 0
-110 -12 129 116 0
-110 293 -50 -63 0
-110 293 -50 116 0
-110 293 129 -63 0
-110 293 129 116 0
-111 -1 -15 -18 0
-111 -1 -15 81 0
-111 -1 84 -18 0
-111 -1 84 81 0
-111 166 -15 -18 0
-111 166 -15 81 0
-111 166 84 -18 0
-111 166 84 81 0
-111 -2 -25 -28 0
-111 -2 -25 91 0
-111 -2 94 -28 0
-111 -2 94 91 0
-111 211 -25 -28 0
-111 211 -25 91 0
-111 211 94 -28 0
-111 211 94 91 0
-111 -3 -34 -37 0
-111 -3 -34 100 0
-111 -3 103 -37 0
-111 -3 103 100 0
-111 247 -34 -37 0
-111 247 -34 100 0
-111 247 103 -37 0
-111 247 103 100 0
-111 -5 -43 -52 0
-111 -5 -43 109 0
-111 -5 118 -52 0
-111 -5 118 109 0
-111 282 -43 -52 0
-111 282 -43 109 0
-111 282 118 -52 0
-111 282 118 109 0
-111 -6 -44 -58 0
-111 -6 -44 110 0
-111 -6 124 -58 0
-111 -6 124 110 0
-111 288 -44 -58 0
-111 288 -44 110 0
-111 288 124 -58 0
-111 288 124 110 0
-111 -8 -46 -64 0
-111 -8 -46 112 0
-111 -8 130 -64 0
-111 -8 130 112 0
-111 294 -46 -64 0
-111 294 -46 112 0
-111 294 130 -64 0
-111 294 130 112 0
-111 -9 -47 -65 0
-111 -9 -47 113 0
-111 -9 131 -65 0
-111 -9 131 113 0
-111 295 -47 -65 0
-111 295 -47 113 0
-111 295 131 -65 0
-111 295 131 113 0
-111 -10 -48 -66 0
-111 -10 -48 114 0
-111 -10 132 -66 0
-111 -10 132 114 0
-111 296 -48 -66 0
-111 296 -48 114 0
-111 296 132 -66 0
-111 296 132 114 0
-111 -11 -49 -67 0
-111 -11 -49 115 0
-111 -11 133 -67 0
-111 -11 133 115 0
-111 297 -49 -67 0
-111 297 -49 115 0
-111 297 133 -67 0
-111 297 133 115 0
-111 -12 -50 -68 0
-111 -12 -50 116 0
-111 -12 134 -68 0
-111 -12 134 116 0
-111 298 -50 -68 0
-111 298 -50 116 0
-111 298 134 -68 0
-111 298 134 116 0
-112 -1 -15 -19 0
-112 -1 -15 81 0
-112 -1 85 -19 0
-112 -1 85 81 0
-112 167 -15 -19 0
-112 167 -15 81 0
-112 167 85 -19 0
-112 167 85 81 0
-112 -2 -25 -29 0
-112 -2 -25 91 0
-112 -2 95 -29 0
-112 -2 95 91 0
-112 212 -25 -29 0
-112 212 -25 91 0
-112 212 95 -29 0
-112 212 95 91 0
-112 -3 -34 -38 0
-112 -3 -34 100 0
-112 -3 104 -38 0
-112 -3 104 100 0
-112 248 -34 -38 0
-112 248 -34 100 0
-112 248 104 -38 0
-112 248 104 100 0
-112 -5 -43 -53 0
-112 -5 -43 109 0
-112 -5 119 -53 0
-112 -5 119 109 0
-112 283 -43 -53 0
-112 283 -43 109 0
-112 283 119 -53 0
-112 283 119 109 0
-112 -6 -44 -59 0
-112 -6 -44 110 0
-112 -6 125 -59 0
-112 -6 125 110 0
-112 289 -44 -59 0
-112 289 -44 110 0
-112 289 125 -59 0
-112 289 125 110 0
-112 -7 -45 -64 0
-112 -7 -45 111 0
-112 -7 130 -64 0
-112 -7 130 111 0
-112 294 -45 -64 0
-112 294 -45 111 0
-112 294 130 -64 0
-112 294 130 111 0
-112 -9 -47 -69 0
-112 -9 -47 113 0
-112 -9 135 -69 0
-112 -9 135 113 0
-112 299 -47 -69 0
-112 299 -47 113 0
-112 299 135 -69 0
-112 299 135 113 0
-112 -10 -48 -70 0
-112 -10 -48 114 0
-112 -10 136 -70 0
-112 -10 136 114 0
-112 300 -48 -70 0
-112 300 -48 114 0
-112 300 136 -70 0
-112 300 136 114 0
-112 -11 -49 -71 0
-112 -11 -49 115 0
-112 -11 137 -71 0
-112 -11 137 115 0
-112 301 -49 -71 0
-112 301 -49 115 0
-112 301 137 -71 0
-112 301 137 115 0
-112 -12 -50 -72 0
-112 -12 -50 116 0
-112 -12 138 -72 0
-112 -12 138 116 0
-112 302 -50 -72 0
-112 302 -50 116 0
-112 302 138 -72 0
-112 302 138 116 0
-113 -1 -15 -20 0
-113 -1 -15 81 0
-113 -1 86 -20 0
-113 -1 86 81 0
-113 168 -15 -20 0
-113 168 -15 81 0
-113 168 86 -20 0
-113 168 86 81 0
-113 -2 -25 -30 0
-113 -2 -25 91 0
-113 -2 96 -30 0
-113 -2 96 91 0
-113 213 -25 -30 0
-113 213 -25 91 0
-113 213 96 -30 0
-113 213 96 91 0
-113 -3 -34 -39 0
-113 -3 -34 100 0
-113 -3 105 -39 0
-113 -3 105 100 0
-113 249 -34 -39 0
-113 249 -34 100 0
-113 249 105 -39 0
-113 249 105 100 0
-113 -5 -43 -54 0
-113 -5 -43 109 0
-113 -5 120 -54 0
-113 -5 120 109 0
-113 284 -43 -54 0
-113 284 -43 109 0
-113 284 120 -54 0
-113 284 120 109 0
-113 -6 -44 -60 0
-113 -6 -44 110 0
-113 -6 126 -60 0
-113 -6 126 110 0
-113 290 -44 -60 0
-113 290 -44 110 0
-113 290 126 -60 0
-113 290 126 110 0
-113 -7 -45 -65 0
-113 -7 -45 111 0
-113 -7 131 -65 0
-113 -7 131 111 0
-113 295 -45 -65 0
-113 295 -45 111 0
-113 295 131 -65 0
-113 295 131 111 0
-113 -8 -46 -69 0
-113 -8 -46 112 0
-113 -8 135 -69 0
-113 -8 135 112 0
-113 299 -46 -69 0
-113 299 -46 112 0
-113 299 135 -69 0
-113 299 135 112 0
-113 -10 -48 -73 0
-113 -10 -48 114 0
-113 -10 139 -73 0
-113 -10 139 114 0
-113 303 -48 -73 0
-113 303 -48 114 0
-113 303 139 -73 0
-113 303 139 114 0
-113 -11 -49 -74 0
-113 -11 -49 115 0
-113 -11 140 -74 0
-113 -11 140 115 0
-113 304 -49 -74 0
-113 304 -49 115 0
-113 304 140 -74 0
-113 304 140 115 0
-113 -12 -50 -75 0
-113 -12 -50 116 0
-113 -12 141 -75 0
-113 -12 141 116 0
-113 305 -50 -75 0
-113 305 -50 116 0
-113 305 141 -75 0
-113 305 141 116 0
-114 -1 -15 -21 0
-114 -1 -15 81 0
-114 -1 87 -21 0
-114 -1 87 81 0
-114 169 -15 -21 0
-114 169 -15 81 0
-114 169 87 -21 0
-114 169 87 81 0
-114 -2 -25 -31 0
-114 -2 -25 91 0
-114 -2 97 -31 0
-114 -2 97 91 0
-114 214 -25 -31 0
-114 214 -25 91 0
-114 214 97 -31 0
-114 214 97 91 0
-114 -3 -34 -40 0
-114 -3 -34 100 0
-114 -3 106 -40 0
-114 -3 106 100 0
-114 250 -34 -40 0
-114 250 -34 100 0
-114 250 106 -40 0
-114 250 106 100 0
-114 -5 -43 -55 0
-114 -5 -43 109 0
-114 -5 121 -55 0
-114 -5 121 109 0
-114 285 -43 -55 0
-114 285 -43 109 0
-114 285 121 -55 0
-114 285 121 109 0
-114 -6 -44 -61 0
-114 -6 -44 110 0
-114 -6 127 -61 0
-114 -6 127 110 0
-114 291 -44 -61 0
-114 291 -44 110 0
-114 291 127 -61 0
-114 291 127 110 0
-114 -7 -45 -66 0
-114 -7 -45 111 0
-114 -7 132 -66 0
-114 -7 132 111 0
-114 296 -45 -66 0
-114 296 -45 111 0
-114 296 132 -66 0
-114 296 132 111 0
-114 -8 -46 -70 0
-114 -8 -46 112 0
-114 -8 136 -70 0
-114 -8 136 112 0
-114 300 -46 -70 0
-114 300 -46 112 0
-114 300 136 -70 0
-114 300 136 112 0
-114 -9 -47 -73 0
-114 -9 -47 113 0
-114 -9 139 -73 0
-114 -9 139 113 0
-114 303 -47 -73 0
-114 303 -47 113 0
-114 303 139 -73 0
-114 303 139 113 0
-114 -11 -49 -76 0
-114 -11 -49 115 0
-114 -11 142 -76 0
-114 -11 142 115 0
-114 306 -49 -76 0
-114 306 -49 115 0
-114 306 142 -76 0
-114 306 142 115 0
-114 -12 -50 -77 0
-114 -12 -50 116 0
-114 -12 143 -77 0
-114 -12 143 116 0
-114 307 -50 -77 0
-114 307 -50 116 0
-114 307 143 -77 0
-114 307 143 116 0
-115 -1 -15 -22 0
-115 -1 -15 81 0
-115 -1 88 -22 0
-115 -1 88 81 0
-115 170 -15 -22 0
-115 170 -15 81 0
-115 170 88 -22 0
-115 170 88 81 0
-115 -2 -25 -32 0
-115 -2 -25 91 0
-115 -2 98 -32 0
-115 -2 98 91 0
-115 215 -25 -32 0
-115 215 -25 91 0
-115 215 98 -32 0
-115 215 98 91 0
-115 -3 -34 -41 0
-115 -3 -34 100 0
-115 -3 107 -41 0
-115 -3 107 100 0
-115 251 -34 -41 0
-115 251 -34 100 0
-115 251 107 -41 0
-115 251 107 100 0
-115 -5 -43 -56 0
-115 -5 -43 109 0
-115 -5 122 -56 0
-115 -5 122 109 0
-115 286 -43 -56 0
-115 286 -43 109 0
-115 286 122 -56 0
-115 286 122 109 0
-115 -6 -44 -62 0
-115 -6 -44 110 0
-115 -6 128 -62 0
-115 -6 128 110 0
-115 292 -44 -62 0
-115 292 -44 110 0
-115 292 128 -62 0
-115 292 128 110 0
-115 -7 -45 -67 0
-115 -7 -45 111 0
-115 -7 133 -67 0
-115 -7 133 111 0
-115 297 -45 -67 0
-115 297 -45 111 0
-115 297 133 -67 0
-115 297 133 111 0
-115 -8 -46 -71 0
-115 -8 -46 112 0
-115 -8 137 -71 0
-115 -8 137 112 0
-115 301 -46 -71 0
-115 301 -46 112 0
-115 301 137 -71 0
-115 301 137 112 0
-115 -9 -47 -74 0
-115 -9 -47 113 0
-115 -9 140 -74 0
-115 -9 140 113 0
-115 304 -47 -74 0
-115 304 -47 113 0
-115 304 140 -74 0
-115 304 140 113 0
-115 -10 -48 -76 0
-115 -10 -48 114 0
-115 -10 142 -76 0
-115 -10 142 114 0
-115 306 -48 -76 0
-115 306 -48 114 0
-115 306 142 -76 0
-115 306 142 114 0
-115 -12 -50 -78 0
-115 -12 -50 116 0
-115 -12 144 -78 0
-115 -12 144 116 0
-115 308 -50 -78 0
-115 308 -50 116 0
-115 308 144 -78 0
-115 308 144 116 0
-116 -1 -15 -23 0
-116 -1 -15 81 0
-116 -1 89 -23 0
-116 -1 89 81 0
-116 171 -15 -23 0
-116 171 -15 81 0
-116 171 89 -23 0
-116 171 89 81 0
-116 -2 -25 -33 0
-116 -2 -25 91 0
-116 -2 99 -33 0
-116 -2 99 91 0
-116 216 -25 -33 0
-116 216 -25 91 0
-116 216 99 -33 0
-116 216 99 91 0
-116 -3 -34 -42 0
-116 -3 -34 100 0
-116 -3 108 -42 0
-116 -3 108 100 0
-116 252 -34 -42 0
-116 252 -34 100 0
-116 252 108 -42 0
-116 252 108 100 0
-116 -5 -43 -57 0
-116 -5 -43 109 0
-116 -5 123 -57 0
-116 -5 123 109 0
-116 287 -43 -57 0
-116 287 -43 109 0
-116 287 123 -57 0
-116 287 123 109 0
-116 -6 -44 -63 0
-116 -6 -44 110 0
-116 -6 129 -63 0
-116 -6 129 110 0
-116 293 -44 -63 0
-116 293 -44 110 0
-116 293 129 -63 0
-116 293 129 110 0
-116 -7 -45 -68 0
-116 -7 -45 111 0
-116 -7 134 -68 0
-116 -7 134 111 0
-116 298 -45 -68 0
-116 298 -45 111 0
-116 298 134 -68 0
-116 298 134 111 0
-116 -8 -46 -72 0
-116 -8 -46 112 0
-116 -8 138 -72 0
-116 -8 138 112 0
-116 302 -46 -72 0
-116 302 -46 112 0
-116 302 138 -72 0
-116 302 138 112 0
-116 -9 -47 -75 0
-116 -9 -47 113 0
-116 -9 141 -75 0
-116 -9 141 113 0
-116 305 -47 -75 0
-116 305 -47 113 0
-116 305 141 -75 0
-116 305 141 113 0
-116 -10 -48 -77 0
-116 -10 -48 114 0
-116 -10 143 -77 0
-116 -10 143 114 0
-116 307 -48 -77 0
-116 307 -48 114 0
-116 307 143 -77 0
-116 307 143 114 0
-116 -11 -49 -78 0
-116 -11 -49 115 0
-116 -11 144 -78 0
-116 -11 144 115 0
-116 308 -49 -78 0
-116 308 -49 115 0
-116 308 144 -78 0
-116 308 144 115 0
-117 -1 -16 -17 0
-117 -1 -16 82 0
-117 -1 83 -17 0
-117 -1 83 82 0
-117 172 -16 -17 0
-117 172 -16 82 0
-117 172 83 -17 0
-117 172 83 82 0
-117 -2 -26 -27 0
-117 -2 -26 92 0
-117 -2 93 -27 0
-117 -2 93 92 0
-117 217 -26 -27 0
-117 217 -26 92 0
-117 217 93 -27 0
-117 217 93 92 0
-117 -3 -35 -36 0
-117 -3 -35 101 0
-117 -3 102 -36 0
-117 -3 102 101 0
-117 253 -35 -36 0
-117 253 -35 101 0
-117 253 102 -36 0
-117 253 102 101 0
-117 -4 -43 -44 0
-117 -4 -43 109 0
-117 -4 110 -44 0
-117 -4 110 109 0
-117 281 -43 -44 0
-117 281 -43 109 0
-117 281 110 -44 0
-117 281 110 109 0
-117 -7 -52 -58 0
-117 -7 -52 118 0
-117 -7 124 -58 0
-117 -7 124 118 0
-117 309 -52 -58 0
-117 309 -52 118 0
-117 309 124 -58 0
-117 309 124 118 0
-117 -8 -53 -59 0
-117 -8 -53 119 0
-117 -8 125 -59 0
-117 -8 125 119 0
-117 310 -53 -59 0
-117 310 -53 119 0
-117 310 125 -59 0
-117 310 125 119 0
-117 -9 -54 -60 0
-117 -9 -54 120 0
-117 -9 126 -60 0
-117 -9 126 120 0
-117 311 -54 -60 0
-117 311 -54 120 0
-117 311 126 -60 0
-117 311 126 120 0
-117 -10 -55 -61 0
-117 -10 -55 121 0
-117 -10 127 -61 0
-117 -10 127 121 0
-117 312 -55 -61 0
-117 312 -55 121 0
-117 312 127 -61 0
-117 312 127 121 0
-117 -11 -56 -62 0
-117 -11 -56 122 0
-117 -11 128 -62 0
-117 -11 128 122 0
-117 313 -56 -62 0
-117 313 -56 122 0
-117 313 128 -62 0
-117 313 128 122 0
-117 -12 -57 -63 0
-117 -12 -57 123 0
-117 -12 129 -63 0
-117 -12 129 123 0
-117 314 -57 -63 0
-117 314 -57 123 0
-117 314 129 -63 0
-117 314 129 123 0
-118 -1 -16 -18 0
-118 -1 -16 82 0
-118 -1 84 -18 0
-118 -1 84 82 0
-118 173 -16 -18 0
-118 173 -16 82 0
-118 173 84 -18 0
-118 173 84 82 0
-118 -2 -26 -28 0
-118 -2 -26 92 0
-118 -2 94 -28 0
-118 -2 94 92 0
-118 218 -26 -28 0
-118 218 -26 92 0
-118 218 94 -28 0
-118 218 94 92 0
-118 -3 -35 -37 0
-118 -3 -35 101 0
-118 -3 103 -37 0
-118 -3 103 101 0
-118 254 -35 -37 0
-118 254 -35 101 0
-118 254 103 -37 0
-118 254 103 101 0
-118 -4 -43 -45 0
-118 -4 -43 109 0
-118 -4 111 -45 0
-118 -4 111 109 0
-118 282 -43 -45 0
-118 282 -43 109 0
-118 282 111 -45 0
-118 282 111 109 0
-118 -6 -51 -58 0
-118 -6 -51 117 0
-118 -6 124 -58 0
-118 -6 124 117 0
-118 309 -51 -58 0
-118 309 -51 117 0
-118 309 124 -58 0
-118 309 124 117 0
-118 -8 -53 -64 0
-118 -8 -53 119 0
-118 -8 130 -64 0
-118 -8 130 119 0
-118 315 -53 -64 0
-118 315 -53 119 0
-118 315 130 -64 0
-118 315 130 119 0
-118 -9 -54 -65 0
-118 -9 -54 120 0
-118 -9 131 -65 0
-118 -9 131 120 0
-118 316 -54 -65 0
-118 316 -54 120 0
-118 316 131 -65 0
-118 316 131 120 0
-118 -10 -55 -66 0
-118 -10 -55 121 0
-118 -10 132 -66 0
-118 -10 132 121 0
-118 317 -55 -66 0
-118 317 -55 121 0
-118 317 132 -66 0
-118 317 132 121 0
-118 -11 -56 -67 0
-118 -11 -56 122 0
-118 -11 133 -67 0
-118 -11 133 122 0
-118 318 -56 -67 0
-118 318 -56 122 0
-118 318 133 -67 0
-118 318 133 122 0
-118 -12 -57 -68 0
-118 -12 -57 123 0
-118 -12 134 -68 0
-118 -12 134 123 0
-118 319 -57 -68 0
-118 319 -57 123 0
-118 319 134 -68 0
-118 319 134 123 0
-119 -1 -16 -19 0
-119 -1 -16 82 0
-119 -1 85 -19 0
-119 -1 85 82 0
-119 174 -16 -19 0
-119 174 -16 82 0
-119 174 85 -19 0
-119 174 85 82 0
-119 -2 -26 -29 0
-119 -2 -26 92 0
-119 -2 95 -29 0
-119 -2 95 92 0
-119 219 -26 -29 0
-119 219 -26 92 0
-119 219 95 -29 0
-119 219 95 92 0
-119 -3 -35 -38 0
-119 -3 -35 101 0
-119 -3 104 -38 0
-119 -3 104 101 0
-119 255 -35 -38 0
-119 255 -35 101 0
-119 255 104 -38 0
-119 255 104 101 0
-119 -4 -43 -46 0
-119 -4 -43 109 0
-119 -4 112 -46 0
-119 -4 112 109 0
-119 283 -43 -46 0
-119 283 -43 109 0
-119 283 112 -46 0
-119 283 112 109 0
-119 -6 -51 -59 0
-119 -6 -51 117 0
-119 -6 125 -59 0
-119 -6 125 117 0
-119 310 -51 -59 0
-119 310 -51 117 0
-119 310 125 -59 0
-119 310 125 117 0
-119 -7 -52 -64 0
-119 -7 -52 118 0
-119 -7 130 -64 0
-119 -7 130 118 0
-119 315 -52 -64 0
-119 315 -52 118 0
-119 315 130 -64 0
-119 315 130 118 0
-119 -9 -54 -69 0
-119 -9 -54 120 0
-119 -9 135 -69 0
-119 -9 135 120 0
-119 320 -54 -69 0
-119 320 -54 120 0
-119 320 135 -69 0
-119 320 135 120 0
-119 -10 -55 -70 0
-119 -10 -55 121 0
-119 -10 136 -70 0
-119 -10 136 121 0
-119 321 -55 -70 0
-119 321 -55 121 0
-119 321 136 -70 0
-119 321 136 121 0
-119 -11 -56 -71 0
-119 -11 -56 122 0
-119 -11 137 -71 0
-119 -11 137 122 0
-119 322 -56 -71 0
-119 322 -56 122 0
-119 322 137 -71 0
-119 322 137 122 0
-119 -12 -57 -72 0
-119 -12 -57 123 0
-119 -12 138 -72 0
-119 -12 138 123 0
-119 323 -57 -72 0
-119 323 -57 123 0
-119 323 138 -72 0
-119 323 138 123 0
-120 -1 -16 -20 0
-120 -1 -16 82 0
-120 -1 86 -20 0
-120 -1 86 82 0
-120 175 -16 -20 0
-120 175 -16 82 0
-120 175 86 -20 0
-120 175 86 82 0
-120 -2 -26 -30 0
-120 -2 -26 92 0
-120 -2 96 -30 0
-120 -2 96 92 0
-120 220 -26 -30 0
-120 220 -26 92 0
-120 220 96 -30 0
-120 220 96 92 0
-120 -3 -35 -39 0
-120 -3 -35 101 0
-120 -3 105 -39 0
-120 -3 105 101 0
-120 256 -35 -39 0
-120 256 -35 101 0
-120 256 105 -39 0
-120 256 105 101 0
-120 -4 -43 -47 0
-120 -4 -43 109 0
-120 -4 113 -47 0
-120 -4 113 109 0
-120 284 -43 -47 0
-120 284 -43 109 0
-120 284 113 -47 0
-120 284 113 109 0
-120 -6 -51 -60 0
-120 -6 -51 117 0
-120 -6 126 -60 0
-120 -6 126 117 0
-120 311 -51 -60 0
-120 311 -51 117 0
-120 311 126 -60 0
-120 311 126 117 0
-120 -7 -52 -65 0
-120 -7 -52 118 0
-120 -7 131 -65 0
-120 -7 131 118 0
-120 316 -52 -65 0
-120 316 -52 118 0
-120 316 131 -65 0
-120 316 131 118 0
-120 -8 -53 -69 0
-120 -8 -53 119 0
-120 -8 135 -69 0
-120 -8 135 119 0
-120 320 -53 -69 0
-120 320 -53 119 0
-120 320 135 -69 0
-120 320 135 119 0
-120 -10 -55 -73 0
-120 -10 -55 121 0
-120 -10 139 -73 0
-120 -10 139 121 0
-120 324 -55 -73 0
-120 324 -55 121 0
-120 324 139 -73 0
-120 324 139 121 0
-120 -11 -56 -74 0
-120 -11 -56 122 0
-120 -11 140 -74 0
-120 -11 140 122 0
-120 325 -56 -74 0
-120 325 -56 122 0
-120 325 140 -74 0
-120 325 140 122 0
-120 -12 -57 -75 0
-120 -12 -57 123 0
-120 -12 141 -75 0
-120 -12 141 123 0
-120 326 -57 -75 0
-120 326 -57 123 0
-120 326 141 -75 0
-120 326 141 123 0
-121 -1 -16 -21 0
-121 -1 -16 82 0
-121 -1 87 -21 0
-121 -1 87 82 0
-121 176 -16 -21 0
-121 176 -16 82 0
-121 176 87 -21 0
-121 176 87 82 0
-121 -2 -26 -31 0
-121 -2 -26 92 0
-121 -2 97 -31 0
-121 -2 97 92 0
-121 221 -26 -31 0
-121 221 -26 92 0
-121 221 97 -31 0
-121 221 97 92 0
-121 -3 -35 -40 0
-121 -3 -35 101 0
-121 -3 106 -40 0
-121 -3 106 101 0
-121 257 -35 -40 0
-121 257 -35 101 0
-121 257 106 -40 0
-121 257 106 101 0
-121 -4 -43 -48 0
-121 -4 -43 109 0
-121 -4 114 -48 0
-121 -4 114 109 0
-121 285 -43 -48 0
-121 285 -43 109 0
-121 285 114 -48 0
-121 285 114 109 0
-121 -6 -51 -61 0
-121 -6 -51 117 0
-121 -6 127 -61 0
-121 -6 127 117 0
-121 312 -51 -61 0
-121 312 -51 117 0
-121 312 127 -61 0
-121 312 127 117 0
-121 -7 -52 -66 0
-121 -7 -52 118 0
-121 -7 132 -66 0
-121 -7 132 118 0
-121 317 -52 -66 0
-121 317 -52 118 0
-121 317 132 -66 0
-121 317 132 118 0
-121 -8 -53 -70 0
-121 -8 -53 119 0
-121 -8 136 -70 0
-121 -8 136 119 0
-121 321 -53 -70 0
-121 321 -53 119 0
-121 321 136 -70 0
-121 321 136 119 0
-121 -9 -54 -73 0
-121 -9 -54 120 0
-121 -9 139 -73 0
-121 -9 139 120 0
-121 324 -54 -73 0
-121 324 -54 120 0
-121 324 139 -73 0
-121 324 139 120 0
-121 -11 -56 -76 0
-121 -11 -56 122 0
-121 -11 142 -76 0
-121 -11 142 122 0
-121 327 -56 -76 0
-121 327 -56 122 0
-121 327 142 -76 0
-121 327 142 122 0
-121 -12 -57 -77 0
-121 -12 -57 123 0
-121 -12 143 -77 0
-121 -12 143 123 0
-121 328 -57 -77 0
-121 328 -57 123 0
-121 328 143 -77 0
-121 328 143 123 0
-122 -1 -16 -22 0
-122 -1 -16 82 0
-122 -1 88 -22 0
-122 -1 88 82 0
-122 177 -16 -22 0
-122 177 -16 82 0
-122 177 88 -22 0
-122 177 88 82 0
-122 -2 -26 -32 0
-122 -2 -26 92 0
-122 -2 98 -32 0
-122 -2 98 92 0
-122 222 -26 -32 0
-122 222 -26 92 0
-122 222 98 -32 0
-122 222 98 92 0
-122 -3 -35 -41 0
-122 -3 -35 101 0
-122 -3 107 -41 0
-122 -3 107 101 0
-122 258 -35 -41 0
-122 258 -35 101 0
-122 258 107 -41 0
-122 258 107 101 0
-122 -4 -43 -49 0
-122 -4 -43 109 0
-122 -4 115 -49 0
-122 -4 115 109 0
-122 286 -43 -49 0
-122 286 -43 109 0
-122 286 115 -49 0
-122 286 115 109 0
-122 -6 -51 -62 0
-122 -6 -51 117 0
-122 -6 128 -62 0
-122 -6 128 117 0
-122 313 -51 -62 0
-122 313 -51 117 0
-122 313 128 -62 0
-122 313 128 117 0
-122 -7 -52 -67 0
-122 -7 -52 118 0
-122 -7 133 -67 0
-122 -7 133 118 0
-122 318 -52 -67 0
-122 318 -52 118 0
-122 318 133 -67 0
-122 318 133 118 0
-122 -8 -53 -71 0
-122 -8 -53 119 0
-122 -8 137 -71 0
-122 -8 137 119 0
-122 322 -53 -71 0
-122 322 -53 119 0
-122 322 137 -71 0
-122 322 137 119 0
-122 -9 -54 -74 0
-122 -9 -54 120 0
-122 -9 140 -74 0
-122 -9 140 120 0
-122 325 -54 -74 0
-122 325 -54 120 0
-122 325 140 -74 0
-122 325 140 120 0
-122 -10 -55 -76 0
-122 -10 -55 121 0
-122 -10 142 -76 0
-122 -10 142 121 0
-122 327 -55 -76 0
-122 327 -55 121 0
-122 327 142 -76 0
-122 327 142 121 0
-122 -12 -57 -78 0
-122 -12 -57 123 0
-122 -12 144 -78 0
-122 -12 144 123 0
-122 329 -57 -78 0
-122 329 -57 123 0
-122 329 144 -78 0
-122 329 144 123 0
-123 -1 -16 -23 0
-123 -1 -16 82 0
-123 -1 89 -23 0
-123 -1 89 82 0
-123 178 -16 -23 0
-123 178 -16 82 0
-123 178 89 -23 0
-123 178 89 82 0
-123 -2 -26 -33 0
-123 -2 -26 92 0
-123 -2 99 -33 0
-123 -2 99 92 0
-123 223 -26 -33 0
-123 223 -26 92 0
-123 223 99 -33 0
-123 223 99 92 0
-123 -3 -35 -42 0
-123 -3 -35 101 0
-123 -3 108 -42 0
-123 -3 108 101 0
-123 259 -35 -42 0
-123 259 -35 101 0
-123 259 108 -42 0
-123 259 108 101 0
-123 -4 -43 -50 0
-123 -4 -43 109 0
-123 -4 116 -50 0
-123 -4 116 109 0
-123 287 -43 -50 0
-123 287 -43 109 0
-123 287 116 -50 0
-123 287 116 109 0
-123 -6 -51 -63 0
-123 -6 -51 117 0
-123 -6 129 -63 0
-123 -6 129 117 0
-123 314 -51 -63 0
-123 314 -51 117 0
-123 314 129 -63 0
-123 314 129 117 0
-123 -7 -52 -68 0
-123 -7 -52 118 0
-123 -7 134 -68 0
-123 -7 134 118 0
-123 319 -52 -68 0
-123 319 -52 118 0
-123 319 134 -68 0
-123 319 134 118 0
-123 -8 -53 -72 0
-123 -8 -53 119 0
-123 -8 138 -72 0
-123 -8 138 119 0
-123 323 -53 -72 0
-123 323 -53 119 0
-123 323 138 -72 0
-123 323 138 119 0
-123 -9 -54 -75 0
-123 -9 -54 120 0
-123 -9 141 -75 0
-123 -9 141 120 0
-123 326 -54 -75 0
-123 326 -54 120 0
-123 326 141 -75 0
-123 326 141 120 0
-123 -10 -55 -77 0
-123 -10 -55 121 0
-123 -10 143 -77 0
-123 -10 143 121 0
-123 328 -55 -77 0
-123 328 -55 121 0
-123 328 143 -77 0
-123 328 143 121 0
-123 -11 -56 -78 0
-123 -11 -56 122 0
-123 -11 144 -78 0
-123 -11 144 122 0
-123 329 -56 -78 0
-123 329 -56 122 0
-123 329 144 -78 0
-123 329 144 122 0
-124 -1 -17 -18 0
-124 -1 -17 83 0
-124 -1 84 -18 0
-124 -1 84 83 0
-124 179 -17 -18 0
-124 179 -17 83 0
-124 179 84 -18 0
-124 179 84 83 0
-124 -2 -27 -28 0
-124 -2 -27 93 0
-124 -2 94 -28 0
-124 -2 94 93 0
-124 224 -27 -28 0
-124 224 -27 93 0
-124 224 94 -28 0
-124 224 94 93 0
-124 -3 -36 -37 0
-124 -3 -36 102 0
-124 -3 103 -37 0
-124 -3 103 102 0
-124 260 -36 -37 0
-124 260 -36 102 0
-124 260 103 -37 0
-124 260 103 102 0
-124 -4 -44 -45 0
-124 -4 -44 110 0
-124 -4 111 -45 0
-124 -4 111 110 0
-124 288 -44 -45 0
-124 288 -44 110 0
-124 288 111 -45 0
-124 288 111 110 0
-124 -5 -51 -52 0
-124 -5 -51 117 0
-124 -5 118 -52 0
-124 -5 118 117 0
-124 309 -51 -52 0
-124 309 -51 117 0
-124 309 118 -52 0
-124 309 118 117 0
-124 -8 -59 -64 0
-124 -8 -59 125 0
-124 -8 130 -64 0
-124 -8 130 125 0
-124 330 -59 -64 0
-124 330 -59 125 0
-124 330 130 -64 0
-124 330 130 125 0
-124 -9 -60 -65 0
-124 -9 -60 126 0
-124 -9 131 -65 0
-124 -9 131 126 0
-124 331 -60 -65 0
-124 331 -60 126 0
-124 331 131 -65 0
-124 331 131 126 0
-124 -10 -61 -66 0
-124 -10 -61 127 0
-124 -10 132 -66 0
-124 -10 132 127 0
-124 332 -61 -66 0
-124 332 -61 127 0
-124 332 132 -66 0
-124 332 132 127 0
-124 -11 -62 -67 0
-124 -11 -62 128 0
-124 -11 133 -67 0
-124 -11 133 128 0
-124 333 -62 -67 0
-124 333 -62 128 0
-124 333 133 -67 0
-124 333 133 128 0
-124 -12 -63 -68 0
-124 -12 -63 129 0
-124 -12 134 -68 0
-124 -12 134 129 0
-124 334 -63 -68 0
-124 334 -63 129 0
-124 334 134 -68 0
-124 334 134 129 0
-125 -1 -17 -19 0
-125 -1 -17 83 0
-125 -1 85 -19 0
-125 -1 85 83 0
-125 180 -17 -19 0
-125 180 -17 83 0
-125 180 85 -19 0
-125 180 85 83 0
-125 -2 -27 -29 0
-125 -2 -27 93 0
-125 -2 95 -29 0
-125 -2 95 93 0
-125 225 -27 -29 0
-125 225 -27 93 0
-125 225 95 -29 0
-125 225 95 93 0
-125 -3 -36 -38 0
-125 -3 -36 102 0
-125 -3 104 -38 0
-125 -3 104 102 0
-125 261 -36 -38 0
-125 261 -36 102 0
-125 261 104 -38 0
-125 261 104 102 0
-125 -4 -44 -46 0
-125 -4 -44 110 0
-125 -4 112 -46 0
-125 -4 112 110 0
-125 289 -44 -46 0
-125 289 -44 110 0
-125 289 112 -46 0
-125 289 112 110 0
-125 -5 -51 -53 0
-125 -5 -51 117 0
-125 -5 119 -53 0
-125 -5 119 117 0
-125 310 -51 -53 0
-125 310 -51 117 0
-125 310 119 -53 0
-125 310 119 117 0
-125 -7 -58 -64 0
-125 -7 -58 124 0
-125 -7 130 -64 0
-125 -7 130 124 0
-125 330 -58 -64 0
-125 330 -58 124 0
-125 330 130 -64 0
-125 330 130 124 0
-125 -9 -60 -69 0
-125 -9 -60 126 0
-125 -9 135 -69 0
-125 -9 135 126 0
-125 335 -60 -69 0
-125 335 -60 126 0
-125 335 135 -69 0
-125 335 135 126 0
-125 -10 -61 -70 0
-125 -10 -61 127 0
-125 -10 136 -70 0
-125 -10 136 127 0
-125 336 -61 -70 0
-125 336 -61 127 0
-125 336 136 -70 0
-125 336 136 127 0
-125 -11 -62 -71 0
-125 -11 -62 128 0
-125 -11 137 -71 0
-125 -11 137 128 0
-125 337 -62 -71 0
-125 337 -62 128 0
-125 337 137 -71 0
-125 337 137 128 0
-125 -12 -63 -72 0
-125 -12 -63 129 0
-125 -12 138 -72 0
-125 -12 138 129 0
-125 338 -63 -72 0
-125 338 -63 129 0
-125 338 138 -72 0
-125 338 138 129 0
-126 -1 -17 -20 0
-126 -1 -17 83 0
-126 -1 86 -20 0
-126 -1 86 83 0
-126 181 -17 -20 0
-126 181 -17 83 0
-126 181 86 -20 0
-126 181 86 83 0
-126 -2 -27 -30 0
-126 -2 -27 93 0
-126 -2 96 -30 0
-126 -2 96 93 0
-126 226 -27 -30 0
-126 226 -27 93 0
-126 226 96 -30 0
-126 226 96 93 0
-126 -3 -36 -39 0
-126 -3 -36 102 0
-126 -3 105 -39 0
-126 -3 105 102 0
-126 262 -36 -39 0
-126 262 -36 102 0
-126 262 105 -39 0
-126 262 105 102 0
-126 -4 -44 -47 0
-126 -4 -44 110 0
-126 -4 113 -47 0
-126 -4 113 110 0
-126 290 -44 -47 0
-126 290 -44 110 0
-126 290 113 -47 0
-126 290 113 110 0
-126 -5 -51 -54 0
-126 -5 -51 117 0
-126 -5 120 -54 0
-126 -5 120 117 0
-126 311 -51 -54 0
-126 311 -51 117 0
-126 311 120 -54 0
-126 311 120 117 0
-126 -7 -58 -65 0
-126 -7 -58 124 0
-126 -7 131 -65 0
-126 -7 131 124 0
-126 331 -58 -65 0
-126 331 -58 124 0
-126 331 131 -65 0
-126 331 131 124 0
-126 -8 -59 -69 0
-126 -8 -59 125 0
-126 -8 135 -69 0
-126 -8 135 125 0
-126 335 -59 -69 0
-126 335 -59 125 0
-126 335 135 -69 0
-126 335 135 125 0
-126 -10 -61 -73 0
-126 -10 -61 127 0
-126 -10 139 -73 0
-126 -10 139 127 0
-126 339 -61 -73 0
-126 339 -61 127 0
-126 339 139 -73 0
-126 339 139 127 0
-126 -11 -62 -74 0
-126 -11 -62 128 0
-126 -11 140 -74 0
-126 -11 140 128 0
-126 340 -62 -74 0
-126 340 -62 128 0
-126 340 140 -74 0
-126 340 140 128 0
-126 -12 -63 -75 0
-126 -12 -63 129 0
-126 -12 141 -75 0
-126 -12 141 129 0
-126 341 -63 -75 0
-126 341 -63 129 0
-126 341 141 -75 0
-126 341 141 129 0
-127 -1 -17 -21 0
-127 -1 -17 83 0
-127 -1 87 -21 0
-127 -1 87 83 0
-127 182 -17 -21 0
-127 182 -17 83 0
-127 182 87 -21 0
-127 182 87 83 0
-127 -2 -27 -31 0
-127 -2 -27 93 0
-127 -2 97 -31 0
-127 -2 97 93 0
-127 227 -27 -31 0
-127 227 -27 93 0
-127 227 97 -31 0
-127 227 97 93 0
-127 -3 -36 -40 0
-127 -3 -36 102 0
-127 -3 106 -40 0
-127 -3 106 102 0
-127 263 -36 -40 0
-127 263 -36 102 0
-127 263 106 -40 0
-127 263 106 102 0
-127 -4 -44 -48 0
-127 -4 -44 110 0
-127 -4 114 -48 0
-127 -4 114 110 0
-127 291 -44 -48 0
-127 291 -44 110 0
-127 291 114 -48 0
-127 291 114 110 0
-127 -5 -51 -55 0
-127 -5 -51 117 0
-127 -5 121 -55 0
-127 -5 121 117 0
-127 312 -51 -55 0
-127 312 -51 117 0
-127 312 121 -55 0
-127 312 121 117 0
-127 -7 -58 -66 0
-127 -7 -58 124 0
-127 -7 132 -66 0
-127 -7 132 124 0
-127 332 -58 -66 0
-127 332 -58 124 0
-127 332 132 -66 0
-127 332 132 124 0
-127 -8 -59 -70 0
-127 -8 -59 125 0
-127 -8 136 -70 0
-127 -8 136 125 0
-127 336 -59 -70 0
-127 336 -59 125 0
-127 336 136 -70 0
-127 336 136 125 0
-127 -9 -60 -73 0
-127 -9 -60 126 0
-127 -9 139 -73 0
-127 -9 139 126 0
-127 339 -60 -73 0
-127 339 -60 126 0
-127 339 139 -73 0
-127 339 139 126 0
-127 -11 -62 -76 0
-127 -11 -62 128 0
-127 -11 142 -76 0
-127 -11 142 128 0
-127 342 -62 -76 0
-127 342 -62 128 0
-127 342 142 -76 0
-127 342 142 128 0
-127 -12 -63 -77 0
-127 -12 -63 129 0
-127 -12 143 -77 0
-127 -12 143 129 0
-127 343 -63 -77 0
-127 343 -63 129 0
-127 343 143 -77 0
-127 343 143 129 0
-128 -1 -17 -22 0
-128 -1 -17 83 0
-128 -1 88 -22 0
-128 -1 88 83 0
-128 183 -17 -22 0
-128 183 -17 83 0
-128 183 88 -22 0
-128 183 88 83 0
-128 -2 -27 -32 0
-128 -2 -27 93 0
-128 -2 98 -32 0
-128 -2 98 93 0
-128 228 -27 -32 0
-128 228 -27 93 0
-128 228 98 -32 0
-128 228 98 93 0
-128 -3 -36 -41 0
-128 -3 -36 102 0
-128 -3 107 -41 0
-128 -3 107 102 0
-128 264 -36 -41 0
-128 264 -36 102 0
-128 264 107 -41 0
-128 264 107 102 0
-128 -4 -44 -49 0
-128 -4 -44 110 0
-128 -4 115 -49 0
-128 -4 115 110 0
-128 292 -44 -49 0
-128 292 -44 110 0
-128 292 115 -49 0
-128 292 115 110 0
-128 -5 -51 -56 0
-128 -5 -51 117 0
-128 -5 122 -56 0
-128 -5 122 117 0
-128 313 -51 -56 0
-128 313 -51 117 0
-128 313 122 -56 0
-128 313 122 117 0
-128 -7 -58 -67 0
-128 -7 -58 124 0
-128 -7 133 -67 0
-128 -7 133 124 0
-128 333 -58 -67 0
-128 333 -58 124 0
-128 333 133 -67 0
-128 333 133 124 0
-128 -8 -59 -71 0
-128 -8 -59 125 0
-128 -8 137 -71 0
-128 -8 137 125 0
-128 337 -59 -71 0
-128 337 -59 125 0
-128 337 137 -71 0
-128 337 137 125 0
-128 -9 -60 -74 0
-128 -9 -60 126 0
-128 -9 140 -74 0
-128 -9 140 126 0
-128 340 -60 -74 0
-128 340 -60 126 0
-128 340 140 -74 0
-128 340 140 126 0
-128 -10 -61 -76 0
-128 -10 -61 127 0
-128 -10 142 -76 0
-128 -10 142 127 0
-128 342 -61 -76 0
-128 342 -61 127 0
-128 342 142 -76 0
-128 342 142 127 0
-128 -12 -63 -78 0
-128 -12 -63 129 0
-128 -12 144 -78 0
-128 -12 144 129 0
-128 344 -63 -78 0
-128 344 -63 129 0
-128 344 144 -78 0
-128 344 144 129 0
-129 -1 -17 -23 0
-129 -1 -17 83 0
-129 -1 89 -23 0
-129 -1 89 83 0
-129 184 -17 -23 0
-129 184 -17 83 0
-129 184 89 -23 0
-129 184 89 83 0
-129 -2 -27 -33 0
-129 -2 -27 93 0
-129 -2 99 -33 0
-129 -2 99 93 0
-129 229 -27 -33 0
-129 229 -27 93 0
-129 229 99 -33 0
-129 229 99 93 0
-129 -3 -36 -42 0
-129 -3 -36 102 0
-129 -3 108 -42 0
-129 -3 108 102 0
-129 265 -36 -42 0
-129 265 -36 102 0
-129 265 108 -42 0
-129 265 108 102 0
-129 -4 -44 -50 0
-129 -4 -44 110 0
-129 -4 116 -50 0
-129 -4 116 110 0
-129 293 -44 -50 0
-129 293 -44 110 0
-129 293 116 -50 0
-129 293 116 110 0
-129 -5 -51 -57 0
-129 -5 -51 117 0
-129 -5 123 -57 0
-129 -5 123 117 0
-129 314 -51 -57 0
-129 314 -51 117 0
-129 314 123 -57 0
-129 314 123 117 0
-129 -7 -58 -68 0
-129 -7 -58 124 0
-129 -7 134 -68 0
-129 -7 134 124 0
-129 334 -58 -68 0
-129 334 -58 124 0
-129 334 134 -68 0
-129 334 134 124 0
-129 -8 -59 -72 0
-129 -8 -59 125 0
-129 -8 138 -72 0
-129 -8 138 125 0
-129 338 -59 -72 0
-129 338 -59 125 0
-129 338 138 -72 0
-129 338 138 125 0
-129 -9 -60 -75 0
-129 -9 -60 126 0
-129 -9 141 -75 0
-129 -9 141 126 0
-129 341 -60 -75 0
-129 341 -60 126 0
-129 341 141 -75 0
-129 341 141 126 0
-129 -10 -61 -77 0
-129 -10 -61 127 0
-129 -10 143 -77 0
-129 -10 143 127 0
-129 343 -61 -77 0
-129 343 -61 127 0
-129 343 143 -77 0
-129 343 143 127 0
-129 -11 -62 -78 0
-129 -11 -62 128 0
-129 -11 144 -78 0
-129 -11 144 128 0
-129 344 -62 -78 0
-129 344 -62 128 0
-129 344 144 -78 0
-129 344 144 128 0
-130 -1 -18 -19 0
-130 -1 -18 84 0
-130 -1 85 -19 0
-130 -1 85 84 0
-130 185 -18 -19 0
-130 185 -18 84 0
-130 185 85 -19 0
-130 185 85 84 0
-130 -2 -28 -29 0
-130 -2 -28 94 0
-130 -2 95 -29 0
-130 -2 95 94 0
-130 230 -28 -29 0
-130 230 -28 94 0
-130 230 95 -29 0
-130 230 95 94 0
-130 -3 -37 -38 0
-130 -3 -37 103 0
-130 -3 104 -38 0
-130 -3 104 103 0
-130 266 -37 -38 0
-130 266 -37 103 0
-130 266 104 -38 0
-130 266 104 103 0
-130 -4 -45 -46 0
-130 -4 -45 111 0
-130 -4 112 -46 0
-130 -4 112 111 0
-130 294 -45 -46 0
-130 294 -45 111 0
-130 294 112 -46 0
-130 294 112 111 0
-130 -5 -52 -53 0
-130 -5 -52 118 0
-130 -5 119 -53 0
-130 -5 119 118 0
-130 315 -52 -53 0
-130 315 -52 118 0
-130 315 119 -53 0
-130 315 119 118 0
-130 -6 -58 -59 0
-130 -6 -58 124 0
-130 -6 125 -59 0
-130 -6 125 124 0
-130 330 -58 -59 0
-130 330 -58 124 0
-130 330 125 -59 0
-130 330 125 124 0
-130 -9 -65 -69 0
-130 -9 -65 131 0
-130 -9 135 -69 0
-130 -9 135 131 0
-130 345 -65 -69 0
-130 345 -65 131 0
-130 345 135 -69 0
-130 345 135 131 0
-130 -10 -66 -70 0
-130 -10 -66 132 0
-130 -10 136 -70 0
-130 -10 136 132 0
-130 346 -66 -70 0
-130 346 -66 132 0
-130 346 136 -70 0
-130 346 136 132 0
-130 -11 -67 -71 0
-130 -11 -67 133 0
-130 -11 137 -71 0
-130 -11 137 133 0
-130 347 -67 -71 0
-130 347 -67 133 0
-130 347 137 -71 0
-130 347 137 133 0
-130 -12 -68 -72 0
-130 -12 -68 134 0
-130 -12 138 -72 0
-130 -12 138 134 0
-130 348 -68 -72 0
-130 348 -68 134 0
-130 348 138 -72 0
-130 348 138 134 0
-131 -1 -18 -20 0
-131 -1 -18 84 0
-131 -1 86 -20 0
-131 -1 86 84 0
-131 186 -18 -20 0
-131 186 -18 84 0
-131 186 86 -20 0
-131 186 86 84 0
-131 -2 -28 -30 0
-131 -2 -28 94 0
-131 -2 96 -30 0
-131 -2 96 94 0
-131 231 -28 -30 0
-131 231 -28 94 0
-131 231 96 -30 0
-131 231 96 94 0
-131 -3 -37 -39 0
-131 -3 -37 103 0
-131 -3 105 -39 0
-131 -3 105 103 0
-131 267 -37 -39 0
-131 267 -37 103 0
-131 267 105 -39 0
-131 267 105 103 0
-131 -4 -45 -47 0
-131 -4 -45 111 0
-131 -4 113 -47 0
-131 -4 113 111 0
-131 295 -45 -47 0
-131 295 -45 111 0
-131 295 113 -47 0
-131 295 113 111 0
-131 -5 -52 -54 0
-131 -5 -52 118 0
-131 -5 120 -54 0
-131 -5 120 118 0
-131 316 -52 -54 0
-131 316 -52 118 0
-131 316 120 -54 0
-131 316 120 118 0
-131 -6 -58 -60 0
-131 -6 -58 124 0
-131 -6 126 -60 0
-131 -6 126 124 0
-131 331 -58 -60 0
-131 331 -58 124 0
-131 331 126 -60 0
-131 331 126 124 0
-131 -8 -64 -69 0
-131 -8 -64 130 0
-131 -8 135 -69 0
-131 -8 135 130 0
-131 345 -64 -69 0
-131 345 -64 130 0
-131 345 135 -69 0
-131 345 135 130 0
-131 -10 -66 -73 0
-131 -10 -66 132 0
-131 -10 139 -73 0
-131 -10 139 132 0
-131 349 -66 -73 0
-131 349 -66 132 0
-131 349 139 -73 0
-131 349 139 132 0
-131 -11 -67 -74 0
-131 -11 -67 133 0
-131 -11 140 -74 0
-131 -11 140 133 0
-131 350 -67 -74 0
-131 350 -67 133 0
-131 350 140 -74 0
-131 350 140 133 0
-131 -12 -68 -75 0
-131 -12 -68 134 0
-131 -12 141 -75 0
-131 -12 141 134 0
-131 351 -68 -75 0
-131 351 -68 134 0
-131 351 141 -75 0
-131 351 141 134 0
-132 -1 -18 -21 0
-132 -1 -18 84 0
-132 -1 87 -21 0
-132 -1 87 84 0
-132 187 -18 -21 0
-132 187 -18 84 0
-132 187 87 -21 0
-132 187 87 84 0
-132 -2 -28 -31 0
-132 -2 -28 94 0
-132 -2 97 -31 0
-132 -2 97 94 0
-132 232 -28 -31 0
-132 232 -28 94 0
-132 232 97 -31 0
-132 232 97 94 0
-132 -3 -37 -40 0
-132 -3 -37 103 0
-132 -3 106 -40 0
-132 -3 106 103 0
-132 268 -37 -40 0
-132 268 -37 103 0
-132 268 106 -40 0
-132 268 106 103 0
-132 -4 -45 -48 0
-132 -4 -45 111 0
-132 -4 114 -48 0
-132 -4 114 111 0
-132 296 -45 -48 0
-132 296 -45 111 0
-132 296 114 -48 0
-132 296 114 111 0
-132 -5 -52 -55 0
-132 -5 -52 118 0
-132 -5 121 -55 0
-132 -5 121 118 0
-132 317 -52 -55 0
-132 317 -52 118 0
-132 317 121 -55 0
-132 317 121 118 0
-132 -6 -58 -61 0
-132 -6 -58 124 0
-132 -6 127 -61 0
-132 -6 127 124 0
-132 332 -58 -61 0
-132 332 -58 124 0
-132 332 127 -61 0
-132 332 127 124 0
-132 -8 -64 -70 0
-132 -8 -64 130 0
-132 -8 136 -70 0
-132 -8 136 130 0
-132 346 -64 -70 0
-132 346 -64 130 0
-132 346 136 -70 0
-132 346 136 130 0
-132 -9 -65 -73 0
-132 -9 -65 131 0
-132 -9 139 -73 0
-132 -9 139 131 0
-132 349 -65 -73 0
-132 349 -65 131 0
-132 349 139 -73 0
-132 349 139 131 0
-132 -11 -67 -76 0
-132 -11 -67 133 0
-132 -11 142 -76 0
-132 -11 142 133 0
-132 352 -67 -76 0
-132 352 -67 133 0
-132 352 142 -76 0
-132 352 142 133 0
-132 -12 -68 -77 0
-132 -12 -68 134 0
-132 -12 143 -77 0
-132 -12 143 134 0
-132 353 -68 -77 0
-132 353 -68 134 0
-132 353 143 -77 0
-132 353 143 134 0
-133 -1 -18 -22 0
-133 -1 -18 84 0
-133 -1 88 -22 0
-133 -1 88 84 0
-133 188 -18 -22 0
-133 188 -18 84 0
-133 188 88 -22 0
-133 188 88 84 0
-133 -2 -28 -32 0
-133 -2 -28 94 0
-133 -2 98 -32 0
-133 -2 98 94 0
-133 233 -28 -32 0
-133 233 -28 94 0
-133 233 98 -32 0
-133 233 98 94 0
-133 -3 -37 -41 0
-133 -3 -37 103 0
-133 -3 107 -41 0
-133 -3 107 103 0
-133 269 -37 -41 0
-133 269 -37 103 0
-133 269 107 -41 0
-133 269 107 103 0
-133 -4 -45 -49 0
-133 -4 -45 111 0
-133 -4 115 -49 0
-133 -4 115 111 0
-133 297 -45 -49 0
-133 297 -45 111 0
-133 297 115 -49 0
-133 297 115 111 0
-133 -5 -52 -56 0
-133 -5 -52 118 0
-133 -5 122 -56 0
-133 -5 122 118 0
-133 318 -52 -56 0
-133 318 -52 118 0
-133 318 122 -56 0
-133 318 122 118 0
-133 -6 -58 -62 0
-133 -6 -58 124 0
-133 -6 128 -62 0
-133 -6 128 124 0
-133 333 -58 -62 0
-133 333 -58 124 0
-133 333 128 -62 0
-133 333 128 124 0
-133 -8 -64 -71 0
-133 -8 -64 130 0
-133 -8 137 -71 0
-133 -8 137 130 0
-133 347 -64 -71 0
-133 347 -64 130 0
-133 347 137 -71 0
-133 347 137 130 0
-133 -9 -65 -74 0
-133 -9 -65 131 0
-133 -9 140 -74 0
-133 -9 140 131 0
-133 350 -65 -74 0
-133 350 -65 131 0
-133 350 140 -74 0
-133 350 140 131 0
-133 -10 -66 -76 0
-133 -10 -66 132 0
-133 -10 142 -76 0
-133 -10 142 132 0
-133 352 -66 -76 0
-133 352 -66 132 0
-133 352 142 -76 0
-133 352 142 132 0
-133 -12 -68 -78 0
-133 -12 -68 134 0
-133 -12 144 -78 0
-133 -12 144 134 0
-133 354 -68 -78 0
-133 354 -68 134 0
-133 354 144 -78 0
-133 354 144 134 0
-134 -1 -18 -23 0
-134 -1 -18 84 0
-134 -1 89 -23 0
-134 -1 89 84 0
-134 189 -18 -23 0
-134 189 -18 84 0
-134 189 89 -23 0
-134 189 89 84 0
-134 -2 -28 -33 0
-134 -2 -28 94 0
-134 -2 99 -33 0
-134 -2 99 94 0
-134 234 -28 -33 0
-134 234 -28 94 0
-134 234 99 -33 0
-134 234 99 94 0
-134 -3 -37 -42 0
-134 -3 -37 103 0
-134 -3 108 -42 0
-134 -3 108 103 0
-134 270 -37 -42 0
-134 270 -37 103 0
-134 270 108 -42 0
-134 270 108 103 0
-134 -4 -45 -50 0
-134 -4 -45 111 0
-134 -4 116 -50 0
-134 -4 116 111 0
-134 298 -45 -50 0
-134 298 -45 111 0
-134 298 116 -50 0
-134 298 116 111 0
-134 -5 -52 -57 0
-134 -5 -52 118 0
-134 -5 123 -57 0
-134 -5 123 118 0
-134 319 -52 -57 0
-134 319 -52 118 0
-134 319 123 -57 0
-134 319 123 118 0
-134 -6 -58 -63 0
-134 -6 -58 124 0
-134 -6 129 -63 0
-134 -6 129 124 0
-134 334 -58 -63 0
-134 334 -58 124 0
-134 334 129 -63 0
-134 334 129 124 0
-134 -8 -64 -72 0
-134 -8 -64 130 0
-134 -8 138 -72 0
-134 -8 138 130 0
-134 348 -64 -72 0
-134 348 -64 130 0
-134 348 138 -72 0
-134 348 138 130 0
-134 -9 -65 -75 0
-134 -9 -65 131 0
-134 -9 141 -75 0
-134 -9 141 131 0
-134 351 -65 -75 0
-134 351 -65 131 0
-134 351 141 -75 0
-134 351 141 131 0
-134 -10 -66 -77 0
-134 -10 -66 132 0
-134 -10 143 -77 0
-134 -10 143 132 0
-134 353 -66 -77 0
-134 353 -66 132 0
-134 353 143 -77 0
-134 353 143 132 0
-134 -11 -67 -78 0
-134 -11 -67 133 0
-134 -11 144 -78 0
-134 -11 144 133 0
-134 354 -67 -78 0
-134 354 -67 133 0
-134 354 144 -78 0
-134 354 144 133 0
-135 -1 -19 -20 0
-135 -1 -19 85 0
-135 -1 86 -20 0
-135 -1 86 85 0
-135 190 -19 -20 0
-135 190 -19 85 0
-135 190 86 -20 0
-135 190 86 85 0
-135 -2 -29 -30 0
-135 -2 -29 95 0
-135 -2 96 -30 0
-135 -2 96 95 0
-135 235 -29 -30 0
-135 235 -29 95 0
-135 235 96 -30 0
-135 235 96 95 0
-135 -3 -38 -39 0
-135 -3 -38 104 0
-135 -3 105 -39 0
-135 -3 105 104 0
-135 271 -38 -39 0
-135 271 -38 104 0
-135 271 105 -39 0
-135 271 105 104 0
-135 -4 -46 -47 0
-135 -4 -46 112 0
-135 -4 113 -47 0
-135 -4 113 112 0
-135 299 -46 -47 0
-135 299 -46 112 0
-135 299 113 -47 0
-135 299 113 112 0
-135 -5 -53 -54 0
-135 -5 -53 119 0
-135 -5 120 -54 0
-135 -5 120 119 0
-135 320 -53 -54 0
-135 320 -53 119 0
-135 320 120 -54 0
-135 320 120 119 0
-135 -6 -59 -60 0
-135 -6 -59 125 0
-135 -6 126 -60 0
-135 -6 126 125 0
-135 335 -59 -60 0
-135 335 -59 125 0
-135 335 126 -60 0
-135 335 126 125 0
-135 -7 -64 -65 0
-135 -7 -64 130 0
-135 -7 131 -65 0
-135 -7 131 130 0
-135 345 -64 -65 0
-135 345 -64 130 0
-135 345 131 -65 0
-135 345 131 130 0
-135 -10 -70 -73 0
-135 -10 -70 136 0
-135 -10 139 -73 0
-135 -10 139 136 0
-135 355 -70 -73 0
-135 355 -70 136 0
-135 355 139 -73 0
-135 355 139 136 0
-135 -11 -71 -74 0
-135 -11 -71 137 0
-135 -11 140 -74 0
-135 -11 140 137 0
-135 356 -71 -74 0
-135 356 -71 137 0
-135 356 140 -74 0
-135 356 140 137 0
-135 -12 -72 -75 0
-135 -12 -72 138 0
-135 -12 141 -75 0
-135 -12 141 138 0
-135 357 -72 -75 0
-135 357 -72 138 0
-135 357 141 -75 0
-135 357 141 138 0
-136 -1 -19 -21 0
-136 -1 -19 85 0
-136 -1 87 -21 0
-136 -1 87 85 0
-136 191 -19 -21 0
-136 191 -19 85 0
-136 191 87 -21 0
-136 191 87 85 0
-136 -2 -29 -31 0
-136 -2 -29 95 0
-136 -2 97 -31 0
-136 -2 97 95 0
-136 236 -29 -31 0
-136 236 -29 95 0
-136 236 97 -31 0
-136 236 97 95 0
-136 -3 -38 -40 0
-136 -3 -38 104 0
-136 -3 106 -40 0
-136 -3 106 104 0
-136 272 -38 -40 0
-136 272 -38 104 0
-136 272 106 -40 0
-136 272 106 104 0
-136 -4 -46 -48 0
-136 -4 -46 112 0
-136 -4 114 -48 0
-136 -4 114 112 0
-136 300 -46 -48 0
-136 300 -46 112 0
-136 300 114 -48 0
-136 300 114 112 0
-136 -5 -53 -55 0
-136 -5 -53 119 0
-136 -5 121 -55 0
-136 -5 121 119 0
-136 321 -53 -55 0
-136 321 -53 119 0
-136 321 121 -55 0
-136 321 121 119 0
-136 -6 -59 -61 0
-136 -6 -59 125 0
-136 -6 127 -61 0
-136 -6 127 125 0
-136 336 -59 -61 0
-136 336 -59 125 0
-136 336 127 -61 0
-136 336 127 125 0
-136 -7 -64 -66 0
-136 -7 -64 130 0
-136 -7 132 -66 0
-136 -7 132 130 0
-136 346 -64 -66 0
-136 346 -64 130 0
-136 346 132 -66 0
-136 346 132 130 0
-136 -9 -69 -73 0
-136 -9 -69 135 0
-136 -9 139 -73 0
-136 -9 139 135 0
-136 355 -69 -73 0
-136 355 -69 135 0
-136 355 139 -73 0
-136 355 139 135 0
-136 -11 -71 -76 0
-136 -11 -71 137 0
-136 -11 142 -76 0
-136 -11 142 137 0
-136 358 -71 -76 0
-136 358 -71 137 0
-136 358 142 -76 0
-136 358 142 137 0
-136 -12 -72 -77 0
-136 -12 -72 138 0
-136 -12 143 -77 0
-136 -12 143 138 0
-136 359 -72 -77 0
-136 359 -72 138 0
-136 359 143 -77 0
-136 359 143 138 0
-137 -1 -19 -22 0
-137 -1 -19 85 0
-137 -1 88 -22 0
-137 -1 88 85 0
-137 192 -19 -22 0
-137 192 -19 85 0
-137 192 88 -22 0
-137 192 88 85 0
-137 -2 -29 -32 0
-137 -2 -29 95 0
-137 -2 98 -32 0
-137 -2 98 95 0
-137 237 -29 -32 0
-137 237 -29 95 0
-137 237 98 -32 0
-137 237 98 95 0
-137 -3 -38 -41 0
-137 -3 -38 104 0
-137 -3 107 -41 0
-137 -3 107 104 0
-137 273 -38 -41 0
-137 273 -38 104 0
-137 273 107 -41 0
-137 273 107 104 0
-137 -4 -46 -49 0
-137 -4 -46 112 0
-137 -4 115 -49 0
-137 -4 115 112 0
-137 301 -46 -49 0
-137 301 -46 112 0
-137 301 115 -49 0
-137 301 115 112 0
-137 -5 -53 -56 0
-137 -5 -53 119 0
-137 -5 122 -56 0
-137 -5 122 119 0
-137 322 -53 -56 0
-137 322 -53 119 0
-137 322 122 -56 0
-137 322 122 119 0
-137 -6 -59 -62 0
-137 -6 -59 125 0
-137 -6 128 -62 0
-137 -6 128 125 0
-137 337 -59 -62 0
-137 337 -59 125 0
-137 337 128 -62 0
-137 337 128 125 0
-137 -7 -64 -67 0
-137 -7 -64 130 0
-137 -7 133 -67 0
-137 -7 133 130 0
-137 347 -64 -67 0
-137 347 -64 130 0
-137 347 133 -67 0
-137 347 133 130 0
-137 -9 -69 -74 0
-137 -9 -69 135 0
-137 -9 140 -74 0
-137 -9 140 135 0
-137 356 -69 -74 0
-137 356 -69 135 0
-137 356 140 -74 0
-137 356 140 135 0
-137 -10 -70 -76 0
-137 -10 -70 136 0
-137 -10 142 -76 0
-137 -10 142 136 0
-137 358 -70 -76 0
-137 358 -70 136 0
-137 358 142 -76 0
-137 358 142 136 0
-137 -12 -72 -78 0
-137 -12 -72 138 0
-137 -12 144 -78 0
-137 -12 144 138 0
-137 360 -72 -78 0
-137 360 -72 138 0
-137 360 144 -78 0
-137 360 144 138 0
-138 -1 -19 -23 0
-138 -1 -19 85 0
-138 -1 89 -23 0
-138 -1 89 85 0
-138 193 -19 -23 0
-138 193 -19 85 0
-138 193 89 -23 0
-138 193 89 85 0
-138 -2 -29 -33 0
-138 -2 -29 95 0
-138 -2 99 -33 0
-138 -2 99 95 0
-138 238 -29 -33 0
-138 238 -29 95 0
-138 238 99 -33 0
-138 238 99 95 0
-138 -3 -38 -42 0
-138 -3 -38 104 0
-138 -3 108 -42 0
-138 -3 108 104 0
-138 274 -38 -42 0
-138 274 -38 104 0
-138 274 108 -42 0
-138 274 108 104 0
-138 -4 -46 -50 0
-138 -4 -46 112 0
-138 -4 116 -50 0
-138 -4 116 112 0
-138 302 -46 -50 0
-138 302 -46 112 0
-138 302 116 -50 0
-138 302 116 112 0
-138 -5 -53 -57 0
-138 -5 -53 119 0
-138 -5 123 -57 0
-138 -5 123 119 0
-138 323 -53 -57 0
-138 323 -53 119 0
-138 323 123 -57 0
-138 323 123 119 0
-138 -6 -59 -63 0
-138 -6 -59 125 0
-138 -6 129 -63 0
-138 -6 129 125 0
-138 338 -59 -63 0
-138 338 -59 125 0
-138 338 129 -63 0
-138 338 129 125 0
-138 -7 -64 -68 0
-138 -7 -64 130 0
-138 -7 134 -68 0
-138 -7 134 130 0
-138 348 -64 -68 0
-138 348 -64 130 0
-138 348 134 -68 0
-138 348 134 130 0
-138 -9 -69 -75 0
-138 -9 -69 135 0
-138 -9 141 -75 0
-138 -9 141 135 0
-138 357 -69 -75 0
-138 357 -69 135 0
-138 357 141 -75 0
-138 357 141 135 0
-138 -10 -70 -77 0
-138 -10 -70 136 0
-138 -10 143 -77 0
-138 -10 143 136 0
-138 359 -70 -77 0
-138 359 -70 136 0
-138 359 143 -77 0
-138 359 143 136 0
-138 -11 -71 -78 0
-138 -11 -71 137 0
-138 -11 144 -78 0
-138 -11 144 137 0
-138 360 -71 -78 0
-138 360 -71 137 0
-138 360 144 -78 0
-138 360 144 137 0
-139 -1 -20 -21 0
-139 -1 -20 86 0
-139 -1 87 -21 0
-139 -1 87 86 0
-139 194 -20 -21 0
-139 194 -20 86 0
-139 194 87 -21 0
-139 194 87 86 0
-139 -2 -30 -31 0
-139 -2 -30 96 0
-139 -2 97 -31 0
-139 -2 97 96 0
-139 239 -30 -31 0
-139 239 -30 96 0
-139 239 97 -31 0
-139 239 97 96 0
-139 -3 -39 -40 0
-139 -3 -39 105 0
-139 -3 106 -40 0
-139 -3 106 105 0
-139 275 -39 -40 0
-139 275 -39 105 0
-139 275 106 -40 0
-139 275 106 105 0
-139 -4 -47 -48 0
-139 -4 -47 113 0
-139 -4 114 -48 0
-139 -4 114 113 0
-139 303 -47 -48 0
-139 303 -47 113 0
-139 303 114 -48 0
-139 303 114 113 0
-139 -5 -54 -55 0
-139 -5 -54 120 0
-139 -5 121 -55 0
-139 -5 121 120 0
-139 324 -54 -55 0
-139 324 -54 120 0
-139 324 121 -55 0
-139 324 121 120 0
-139 -6 -60 -61 0
-139 -6 -60 126 0
-139 -6 127 -61 0
-139 -6 127 126 0
-139 339 -60 -61 0
-139 339 -60 126 0
-139 339 127 -61 0
-139 339 127 126 0
-139 -7 -65 -66 0
-139 -7 -65 131 0
-139 -7 132 -66 0
-139 -7 132 131 0
-139 349 -65 -66 0
-139 349 -65 131 0
-139 349 132 -66 0
-139 349 132 131 0
-139 -8 -69 -70 0
-139 -8 -69 135 0
-139 -8 136 -70 0
-139 -8 136 135 0
-139 355 -69 -70 0
-139 355 -69 135 0
-139 355 136 -70 0
-139 355 136 135 0
-139 -11 -74 -76 0
-139 -11 -74 140 0
-139 -11 142 -76 0
-139 -11 142 140 0
-139 361 -74 -76 0
-139 361 -74 140 0
-139 361 142 -76 0
-139 361 142 140 0
-139 -12 -75 -77 0
-139 -12 -75 141 0
-139 -12 143 -77 0
-139 -12 143 141 0
-139 362 -75 -77 0
-139 362 -75 141 0
-139 362 143 -77 0
-139 362 143 141 0
-140 -1 -20 -22 0
-140 -1 -20 86 0
-140 -1 88 -22 0
-140 -1 88 86 0
-140 195 -20 -22 0
-140 195 -20 86 0
-140 195 88 -22 0
-140 195 88 86 0
-140 -2 -30 -32 0
-140 -2 -30 96 0
-140 -2 98 -32 0
-140 -2 98 96 0
-140 240 -30 -32 0
-140 240 -30 96 0
-140 240 98 -32 0
-140 240 98 96 0
-140 -3 -39 -41 0
-140 -3 -39 105 0
-140 -3 107 -41 0
-140 -3 107 105 0
-140 276 -39 -41 0
-140 276 -39 105 0
-140 276 107 -41 0
-140 276 107 105 0
-140 -4 -47 -49 0
-140 -4 -47 113 0
-140 -4 115 -49 0
-140 -4 115 113 0
-140 304 -47 -49 0
-140 304 -47 113 0
-140 304 115 -49 0
-140 304 115 113 0
-140 -5 -54 -56 0
-140 -5 -54 120 0
-140 -5 122 -56 0
-140 -5 122 120 0
-140 325 -54 -56 0
-140 325 -54 120 0
-140 325 122 -56 0
-140 325 122 120 0
-140 -6 -60 -62 0
-140 -6 -60 126 0
-140 -6 128 -62 0
-140 -6 128 126 0
-140 340 -60 -62 0
-140 340 -60 126 0
-140 340 128 -62 0
-140 340 128 126 0
-140 -7 -65 -67 0
-140 -7 -65 131 0
-140 -7 133 -67 0
-140 -7 133 131 0
-140 350 -65 -67 0
-140 350 -65 131 0
-140 350 133 -67 0
-140 350 133 131 0
-140 -8 -69 -71 0
-140 -8 -69 135 0
-140 -8 137 -71 0
-140 -8 137 135 0
-140 356 -69 -71 0
-140 356 -69 135 0
-140 356 137 -71 0
-140 356 137 135 0
-140 -10 -73 -76 0
-140 -10 -73 139 0
-140 -10 142 -76 0
-140 -10 142 139 0
-140 361 -73 -76 0
-140 361 -73 139 0
-140 361 142 -76 0
-140 361 142 139 0
-140 -12 -75 -78 0
-140 -12 -75 141 0
-140 -12 144 -78 0
-140 -12 144 141 0
-140 363 -75 -78 0
-140 363 -75 141 0
-140 363 144 -78 0
-140 363 144 141 0
-141 -1 -20 -23 0
-141 -1 -20 86 0
-141 -1 89 -23 0
-141 -1 89 86 0
-141 196 -20 -23 0
-141 196 -20 86 0
-141 196 89 -23 0
-141 196 89 86 0
-141 -2 -30 -33 0
-141 -2 -30 96 0
-141 -2 99 -33 0
-141 -2 99 96 0
-141 241 -30 -33 0
-141 241 -30 96 0
-141 241 99 -33 0
-141 241 99 96 0
-141 -3 -39 -42 0
-141 -3 -39 105 0
-141 -3 108 -42 0
-141 -3 108 105 0
-141 277 -39 -42 0
-141 277 -39 105 0
-141 277 108 -42 0
-141 277 108 105 0
-141 -4 -47 -50 0
-141 -4 -47 113 0
-141 -4 116 -50 0
-141 -4 116 113 0
-141 305 -47 -50 0
-141 305 -47 113 0
-141 305 116 -50 0
-141 305 116 113 0
-141 -5 -54 -57 0
-141 -5 -54 120 0
-141 -5 123 -57 0
-141 -5 123 120 0
-141 326 -54 -57 0
-141 326 -54 120 0
-141 326 123 -57 0
-141 326 123 120 0
-141 -6 -60 -63 0
-141 -6 -60 126 0
-141 -6 129 -63 0
-141 -6 129 126 0
-141 341 -60 -63 0
-141 341 -60 126 0
-141 341 129 -63 0
-141 341 129 126 0
-141 -7 -65 -68 0
-141 -7 -65 131 0
-141 -7 134 -68 0
-141 -7 134 131 0
-141 351 -65 -68 0
-141 351 -65 131 0
-141 351 134 -68 0
-141 351 134 131 0
-141 -8 -69 -72 0
-141 -8 -69 135 0
-141 -8 138 -72 0
-141 -8 138 135 0
-141 357 -69 -72 0
-141 357 -69 135 0
-141 357 138 -72 0
-141 357 138 135 0
-141 -10 -73 -77 0
-141 -10 -73 139 0
-141 -10 143 -77 0
-141 -10 143 139 0
-141 362 -73 -77 0
-141 362 -73 139 0
-141 362 143 -77 0
-141 362 143 139 0
-141 -11 -74 -78 0
-141 -11 -74 140 0
-141 -11 144 -78 0
-141 -11 144 140 0
-141 363 -74 -78 0
-141 363 -74 140 0
-141 363 144 -78 0
-141 363 144 140 0
-142 -1 -21 -22 0
-142 -1 -21 87 0
-142 -1 88 -22 0
-142 -1 88 87 0
-142 197 -21 -22 0
-142 197 -21 87 0
-142 197 88 -22 0
-142 197 88 87 0
-142 -2 -31 -32 0
-142 -2 -31 97 0
-142 -2 98 -32 0
-142 -2 98 97 0
-142 242 -31 -32 0
-142 242 -31 97 0
-142 242 98 -32 0
-142 242 98 97 0
-142 -3 -40 -41 0
-142 -3 -40 106 0
-142 -3 107 -41 0
-142 -3 107 106 0
-142 278 -40 -41 0
-142 278 -40 106 0
-142 278 107 -41 0
-142 278 107 106 0
-142 -4 -48 -49 0
-142 -4 -48 114 0
-142 -4 115 -49 0
-142 -4 115 114 0
-142 306 -48 -49 0
-142 306 -48 114 0
-142 306 115 -49 0
-142 306 115 114 0
-142 -5 -55 -56 0
-142 -5 -55 121 0
-142 -5 122 -56 0
-142 -5 122 121 0
-142 327 -55 -56 0
-142 327 -55 121 0
-142 327 122 -56 0
-142 327 122 121 0
-142 -6 -61 -62 0
-142 -6 -61 127 0
-142 -6 128 -62 0
-142 -6 128 127 0
-142 342 -61 -62 0
-142 342 -61 127 0
-142 342 128 -62 0
-142 342 128 127 0
-142 -7 -66 -67 0
-142 -7 -66 132 0
-142 -7 133 -67 0
-142 -7 133 132 0
-142 352 -66 -67 0
-142 352 -66 132 0
-142 352 133 -67 0
-142 352 133 132 0
-142 -8 -70 -71 0
-142 -8 -70 136 0
-142 -8 137 -71 0
-142 -8 137 136 0
-142 358 -70 -71 0
-142 358 -70 136 0
-142 358 137 -71 0
-142 358 137 136 0
-142 -9 -73 -74 0
-142 -9 -73 139 0
-142 -9 140 -74 0
-142 -9 140 139 0
-142 361 -73 -74 0
-142 361 -73 139 0
-142 361 140 -74 0
-142 361 140 139 0
-142 -12 -77 -78 0
-142 -12 -77 143 0
-142 -12 144 -78 0
-142 -12 144 143 0
-142 364 -77 -78 0
-142 364 -77 143 0
-142 364 144 -78 0
-142 364 144 143 0
-143 -1 -21 -23 0
-143 -1 -21 87 0
-143 -1 89 -23 0
-143 -1 89 87 0
-143 198 -21 -23 0
-143 198 -21 87 0
-143 198 89 -23 0
-143 198 89 87 0
-143 -2 -31 -33 0
-143 -2 -31 97 0
-143 -2 99 -33 0
-143 -2 99 97 0
-143 243 -31 -33 0
-143 243 -31 97 0
-143 243 99 -33 0
-143 243 99 97 0
-143 -3 -40 -42 0
-143 -3 -40 106 0
-143 -3 108 -42 0
-143 -3 108 106 0
-143 279 -40 -42 0
-143 279 -40 106 0
-143 279 108 -42 0
-143 279 108 106 0
-143 -4 -48 -50 0
-143 -4 -48 114 0
-143 -4 116 -50 0
-143 -4 116 114 0
-143 307 -48 -50 0
-143 307 -48 114 0
-143 307 116 -50 0
-143 307 116 114 0
-143 -5 -55 -57 0
-143 -5 -55 121 0
-143 -5 123 -57 0
-143 -5 123 121 0
-143 328 -55 -57 0
-143 328 -55 121 0
-143 328 123 -57 0
-143 328 123 121 0
-143 -6 -61 -63 0
-143 -6 -61 127 0
-143 -6 129 -63 0
-143 -6 129 127 0
-143 343 -61 -63 0
-143 343 -61 127 0
-143 343 129 -63 0
-143 343 129 127 0
-143 -7 -66 -68 0
-143 -7 -66 132 0
-143 -7 134 -68 0
-143 -7 134 132 0
-143 353 -66 -68 0
-143 353 -66 132 0
-143 353 134 -68 0
-143 353 134 132 0
-143 -8 -70 -72 0
-143 -8 -70 136 0
-143 -8 138 -72 0
-143 -8 138 136 0
-143 359 -70 -72 0
-143 359 -70 136 0
-143 359 138 -72 0
-143 359 138 136 0
-143 -9 -73 -75 0
-143 -9 -73 139 0
-143 -9 141 -75 0
-143 -9 141 139 0
-143 362 -73 -75 0
-143 362 -73 139 0
-143 362 141 -75 0
-143 362 141 139 0
-143 -11 -76 -78 0
-143 -11 -76 142 0
-143 -11 144 -78 0
-143 -11 144 142 0
-143 364 -76 -78 0
-143 364 -76 142 0
-143 364 144 -78 0
-143 364 144 142 0
-144 -1 -22 -23 0
-144 -1 -22 88 0
-144 -1 89 -23 0
-144 -1 89 88 0
-144 199 -22 -23 0
-144 199 -22 88 0
-144 199 89 -23 0
-144 199 89 88 0
-144 -2 -32 -33 0
-144 -2 -32 98 0
-144 -2 99 -33 0
-144 -2 99 98 0
-144 244 -32 -33 0
-144 244 -32 98 0
-144 244 99 -33 0
-144 244 99 98 0
-144 -3 -41 -42 0
-144 -3 -41 107 0
-144 -3 108 -42 0
-144 -3 108 107 0
-144 280 -41 -42 0
-144 280 -41 107 0
-144 280 108 -42 0
-144 280 108 107 0
-144 -4 -49 -50 0
-144 -4 -49 115 0
-144 -4 116 -50 0
-144 -4 116 115 0
-144 308 -49 -50 0
-144 308 -49 115 0
-144 308 116 -50 0
-144 308 116 115 0
-144 -5 -56 -57 0
-144 -5 -56 122 0
-144 -5 123 -57 0
-144 -5 123 122 0
-144 329 -56 -57 0
-144 329 -56 122 0
-144 329 123 -57 0
-144 329 123 122 0
-144 -6 -62 -63 0
-144 -6 -62 128 0
-144 -6 129 -63 0
-144 -6 129 128 0
-144 344 -62 -63 0
-144 344 -62 128 0
-144 344 129 -63 0
-144 344 129 128 0
-144 -7 -67 -68 0
-144 -7 -67 133 0
-144 -7 134 -68 0
-144 -7 134 133 0
-144 354 -67 -68 0
-144 354 -67 133 0
-144 354 134 -68 0
-144 354 134 133 0
-144 -8 -71 -72 0
-144 -8 -71 137 0
-144 -8 138 -72 0
-144 -8 138 137 0
-144 360 -71 -72 0
-144 360 -71 137 0
-144 360 138 -72 0
-144 360 138 137 0
-144 -9 -74 -75 0
-144 -9 -74 140 0
-144 -9 141 -75 0
-144 -9 141 140 0
-144 363 -74 -75 0
-144 363 -74 140 0
-144 363 141 -75 0
-144 363 141 140 0
-144 -10 -76 -77 0
-144 -10 -76 142 0
-144 -10 143 -77 0
-144 -10 143 142 0
-144 364 -76 -77 0
-144 364 -76 142 0
-144 364 143 -77 0
-144 364 143 142 0
-145 -1 -2 -3 0
-145 -1 -2 79 0
-145 -1 80 -3 0
-145 -1 80 79 0
-145 90 -2 -3 0
-145 90 -2 79 0
-145 90 80 -3 0
-145 90 80 79 0
-145 -15 -25 -34 0
-145 -15 -25 146 0
-145 -15 155 -34 0
-145 -15 155 146 0
-145 200 -25 -34 0
-145 200 -25 146 0
-145 200 155 -34 0
-145 200 155 146 0
-145 -16 -26 -35 0
-145 -16 -26 147 0
-145 -16 156 -35 0
-145 -16 156 147 0
-145 201 -26 -35 0
-145 201 -26 147 0
-145 201 156 -35 0
-145 201 156 147 0
-145 -17 -27 -36 0
-145 -17 -27 148 0
-145 -17 157 -36 0
-145 -17 157 148 0
-145 202 -27 -36 0
-145 202 -27 148 0
-145 202 157 -36 0
-145 202 157 148 0
-145 -18 -28 -37 0
-145 -18 -28 149 0
-145 -18 158 -37 0
-145 -18 158 149 0
-145 203 -28 -37 0
-145 203 -28 149 0
-145 203 158 -37 0
-145 203 158 149 0
-145 -19 -29 -38 0
-145 -19 -29 150 0
-145 -19 159 -38 0
-145 -19 159 150 0
-145 204 -29 -38 0
-145 204 -29 150 0
-145 204 159 -38 0
-145 204 159 150 0
-145 -20 -30 -39 0
-145 -20 -30 151 0
-145 -20 160 -39 0
-145 -20 160 151 0
-145 205 -30 -39 0
-145 205 -30 151 0
-145 205 160 -39 0
-145 205 160 151 0
-145 -21 -31 -40 0
-145 -21 -31 152 0
-145 -21 161 -40 0
-145 -21 161 152 0
-145 206 -31 -40 0
-145 206 -31 152 0
-145 206 161 -40 0
-145 206 161 152 0
-145 -22 -32 -41 0
-145 -22 -32 153 0
-145 -22 162 -41 0
-145 -22 162 153 0
-145 207 -32 -41 0
-145 207 -32 153 0
-145 207 162 -41 0
-145 207 162 153 0
-145 -23 -33 -42 0
-145 -23 -33 154 0
-145 -23 163 -42 0
-145 -23 163 154 0
-145 208 -33 -42 0
-145 208 -33 154 0
-145 208 163 -42 0
-145 208 163 154 0
-146 -1 -2 -4 0
-146 -1 -2 79 0
-146 -1 81 -4 0
-146 -1 81 79 0
-146 91 -2 -4 0
-146 91 -2 79 0
-146 91 81 -4 0
-146 91 81 79 0
-146 -14 -24 -34 0
-146 -14 -24 145 0
-146 -14 155 -34 0
-146 -14 155 145 0
-146 200 -24 -34 0
-146 200 -24 145 0
-146 200 155 -34 0
-146 200 155 145 0
-146 -16 -26 -43 0
-146 -16 -26 147 0
-146 -16 164 -43 0
-146 -16 164 147 0
-146 209 -26 -43 0
-146 209 -26 147 0
-146 209 164 -43 0
-146 209 164 147 0
-146 -17 -27 -44 0
-146 -17 -27 148 0
-146 -17 165 -44 0
-146 -17 165 148 0
-146 210 -27 -44 0
-146 210 -27 148 0
-146 210 165 -44 0
-146 210 165 148 0
-146 -18 -28 -45 0
-146 -18 -28 149 0
-146 -18 166 -45 0
-146 -18 166 149 0
-146 211 -28 -45 0
-146 211 -28 149 0
-146 211 166 -45 0
-146 211 166 149 0
-146 -19 -29 -46 0
-146 -19 -29 150 0
-146 -19 167 -46 0
-146 -19 167 150 0
-146 212 -29 -46 0
-146 212 -29 150 0
-146 212 167 -46 0
-146 212 167 150 0
-146 -20 -30 -47 0
-146 -20 -30 151 0
-146 -20 168 -47 0
-146 -20 168 151 0
-146 213 -30 -47 0
-146 213 -30 151 0
-146 213 168 -47 0
-146 213 168 151 0
-146 -21 -31 -48 0
-146 -21 -31 152 0
-146 -21 169 -48 0
-146 -21 169 152 0
-146 214 -31 -48 0
-146 214 -31 152 0
-146 214 169 -48 0
-146 214 169 152 0
-146 -22 -32 -49 0
-146 -22 -32 153 0
-146 -22 170 -49 0
-146 -22 170 153 0
-146 215 -32 -49 0
-146 215 -32 153 0
-146 215 170 -49 0
-146 215 170 153 0
-146 -23 -33 -50 0
-146 -23 -33 154 0
-146 -23 171 -50 0
-146 -23 171 154 0
-146 216 -33 -50 0
-146 216 -33 154 0
-146 216 171 -50 0
-146 216 171 154 0
-147 -1 -2 -5 0
-147 -1 -2 79 0
-147 -1 82 -5 0
-147 -1 82 79 0
-147 92 -2 -5 0
-147 92 -2 79 0
-147 92 82 -5 0
-147 92 82 79 0
-147 -14 -24 -35 0
-147 -14 -24 145 0
-147 -14 156 -35 0
-147 -14 156 145 0
-147 201 -24 -35 0
-147 201 -24 145 0
-147 201 156 -35 0
-147 201 156 145 0
-147 -15 -25 -43 0
-147 -15 -25 146 0
-147 -15 164 -43 0
-147 -15 164 146 0
-147 209 -25 -43 0
-147 209 -25 146 0
-147 209 164 -43 0
-147 209 164 146 0
-147 -17 -27 -51 0
-147 -17 -27 148 0
-147 -17 172 -51 0
-147 -17 172 148 0
-147 217 -27 -51 0
-147 217 -27 148 0
-147 217 172 -51 0
-147 217 172 148 0
-147 -18 -28 -52 0
-147 -18 -28 149 0
-147 -18 173 -52 0
-147 -18 173 149 0
-147 218 -28 -52 0
-147 218 -28 149 0
-147 218 173 -52 0
-147 218 173 149 0
-147 -19 -29 -53 0
-147 -19 -29 150 0
-147 -19 174 -53 0
-147 -19 174 150 0
-147 219 -29 -53 0
-147 219 -29 150 0
-147 219 174 -53 0
-147 219 174 150 0
-147 -20 -30 -54 0
-147 -20 -30 151 0
-147 -20 175 -54 0
-147 -20 175 151 0
-147 220 -30 -54 0
-147 220 -30 151 0
-147 220 175 -54 0
-147 220 175 151 0
-147 -21 -31 -55 0
-147 -21 -31 152 0
-147 -21 176 -55 0
-147 -21 176 152 0
-147 221 -31 -55 0
-147 221 -31 152 0
-147 221 176 -55 0
-147 221 176 152 0
-147 -22 -32 -56 0
-147 -22 -32 153 0
-147 -22 177 -56 0
-147 -22 177 153 0
-147 222 -32 -56 0
-147 222 -32 153 0
-147 222 177 -56 0
-147 222 177 153 0
-147 -23 -33 -57 0
-147 -23 -33 154 0
-147 -23 178 -57 0
-147 -23 178 154 0
-147 223 -33 -57 0
-147 223 -33 154 0
-147 223 178 -57 0
-147 223 178 154 0
-148 -1 -2 -6 0
-148 -1 -2 79 0
-148 -1 83 -6 0
-148 -1 83 79 0
-148 93 -2 -6 0
-148 93 -2 79 0
-148 93 83 -6 0
-148 93 83 79 0
-148 -14 -24 -36 0
-148 -14 -24 145 0
-148 -14 157 -36 0
-148 -14 157 145 0
-148 202 -24 -36 0
-148 202 -24 145 0
-148 202 157 -36 0
-148 202 157 145 0
-148 -15 -25 -44 0
-148 -15 -25 146 0
-148 -15 165 -44 0
-148 -15 165 146 0
-148 210 -25 -44 0
-148 210 -25 146 0
-148 210 165 -44 0
-148 210 165 146 0
-148 -16 -26 -51 0
-148 -16 -26 147 0
-148 -16 172 -51 0
-148 -16 172 147 0
-148 217 -26 -51 0
-148 217 -26 147 0
-148 217 172 -51 0
-148 217 172 147 0
-148 -18 -28 -58 0
-148 -18 -28 149 0
-148 -18 179 -58 0
-148 -18 179 149 0
-148 224 -28 -58 0
-148 224 -28 149 0
-148 224 179 -58 0
-148 224 179 149 0
-148 -19 -29 -59 0
-148 -19 -29 150 0
-148 -19 180 -59 0
-148 -19 180 150 0
-148 225 -29 -59 0
-148 225 -29 150 0
-148 225 180 -59 0
-148 225 180 150 0
-148 -20 -30 -60 0
-148 -20 -30 151 0
-148 -20 181 -60 0
-148 -20 181 151 0
-148 226 -30 -60 0
-148 226 -30 151 0
-148 226 181 -60 0
-148 226 181 151 0
-148 -21 -31 -61 0
-148 -21 -31 152 0
-148 -21 182 -61 0
-148 -21 182 152 0
-148 227 -31 -61 0
-148 227 -31 152 0
-148 227 182 -61 0
-148 227 182 152 0
-148 -22 -32 -62 0
-148 -22 -32 153 0
-148 -22 183 -62 0
-148 -22 183 153 0
-148 228 -32 -62 0
-148 228 -32 153 0
-148 228 183 -62 0
-148 228 183 153 0
-148 -23 -33 -63 0
-148 -23 -33 154 0
-148 -23 184 -63 0
-148 -23 184 154 0
-148 229 -33 -63 0
-148 229 -33 154 0
-148 229 184 -63 0
-148 229 184 154 0
-149 -1 -2 -7 0
-149 -1 -2 79 0
-149 -1 84 -7 0
-149 -1 84 79 0
-149 94 -2 -7 0
-149 94 -2 79 0
-149 94 84 -7 0
-149 94 84 79 0
-149 -14 -24 -37 0
-149 -14 -24 145 0
-149 -14 158 -37 0
-149 -14 158 145 0
-149 203 -24 -37 0
-149 203 -24 145 0
-149 203 158 -37 0
-149 203 158 145 0
-149 -15 -25 -45 0
-149 -15 -25 146 0
-149 -15 166 -45 0
-149 -15 166 146 0
-149 211 -25 -45 0
-149 211 -25 146 0
-149 211 166 -45 0
-149 211 166 146 0
-149 -16 -26 -52 0
-149 -16 -26 147 0
-149 -16 173 -52 0
-149 -16 173 147 0
-149 218 -26 -52 0
-149 218 -26 147 0
-149 218 173 -52 0
-149 218 173 147 0
-149 -17 -27 -58 0
-149 -17 -27 148 0
-149 -17 179 -58 0
-149 -17 179 148 0
-149 224 -27 -58 0
-149 224 -27 148 0
-149 224 179 -58 0
-149 224 179 148 0
-149 -19 -29 -64 0
-149 -19 -29 150 0
-149 -19 185 -64 0
-149 -19 185 150 0
-149 230 -29 -64 0
-149 230 -29 150 0
-149 230 185 -64 0
-149 230 185 150 0
-149 -20 -30 -65 0
-149 -20 -30 151 0
-149 -20 186 -65 0
-149 -20 186 151 0
-149 231 -30 -65 0
-149 231 -30 151 0
-149 231 186 -65 0
-149 231 186 151 0
-149 -21 -31 -66 0
-149 -21 -31 152 0
-149 -21 187 -66 0
-149 -21 187 152 0
-149 232 -31 -66 0
-149 232 -31 152 0
-149 232 187 -66 0
-149 232 187 152 0
-149 -22 -32 -67 0
-149 -22 -32 153 0
-149 -22 188 -67 0
-149 -22 188 153 0
-149 233 -32 -67 0
-149 233 -32 153 0
-149 233 188 -67 0
-149 233 188 153 0
-149 -23 -33 -68 0
-149 -23 -33 154 0
-149 -23 189 -68 0
-149 -23 189 154 0
-149 234 -33 -68 0
-149 234 -33 154 0
-149 234 189 -68 0
-149 234 189 154 0
-150 -1 -2 -8 0
-150 -1 -2 79 0
-150 -1 85 -8 0
-150 -1 85 79 0
-150 95 -2 -8 0
-150 95 -2 79 0
-150 95 85 -8 0
-150 95 85 79 0
-150 -14 -24 -38 0
-150 -14 -24 145 0
-150 -14 159 -38 0
-150 -14 159 145 0
-150 204 -24 -38 0
-150 204 -24 145 0
-150 204 159 -38 0
-150 204 159 145 0
-150 -15 -25 -46 0
-150 -15 -25 146 0
-150 -15 167 -46 0
-150 -15 167 146 0
-150 212 -25 -46 0
-150 212 -25 146 0
-150 212 167 -46 0
-150 212 167 146 0
-150 -16 -26 -53 0
-150 -16 -26 147 0
-150 -16 174 -53 0
-150 -16 174 147 0
-150 219 -26 -53 0
-150 219 -26 147 0
-150 219 174 -53 0
-150 219 174 147 0
-150 -17 -27 -59 0
-150 -17 -27 148 0
-150 -17 180 -59 0
-150 -17 180 148 0
-150 225 -27 -59 0
-150 225 -27 148 0
-150 225 180 -59 0
-150 225 180 148 0
-150 -18 -28 -64 0
-150 -18 -28 149 0
-150 -18 185 -64 0
-150 -18 185 149 0
-150 230 -28 -64 0
-150 230 -28 149 0
-150 230 185 -64 0
-150 230 185 149 0
-150 -20 -30 -69 0
-150 -20 -30 151 0
-150 -20 190 -69 0
-150 -20 190 151 0
-150 235 -30 -69 0
-150 235 -30 151 0
-150 235 190 -69 0
-150 235 190 151 0
-150 -21 -31 -70 0
-150 -21 -31 152 0
-150 -21 191 -70 0
-150 -21 191 152 0
-150 236 -31 -70 0
-150 236 -31 152 0
-150 236 191 -70 0
-150 236 191 152 0
-150 -22 -32 -71 0
-150 -22 -32 153 0
-150 -22 192 -71 0
-150 -22 192 153 0
-150 237 -32 -71 0
-150 237 -32 153 0
-150 237 192 -71 0
-150 237 192 153 0
-150 -23 -33 -72 0
-150 -23 -33 154 0
-150 -23 193 -72 0
-150 -23 193 154 0
-150 238 -33 -72 0
-150 238 -33 154 0
-150 238 193 -72 0
-150 238 193 154 0
-151 -1 -2 -9 0
-151 -1 -2 79 0
-151 -1 86 -9 0
-151 -1 86 79 0
-151 96 -2 -9 0
-151 96 -2 79 0
-151 96 86 -9 0
-151 96 86 79 0
-151 -14 -24 -39 0
-151 -14 -24 145 0
-151 -14 160 -39 0
-151 -14 160 145 0
-151 205 -24 -39 0
-151 205 -24 145 0
-151 205 160 -39 0
-151 205 160 145 0
-151 -15 -25 -47 0
-151 -15 -25 146 0
-151 -15 168 -47 0
-151 -15 168 146 0
-151 213 -25 -47 0
-151 213 -25 146 0
-151 213 168 -47 0
-151 213 168 146 0
-151 -16 -26 -54 0
-151 -16 -26 147 0
-151 -16 175 -54 0
-151 -16 175 147 0
-151 220 -26 -54 0
-151 220 -26 147 0
-151 220 175 -54 0
-151 220 175 147 0
-151 -17 -27 -60 0
-151 -17 -27 148 0
-151 -17 181 -60 0
-151 -17 181 148 0
-151 226 -27 -60 0
-151 226 -27 148 0
-151 226 181 -60 0
-151 226 181 148 0
-151 -18 -28 -65 0
-151 -18 -28 149 0
-151 -18 186 -65 0
-151 -18 186 149 0
-151 231 -28 -65 0
-151 231 -28 149 0
-151 231 186 -65 0
-151 231 186 149 0
-151 -19 -29 -69 0
-151 -19 -29 150 0
-151 -19 190 -69 0
-151 -19 190 150 0
-151 235 -29 -69 0
-151 235 -29 150 0
-151 235 190 -69 0
-151 235 190 150 0
-151 -21 -31 -73 0
-151 -21 -31 152 0
-151 -21 194 -73 0
-151 -21 194 152 0
-151 239 -31 -73 0
-151 239 -31 152 0
-151 239 194 -73 0
-151 239 194 152 0
-151 -22 -32 -74 0
-151 -22 -32 153 0
-151 -22 195 -74 0
-151 -22 195 153 0
-151 240 -32 -74 0
-151 240 -32 153 0
-151 240 195 -74 0
-151 240 195 153 0
-151 -23 -33 -75 0
-151 -23 -33 154 0
-151 -23 196 -75 0
-151 -23 196 154 0
-151 241 -33 -75 0
-151 241 -33 154 0
-151 241 196 -75 0
-151 241 196 154 0
-152 -1 -2 -10 0
-152 -1 -2 79 0
-152 -1 87 -10 0
-152 -1 87 79 0
-152 97 -2 -10 0
-152 97 -2 79 0
-152 97 87 -10 0
-152 97 87 79 0
-152 -14 -24 -40 0
-152 -14 -24 145 0
-152 -14 161 -40 0
-152 -14 161 145 0
-152 206 -24 -40 0
-152 206 -24 145 0
-152 206 161 -40 0
-152 206 161 145 0
-152 -15 -25 -48 0
-152 -15 -25 146 0
-152 -15 169 -48 0
-152 -15 169 146 0
-152 214 -25 -48 0
-152 214 -25 146 0
-152 214 169 -48 0
-152 214 169 146 0
-152 -16 -26 -55 0
-152 -16 -26 147 0
-152 -16 176 -55 0
-152 -16 176 147 0
-152 221 -26 -55 0
-152 221 -26 147 0
-152 221 176 -55 0
-152 221 176 147 0
-152 -17 -27 -61 0
-152 -17 -27 148 0
-152 -17 182 -61 0
-152 -17 182 148 0
-152 227 -27 -61 0
-152 227 -27 148 0
-152 227 182 -61 0
-152 227 182 148 0
-152 -18 -28 -66 0
-152 -18 -28 149 0
-152 -18 187 -66 0
-152 -18 187 149 0
-152 232 -28 -66 0
-152 232 -28 149 0
-152 232 187 -66 0
-152 232 187 149 0
-152 -19 -29 -70 0
-152 -19 -29 150 0
-152 -19 191 -70 0
-152 -19 191 150 0
-152 236 -29 -70 0
-152 236 -29 150 0
-152 236 191 -70 0
-152 236 191 150 0
-152 -20 -30 -73 0
-152 -20 -30 151 0
-152 -20 194 -73 0
-152 -20 194 151 0
-152 239 -30 -73 0
-152 239 -30 151 0
-152 239 194 -73 0
-152 239 194 151 0
-152 -22 -32 -76 0
-152 -22 -32 153 0
-152 -22 197 -76 0
-152 -22 197 153 0
-152 242 -32 -76 0
-152 242 -32 153 0
-152 242 197 -76 0
-152 242 197 153 0
-152 -23 -33 -77 0
-152 -23 -33 154 0
-152 -23 198 -77 0
-152 -23 198 154 0
-152 243 -33 -77 0
-152 243 -33 154 0
-152 243 198 -77 0
-152 243 198 154 0
-153 -1 -2 -11 0
-153 -1 -2 79 0
-153 -1 88 -11 0
-153 -1 88 79 0
-153 98 -2 -11 0
-153 98 -2 79 0
-153 98 88 -11 0
-153 98 88 79 0
-153 -14 -24 -41 0
-153 -14 -24 145 0
-153 -14 162 -41 0
-153 -14 162 145 0
-153 207 -24 -41 0
-153 207 -24 145 0
-153 207 162 -41 0
-153 207 162 145 0
-153 -15 -25 -49 0
-153 -15 -25 146 0
-153 -15 170 -49 0
-153 -15 170 146 0
-153 215 -25 -49 0
-153 215 -25 146 0
-153 215 170 -49 0
-153 215 170 146 0
-153 -16 -26 -56 0
-153 -16 -26 147 0
-153 -16 177 -56 0
-153 -16 177 147 0
-153 222 -26 -56 0
-153 222 -26 147 0
-153 222 177 -56 0
-153 222 177 147 0
-153 -17 -27 -62 0
-153 -17 -27 148 0
-153 -17 183 -62 0
-153 -17 183 148 0
-153 228 -27 -62 0
-153 228 -27 148 0
-153 228 183 -62 0
-153 228 183 148 0
-153 -18 -28 -67 0
-153 -18 -28 149 0
-153 -18 188 -67 0
-153 -18 188 149 0
-153 233 -28 -67 0
-153 233 -28 149 0
-153 233 188 -67 0
-153 233 188 149 0
-153 -19 -29 -71 0
-153 -19 -29 150 0
-153 -19 192 -71 0
-153 -19 192 150 0
-153 237 -29 -71 0
-153 237 -29 150 0
-153 237 192 -71 0
-153 237 192 150 0
-153 -20 -30 -74 0
-153 -20 -30 151 0
-153 -20 195 -74 0
-153 -20 195 151 0
-153 240 -30 -74 0
-153 240 -30 151 0
-153 240 195 -74 0
-153 240 195 151 0
-153 -21 -31 -76 0
-153 -21 -31 152 0
-153 -21 197 -76 0
-153 -21 197 152 0
-153 242 -31 -76 0
-153 242 -31 152 0
-153 242 197 -76 0
-153 242 197 152 0
-153 -23 -33 -78 0
-153 -23 -33 154 0
-153 -23 199 -78 0
-153 -23 199 154 0
-153 244 -33 -78 0
-153 244 -33 154 0
-153 244 199 -78 0
-153 244 199 154 0
-154 -1 -2 -12 0
-154 -1 -2 79 0
-154 -1 89 -12 0
-154 -1 89 79 0
-154 99 -2 -12 0
-154 99 -2 79 0
-154 99 89 -12 0
-154 99 89 79 0
-154 -14 -24 -42 0
-154 -14 -24 145 0
-154 -14 163 -42 0
-154 -14 163 145 0
-154 208 -24 -42 0
-154 208 -24 145 0
-154 208 163 -42 0
-154 208 163 145 0
-154 -15 -25 -50 0
-154 -15 -25 146 0
-154 -15 171 -50 0
-154 -15 171 146 0
-154 216 -25 -50 0
-154 216 -25 146 0
-154 216 171 -50 0
-154 216 171 146 0
-154 -16 -26 -57 0
-154 -16 -26 147 0
-154 -16 178 -57 0
-154 -16 178 147 0
-154 223 -26 -57 0
-154 223 -26 147 0
-154 223 178 -57 0
-154 223 178 147 0
-154 -17 -27 -63 0
-154 -17 -27 148 0
-154 -17 184 -63 0
-154 -17 184 148 0
-154 229 -27 -63 0
-154 229 -27 148 0
-154 229 184 -63 0
-154 229 184 148 0
-154 -18 -28 -68 0
-154 -18 -28 149 0
-154 -18 189 -68 0
-154 -18 189 149 0
-154 234 -28 -68 0
-154 234 -28 149 0
-154 234 189 -68 0
-154 234 189 149 0
-154 -19 -29 -72 0
-154 -19 -29 150 0
-154 -19 193 -72 0
-154 -19 193 150 0
-154 238 -29 -72 0
-154 238 -29 150 0
-154 238 193 -72 0
-154 238 193 150 0
-154 -20 -30 -75 0
-154 -20 -30 151 0
-154 -20 196 -75 0
-154 -20 196 151 0
-154 241 -30 -75 0
-154 241 -30 151 0
-154 241 196 -75 0
-154 241 196 151 0
-154 -21 -31 -77 0
-154 -21 -31 152 0
-154 -21 198 -77 0
-154 -21 198 152 0
-154 243 -31 -77 0
-154 243 -31 152 0
-154 243 198 -77 0
-154 243 198 152 0
-154 -22 -32 -78 0
-154 -22 -32 153 0
-154 -22 199 -78 0
-154 -22 199 153 0
-154 244 -32 -78 0
-154 244 -32 153 0
-154 244 199 -78 0
-154 244 199 153 0
-155 -1 -3 -4 0
-155 -1 -3 80 0
-155 -1 81 -4 0
-155 -1 81 80 0
-155 100 -3 -4 0
-155 100 -3 80 0
-155 100 81 -4 0
-155 100 81 80 0
-155 -13 -24 -25 0
-155 -13 -24 145 0
-155 -13 146 -25 0
-155 -13 146 145 0
-155 200 -24 -25 0
-155 200 -24 145 0
-155 200 146 -25 0
-155 200 146 145 0
-155 -16 -35 -43 0
-155 -16 -35 156 0
-155 -16 164 -43 0
-155 -16 164 156 0
-155 245 -35 -43 0
-155 245 -35 156 0
-155 245 164 -43 0
-155 245 164 156 0
-155 -17 -36 -44 0
-155 -17 -36 157 0
-155 -17 165 -44 0
-155 -17 165 157 0
-155 246 -36 -44 0
-155 246 -36 157 0
-155 246 165 -44 0
-155 246 165 157 0
-155 -18 -37 -45 0
-155 -18 -37 158 0
-155 -18 166 -45 0
-155 -18 166 158 0
-155 247 -37 -45 0
-155 247 -37 158 0
-155 247 166 -45 0
-155 247 166 158 0
-155 -19 -38 -46 0
-155 -19 -38 159 0
-155 -19 167 -46 0
-155 -19 167 159 0
-155 248 -38 -46 0
-155 248 -38 159 0
-155 248 167 -46 0
-155 248 167 159 0
-155 -20 -39 -47 0
-155 -20 -39 160 0
-155 -20 168 -47 0
-155 -20 168 160 0
-155 249 -39 -47 0
-155 249 -39 160 0
-155 249 168 -47 0
-155 249 168 160 0
-155 -21 -40 -48 0
-155 -21 -40 161 0
-155 -21 169 -48 0
-155 -21 169 161 0
-155 250 -40 -48 0
-155 250 -40 161 0
-155 250 169 -48 0
-155 250 169 161 0
-155 -22 -41 -49 0
-155 -22 -41 162 0
-155 -22 170 -49 0
-155 -22 170 162 0
-155 251 -41 -49 0
-155 251 -41 162 0
-155 251 170 -49 0
-155 251 170 162 0
-155 -23 -42 -50 0
-155 -23 -42 163 0
-155 -23 171 -50 0
-155 -23 171 163 0
-155 252 -42 -50 0
-155 252 -42 163 0
-155 252 171 -50 0
-155 252 171 163 0
-156 -1 -3 -5 0
-156 -1 -3 80 0
-156 -1 82 -5 0
-156 -1 82 80 0
-156 101 -3 -5 0
-156 101 -3 80 0
-156 101 82 -5 0
-156 101 82 80 0
-156 -13 -24 -26 0
-156 -13 -24 145 0
-156 -13 147 -26 0
-156 -13 147 145 0
-156 201 -24 -26 0
-156 201 -24 145 0
-156 201 147 -26 0
-156 201 147 145 0
-156 -15 -34 -43 0
-156 -15 -34 155 0
-156 -15 164 -43 0
-156 -15 164 155 0
-156 245 -34 -43 0
-156 245 -34 155 0
-156 245 164 -43 0
-156 245 164 155 0
-156 -17 -36 -51 0
-156 -17 -36 157 0
-156 -17 172 -51 0
-156 -17 172 157 0
-156 253 -36 -51 0
-156 253 -36 157 0
-156 253 172 -51 0
-156 253 172 157 0
-156 -18 -37 -52 0
-156 -18 -37 158 0
-156 -18 173 -52 0
-156 -18 173 158 0
-156 254 -37 -52 0
-156 254 -37 158 0
-156 254 173 -52 0
-156 254 173 158 0
-156 -19 -38 -53 0
-156 -19 -38 159 0
-156 -19 174 -53 0
-156 -19 174 159 0
-156 255 -38 -53 0
-156 255 -38 159 0
-156 255 174 -53 0
-156 255 174 159 0
-156 -20 -39 -54 0
-156 -20 -39 160 0
-156 -20 175 -54 0
-156 -20 175 160 0
-156 256 -39 -54 0
-156 256 -39 160 0
-156 256 175 -54 0
-156 256 175 160 0
-156 -21 -40 -55 0
-156 -21 -40 161 0
-156 -21 176 -55 0
-156 -21 176 161 0
-156 257 -40 -55 0
-156 257 -40 161 0
-156 257 176 -55 0
-156 257 176 161 0
-156 -22 -41 -56 0
-156 -22 -41 162 0
-156 -22 177 -56 0
-156 -22 177 162 0
-156 258 -41 -56 0
-156 258 -41 162 0
-156 258 177 -56 0
-156 258 177 162 0
-156 -23 -42 -57 0
-156 -23 -42 163 0
-156 -23 178 -57 0
-156 -23 178 163 0
-156 259 -42 -57 0
-156 259 -42 163 0
-156 259 178 -57 0
-156 259 178 163 0
-157 -1 -3 -6 0
-157 -1 -3 80 0
-157 -1 83 -6 0
-157 -1 83 80 0
-157 102 -3 -6 0
-157 102 -3 80 0
-157 102 83 -6 0
-157 102 83 80 0
-157 -13 -24 -27 0
-157 -13 -24 145 0
-157 -13 148 -27 0
-157 -13 148 145 0
-157 202 -24 -27 0
-157 202 -24 145 0
-157 202 148 -27 0
-157 202 148 145 0
-157 -15 -34 -44 0
-157 -15 -34 155 0
-157 -15 165 -44 0
-157 -15 165 155 0
-157 246 -34 -44 0
-157 246 -34 155 0
-157 246 165 -44 0
-157 246 165 155 0
-157 -16 -35 -51 0
-157 -16 -35 156 0
-157 -16 172 -51 0
-157 -16 172 156 0
-157 253 -35 -51 0
-157 253 -35 156 0
-157 253 172 -51 0
-157 253 172 156 0
-157 -18 -37 -58 0
-157 -18 -37 158 0
-157 -18 179 -58 0
-157 -18 179 158 0
-157 260 -37 -58 0
-157 260 -37 158 0
-157 260 179 -58 0
-157 260 179 158 0
-157 -19 -38 -59 0
-157 -19 -38 159 0
-157 -19 180 -59 0
-157 -19 180 159 0
-157 261 -38 -59 0
-157 261 -38 159 0
-157 261 180 -59 0
-157 261 180 159 0
-157 -20 -39 -60 0
-157 -20 -39 160 0
-157 -20 181 -60 0
-157 -20 181 160 0
-157 262 -39 -60 0
-157 262 -39 160 0
-157 262 181 -60 0
-157 262 181 160 0
-157 -21 -40 -61 0
-157 -21 -40 161 0
-157 -21 182 -61 0
-157 -21 182 161 0
-157 263 -40 -61 0
-157 263 -40 161 0
-157 263 182 -61 0
-157 263 182 161 0
-157 -22 -41 -62 0
-157 -22 -41 162 0
-157 -22 183 -62 0
-157 -22 183 162 0
-157 264 -41 -62 0
-157 264 -41 162 0
-157 264 183 -62 0
-157 264 183 162 0
-157 -23 -42 -63 0
-157 -23 -42 163 0
-157 -23 184 -63 0
-157 -23 184 163 0
-157 265 -42 -63 0
-157 265 -42 163 0
-157 265 184 -63 0
-157 265 184 163 0
-158 -1 -3 -7 0
-158 -1 -3 80 0
-158 -1 84 -7 0
-158 -1 84 80 0
-158 103 -3 -7 0
-158 103 -3 80 0
-158 103 84 -7 0
-158 103 84 80 0
-158 -13 -24 -28 0
-158 -13 -24 145 0
-158 -13 149 -28 0
-158 -13 149 145 0
-158 203 -24 -28 0
-158 203 -24 145 0
-158 203 149 -28 0
-158 203 149 145 0
-158 -15 -34 -45 0
-158 -15 -34 155 0
-158 -15 166 -45 0
-158 -15 166 155 0
-158 247 -34 -45 0
-158 247 -34 155 0
-158 247 166 -45 0
-158 247 166 155 0
-158 -16 -35 -52 0
-158 -16 -35 156 0
-158 -16 173 -52 0
-158 -16 173 156 0
-158 254 -35 -52 0
-158 254 -35 156 0
-158 254 173 -52 0
-158 254 173 156 0
-158 -17 -36 -58 0
-158 -17 -36 157 0
-158 -17 179 -58 0
-158 -17 179 157 0
-158 260 -36 -58 0
-158 260 -36 157 0
-158 260 179 -58 0
-158 260 179 157 0
-158 -19 -38 -64 0
-158 -19 -38 159 0
-158 -19 185 -64 0
-158 -19 185 159 0
-158 266 -38 -64 0
-158 266 -38 159 0
-158 266 185 -64 0
-158 266 185 159 0
-158 -20 -39 -65 0
-158 -20 -39 160 0
-158 -20 186 -65 0
-158 -20 186 160 0
-158 267 -39 -65 0
-158 267 -39 160 0
-158 267 186 -65 0
-158 267 186 160 0
-158 -21 -40 -66 0
-158 -21 -40 161 0
-158 -21 187 -66 0
-158 -21 187 161 0
-158 268 -40 -66 0
-158 268 -40 161 0
-158 268 187 -66 0
-158 268 187 161 0
-158 -22 -41 -67 0
-158 -22 -41 162 0
-158 -22 188 -67 0
-158 -22 188 162 0
-158 269 -41 -67 0
-158 269 -41 162 0
-158 269 188 -67 0
-158 269 188 162 0
-158 -23 -42 -68 0
-158 -23 -42 163 0
-158 -23 189 -68 0
-158 -23 189 163 0
-158 270 -42 -68 0
-158 270 -42 163 0
-158 270 189 -68 0
-158 270 189 163 0
-159 -1 -3 -8 0
-159 -1 -3 80 0
-159 -1 85 -8 0
-159 -1 85 80 0
-159 104 -3 -8 0
-159 104 -3 80 0
-159 104 85 -8 0
-159 104 85 80 0
-159 -13 -24 -29 0
-159 -13 -24 145 0
-159 -13 150 -29 0
-159 -13 150 145 0
-159 204 -24 -29 0
-159 204 -24 145 0
-159 204 150 -29 0
-159 204 150 145 0
-159 -15 -34 -46 0
-159 -15 -34 155 0
-159 -15 167 -46 0
-159 -15 167 155 0
-159 248 -34 -46 0
-159 248 -34 155 0
-159 248 167 -46 0
-159 248 167 155 0
-159 -16 -35 -53 0
-159 -16 -35 156 0
-159 -16 174 -53 0
-159 -16 174 156 0
-159 255 -35 -53 0
-159 255 -35 156 0
-159 255 174 -53 0
-159 255 174 156 0
-159 -17 -36 -59 0
-159 -17 -36 157 0
-159 -17 180 -59 0
-159 -17 180 157 0
-159 261 -36 -59 0
-159 261 -36 157 0
-159 261 180 -59 0
-159 261 180 157 0
-159 -18 -37 -64 0
-159 -18 -37 158 0
-159 -18 185 -64 0
-159 -18 185 158 0
-159 266 -37 -64 0
-159 266 -37 158 0
-159 266 185 -64 0
-159 266 185 158 0
-159 -20 -39 -69 0
-159 -20 -39 160 0
-159 -20 190 -69 0
-159 -20 190 160 0
-159 271 -39 -69 0
-159 271 -39 160 0
-159 271 190 -69 0
-159 271 190 160 0
-159 -21 -40 -70 0
-159 -21 -40 161 0
-159 -21 191 -70 0
-159 -21 191 161 0
-159 272 -40 -70 0
-159 272 -40 161 0
-159 272 191 -70 0
-159 272 191 161 0
-159 -22 -41 -71 0
-159 -22 -41 162 0
-159 -22 192 -71 0
-159 -22 192 162 0
-159 273 -41 -71 0
-159 273 -41 162 0
-159 273 192 -71 0
-159 273 192 162 0
-159 -23 -42 -72 0
-159 -23 -42 163 0
-159 -23 193 -72 0
-159 -23 193 163 0
-159 274 -42 -72 0
-159 274 -42 163 0
-159 274 193 -72 0
-159 274 193 163 0
-160 -1 -3 -9 0
-160 -1 -3 80 0
-160 -1 86 -9 0
-160 -1 86 80 0
-160 105 -3 -9 0
-160 105 -3 80 0
-160 105 86 -9 0
-160 105 86 80 0
-160 -13 -24 -30 0
-160 -13 -24 145 0
-160 -13 151 -30 0
-160 -13 151 145 0
-160 205 -24 -30 0
-160 205 -24 145 0
-160 205 151 -30 0
-160 205 151 145 0
-160 -15 -34 -47 0
-160 -15 -34 155 0
-160 -15 168 -47 0
-160 -15 168 155 0
-160 249 -34 -47 0
-160 249 -34 155 0
-160 249 168 -47 0
-160 249 168 155 0
-160 -16 -35 -54 0
-160 -16 -35 156 0
-160 -16 175 -54 0
-160 -16 175 156 0
-160 256 -35 -54 0
-160 256 -35 156 0
-160 256 175 -54 0
-160 256 175 156 0
-160 -17 -36 -60 0
-160 -17 -36 157 0
-160 -17 181 -60 0
-160 -17 181 157 0
-160 262 -36 -60 0
-160 262 -36 157 0
-160 262 181 -60 0
-160 262 181 157 0
-160 -18 -37 -65 0
-160 -18 -37 158 0
-160 -18 186 -65 0
-160 -18 186 158 0
-160 267 -37 -65 0
-160 267 -37 158 0
-160 267 186 -65 0
-160 267 186 158 0
-160 -19 -38 -69 0
-160 -19 -38 159 0
-160 -19 190 -69 0
-160 -19 190 159 0
-160 271 -38 -69 0
-160 271 -38 159 0
-160 271 190 -69 0
-160 271 190 159 0
-160 -21 -40 -73 0
-160 -21 -40 161 0
-160 -21 194 -73 0
-160 -21 194 161 0
-160 275 -40 -73 0
-160 275 -40 161 0
-160 275 194 -73 0
-160 275 194 161 0
-160 -22 -41 -74 0
-160 -22 -41 162 0
-160 -22 195 -74 0
-160 -22 195 162 0
-160 276 -41 -74 0
-160 276 -41 162 0
-160 276 195 -74 0
-160 276 195 162 0
-160 -23 -42 -75 0
-160 -23 -42 163 0
-160 -23 196 -75 0
-160 -23 196 163 0
-160 277 -42 -75 0
-160 277 -42 163 0
-160 277 196 -75 0
-160 277 196 163 0
-161 -1 -3 -10 0
-161 -1 -3 80 0
-161 -1 87 -10 0
-161 -1 87 80 0
-161 106 -3 -10 0
-161 106 -3 80 0
-161 106 87 -10 0
-161 106 87 80 0
-161 -13 -24 -31 0
-161 -13 -24 145 0
-161 -13 152 -31 0
-161 -13 152 145 0
-161 206 -24 -31 0
-161 206 -24 145 0
-161 206 152 -31 0
-161 206 152 145 0
-161 -15 -34 -48 0
-161 -15 -34 155 0
-161 -15 169 -48 0
-161 -15 169 155 0
-161 250 -34 -48 0
-161 250 -34 155 0
-161 250 169 -48 0
-161 250 169 155 0
-161 -16 -35 -55 0
-161 -16 -35 156 0
-161 -16 176 -55 0
-161 -16 176 156 0
-161 257 -35 -55 0
-161 257 -35 156 0
-161 257 176 -55 0
-161 257 176 156 0
-161 -17 -36 -61 0
-161 -17 -36 157 0
-161 -17 182 -61 0
-161 -17 182 157 0
-161 263 -36 -61 0
-161 263 -36 157 0
-161 263 182 -61 0
-161 263 182 157 0
-161 -18 -37 -66 0
-161 -18 -37 158 0
-161 -18 187 -66 0
-161 -18 187 158 0
-161 268 -37 -66 0
-161 268 -37 158 0
-161 268 187 -66 0
-161 268 187 158 0
-161 -19 -38 -70 0
-161 -19 -38 159 0
-161 -19 191 -70 0
-161 -19 191 159 0
-161 272 -38 -70 0
-161 272 -38 159 0
-161 272 191 -70 0
-161 272 191 159 0
-161 -20 -39 -73 0
-161 -20 -39 160 0
-161 -20 194 -73 0
-161 -20 194 160 0
-161 275 -39 -73 0
-161 275 -39 160 0
-161 275 194 -73 0
-161 275 194 160 0
-161 -22 -41 -76 0
-161 -22 -41 162 0
-161 -22 197 -76 0
-161 -22 197 162 0
-161 278 -41 -76 0
-161 278 -41 162 0
-161 278 197 -76 0
-161 278 197 162 0
-161 -23 -42 -77 0
-161 -23 -42 163 0
-161 -23 198 -77 0
-161 -23 198 163 0
-161 279 -42 -77 0
-161 279 -42 163 0
-161 279 198 -77 0
-161 279 198 163 0
-162 -1 -3 -11 0
-162 -1 -3 80 0
-162 -1 88 -11 0
-162 -1 88 80 0
-162 107 -3 -11 0
-162 107 -3 80 0
-162 107 88 -11 0
-162 107 88 80 0
-162 -13 -24 -32 0
-162 -13 -24 145 0
-162 -13 153 -32 0
-162 -13 153 145 0
-162 207 -24 -32 0
-162 207 -24 145 0
-162 207 153 -32 0
-162 207 153 145 0
-162 -15 -34 -49 0
-162 -15 -34 155 0
-162 -15 170 -49 0
-162 -15 170 155 0
-162 251 -34 -49 0
-162 251 -34 155 0
-162 251 170 -49 0
-162 251 170 155 0
-162 -16 -35 -56 0
-162 -16 -35 156 0
-162 -16 177 -56 0
-162 -16 177 156 0
-162 258 -35 -56 0
-162 258 -35 156 0
-162 258 177 -56 0
-162 258 177 156 0
-162 -17 -36 -62 0
-162 -17 -36 157 0
-162 -17 183 -62 0
-162 -17 183 157 0
-162 264 -36 -62 0
-162 264 -36 157 0
-162 264 183 -62 0
-162 264 183 157 0
-162 -18 -37 -67 0
-162 -18 -37 158 0
-162 -18 188 -67 0
-162 -18 188 158 0
-162 269 -37 -67 0
-162 269 -37 158 0
-162 269 188 -67 0
-162 269 188 158 0
-162 -19 -38 -71 0
-162 -19 -38 159 0
-162 -19 192 -71 0
-162 -19 192 159 0
-162 273 -38 -71 0
-162 273 -38 159 0
-162 273 192 -71 0
-162 273 192 159 0
-162 -20 -39 -74 0
-162 -20 -39 160 0
-162 -20 195 -74 0
-162 -20 195 160 0
-162 276 -39 -74 0
-162 276 -39 160 0
-162 276 195 -74 0
-162 276 195 160 0
-162 -21 -40 -76 0
-162 -21 -40 161 0
-162 -21 197 -76 0
-162 -21 197 161 0
-162 278 -40 -76 0
-162 278 -40 161 0
-162 278 197 -76 0
-162 278 197 161 0
-162 -23 -42 -78 0
-162 -23 -42 163 0
-162 -23 199 -78 0
-162 -23 199 163 0
-162 280 -42 -78 0
-162 280 -42 163 0
-162 280 199 -78 0
-162 280 199 163 0
-163 -1 -3 -12 0
-163 -1 -3 80 0
-163 -1 89 -12 0
-163 -1 89 80 0
-163 108 -3 -12 0
-163 108 -3 80 0
-163 108 89 -12 0
-163 108 89 80 0
-163 -13 -24 -33 0
-163 -13 -24 145 0
-163 -13 154 -33 0
-163 -13 154 145 0
-163 208 -24 -33 0
-163 208 -24 145 0
-163 208 154 -33 0
-163 208 154 145 0
-163 -15 -34 -50 0
-163 -15 -34 155 0
-163 -15 171 -50 0
-163 -15 171 155 0
-163 252 -34 -50 0
-163 252 -34 155 0
-163 252 171 -50 0
-163 252 171 155 0
-163 -16 -35 -57 0
-163 -16 -35 156 0
-163 -16 178 -57 0
-163 -16 178 156 0
-163 259 -35 -57 0
-163 259 -35 156 0
-163 259 178 -57 0
-163 259 178 156 0
-163 -17 -36 -63 0
-163 -17 -36 157 0
-163 -17 184 -63 0
-163 -17 184 157 0
-163 265 -36 -63 0
-163 265 -36 157 0
-163 265 184 -63 0
-163 265 184 157 0
-163 -18 -37 -68 0
-163 -18 -37 158 0
-163 -18 189 -68 0
-163 -18 189 158 0
-163 270 -37 -68 0
-163 270 -37 158 0
-163 270 189 -68 0
-163 270 189 158 0
-163 -19 -38 -72 0
-163 -19 -38 159 0
-163 -19 193 -72 0
-163 -19 193 159 0
-163 274 -38 -72 0
-163 274 -38 159 0
-163 274 193 -72 0
-163 274 193 159 0
-163 -20 -39 -75 0
-163 -20 -39 160 0
-163 -20 196 -75 0
-163 -20 196 160 0
-163 277 -39 -75 0
-163 277 -39 160 0
-163 277 196 -75 0
-163 277 196 160 0
-163 -21 -40 -77 0
-163 -21 -40 161 0
-163 -21 198 -77 0
-163 -21 198 161 0
-163 279 -40 -77 0
-163 279 -40 161 0
-163 279 198 -77 0
-163 279 198 161 0
-163 -22 -41 -78 0
-163 -22 -41 162 0
-163 -22 199 -78 0
-163 -22 199 162 0
-163 280 -41 -78 0
-163 280 -41 162 0
-163 280 199 -78 0
-163 280 199 162 0
-164 -1 -4 -5 0
-164 -1 -4 81 0
-164 -1 82 -5 0
-164 -1 82 81 0
-164 109 -4 -5 0
-164 109 -4 81 0
-164 109 82 -5 0
-164 109 82 81 0
-164 -13 -25 -26 0
-164 -13 -25 146 0
-164 -13 147 -26 0
-164 -13 147 146 0
-164 209 -25 -26 0
-164 209 -25 146 0
-164 209 147 -26 0
-164 209 147 146 0
-164 -14 -34 -35 0
-164 -14 -34 155 0
-164 -14 156 -35 0
-164 -14 156 155 0
-164 245 -34 -35 0
-164 245 -34 155 0
-164 245 156 -35 0
-164 245 156 155 0
-164 -17 -44 -51 0
-164 -17 -44 165 0
-164 -17 172 -51 0
-164 -17 172 165 0
-164 281 -44 -51 0
-164 281 -44 165 0
-164 281 172 -51 0
-164 281 172 165 0
-164 -18 -45 -52 0
-164 -18 -45 166 0
-164 -18 173 -52 0
-164 -18 173 166 0
-164 282 -45 -52 0
-164 282 -45 166 0
-164 282 173 -52 0
-164 282 173 166 0
-164 -19 -46 -53 0
-164 -19 -46 167 0
-164 -19 174 -53 0
-164 -19 174 167 0
-164 283 -46 -53 0
-164 283 -46 167 0
-164 283 174 -53 0
-164 283 174 167 0
-164 -20 -47 -54 0
-164 -20 -47 168 0
-164 -20 175 -54 0
-164 -20 175 168 0
-164 284 -47 -54 0
-164 284 -47 168 0
-164 284 175 -54 0
-164 284 175 168 0
-164 -21 -48 -55 0
-164 -21 -48 169 0
-164 -21 176 -55 0
-164 -21 176 169 0
-164 285 -48 -55 0
-164 285 -48 169 0
-164 285 176 -55 0
-164 285 176 169 0
-164 -22 -49 -56 0
-164 -22 -49 170 0
-164 -22 177 -56 0
-164 -22 177 170 0
-164 286 -49 -56 0
-164 286 -49 170 0
-164 286 177 -56 0
-164 286 177 170 0
-164 -23 -50 -57 0
-164 -23 -50 171 0
-164 -23 178 -57 0
-164 -23 178 171 0
-164 287 -50 -57 0
-164 287 -50 171 0
-164 287 178 -57 0
-164 287 178 171 0
-165 -1 -4 -6 0
-165 -1 -4 81 0
-165 -1 83 -6 0
-165 -1 83 81 0
-165 110 -4 -6 0
-165 110 -4 81 0
-165 110 83 -6 0
-165 110 83 81 0
-165 -13 -25 -27 0
-165 -13 -25 146 0
-165 -13 148 -27 0
-165 -13 148 146 0
-165 210 -25 -27 0
-165 210 -25 146 0
-165 210 148 -27 0
-165 210 148 146 0
-165 -14 -34 -36 0
-165 -14 -34 155 0
-165 -14 157 -36 0
-165 -14 157 155 0
-165 246 -34 -36 0
-165 246 -34 155 0
-165 246 157 -36 0
-165 246 157 155 0
-165 -16 -43 -51 0
-165 -16 -43 164 0
-165 -16 172 -51 0
-165 -16 172 164 0
-165 281 -43 -51 0
-165 281 -43 164 0
-165 281 172 -51 0
-165 281 172 164 0
-165 -18 -45 -58 0
-165 -18 -45 166 0
-165 -18 179 -58 0
-165 -18 179 166 0
-165 288 -45 -58 0
-165 288 -45 166 0
-165 288 179 -58 0
-165 288 179 166 0
-165 -19 -46 -59 0
-165 -19 -46 167 0
-165 -19 180 -59 0
-165 -19 180 167 0
-165 289 -46 -59 0
-165 289 -46 167 0
-165 289 180 -59 0
-165 289 180 167 0
-165 -20 -47 -60 0
-165 -20 -47 168 0
-165 -20 181 -60 0
-165 -20 181 168 0
-165 290 -47 -60 0
-165 290 -47 168 0
-165 290 181 -60 0
-165 290 181 168 0
-165 -21 -48 -61 0
-165 -21 -48 169 0
-165 -21 182 -61 0
-165 -21 182 169 0
-165 291 -48 -61 0
-165 291 -48 169 0
-165 291 182 -61 0
-165 291 182 169 0
-165 -22 -49 -62 0
-165 -22 -49 170 0
-165 -22 183 -62 0
-165 -22 183 170 0
-165 292 -49 -62 0
-165 292 -49 170 0
-165 292 183 -62 0
-165 292 183 170 0
-165 -23 -50 -63 0
-165 -23 -50 171 0
-165 -23 184 -63 0
-165 -23 184 171 0
-165 293 -50 -63 0
-165 293 -50 171 0
-165 293 184 -63 0
-165 293 184 171 0
-166 -1 -4 -7 0
-166 -1 -4 81 0
-166 -1 84 -7 0
-166 -1 84 81 0
-166 111 -4 -7 0
-166 111 -4 81 0
-166 111 84 -7 0
-166 111 84 81 0
-166 -13 -25 -28 0
-166 -13 -25 146 0
-166 -13 149 -28 0
-166 -13 149 146 0
-166 211 -25 -28 0
-166 211 -25 146 0
-166 211 149 -28 0
-166 211 149 146 0
-166 -14 -34 -37 0
-166 -14 -34 155 0
-166 -14 158 -37 0
-166 -14 158 155 0
-166 247 -34 -37 0
-166 247 -34 155 0
-166 247 158 -37 0
-166 247 158 155 0
-166 -16 -43 -52 0
-166 -16 -43 164 0
-166 -16 173 -52 0
-166 -16 173 164 0
-166 282 -43 -52 0
-166 282 -43 164 0
-166 282 173 -52 0
-166 282 173 164 0
-166 -17 -44 -58 0
-166 -17 -44 165 0
-166 -17 179 -58 0
-166 -17 179 165 0
-166 288 -44 -58 0
-166 288 -44 165 0
-166 288 179 -58 0
-166 288 179 165 0
-166 -19 -46 -64 0
-166 -19 -46 167 0
-166 -19 185 -64 0
-166 -19 185 167 0
-166 294 -46 -64 0
-166 294 -46 167 0
-166 294 185 -64 0
-166 294 185 167 0
-166 -20 -47 -65 0
-166 -20 -47 168 0
-166 -20 186 -65 0
-166 -20 186 168 0
-166 295 -47 -65 0
-166 295 -47 168 0
-166 295 186 -65 0
-166 295 186 168 0
-166 -21 -48 -66 0
-166 -21 -48 169 0
-166 -21 187 -66 0
-166 -21 187 169 0
-166 296 -48 -66 0
-166 296 -48 169 0
-166 296 187 -66 0
-166 296 187 169 0
-166 -22 -49 -67 0
-166 -22 -49 170 0
-166 -22 188 -67 0
-166 -22 188 170 0
-166 297 -49 -67 0
-166 297 -49 170 0
-166 297 188 -67 0
-166 297 188 170 0
-166 -23 -50 -68 0
-166 -23 -50 171 0
-166 -23 189 -68 0
-166 -23 189 171 0
-166 298 -50 -68 0
-166 298 -50 171 0
-166 298 189 -68 0
-166 298 189 171 0
-167 -1 -4 -8 0
-167 -1 -4 81 0
-167 -1 85 -8 0
-167 -1 85 81 0
-167 112 -4 -8 0
-167 112 -4 81 0
-167 112 85 -8 0
-167 112 85 81 0
-167 -13 -25 -29 0
-167 -13 -25 146 0
-167 -13 150 -29 0
-167 -13 150 146 0
-167 212 -25 -29 0
-167 212 -25 146 0
-167 212 150 -29 0
-167 212 150 146 0
-167 -14 -34 -38 0
-167 -14 -34 155 0
-167 -14 159 -38 0
-167 -14 159 155 0
-167 248 -34 -38 0
-167 248 -34 155 0
-167 248 159 -38 0
-167 248 159 155 0
-167 -16 -43 -53 0
-167 -16 -43 164 0
-167 -16 174 -53 0
-167 -16 174 164 0
-167 283 -43 -53 0
-167 283 -43 164 0
-167 283 174 -53 0
-167 283 174 164 0
-167 -17 -44 -59 0
-167 -17 -44 165 0
-167 -17 180 -59 0
-167 -17 180 165 0
-167 289 -44 -59 0
-167 289 -44 165 0
-167 289 180 -59 0
-167 289 180 165 0
-167 -18 -45 -64 0
-167 -18 -45 166 0
-167 -18 185 -64 0
-167 -18 185 166 0
-167 294 -45 -64 0
-167 294 -45 166 0
-167 294 185 -64 0
-167 294 185 166 0
-167 -20 -47 -69 0
-167 -20 -47 168 0
-167 -20 190 -69 0
-167 -20 190 168 0
-167 299 -47 -69 0
-167 299 -47 168 0
-167 299 190 -69 0
-167 299 190 168 0
-167 -21 -48 -70 0
-167 -21 -48 169 0
-167 -21 191 -70 0
-167 -21 191 169 0
-167 300 -48 -70 0
-167 300 -48 169 0
-167 300 191 -70 0
-167 300 191 169 0
-167 -22 -49 -71 0
-167 -22 -49 170 0
-167 -22 192 -71 0
-167 -22 192 170 0
-167 301 -49 -71 0
-167 301 -49 170 0
-167 301 192 -71 0
-167 301 192 170 0
-167 -23 -50 -72 0
-167 -23 -50 171 0
-167 -23 193 -72 0
-167 -23 193 171 0
-167 302 -50 -72 0
-167 302 -50 171 0
-167 302 193 -72 0
-167 302 193 171 0
-168 -1 -4 -9 0
-168 -1 -4 81 0
-168 -1 86 -9 0
-168 -1 86 81 0
-168 113 -4 -9 0
-168 113 -4 81 0
-168 113 86 -9 0
-168 113 86 81 0
-168 -13 -25 -30 0
-168 -13 -25 146 0
-168 -13 151 -30 0
-168 -13 151 146 0
-168 213 -25 -30 0
-168 213 -25 146 0
-168 213 151 -30 0
-168 213 151 146 0
-168 -14 -34 -39 0
-168 -14 -34 155 0
-168 -14 160 -39 0
-168 -14 160 155 0
-168 249 -34 -39 0
-168 249 -34 155 0
-168 249 160 -39 0
-168 249 160 155 0
-168 -16 -43 -54 0
-168 -16 -43 164 0
-168 -16 175 -54 0
-168 -16 175 164 0
-168 284 -43 -54 0
-168 284 -43 164 0
-168 284 175 -54 0
-168 284 175 164 0
-168 -17 -44 -60 0
-168 -17 -44 165 0
-168 -17 181 -60 0
-168 -17 181 165 0
-168 290 -44 -60 0
-168 290 -44 165 0
-168 290 181 -60 0
-168 290 181 165 0
-168 -18 -45 -65 0
-168 -18 -45 166 0
-168 -18 186 -65 0
-168 -18 186 166 0
-168 295 -45 -65 0
-168 295 -45 166 0
-168 295 186 -65 0
-168 295 186 166 0
-168 -19 -46 -69 0
-168 -19 -46 167 0
-168 -19 190 -69 0
-168 -19 190 167 0
-168 299 -46 -69 0
-168 299 -46 167 0
-168 299 190 -69 0
-168 299 190 167 0
-168 -21 -48 -73 0
-168 -21 -48 169 0
-168 -21 194 -73 0
-168 -21 194 169 0
-168 303 -48 -73 0
-168 303 -48 169 0
-168 303 194 -73 0
-168 303 194 169 0
-168 -22 -49 -74 0
-168 -22 -49 170 0
-168 -22 195 -74 0
-168 -22 195 170 0
-168 304 -49 -74 0
-168 304 -49 170 0
-168 304 195 -74 0
-168 304 195 170 0
-168 -23 -50 -75 0
-168 -23 -50 171 0
-168 -23 196 -75 0
-168 -23 196 171 0
-168 305 -50 -75 0
-168 305 -50 171 0
-168 305 196 -75 0
-168 305 196 171 0
-169 -1 -4 -10 0
-169 -1 -4 81 0
-169 -1 87 -10 0
-169 -1 87 81 0
-169 114 -4 -10 0
-169 114 -4 81 0
-169 114 87 -10 0
-169 114 87 81 0
-169 -13 -25 -31 0
-169 -13 -25 146 0
-169 -13 152 -31 0
-169 -13 152 146 0
-169 214 -25 -31 0
-169 214 -25 146 0
-169 214 152 -31 0
-169 214 152 146 0
-169 -14 -34 -40 0
-169 -14 -34 155 0
-169 -14 161 -40 0
-169 -14 161 155 0
-169 250 -34 -40 0
-169 250 -34 155 0
-169 250 161 -40 0
-169 250 161 155 0
-169 -16 -43 -55 0
-169 -16 -43 164 0
-169 -16 176 -55 0
-169 -16 176 164 0
-169 285 -43 -55 0
-169 285 -43 164 0
-169 285 176 -55 0
-169 285 176 164 0
-169 -17 -44 -61 0
-169 -17 -44 165 0
-169 -17 182 -61 0
-169 -17 182 165 0
-169 291 -44 -61 0
-169 291 -44 165 0
-169 291 182 -61 0
-169 291 182 165 0
-169 -18 -45 -66 0
-169 -18 -45 166 0
-169 -18 187 -66 0
-169 -18 187 166 0
-169 296 -45 -66 0
-169 296 -45 166 0
-169 296 187 -66 0
-169 296 187 166 0
-169 -19 -46 -70 0
-169 -19 -46 167 0
-169 -19 191 -70 0
-169 -19 191 167 0
-169 300 -46 -70 0
-169 300 -46 167 0
-169 300 191 -70 0
-169 300 191 167 0
-169 -20 -47 -73 0
-169 -20 -47 168 0
-169 -20 194 -73 0
-169 -20 194 168 0
-169 303 -47 -73 0
-169 303 -47 168 0
-169 303 194 -73 0
-169 303 194 168 0
-169 -22 -49 -76 0
-169 -22 -49 170 0
-169 -22 197 -76 0
-169 -22 197 170 0
-169 306 -49 -76 0
-169 306 -49 170 0
-169 306 197 -76 0
-169 306 197 170 0
-169 -23 -50 -77 0
-169 -23 -50 171 0
-169 -23 198 -77 0
-169 -23 198 171 0
-169 307 -50 -77 0
-169 307 -50 171 0
-169 307 198 -77 0
-169 307 198 171 0
-170 -1 -4 -11 0
-170 -1 -4 81 0
-170 -1 88 -11 0
-170 -1 88 81 0
-170 115 -4 -11 0
-170 115 -4 81 0
-170 115 88 -11 0
-170 115 88 81 0
-170 -13 -25 -32 0
-170 -13 -25 146 0
-170 -13 153 -32 0
-170 -13 153 146 0
-170 215 -25 -32 0
-170 215 -25 146 0
-170 215 153 -32 0
-170 215 153 146 0
-170 -14 -34 -41 0
-170 -14 -34 155 0
-170 -14 162 -41 0
-170 -14 162 155 0
-170 251 -34 -41 0
-170 251 -34 155 0
-170 251 162 -41 0
-170 251 162 155 0
-170 -16 -43 -56 0
-170 -16 -43 164 0
-170 -16 177 -56 0
-170 -16 177 164 0
-170 286 -43 -56 0
-170 286 -43 164 0
-170 286 177 -56 0
-170 286 177 164 0
-170 -17 -44 -62 0
-170 -17 -44 165 0
-170 -17 183 -62 0
-170 -17 183 165 0
-170 292 -44 -62 0
-170 292 -44 165 0
-170 292 183 -62 0
-170 292 183 165 0
-170 -18 -45 -67 0
-170 -18 -45 166 0
-170 -18 188 -67 0
-170 -18 188 166 0
-170 297 -45 -67 0
-170 297 -45 166 0
-170 297 188 -67 0
-170 297 188 166 0
-170 -19 -46 -71 0
-170 -19 -46 167 0
-170 -19 192 -71 0
-170 -19 192 167 0
-170 301 -46 -71 0
-170 301 -46 167 0
-170 301 192 -71 0
-170 301 192 167 0
-170 -20 -47 -74 0
-170 -20 -47 168 0
-170 -20 195 -74 0
-170 -20 195 168 0
-170 304 -47 -74 0
-170 304 -47 168 0
-170 304 195 -74 0
-170 304 195 168 0
-170 -21 -48 -76 0
-170 -21 -48 169 0
-170 -21 197 -76 0
-170 -21 197 169 0
-170 306 -48 -76 0
-170 306 -48 169 0
-170 306 197 -76 0
-170 306 197 169 0
-170 -23 -50 -78 0
-170 -23 -50 171 0
-170 -23 199 -78 0
-170 -23 199 171 0
-170 308 -50 -78 0
-170 308 -50 171 0
-170 308 199 -78 0
-170 308 199 171 0
-171 -1 -4 -12 0
-171 -1 -4 81 0
-171 -1 89 -12 0
-171 -1 89 81 0
-171 116 -4 -12 0
-171 116 -4 81 0
-171 116 89 -12 0
-171 116 89 81 0
-171 -13 -25 -33 0
-171 -13 -25 146 0
-171 -13 154 -33 0
-171 -13 154 146 0
-171 216 -25 -33 0
-171 216 -25 146 0
-171 216 154 -33 0
-171 216 154 146 0
-171 -14 -34 -42 0
-171 -14 -34 155 0
-171 -14 163 -42 0
-171 -14 163 155 0
-171 252 -34 -42 0
-171 252 -34 155 0
-171 252 163 -42 0
-171 252 163 155 0
-171 -16 -43 -57 0
-171 -16 -43 164 0
-171 -16 178 -57 0
-171 -16 178 164 0
-171 287 -43 -57 0
-171 287 -43 164 0
-171 287 178 -57 0
-171 287 178 164 0
-171 -17 -44 -63 0
-171 -17 -44 165 0
-171 -17 184 -63 0
-171 -17 184 165 0
-171 293 -44 -63 0
-171 293 -44 165 0
-171 293 184 -63 0
-171 293 184 165 0
-171 -18 -45 -68 0
-171 -18 -45 166 0
-171 -18 189 -68 0
-171 -18 189 166 0
-171 298 -45 -68 0
-171 298 -45 166 0
-171 298 189 -68 0
-171 298 189 166 0
-171 -19 -46 -72 0
-171 -19 -46 167 0
-171 -19 193 -72 0
-171 -19 193 167 0
-171 302 -46 -72 0
-171 302 -46 167 0
-171 302 193 -72 0
-171 302 193 167 0
-171 -20 -47 -75 0
-171 -20 -47 168 0
-171 -20 196 -75 0
-171 -20 196 168 0
-171 305 -47 -75 0
-171 305 -47 168 0
-171 305 196 -75 0
-171 305 196 168 0
-171 -21 -48 -77 0
-171 -21 -48 169 0
-171 -21 198 -77 0
-171 -21 198 169 0
-171 307 -48 -77 0
-171 307 -48 169 0
-171 307 198 -77 0
-171 307 198 169 0
-171 -22 -49 -78 0
-171 -22 -49 170 0
-171 -22 199 -78 0
-171 -22 199 170 0
-171 308 -49 -78 0
-171 308 -49 170 0
-171 308 199 -78 0
-171 308 199 170 0
-172 -1 -5 -6 0
-172 -1 -5 82 0
-172 -1 83 -6 0
-172 -1 83 82 0
-172 117 -5 -6 0
-172 117 -5 82 0
-172 117 83 -6 0
-172 117 83 82 0
-172 -13 -26 -27 0
-172 -13 -26 147 0
-172 -13 148 -27 0
-172 -13 148 147 0
-172 217 -26 -27 0
-172 217 -26 147 0
-172 217 148 -27 0
-172 217 148 147 0
-172 -14 -35 -36 0
-172 -14 -35 156 0
-172 -14 157 -36 0
-172 -14 157 156 0
-172 253 -35 -36 0
-172 253 -35 156 0
-172 253 157 -36 0
-172 253 157 156 0
-172 -15 -43 -44 0
-172 -15 -43 164 0
-172 -15 165 -44 0
-172 -15 165 164 0
-172 281 -43 -44 0
-172 281 -43 164 0
-172 281 165 -44 0
-172 281 165 164 0
-172 -18 -52 -58 0
-172 -18 -52 173 0
-172 -18 179 -58 0
-172 -18 179 173 0
-172 309 -52 -58 0
-172 309 -52 173 0
-172 309 179 -58 0
-172 309 179 173 0
-172 -19 -53 -59 0
-172 -19 -53 174 0
-172 -19 180 -59 0
-172 -19 180 174 0
-172 310 -53 -59 0
-172 310 -53 174 0
-172 310 180 -59 0
-172 310 180 174 0
-172 -20 -54 -60 0
-172 -20 -54 175 0
-172 -20 181 -60 0
-172 -20 181 175 0
-172 311 -54 -60 0
-172 311 -54 175 0
-172 311 181 -60 0
-172 311 181 175 0
-172 -21 -55 -61 0
-172 -21 -55 176 0
-172 -21 182 -61 0
-172 -21 182 176 0
-172 312 -55 -61 0
-172 312 -55 176 0
-172 312 182 -61 0
-172 312 182 176 0
-172 -22 -56 -62 0
-172 -22 -56 177 0
-172 -22 183 -62 0
-172 -22 183 177 0
-172 313 -56 -62 0
-172 313 -56 177 0
-172 313 183 -62 0
-172 313 183 177 0
-172 -23 -57 -63 0
-172 -23 -57 178 0
-172 -23 184 -63 0
-172 -23 184 178 0
-172 314 -57 -63 0
-172 314 -57 178 0
-172 314 184 -63 0
-172 314 184 178 0
-173 -1 -5 -7 0
-173 -1 -5 82 0
-173 -1 84 -7 0
-173 -1 84 82 0
-173 118 -5 -7 0
-173 118 -5 82 0
-173 118 84 -7 0
-173 118 84 82 0
-173 -13 -26 -28 0
-173 -13 -26 147 0
-173 -13 149 -28 0
-173 -13 149 147 0
-173 218 -26 -28 0
-173 218 -26 147 0
-173 218 149 -28 0
-173 218 149 147 0
-173 -14 -35 -37 0
-173 -14 -35 156 0
-173 -14 158 -37 0
-173 -14 158 156 0
-173 254 -35 -37 0
-173 254 -35 156 0
-173 254 158 -37 0
-173 254 158 156 0
-173 -15 -43 -45 0
-173 -15 -43 164 0
-173 -15 166 -45 0
-173 -15 166 164 0
-173 282 -43 -45 0
-173 282 -43 164 0
-173 282 166 -45 0
-173 282 166 164 0
-173 -17 -51 -58 0
-173 -17 -51 172 0
-173 -17 179 -58 0
-173 -17 179 172 0
-173 309 -51 -58 0
-173 309 -51 172 0
-173 309 179 -58 0
-173 309 179 172 0
-173 -19 -53 -64 0
-173 -19 -53 174 0
-173 -19 185 -64 0
-173 -19 185 174 0
-173 315 -53 -64 0
-173 315 -53 174 0
-173 315 185 -64 0
-173 315 185 174 0
-173 -20 -54 -65 0
-173 -20 -54 175 0
-173 -20 186 -65 0
-173 -20 186 175 0
-173 316 -54 -65 0
-173 316 -54 175 0
-173 316 186 -65 0
-173 316 186 175 0
-173 -21 -55 -66 0
-173 -21 -55 176 0
-173 -21 187 -66 0
-173 -21 187 176 0
-173 317 -55 -66 0
-173 317 -55 176 0
-173 317 187 -66 0
-173 317 187 176 0
-173 -22 -56 -67 0
-173 -22 -56 177 0
-173 -22 188 -67 0
-173 -22 188 177 0
-173 318 -56 -67 0
-173 318 -56 177 0
-173 318 188 -67 0
-173 318 188 177 0
-173 -23 -57 -68 0
-173 -23 -57 178 0
-173 -23 189 -68 0
-173 -23 189 178 0
-173 319 -57 -68 0
-173 319 -57 178 0
-173 319 189 -68 0
-173 319 189 178 0
-174 -1 -5 -8 0
-174 -1 -5 82 0
-174 -1 85 -8 0
-174 -1 85 82 0
-174 119 -5 -8 0
-174 119 -5 82 0
-174 119 85 -8 0
-174 119 85 82 0
-174 -13 -26 -29 0
-174 -13 -26 147 0
-174 -13 150 -29 0
-174 -13 150 147 0
-174 219 -26 -29 0
-174 219 -26 147 0
-174 219 150 -29 0
-174 219 150 147 0
-174 -14 -35 -38 0
-174 -14 -35 156 0
-174 -14 159 -38 0
-174 -14 159 156 0
-174 255 -35 -38 0
-174 255 -35 156 0
-174 255 159 -38 0
-174 255 159 156 0
-174 -15 -43 -46 0
-174 -15 -43 164 0
-174 -15 167 -46 0
-174 -15 167 164 0
-174 283 -43 -46 0
-174 283 -43 164 0
-174 283 167 -46 0
-174 283 167 164 0
-174 -17 -51 -59 0
-174 -17 -51 172 0
-174 -17 180 -59 0
-174 -17 180 172 0
-174 310 -51 -59 0
-174 310 -51 172 0
-174 310 180 -59 0
-174 310 180 172 0
-174 -18 -52 -64 0
-174 -18 -52 173 0
-174 -18 185 -64 0
-174 -18 185 173 0
-174 315 -52 -64 0
-174 315 -52 173 0
-174 315 185 -64 0
-174 315 185 173 0
-174 -20 -54 -69 0
-174 -20 -54 175 0
-174 -20 190 -69 0
-174 -20 190 175 0
-174 320 -54 -69 0
-174 320 -54 175 0
-174 320 190 -69 0
-174 320 190 175 0
-174 -21 -55 -70 0
-174 -21 -55 176 0
-174 -21 191 -70 0
-174 -21 191 176 0
-174 321 -55 -70 0
-174 321 -55 176 0
-174 321 191 -70 0
-174 321 191 176 0
-174 -22 -56 -71 0
-174 -22 -56 177 0
-174 -22 192 -71 0
-174 -22 192 177 0
-174 322 -56 -71 0
-174 322 -56 177 0
-174 322 192 -71 0
-174 322 192 177 0
-174 -23 -57 -72 0
-174 -23 -57 178 0
-174 -23 193 -72 0
-174 -23 193 178 0
-174 323 -57 -72 0
-174 323 -57 178 0
-174 323 193 -72 0
-174 323 193 178 0
-175 -1 -5 -9 0
-175 -1 -5 82 0
-175 -1 86 -9 0
-175 -1 86 82 0
-175 120 -5 -9 0
-175 120 -5 82 0
-175 120 86 -9 0
-175 120 86 82 0
-175 -13 -26 -30 0
-175 -13 -26 147 0
-175 -13 151 -30 0
-175 -13 151 147 0
-175 220 -26 -30 0
-175 220 -26 147 0
-175 220 151 -30 0
-175 220 151 147 0
-175 -14 -35 -39 0
-175 -14 -35 156 0
-175 -14 160 -39 0
-175 -14 160 156 0
-175 256 -35 -39 0
-175 256 -35 156 0
-175 256 160 -39 0
-175 256 160 156 0
-175 -15 -43 -47 0
-175 -15 -43 164 0
-175 -15 168 -47 0
-175 -15 168 164 0
-175 284 -43 -47 0
-175 284 -43 164 0
-175 284 168 -47 0
-175 284 168 164 0
-175 -17 -51 -60 0
-175 -17 -51 172 0
-175 -17 181 -60 0
-175 -17 181 172 0
-175 311 -51 -60 0
-175 311 -51 172 0
-175 311 181 -60 0
-175 311 181 172 0
-175 -18 -52 -65 0
-175 -18 -52 173 0
-175 -18 186 -65 0
-175 -18 186 173 0
-175 316 -52 -65 0
-175 316 -52 173 0
-175 316 186 -65 0
-175 316 186 173 0
-175 -19 -53 -69 0
-175 -19 -53 174 0
-175 -19 190 -69 0
-175 -19 190 174 0
-175 320 -53 -69 0
-175 320 -53 174 0
-175 320 190 -69 0
-175 320 190 174 0
-175 -21 -55 -73 0
-175 -21 -55 176 0
-175 -21 194 -73 0
-175 -21 194 176 0
-175 324 -55 -73 0
-175 324 -55 176 0
-175 324 194 -73 0
-175 324 194 176 0
-175 -22 -56 -74 0
-175 -22 -56 177 0
-175 -22 195 -74 0
-175 -22 195 177 0
-175 325 -56 -74 0
-175 325 -56 177 0
-175 325 195 -74 0
-175 325 195 177 0
-175 -23 -57 -75 0
-175 -23 -57 178 0
-175 -23 196 -75 0
-175 -23 196 178 0
-175 326 -57 -75 0
-175 326 -57 178 0
-175 326 196 -75 0
-175 326 196 178 0
-176 -1 -5 -10 0
-176 -1 -5 82 0
-176 -1 87 -10 0
-176 -1 87 82 0
-176 121 -5 -10 0
-176 121 -5 82 0
-176 121 87 -10 0
-176 121 87 82 0
-176 -13 -26 -31 0
-176 -13 -26 147 0
-176 -13 152 -31 0
-176 -13 152 147 0
-176 221 -26 -31 0
-176 221 -26 147 0
-176 221 152 -31 0
-176 221 152 147 0
-176 -14 -35 -40 0
-176 -14 -35 156 0
-176 -14 161 -40 0
-176 -14 161 156 0
-176 257 -35 -40 0
-176 257 -35 156 0
-176 257 161 -40 0
-176 257 161 156 0
-176 -15 -43 -48 0
-176 -15 -43 164 0
-176 -15 169 -48 0
-176 -15 169 164 0
-176 285 -43 -48 0
-176 285 -43 164 0
-176 285 169 -48 0
-176 285 169 164 0
-176 -17 -51 -61 0
-176 -17 -51 172 0
-176 -17 182 -61 0
-176 -17 182 172 0
-176 312 -51 -61 0
-176 312 -51 172 0
-176 312 182 -61 0
-176 312 182 172 0
-176 -18 -52 -66 0
-176 -18 -52 173 0
-176 -18 187 -66 0
-176 -18 187 173 0
-176 317 -52 -66 0
-176 317 -52 173 0
-176 317 187 -66 0
-176 317 187 173 0
-176 -19 -53 -70 0
-176 -19 -53 174 0
-176 -19 191 -70 0
-176 -19 191 174 0
-176 321 -53 -70 0
-176 321 -53 174 0
-176 321 191 -70 0
-176 321 191 174 0
-176 -20 -54 -73 0
-176 -20 -54 175 0
-176 -20 194 -73 0
-176 -20 194 175 0
-176 324 -54 -73 0
-176 324 -54 175 0
-176 324 194 -73 0
-176 324 194 175 0
-176 -22 -56 -76 0
-176 -22 -56 177 0
-176 -22 197 -76 0
-176 -22 197 177 0
-176 327 -56 -76 0
-176 327 -56 177 0
-176 327 197 -76 0
-176 327 197 177 0
-176 -23 -57 -77 0
-176 -23 -57 178 0
-176 -23 198 -77 0
-176 -23 198 178 0
-176 328 -57 -77 0
-176 328 -57 178 0
-176 328 198 -77 0
-176 328 198 178 0
-177 -1 -5 -11 0
-177 -1 -5 82 0
-177 -1 88 -11 0
-177 -1 88 82 0
-177 122 -5 -11 0
-177 122 -5 82 0
-177 122 88 -11 0
-177 122 88 82 0
-177 -13 -26 -32 0
-177 -13 -26 147 0
-177 -13 153 -32 0
-177 -13 153 147 0
-177 222 -26 -32 0
-177 222 -26 147 0
-177 222 153 -32 0
-177 222 153 147 0
-177 -14 -35 -41 0
-177 -14 -35 156 0
-177 -14 162 -41 0
-177 -14 162 156 0
-177 258 -35 -41 0
-177 258 -35 156 0
-177 258 162 -41 0
-177 258 162 156 0
-177 -15 -43 -49 0
-177 -15 -43 164 0
-177 -15 170 -49 0
-177 -15 170 164 0
-177 286 -43 -49 0
-177 286 -43 164 0
-177 286 170 -49 0
-177 286 170 164 0
-177 -17 -51 -62 0
-177 -17 -51 172 0
-177 -17 183 -62 0
-177 -17 183 172 0
-177 313 -51 -62 0
-177 313 -51 172 0
-177 313 183 -62 0
-177 313 183 172 0
-177 -18 -52 -67 0
-177 -18 -52 173 0
-177 -18 188 -67 0
-177 -18 188 173 0
-177 318 -52 -67 0
-177 318 -52 173 0
-177 318 188 -67 0
-177 318 188 173 0
-177 -19 -53 -71 0
-177 -19 -53 174 0
-177 -19 192 -71 0
-177 -19 192 174 0
-177 322 -53 -71 0
-177 322 -53 174 0
-177 322 192 -71 0
-177 322 192 174 0
-177 -20 -54 -74 0
-177 -20 -54 175 0
-177 -20 195 -74 0
-177 -20 195 175 0
-177 325 -54 -74 0
-177 325 -54 175 0
-177 325 195 -74 0
-177 325 195 175 0
-177 -21 -55 -76 0
-177 -21 -55 176 0
-177 -21 197 -76 0
-177 -21 197 176 0
-177 327 -55 -76 0
-177 327 -55 176 0
-177 327 197 -76 0
-177 327 197 176 0
-177 -23 -57 -78 0
-177 -23 -57 178 0
-177 -23 199 -78 0
-177 -23 199 178 0
-177 329 -57 -78 0
-177 329 -57 178 0
-177 329 199 -78 0
-177 329 199 178 0
-178 -1 -5 -12 0
-178 -1 -5 82 0
-178 -1 89 -12 0
-178 -1 89 82 0
-178 123 -5 -12 0
-178 123 -5 82 0
-178 123 89 -12 0
-178 123 89 82 0
-178 -13 -26 -33 0
-178 -13 -26 147 0
-178 -13 154 -33 0
-178 -13 154 147 0
-178 223 -26 -33 0
-178 223 -26 147 0
-178 223 154 -33 0
-178 223 154 147 0
-178 -14 -35 -42 0
-178 -14 -35 156 0
-178 -14 163 -42 0
-178 -14 163 156 0
-178 259 -35 -42 0
-178 259 -35 156 0
-178 259 163 -42 0
-178 259 163 156 0
-178 -15 -43 -50 0
-178 -15 -43 164 0
-178 -15 171 -50 0
-178 -15 171 164 0
-178 287 -43 -50 0
-178 287 -43 164 0
-178 287 171 -50 0
-178 287 171 164 0
-178 -17 -51 -63 0
-178 -17 -51 172 0
-178 -17 184 -63 0
-178 -17 184 172 0
-178 314 -51 -63 0
-178 314 -51 172 0
-178 314 184 -63 0
-178 314 184 172 0
-178 -18 -52 -68 0
-178 -18 -52 173 0
-178 -18 189 -68 0
-178 -18 189 173 0
-178 319 -52 -68 0
-178 319 -52 173 0
-178 319 189 -68 0
-178 319 189 173 0
-178 -19 -53 -72 0
-178 -19 -53 174 0
-178 -19 193 -72 0
-178 -19 193 174 0
-178 323 -53 -72 0
-178 323 -53 174 0
-178 323 193 -72 0
-178 323 193 174 0
-178 -20 -54 -75 0
-178 -20 -54 175 0
-178 -20 196 -75 0
-178 -20 196 175 0
-178 326 -54 -75 0
-178 326 -54 175 0
-178 326 196 -75 0
-178 326 196 175 0
-178 -21 -55 -77 0
-178 -21 -55 176 0
-178 -21 198 -77 0
-178 -21 198 176 0
-178 328 -55 -77 0
-178 328 -55 176 0
-178 328 198 -77 0
-178 328 198 176 0
-178 -22 -56 -78 0
-178 -22 -56 177 0
-178 -22 199 -78 0
-178 -22 199 177 0
-178 329 -56 -78 0
-178 329 -56 177 0
-178 329 199 -78 0
-178 329 199 177 0
-179 -1 -6 -7 0
-179 -1 -6 83 0
-179 -1 84 -7 0
-179 -1 84 83 0
-179 124 -6 -7 0
-179 124 -6 83 0
-179 124 84 -7 0
-179 124 84 83 0
-179 -13 -27 -28 0
-179 -13 -27 148 0
-179 -13 149 -28 0
-179 -13 149 148 0
-179 224 -27 -28 0
-179 224 -27 148 0
-179 224 149 -28 0
-179 224 149 148 0
-179 -14 -36 -37 0
-179 -14 -36 157 0
-179 -14 158 -37 0
-179 -14 158 157 0
-179 260 -36 -37 0
-179 260 -36 157 0
-179 260 158 -37 0
-179 260 158 157 0
-179 -15 -44 -45 0
-179 -15 -44 165 0
-179 -15 166 -45 0
-179 -15 166 165 0
-179 288 -44 -45 0
-179 288 -44 165 0
-179 288 166 -45 0
-179 288 166 165 0
-179 -16 -51 -52 0
-179 -16 -51 172 0
-179 -16 173 -52 0
-179 -16 173 172 0
-179 309 -51 -52 0
-179 309 -51 172 0
-179 309 173 -52 0
-179 309 173 172 0
-179 -19 -59 -64 0
-179 -19 -59 180 0
-179 -19 185 -64 0
-179 -19 185 180 0
-179 330 -59 -64 0
-179 330 -59 180 0
-179 330 185 -64 0
-179 330 185 180 0
-179 -20 -60 -65 0
-179 -20 -60 181 0
-179 -20 186 -65 0
-179 -20 186 181 0
-179 331 -60 -65 0
-179 331 -60 181 0
-179 331 186 -65 0
-179 331 186 181 0
-179 -21 -61 -66 0
-179 -21 -61 182 0
-179 -21 187 -66 0
-179 -21 187 182 0
-179 332 -61 -66 0
-179 332 -61 182 0
-179 332 187 -66 0
-179 332 187 182 0
-179 -22 -62 -67 0
-179 -22 -62 183 0
-179 -22 188 -67 0
-179 -22 188 183 0
-179 333 -62 -67 0
-179 333 -62 183 0
-179 333 188 -67 0
-179 333 188 183 0
-179 -23 -63 -68 0
-179 -23 -63 184 0
-179 -23 189 -68 0
-179 -23 189 184 0
-179 334 -63 -68 0
-179 334 -63 184 0
-179 334 189 -68 0
-179 334 189 184 0
-180 -1 -6 -8 0
-180 -1 -6 83 0
-180 -1 85 -8 0
-180 -1 85 83 0
-180 125 -6 -8 0
-180 125 -6 83 0
-180 125 85 -8 0
-180 125 85 83 0
-180 -13 -27 -29 0
-180 -13 -27 148 0
-180 -13 150 -29 0
-180 -13 150 148 0
-180 225 -27 -29 0
-180 225 -27 148 0
-180 225 150 -29 0
-180 225 150 148 0
-180 -14 -36 -38 0
-180 -14 -36 157 0
-180 -14 159 -38 0
-180 -14 159 157 0
-180 261 -36 -38 0
-180 261 -36 157 0
-180 261 159 -38 0
-180 261 159 157 0
-180 -15 -44 -46 0
-180 -15 -44 165 0
-180 -15 167 -46 0
-180 -15 167 165 0
-180 289 -44 -46 0
-180 289 -44 165 0
-180 289 167 -46 0
-180 289 167 165 0
-180 -16 -51 -53 0
-180 -16 -51 172 0
-180 -16 174 -53 0
-180 -16 174 172 0
-180 310 -51 -53 0
-180 310 -51 172 0
-180 310 174 -53 0
-180 310 174 172 0
-180 -18 -58 -64 0
-180 -18 -58 179 0
-180 -18 185 -64 0
-180 -18 185 179 0
-180 330 -58 -64 0
-180 330 -58 179 0
-180 330 185 -64 0
-180 330 185 179 0
-180 -20 -60 -69 0
-180 -20 -60 181 0
-180 -20 190 -69 0
-180 -20 190 181 0
-180 335 -60 -69 0
-180 335 -60 181 0
-180 335 190 -69 0
-180 335 190 181 0
-180 -21 -61 -70 0
-180 -21 -61 182 0
-180 -21 191 -70 0
-180 -21 191 182 0
-180 336 -61 -70 0
-180 336 -61 182 0
-180 336 191 -70 0
-180 336 191 182 0
-180 -22 -62 -71 0
-180 -22 -62 183 0
-180 -22 192 -71 0
-180 -22 192 183 0
-180 337 -62 -71 0
-180 337 -62 183 0
-180 337 192 -71 0
-180 337 192 183 0
-180 -23 -63 -72 0
-180 -23 -63 184 0
-180 -23 193 -72 0
-180 -23 193 184 0
-180 338 -63 -72 0
-180 338 -63 184 0
-180 338 193 -72 0
-180 338 193 184 0
-181 -1 -6 -9 0
-181 -1 -6 83 0
-181 -1 86 -9 0
-181 -1 86 83 0
-181 126 -6 -9 0
-181 126 -6 83 0
-181 126 86 -9 0
-181 126 86 83 0
-181 -13 -27 -30 0
-181 -13 -27 148 0
-181 -13 151 -30 0
-181 -13 151 148 0
-181 226 -27 -30 0
-181 226 -27 148 0
-181 226 151 -30 0
-181 226 151 148 0
-181 -14 -36 -39 0
-181 -14 -36 157 0
-181 -14 160 -39 0
-181 -14 160 157 0
-181 262 -36 -39 0
-181 262 -36 157 0
-181 262 160 -39 0
-181 262 160 157 0
-181 -15 -44 -47 0
-181 -15 -44 165 0
-181 -15 168 -47 0
-181 -15 168 165 0
-181 290 -44 -47 0
-181 290 -44 165 0
-181 290 168 -47 0
-181 290 168 165 0
-181 -16 -51 -54 0
-181 -16 -51 172 0
-181 -16 175 -54 0
-181 -16 175 172 0
-181 311 -51 -54 0
-181 311 -51 172 0
-181 311 175 -54 0
-181 311 175 172 0
-181 -18 -58 -65 0
-181 -18 -58 179 0
-181 -18 186 -65 0
-181 -18 186 179 0
-181 331 -58 -65 0
-181 331 -58 179 0
-181 331 186 -65 0
-181 331 186 179 0
-181 -19 -59 -69 0
-181 -19 -59 180 0
-181 -19 190 -69 0
-181 -19 190 180 0
-181 335 -59 -69 0
-181 335 -59 180 0
-181 335 190 -69 0
-181 335 190 180 0
-181 -21 -61 -73 0
-181 -21 -61 182 0
-181 -21 194 -73 0
-181 -21 194 182 0
-181 339 -61 -73 0
-181 339 -61 182 0
-181 339 194 -73 0
-181 339 194 182 0
-181 -22 -62 -74 0
-181 -22 -62 183 0
-181 -22 195 -74 0
-181 -22 195 183 0
-181 340 -62 -74 0
-181 340 -62 183 0
-181 340 195 -74 0
-181 340 195 183 0
-181 -23 -63 -75 0
-181 -23 -63 184 0
-181 -23 196 -75 0
-181 -23 196 184 0
-181 341 -63 -75 0
-181 341 -63 184 0
-181 341 196 -75 0
-181 341 196 184 0
-182 -1 -6 -10 0
-182 -1 -6 83 0
-182 -1 87 -10 0
-182 -1 87 83 0
-182 127 -6 -10 0
-182 127 -6 83 0
-182 127 87 -10 0
-182 127 87 83 0
-182 -13 -27 -31 0
-182 -13 -27 148 0
-182 -13 152 -31 0
-182 -13 152 148 0
-182 227 -27 -31 0
-182 227 -27 148 0
-182 227 152 -31 0
-182 227 152 148 0
-182 -14 -36 -40 0
-182 -14 -36 157 0
-182 -14 161 -40 0
-182 -14 161 157 0
-182 263 -36 -40 0
-182 263 -36 157 0
-182 263 161 -40 0
-182 263 161 157 0
-182 -15 -44 -48 0
-182 -15 -44 165 0
-182 -15 169 -48 0
-182 -15 169 165 0
-182 291 -44 -48 0
-182 291 -44 165 0
-182 291 169 -48 0
-182 291 169 165 0
-182 -16 -51 -55 0
-182 -16 -51 172 0
-182 -16 176 -55 0
-182 -16 176 172 0
-182 312 -51 -55 0
-182 312 -51 172 0
-182 312 176 -55 0
-182 312 176 172 0
-182 -18 -58 -66 0
-182 -18 -58 179 0
-182 -18 187 -66 0
-182 -18 187 179 0
-182 332 -58 -66 0
-182 332 -58 179 0
-182 332 187 -66 0
-182 332 187 179 0
-182 -19 -59 -70 0
-182 -19 -59 180 0
-182 -19 191 -70 0
-182 -19 191 180 0
-182 336 -59 -70 0
-182 336 -59 180 0
-182 336 191 -70 0
-182 336 191 180 0
-182 -20 -60 -73 0
-182 -20 -60 181 0
-182 -20 194 -73 0
-182 -20 194 181 0
-182 339 -60 -73 0
-182 339 -60 181 0
-182 339 194 -73 0
-182 339 194 181 0
-182 -22 -62 -76 0
-182 -22 -62 183 0
-182 -22 197 -76 0
-182 -22 197 183 0
-182 342 -62 -76 0
-182 342 -62 183 0
-182 342 197 -76 0
-182 342 197 183 0
-182 -23 -63 -77 0
-182 -23 -63 184 0
-182 -23 198 -77 0
-182 -23 198 184 0
-182 343 -63 -77 0
-182 343 -63 184 0
-182 343 198 -77 0
-182 343 198 184 0
-183 -1 -6 -11 0
-183 -1 -6 83 0
-183 -1 88 -11 0
-183 -1 88 83 0
-183 128 -6 -11 0
-183 128 -6 83 0
-183 128 88 -11 0
-183 128 88 83 0
-183 -13 -27 -32 0
-183 -13 -27 148 0
-183 -13 153 -32 0
-183 -13 153 148 0
-183 228 -27 -32 0
-183 228 -27 148 0
-183 228 153 -32 0
-183 228 153 148 0
-183 -14 -36 -41 0
-183 -14 -36 157 0
-183 -14 162 -41 0
-183 -14 162 157 0
-183 264 -36 -41 0
-183 264 -36 157 0
-183 264 162 -41 0
-183 264 162 157 0
-183 -15 -44 -49 0
-183 -15 -44 165 0
-183 -15 170 -49 0
-183 -15 170 165 0
-183 292 -44 -49 0
-183 292 -44 165 0
-183 292 170 -49 0
-183 292 170 165 0
-183 -16 -51 -56 0
-183 -16 -51 172 0
-183 -16 177 -56 0
-183 -16 177 172 0
-183 313 -51 -56 0
-183 313 -51 172 0
-183 313 177 -56 0
-183 313 177 172 0
-183 -18 -58 -67 0
-183 -18 -58 179 0
-183 -18 188 -67 0
-183 -18 188 179 0
-183 333 -58 -67 0
-183 333 -58 179 0
-183 333 188 -67 0
-183 333 188 179 0
-183 -19 -59 -71 0
-183 -19 -59 180 0
-183 -19 192 -71 0
-183 -19 192 180 0
-183 337 -59 -71 0
-183 337 -59 180 0
-183 337 192 -71 0
-183 337 192 180 0
-183 -20 -60 -74 0
-183 -20 -60 181 0
-183 -20 195 -74 0
-183 -20 195 181 0
-183 340 -60 -74 0
-183 340 -60 181 0
-183 340 195 -74 0
-183 340 195 181 0
-183 -21 -61 -76 0
-183 -21 -61 182 0
-183 -21 197 -76 0
-183 -21 197 182 0
-183 342 -61 -76 0
-183 342 -61 182 0
-183 342 197 -76 0
-183 342 197 182 0
-183 -23 -63 -78 0
-183 -23 -63 184 0
-183 -23 199 -78 0
-183 -23 199 184 0
-183 344 -63 -78 0
-183 344 -63 184 0
-183 344 199 -78 0
-183 344 199 184 0
-184 -1 -6 -12 0
-184 -1 -6 83 0
-184 -1 89 -12 0
-184 -1 89 83 0
-184 129 -6 -12 0
-184 129 -6 83 0
-184 129 89 -12 0
-184 129 89 83 0
-184 -13 -27 -33 0
-184 -13 -27 148 0
-184 -13 154 -33 0
-184 -13 154 148 0
-184 229 -27 -33 0
-184 229 -27 148 0
-184 229 154 -33 0
-184 229 154 148 0
-184 -14 -36 -42 0
-184 -14 -36 157 0
-184 -14 163 -42 0
-184 -14 163 157 0
-184 265 -36 -42 0
-184 265 -36 157 0
-184 265 163 -42 0
-184 265 163 157 0
-184 -15 -44 -50 0
-184 -15 -44 165 0
-184 -15 171 -50 0
-184 -15 171 165 0
-184 293 -44 -50 0
-184 293 -44 165 0
-184 293 171 -50 0
-184 293 171 165 0
-184 -16 -51 -57 0
-184 -16 -51 172 0
-184 -16 178 -57 0
-184 -16 178 172 0
-184 314 -51 -57 0
-184 314 -51 172 0
-184 314 178 -57 0
-184 314 178 172 0
-184 -18 -58 -68 0
-184 -18 -58 179 0
-184 -18 189 -68 0
-184 -18 189 179 0
-184 334 -58 -68 0
-184 334 -58 179 0
-184 334 189 -68 0
-184 334 189 179 0
-184 -19 -59 -72 0
-184 -19 -59 180 0
-184 -19 193 -72 0
-184 -19 193 180 0
-184 338 -59 -72 0
-184 338 -59 180 0
-184 338 193 -72 0
-184 338 193 180 0
-184 -20 -60 -75 0
-184 -20 -60 181 0
-184 -20 196 -75 0
-184 -20 196 181 0
-184 341 -60 -75 0
-184 341 -60 181 0
-184 341 196 -75 0
-184 341 196 181 0
-184 -21 -61 -77 0
-184 -21 -61 182 0
-184 -21 198 -77 0
-184 -21 198 182 0
-184 343 -61 -77 0
-184 343 -61 182 0
-184 343 198 -77 0
-184 343 198 182 0
-184 -22 -62 -78 0
-184 -22 -62 183 0
-184 -22 199 -78 0
-184 -22 199 183 0
-184 344 -62 -78 0
-184 344 -62 183 0
-184 344 199 -78 0
-184 344 199 183 0
-185 -1 -7 -8 0
-185 -1 -7 84 0
-185 -1 85 -8 0
-185 -1 85 84 0
-185 130 -7 -8 0
-185 130 -7 84 0
-185 130 85 -8 0
-185 130 85 84 0
-185 -13 -28 -29 0
-185 -13 -28 149 0
-185 -13 150 -29 0
-185 -13 150 149 0
-185 230 -28 -29 0
-185 230 -28 149 0
-185 230 150 -29 0
-185 230 150 149 0
-185 -14 -37 -38 0
-185 -14 -37 158 0
-185 -14 159 -38 0
-185 -14 159 158 0
-185 266 -37 -38 0
-185 266 -37 158 0
-185 266 159 -38 0
-185 266 159 158 0
-185 -15 -45 -46 0
-185 -15 -45 166 0
-185 -15 167 -46 0
-185 -15 167 166 0
-185 294 -45 -46 0
-185 294 -45 166 0
-185 294 167 -46 0
-185 294 167 166 0
-185 -16 -52 -53 0
-185 -16 -52 173 0
-185 -16 174 -53 0
-185 -16 174 173 0
-185 315 -52 -53 0
-185 315 -52 173 0
-185 315 174 -53 0
-185 315 174 173 0
-185 -17 -58 -59 0
-185 -17 -58 179 0
-185 -17 180 -59 0
-185 -17 180 179 0
-185 330 -58 -59 0
-185 330 -58 179 0
-185 330 180 -59 0
-185 330 180 179 0
-185 -20 -65 -69 0
-185 -20 -65 186 0
-185 -20 190 -69 0
-185 -20 190 186 0
-185 345 -65 -69 0
-185 345 -65 186 0
-185 345 190 -69 0
-185 345 190 186 0
-185 -21 -66 -70 0
-185 -21 -66 187 0
-185 -21 191 -70 0
-185 -21 191 187 0
-185 346 -66 -70 0
-185 346 -66 187 0
-185 346 191 -70 0
-185 346 191 187 0
-185 -22 -67 -71 0
-185 -22 -67 188 0
-185 -22 192 -71 0
-185 -22 192 188 0
-185 347 -67 -71 0
-185 347 -67 188 0
-185 347 192 -71 0
-185 347 192 188 0
-185 -23 -68 -72 0
-185 -23 -68 189 0
-185 -23 193 -72 0
-185 -23 193 189 0
-185 348 -68 -72 0
-185 348 -68 189 0
-185 348 193 -72 0
-185 348 193 189 0
-186 -1 -7 -9 0
-186 -1 -7 84 0
-186 -1 86 -9 0
-186 -1 86 84 0
-186 131 -7 -9 0
-186 131 -7 84 0
-186 131 86 -9 0
-186 131 86 84 0
-186 -13 -28 -30 0
-186 -13 -28 149 0
-186 -13 151 -30 0
-186 -13 151 149 0
-186 231 -28 -30 0
-186 231 -28 149 0
-186 231 151 -30 0
-186 231 151 149 0
-186 -14 -37 -39 0
-186 -14 -37 158 0
-186 -14 160 -39 0
-186 -14 160 158 0
-186 267 -37 -39 0
-186 267 -37 158 0
-186 267 160 -39 0
-186 267 160 158 0
-186 -15 -45 -47 0
-186 -15 -45 166 0
-186 -15 168 -47 0
-186 -15 168 166 0
-186 295 -45 -47 0
-186 295 -45 166 0
-186 295 168 -47 0
-186 295 168 166 0
-186 -16 -52 -54 0
-186 -16 -52 173 0
-186 -16 175 -54 0
-186 -16 175 173 0
-186 316 -52 -54 0
-186 316 -52 173 0
-186 316 175 -54 0
-186 316 175 173 0
-186 -17 -58 -60 0
-186 -17 -58 179 0
-186 -17 181 -60 0
-186 -17 181 179 0
-186 331 -58 -60 0
-186 331 -58 179 0
-186 331 181 -60 0
-186 331 181 179 0
-186 -19 -64 -69 0
-186 -19 -64 185 0
-186 -19 190 -69 0
-186 -19 190 185 0
-186 345 -64 -69 0
-186 345 -64 185 0
-186 345 190 -69 0
-186 345 190 185 0
-186 -21 -66 -73 0
-186 -21 -66 187 0
-186 -21 194 -73 0
-186 -21 194 187 0
-186 349 -66 -73 0
-186 349 -66 187 0
-186 349 194 -73 0
-186 349 194 187 0
-186 -22 -67 -74 0
-186 -22 -67 188 0
-186 -22 195 -74 0
-186 -22 195 188 0
-186 350 -67 -74 0
-186 350 -67 188 0
-186 350 195 -74 0
-186 350 195 188 0
-186 -23 -68 -75 0
-186 -23 -68 189 0
-186 -23 196 -75 0
-186 -23 196 189 0
-186 351 -68 -75 0
-186 351 -68 189 0
-186 351 196 -75 0
-186 351 196 189 0
-187 -1 -7 -10 0
-187 -1 -7 84 0
-187 -1 87 -10 0
-187 -1 87 84 0
-187 132 -7 -10 0
-187 132 -7 84 0
-187 132 87 -10 0
-187 132 87 84 0
-187 -13 -28 -31 0
-187 -13 -28 149 0
-187 -13 152 -31 0
-187 -13 152 149 0
-187 232 -28 -31 0
-187 232 -28 149 0
-187 232 152 -31 0
-187 232 152 149 0
-187 -14 -37 -40 0
-187 -14 -37 158 0
-187 -14 161 -40 0
-187 -14 161 158 0
-187 268 -37 -40 0
-187 268 -37 158 0
-187 268 161 -40 0
-187 268 161 158 0
-187 -15 -45 -48 0
-187 -15 -45 166 0
-187 -15 169 -48 0
-187 -15 169 166 0
-187 296 -45 -48 0
-187 296 -45 166 0
-187 296 169 -48 0
-187 296 169 166 0
-187 -16 -52 -55 0
-187 -16 -52 173 0
-187 -16 176 -55 0
-187 -16 176 173 0
-187 317 -52 -55 0
-187 317 -52 173 0
-187 317 176 -55 0
-187 317 176 173 0
-187 -17 -58 -61 0
-187 -17 -58 179 0
-187 -17 182 -61 0
-187 -17 182 179 0
-187 332 -58 -61 0
-187 332 -58 179 0
-187 332 182 -61 0
-187 332 182 179 0
-187 -19 -64 -70 0
-187 -19 -64 185 0
-187 -19 191 -70 0
-187 -19 191 185 0
-187 346 -64 -70 0
-187 346 -64 185 0
-187 346 191 -70 0
-187 346 191 185 0
-187 -20 -65 -73 0
-187 -20 -65 186 0
-187 -20 194 -73 0
-187 -20 194 186 0
-187 349 -65 -73 0
-187 349 -65 186 0
-187 349 194 -73 0
-187 349 194 186 0
-187 -22 -67 -76 0
-187 -22 -67 188 0
-187 -22 197 -76 0
-187 -22 197 188 0
-187 352 -67 -76 0
-187 352 -67 188 0
-187 352 197 -76 0
-187 352 197 188 0
-187 -23 -68 -77 0
-187 -23 -68 189 0
-187 -23 198 -77 0
-187 -23 198 189 0
-187 353 -68 -77 0
-187 353 -68 189 0
-187 353 198 -77 0
-187 353 198 189 0
-188 -1 -7 -11 0
-188 -1 -7 84 0
-188 -1 88 -11 0
-188 -1 88 84 0
-188 133 -7 -11 0
-188 133 -7 84 0
-188 133 88 -11 0
-188 133 88 84 0
-188 -13 -28 -32 0
-188 -13 -28 149 0
-188 -13 153 -32 0
-188 -13 153 149 0
-188 233 -28 -32 0
-188 233 -28 149 0
-188 233 153 -32 0
-188 233 153 149 0
-188 -14 -37 -41 0
-188 -14 -37 158 0
-188 -14 162 -41 0
-188 -14 162 158 0
-188 269 -37 -41 0
-188 269 -37 158 0
-188 269 162 -41 0
-188 269 162 158 0
-188 -15 -45 -49 0
-188 -15 -45 166 0
-188 -15 170 -49 0
-188 -15 170 166 0
-188 297 -45 -49 0
-188 297 -45 166 0
-188 297 170 -49 0
-188 297 170 166 0
-188 -16 -52 -56 0
-188 -16 -52 173 0
-188 -16 177 -56 0
-188 -16 177 173 0
-188 318 -52 -56 0
-188 318 -52 173 0
-188 318 177 -56 0
-188 318 177 173 0
-188 -17 -58 -62 0
-188 -17 -58 179 0
-188 -17 183 -62 0
-188 -17 183 179 0
-188 333 -58 -62 0
-188 333 -58 179 0
-188 333 183 -62 0
-188 333 183 179 0
-188 -19 -64 -71 0
-188 -19 -64 185 0
-188 -19 192 -71 0
-188 -19 192 185 0
-188 347 -64 -71 0
-188 347 -64 185 0
-188 347 192 -71 0
-188 347 192 185 0
-188 -20 -65 -74 0
-188 -20 -65 186 0
-188 -20 195 -74 0
-188 -20 195 186 0
-188 350 -65 -74 0
-188 350 -65 186 0
-188 350 195 -74 0
-188 350 195 186 0
-188 -21 -66 -76 0
-188 -21 -66 187 0
-188 -21 197 -76 0
-188 -21 197 187 0
-188 352 -66 -76 0
-188 352 -66 187 0
-188 352 197 -76 0
-188 352 197 187 0
-188 -23 -68 -78 0
-188 -23 -68 189 0
-188 -23 199 -78 0
-188 -23 199 189 0
-188 354 -68 -78 0
-188 354 -68 189 0
-188 354 199 -78 0
-188 354 199 189 0
-189 -1 -7 -12 0
-189 -1 -7 84 0
-189 -1 89 -12 0
-189 -1 89 84 0
-189 134 -7 -12 0
-189 134 -7 84 0
-189 134 89 -12 0
-189 134 89 84 0
-189 -13 -28 -33 0
-189 -13 -28 149 0
-189 -13 154 -33 0
-189 -13 154 149 0
-189 234 -28 -33 0
-189 234 -28 149 0
-189 234 154 -33 0
-189 234 154 149 0
-189 -14 -37 -42 0
-189 -14 -37 158 0
-189 -14 163 -42 0
-189 -14 163 158 0
-189 270 -37 -42 0
-189 270 -37 158 0
-189 270 163 -42 0
-189 270 163 158 0
-189 -15 -45 -50 0
-189 -15 -45 166 0
-189 -15 171 -50 0
-189 -15 171 166 0
-189 298 -45 -50 0
-189 298 -45 166 0
-189 298 171 -50 0
-189 298 171 166 0
-189 -16 -52 -57 0
-189 -16 -52 173 0
-189 -16 178 -57 0
-189 -16 178 173 0
-189 319 -52 -57 0
-189 319 -52 173 0
-189 319 178 -57 0
-189 319 178 173 0
-189 -17 -58 -63 0
-189 -17 -58 179 0
-189 -17 184 -63 0
-189 -17 184 179 0
-189 334 -58 -63 0
-189 334 -58 179 0
-189 334 184 -63 0
-189 334 184 179 0
-189 -19 -64 -72 0
-189 -19 -64 185 0
-189 -19 193 -72 0
-189 -19 193 185 0
-189 348 -64 -72 0
-189 348 -64 185 0
-189 348 193 -72 0
-189 348 193 185 0
-189 -20 -65 -75 0
-189 -20 -65 186 0
-189 -20 196 -75 0
-189 -20 196 186 0
-189 351 -65 -75 0
-189 351 -65 186 0
-189 351 196 -75 0
-189 351 196 186 0
-189 -21 -66 -77 0
-189 -21 -66 187 0
-189 -21 198 -77 0
-189 -21 198 187 0
-189 353 -66 -77 0
-189 353 -66 187 0
-189 353 198 -77 0
-189 353 198 187 0
-189 -22 -67 -78 0
-189 -22 -67 188 0
-189 -22 199 -78 0
-189 -22 199 188 0
-189 354 -67 -78 0
-189 354 -67 188 0
-189 354 199 -78 0
-189 354 199 188 0
-190 -1 -8 -9 0
-190 -1 -8 85 0
-190 -1 86 -9 0
-190 -1 86 85 0
-190 135 -8 -9 0
-190 135 -8 85 0
-190 135 86 -9 0
-190 135 86 85 0
-190 -13 -29 -30 0
-190 -13 -29 150 0
-190 -13 151 -30 0
-190 -13 151 150 0
-190 235 -29 -30 0
-190 235 -29 150 0
-190 235 151 -30 0
-190 235 151 150 0
-190 -14 -38 -39 0
-190 -14 -38 159 0
-190 -14 160 -39 0
-190 -14 160 159 0
-190 271 -38 -39 0
-190 271 -38 159 0
-190 271 160 -39 0
-190 271 160 159 0
-190 -15 -46 -47 0
-190 -15 -46 167 0
-190 -15 168 -47 0
-190 -15 168 167 0
-190 299 -46 -47 0
-190 299 -46 167 0
-190 299 168 -47 0
-190 299 168 167 0
-190 -16 -53 -54 0
-190 -16 -53 174 0
-190 -16 175 -54 0
-190 -16 175 174 0
-190 320 -53 -54 0
-190 320 -53 174 0
-190 320 175 -54 0
-190 320 175 174 0
-190 -17 -59 -60 0
-190 -17 -59 180 0
-190 -17 181 -60 0
-190 -17 181 180 0
-190 335 -59 -60 0
-190 335 -59 180 0
-190 335 181 -60 0
-190 335 181 180 0
-190 -18 -64 -65 0
-190 -18 -64 185 0
-190 -18 186 -65 0
-190 -18 186 185 0
-190 345 -64 -65 0
-190 345 -64 185 0
-190 345 186 -65 0
-190 345 186 185 0
-190 -21 -70 -73 0
-190 -21 -70 191 0
-190 -21 194 -73 0
-190 -21 194 191 0
-190 355 -70 -73 0
-190 355 -70 191 0
-190 355 194 -73 0
-190 355 194 191 0
-190 -22 -71 -74 0
-190 -22 -71 192 0
-190 -22 195 -74 0
-190 -22 195 192 0
-190 356 -71 -74 0
-190 356 -71 192 0
-190 356 195 -74 0
-190 356 195 192 0
-190 -23 -72 -75 0
-190 -23 -72 193 0
-190 -23 196 -75 0
-190 -23 196 193 0
-190 357 -72 -75 0
-190 357 -72 193 0
-190 357 196 -75 0
-190 357 196 193 0
-191 -1 -8 -10 0
-191 -1 -8 85 0
-191 -1 87 -10 0
-191 -1 87 85 0
-191 136 -8 -10 0
-191 136 -8 85 0
-191 136 87 -10 0
-191 136 87 85 0
-191 -13 -29 -31 0
-191 -13 -29 150 0
-191 -13 152 -31 0
-191 -13 152 150 0
-191 236 -29 -31 0
-191 236 -29 150 0
-191 236 152 -31 0
-191 236 152 150 0
-191 -14 -38 -40 0
-191 -14 -38 159 0
-191 -14 161 -40 0
-191 -14 161 159 0
-191 272 -38 -40 0
-191 272 -38 159 0
-191 272 161 -40 0
-191 272 161 159 0
-191 -15 -46 -48 0
-191 -15 -46 167 0
-191 -15 169 -48 0
-191 -15 169 167 0
-191 300 -46 -48 0
-191 300 -46 167 0
-191 300 169 -48 0
-191 300 169 167 0
-191 -16 -53 -55 0
-191 -16 -53 174 0
-191 -16 176 -55 0
-191 -16 176 174 0
-191 321 -53 -55 0
-191 321 -53 174 0
-191 321 176 -55 0
-191 321 176 174 0
-191 -17 -59 -61 0
-191 -17 -59 180 0
-191 -17 182 -61 0
-191 -17 182 180 0
-191 336 -59 -61 0
-191 336 -59 180 0
-191 336 182 -61 0
-191 336 182 180 0
-191 -18 -64 -66 0
-191 -18 -64 185 0
-191 -18 187 -66 0
-191 -18 187 185 0
-191 346 -64 -66 0
-191 346 -64 185 0
-191 346 187 -66 0
-191 346 187 185 0
-191 -20 -69 -73 0
-191 -20 -69 190 0
-191 -20 194 -73 0
-191 -20 194 190 0
-191 355 -69 -73 0
-191 355 -69 190 0
-191 355 194 -73 0
-191 355 194 190 0
-191 -22 -71 -76 0
-191 -22 -71 192 0
-191 -22 197 -76 0
-191 -22 197 192 0
-191 358 -71 -76 0
-191 358 -71 192 0
-191 358 197 -76 0
-191 358 197 192 0
-191 -23 -72 -77 0
-191 -23 -72 193 0
-191 -23 198 -77 0
-191 -23 198 193 0
-191 359 -72 -77 0
-191 359 -72 193 0
-191 359 198 -77 0
-191 359 198 193 0
-192 -1 -8 -11 0
-192 -1 -8 85 0
-192 -1 88 -11 0
-192 -1 88 85 0
-192 137 -8 -11 0
-192 137 -8 85 0
-192 137 88 -11 0
-192 137 88 85 0
-192 -13 -29 -32 0
-192 -13 -29 150 0
-192 -13 153 -32 0
-192 -13 153 150 0
-192 237 -29 -32 0
-192 237 -29 150 0
-192 237 153 -32 0
-192 237 153 150 0
-192 -14 -38 -41 0
-192 -14 -38 159 0
-192 -14 162 -41 0
-192 -14 162 159 0
-192 273 -38 -41 0
-192 273 -38 159 0
-192 273 162 -41 0
-192 273 162 159 0
-192 -15 -46 -49 0
-192 -15 -46 167 0
-192 -15 170 -49 0
-192 -15 170 167 0
-192 301 -46 -49 0
-192 301 -46 167 0
-192 301 170 -49 0
-192 301 170 167 0
-192 -16 -53 -56 0
-192 -16 -53 174 0
-192 -16 177 -56 0
-192 -16 177 174 0
-192 322 -53 -56 0
-192 322 -53 174 0
-192 322 177 -56 0
-192 322 177 174 0
-192 -17 -59 -62 0
-192 -17 -59 180 0
-192 -17 183 -62 0
-192 -17 183 180 0
-192 337 -59 -62 0
-192 337 -59 180 0
-192 337 183 -62 0
-192 337 183 180 0
-192 -18 -64 -67 0
-192 -18 -64 185 0
-192 -18 188 -67 0
-192 -18 188 185 0
-192 347 -64 -67 0
-192 347 -64 185 0
-192 347 188 -67 0
-192 347 188 185 0
-192 -20 -69 -74 0
-192 -20 -69 190 0
-192 -20 195 -74 0
-192 -20 195 190 0
-192 356 -69 -74 0
-192 356 -69 190 0
-192 356 195 -74 0
-192 356 195 190 0
-192 -21 -70 -76 0
-192 -21 -70 191 0
-192 -21 197 -76 0
-192 -21 197 191 0
-192 358 -70 -76 0
-192 358 -70 191 0
-192 358 197 -76 0
-192 358 197 191 0
-192 -23 -72 -78 0
-192 -23 -72 193 0
-192 -23 199 -78 0
-192 -23 199 193 0
-192 360 -72 -78 0
-192 360 -72 193 0
-192 360 199 -78 0
-192 360 199 193 0
-193 -1 -8 -12 0
-193 -1 -8 85 0
-193 -1 89 -12 0
-193 -1 89 85 0
-193 138 -8 -12 0
-193 138 -8 85 0
-193 138 89 -12 0
-193 138 89 85 0
-193 -13 -29 -33 0
-193 -13 -29 150 0
-193 -13 154 -33 0
-193 -13 154 150 0
-193 238 -29 -33 0
-193 238 -29 150 0
-193 238 154 -33 0
-193 238 154 150 0
-193 -14 -38 -42 0
-193 -14 -38 159 0
-193 -14 163 -42 0
-193 -14 163 159 0
-193 274 -38 -42 0
-193 274 -38 159 0
-193 274 163 -42 0
-193 274 163 159 0
-193 -15 -46 -50 0
-193 -15 -46 167 0
-193 -15 171 -50 0
-193 -15 171 167 0
-193 302 -46 -50 0
-193 302 -46 167 0
-193 302 171 -50 0
-193 302 171 167 0
-193 -16 -53 -57 0
-193 -16 -53 174 0
-193 -16 178 -57 0
-193 -16 178 174 0
-193 323 -53 -57 0
-193 323 -53 174 0
-193 323 178 -57 0
-193 323 178 174 0
-193 -17 -59 -63 0
-193 -17 -59 180 0
-193 -17 184 -63 0
-193 -17 184 180 0
-193 338 -59 -63 0
-193 338 -59 180 0
-193 338 184 -63 0
-193 338 184 180 0
-193 -18 -64 -68 0
-193 -18 -64 185 0
-193 -18 189 -68 0
-193 -18 189 185 0
-193 348 -64 -68 0
-193 348 -64 185 0
-193 348 189 -68 0
-193 348 189 185 0
-193 -20 -69 -75 0
-193 -20 -69 190 0
-193 -20 196 -75 0
-193 -20 196 190 0
-193 357 -69 -75 0
-193 357 -69 190 0
-193 357 196 -75 0
-193 357 196 190 0
-193 -21 -70 -77 0
-193 -21 -70 191 0
-193 -21 198 -77 0
-193 -21 198 191 0
-193 359 -70 -77 0
-193 359 -70 191 0
-193 359 198 -77 0
-193 359 198 191 0
-193 -22 -71 -78 0
-193 -22 -71 192 0
-193 -22 199 -78 0
-193 -22 199 192 0
-193 360 -71 -78 0
-193 360 -71 192 0
-193 360 199 -78 0
-193 360 199 192 0
-194 -1 -9 -10 0
-194 -1 -9 86 0
-194 -1 87 -10 0
-194 -1 87 86 0
-194 139 -9 -10 0
-194 139 -9 86 0
-194 139 87 -10 0
-194 139 87 86 0
-194 -13 -30 -31 0
-194 -13 -30 151 0
-194 -13 152 -31 0
-194 -13 152 151 0
-194 239 -30 -31 0
-194 239 -30 151 0
-194 239 152 -31 0
-194 239 152 151 0
-194 -14 -39 -40 0
-194 -14 -39 160 0
-194 -14 161 -40 0
-194 -14 161 160 0
-194 275 -39 -40 0
-194 275 -39 160 0
-194 275 161 -40 0
-194 275 161 160 0
-194 -15 -47 -48 0
-194 -15 -47 168 0
-194 -15 169 -48 0
-194 -15 169 168 0
-194 303 -47 -48 0
-194 303 -47 168 0
-194 303 169 -48 0
-194 303 169 168 0
-194 -16 -54 -55 0
-194 -16 -54 175 0
-194 -16 176 -55 0
-194 -16 176 175 0
-194 324 -54 -55 0
-194 324 -54 175 0
-194 324 176 -55 0
-194 324 176 175 0
-194 -17 -60 -61 0
-194 -17 -60 181 0
-194 -17 182 -61 0
-194 -17 182 181 0
-194 339 -60 -61 0
-194 339 -60 181 0
-194 339 182 -61 0
-194 339 182 181 0
-194 -18 -65 -66 0
-194 -18 -65 186 0
-194 -18 187 -66 0
-194 -18 187 186 0
-194 349 -65 -66 0
-194 349 -65 186 0
-194 349 187 -66 0
-194 349 187 186 0
-194 -19 -69 -70 0
-194 -19 -69 190 0
-194 -19 191 -70 0
-194 -19 191 190 0
-194 355 -69 -70 0
-194 355 -69 190 0
-194 355 191 -70 0
-194 355 191 190 0
-194 -22 -74 -76 0
-194 -22 -74 195 0
-194 -22 197 -76 0
-194 -22 197 195 0
-194 361 -74 -76 0
-194 361 -74 195 0
-194 361 197 -76 0
-194 361 197 195 0
-194 -23 -75 -77 0
-194 -23 -75 196 0
-194 -23 198 -77 0
-194 -23 198 196 0
-194 362 -75 -77 0
-194 362 -75 196 0
-194 362 198 -77 0
-194 362 198 196 0
-195 -1 -9 -11 0
-195 -1 -9 86 0
-195 -1 88 -11 0
-195 -1 88 86 0
-195 140 -9 -11 0
-195 140 -9 86 0
-195 140 88 -11 0
-195 140 88 86 0
-195 -13 -30 -32 0
-195 -13 -30 151 0
-195 -13 153 -32 0
-195 -13 153 151 0
-195 240 -30 -32 0
-195 240 -30 151 0
-195 240 153 -32 0
-195 240 153 151 0
-195 -14 -39 -41 0
-195 -14 -39 160 0
-195 -14 162 -41 0
-195 -14 162 160 0
-195 276 -39 -41 0
-195 276 -39 160 0
-195 276 162 -41 0
-195 276 162 160 0
-195 -15 -47 -49 0
-195 -15 -47 168 0
-195 -15 170 -49 0
-195 -15 170 168 0
-195 304 -47 -49 0
-195 304 -47 168 0
-195 304 170 -49 0
-195 304 170 168 0
-195 -16 -54 -56 0
-195 -16 -54 175 0
-195 -16 177 -56 0
-195 -16 177 175 0
-195 325 -54 -56 0
-195 325 -54 175 0
-195 325 177 -56 0
-195 325 177 175 0
-195 -17 -60 -62 0
-195 -17 -60 181 0
-195 -17 183 -62 0
-195 -17 183 181 0
-195 340 -60 -62 0
-195 340 -60 181 0
-195 340 183 -62 0
-195 340 183 181 0
-195 -18 -65 -67 0
-195 -18 -65 186 0
-195 -18 188 -67 0
-195 -18 188 186 0
-195 350 -65 -67 0
-195 350 -65 186 0
-195 350 188 -67 0
-195 350 188 186 0
-195 -19 -69 -71 0
-195 -19 -69 190 0
-195 -19 192 -71 0
-195 -19 192 190 0
-195 356 -69 -71 0
-195 356 -69 190 0
-195 356 192 -71 0
-195 356 192 190 0
-195 -21 -73 -76 0
-195 -21 -73 194 0
-195 -21 197 -76 0
-195 -21 197 194 0
-195 361 -73 -76 0
-195 361 -73 194 0
-195 361 197 -76 0
-195 361 197 194 0
-195 -23 -75 -78 0
-195 -23 -75 196 0
-195 -23 199 -78 0
-195 -23 199 196 0
-195 363 -75 -78 0
-195 363 -75 196 0
-195 363 199 -78 0
-195 363 199 196 0
-196 -1 -9 -12 0
-196 -1 -9 86 0
-196 -1 89 -12 0
-196 -1 89 86 0
-196 141 -9 -12 0
-196 141 -9 86 0
-196 141 89 -12 0
-196 141 89 86 0
-196 -13 -30 -33 0
-196 -13 -30 151 0
-196 -13 154 -33 0
-196 -13 154 151 0
-196 241 -30 -33 0
-196 241 -30 151 0
-196 241 154 -33 0
-196 241 154 151 0
-196 -14 -39 -42 0
-196 -14 -39 160 0
-196 -14 163 -42 0
-196 -14 163 160 0
-196 277 -39 -42 0
-196 277 -39 160 0
-196 277 163 -42 0
-196 277 163 160 0
-196 -15 -47 -50 0
-196 -15 -47 168 0
-196 -15 171 -50 0
-196 -15 171 168 0
-196 305 -47 -50 0
-196 305 -47 168 0
-196 305 171 -50 0
-196 305 171 168 0
-196 -16 -54 -57 0
-196 -16 -54 175 0
-196 -16 178 -57 0
-196 -16 178 175 0
-196 326 -54 -57 0
-196 326 -54 175 0
-196 326 178 -57 0
-196 326 178 175 0
-196 -17 -60 -63 0
-196 -17 -60 181 0
-196 -17 184 -63 0
-196 -17 184 181 0
-196 341 -60 -63 0
-196 341 -60 181 0
-196 341 184 -63 0
-196 341 184 181 0
-196 -18 -65 -68 0
-196 -18 -65 186 0
-196 -18 189 -68 0
-196 -18 189 186 0
-196 351 -65 -68 0
-196 351 -65 186 0
-196 351 189 -68 0
-196 351 189 186 0
-196 -19 -69 -72 0
-196 -19 -69 190 0
-196 -19 193 -72 0
-196 -19 193 190 0
-196 357 -69 -72 0
-196 357 -69 190 0
-196 357 193 -72 0
-196 357 193 190 0
-196 -21 -73 -77 0
-196 -21 -73 194 0
-196 -21 198 -77 0
-196 -21 198 194 0
-196 362 -73 -77 0
-196 362 -73 194 0
-196 362 198 -77 0
-196 362 198 194 0
-196 -22 -74 -78 0
-196 -22 -74 195 0
-196 -22 199 -78 0
-196 -22 199 195 0
-196 363 -74 -78 0
-196 363 -74 195 0
-196 363 199 -78 0
-196 363 199 195 0
-197 -1 -10 -11 0
-197 -1 -10 87 0
-197 -1 88 -11 0
-197 -1 88 87 0
-197 142 -10 -11 0
-197 142 -10 87 0
-197 142 88 -11 0
-197 142 88 87 0
-197 -13 -31 -32 0
-197 -13 -31 152 0
-197 -13 153 -32 0
-197 -13 153 152 0
-197 242 -31 -32 0
-197 242 -31 152 0
-197 242 153 -32 0
-197 242 153 152 0
-197 -14 -40 -41 0
-197 -14 -40 161 0
-197 -14 162 -41 0
-197 -14 162 161 0
-197 278 -40 -41 0
-197 278 -40 161 0
-197 278 162 -41 0
-197 278 162 161 0
-197 -15 -48 -49 0
-197 -15 -48 169 0
-197 -15 170 -49 0
-197 -15 170 169 0
-197 306 -48 -49 0
-197 306 -48 169 0
-197 306 170 -49 0
-197 306 170 169 0
-197 -16 -55 -56 0
-197 -16 -55 176 0
-197 -16 177 -56 0
-197 -16 177 176 0
-197 327 -55 -56 0
-197 327 -55 176 0
-197 327 177 -56 0
-197 327 177 176 0
-197 -17 -61 -62 0
-197 -17 -61 182 0
-197 -17 183 -62 0
-197 -17 183 182 0
-197 342 -61 -62 0
-197 342 -61 182 0
-197 342 183 -62 0
-197 342 183 182 0
-197 -18 -66 -67 0
-197 -18 -66 187 0
-197 -18 188 -67 0
-197 -18 188 187 0
-197 352 -66 -67 0
-197 352 -66 187 0
-197 352 188 -67 0
-197 352 188 187 0
-197 -19 -70 -71 0
-197 -19 -70 191 0
-197 -19 192 -71 0
-197 -19 192 191 0
-197 358 -70 -71 0
-197 358 -70 191 0
-197 358 192 -71 0
-197 358 192 191 0
-197 -20 -73 -74 0
-197 -20 -73 194 0
-197 -20 195 -74 0
-197 -20 195 194 0
-197 361 -73 -74 0
-197 361 -73 194 0
-197 361 195 -74 0
-197 361 195 194 0
-197 -23 -77 -78 0
-197 -23 -77 198 0
-197 -23 199 -78 0
-197 -23 199 198 0
-197 364 -77 -78 0
-197 364 -77 198 0
-197 364 199 -78 0
-197 364 199 198 0
-198 -1 -10 -12 0
-198 -1 -10 87 0
-198 -1 89 -12 0
-198 -1 89 87 0
-198 143 -10 -12 0
-198 143 -10 87 0
-198 143 89 -12 0
-198 143 89 87 0
-198 -13 -31 -33 0
-198 -13 -31 152 0
-198 -13 154 -33 0
-198 -13 154 152 0
-198 243 -31 -33 0
-198 243 -31 152 0
-198 243 154 -33 0
-198 243 154 152 0
-198 -14 -40 -42 0
-198 -14 -40 161 0
-198 -14 163 -42 0
-198 -14 163 161 0
-198 279 -40 -42 0
-198 279 -40 161 0
-198 279 163 -42 0
-198 279 163 161 0
-198 -15 -48 -50 0
-198 -15 -48 169 0
-198 -15 171 -50 0
-198 -15 171 169 0
-198 307 -48 -50 0
-198 307 -48 169 0
-198 307 171 -50 0
-198 307 171 169 0
-198 -16 -55 -57 0
-198 -16 -55 176 0
-198 -16 178 -57 0
-198 -16 178 176 0
-198 328 -55 -57 0
-198 328 -55 176 0
-198 328 178 -57 0
-198 328 178 176 0
-198 -17 -61 -63 0
-198 -17 -61 182 0
-198 -17 184 -63 0
-198 -17 184 182 0
-198 343 -61 -63 0
-198 343 -61 182 0
-198 343 184 -63 0
-198 343 184 182 0
-198 -18 -66 -68 0
-198 -18 -66 187 0
-198 -18 189 -68 0
-198 -18 189 187 0
-198 353 -66 -68 0
-198 353 -66 187 0
-198 353 189 -68 0
-198 353 189 187 0
-198 -19 -70 -72 0
-198 -19 -70 191 0
-198 -19 193 -72 0
-198 -19 193 191 0
-198 359 -70 -72 0
-198 359 -70 191 0
-198 359 193 -72 0
-198 359 193 191 0
-198 -20 -73 -75 0
-198 -20 -73 194 0
-198 -20 196 -75 0
-198 -20 196 194 0
-198 362 -73 -75 0
-198 362 -73 194 0
-198 362 196 -75 0
-198 362 196 194 0
-198 -22 -76 -78 0
-198 -22 -76 197 0
-198 -22 199 -78 0
-198 -22 199 197 0
-198 364 -76 -78 0
-198 364 -76 197 0
-198 364 199 -78 0
-198 364 199 197 0
-199 -1 -11 -12 0
-199 -1 -11 88 0
-199 -1 89 -12 0
-199 -1 89 88 0
-199 144 -11 -12 0
-199 144 -11 88 0
-199 144 89 -12 0
-199 144 89 88 0
-199 -13 -32 -33 0
-199 -13 -32 153 0
-199 -13 154 -33 0
-199 -13 154 153 0
-199 244 -32 -33 0
-199 244 -32 153 0
-199 244 154 -33 0
-199 244 154 153 0
-199 -14 -41 -42 0
-199 -14 -41 162 0
-199 -14 163 -42 0
-199 -14 163 162 0
-199 280 -41 -42 0
-199 280 -41 162 0
-199 280 163 -42 0
-199 280 163 162 0
-199 -15 -49 -50 0
-199 -15 -49 170 0
-199 -15 171 -50 0
-199 -15 171 170 0
-199 308 -49 -50 0
-199 308 -49 170 0
-199 308 171 -50 0
-199 308 171 170 0
-199 -16 -56 -57 0
-199 -16 -56 177 0
-199 -16 178 -57 0
-199 -16 178 177 0
-199 329 -56 -57 0
-199 329 -56 177 0
-199 329 178 -57 0
-199 329 178 177 0
-199 -17 -62 -63 0
-199 -17 -62 183 0
-199 -17 184 -63 0
-199 -17 184 183 0
-199 344 -62 -63 0
-199 344 -62 183 0
-199 344 184 -63 0
-199 344 184 183 0
-199 -18 -67 -68 0
-199 -18 -67 188 0
-199 -18 189 -68 0
-199 -18 189 188 0
-199 354 -67 -68 0
-199 354 -67 188 0
-199 354 189 -68 0
-199 354 189 188 0
-199 -19 -71 -72 0
-199 -19 -71 192 0
-199 -19 193 -72 0
-199 -19 193 192 0
-199 360 -71 -72 0
-199 360 -71 192 0
-199 360 193 -72 0
-199 360 193 192 0
-199 -20 -74 -75 0
-199 -20 -74 195 0
-199 -20 196 -75 0
-199 -20 196 195 0
-199 363 -74 -75 0
-199 363 -74 195 0
-199 363 196 -75 0
-199 363 196 195 0
-199 -21 -76 -77 0
-199 -21 -76 197 0
-199 -21 198 -77 0
-199 -21 198 197 0
-199 364 -76 -77 0
-199 364 -76 197 0
-199 364 198 -77 0
-199 364 198 197 0
-200 -2 -3 -4 0
-200 -2 -3 90 0
-200 -2 91 -4 0
-200 -2 91 90 0
-200 100 -3 -4 0
-200 100 -3 90 0
-200 100 91 -4 0
-200 100 91 90 0
-200 -13 -14 -15 0
-200 -13 -14 145 0
-200 -13 146 -15 0
-200 -13 146 145 0
-200 155 -14 -15 0
-200 155 -14 145 0
-200 155 146 -15 0
-200 155 146 145 0
-200 -26 -35 -43 0
-200 -26 -35 201 0
-200 -26 209 -43 0
-200 -26 209 201 0
-200 245 -35 -43 0
-200 245 -35 201 0
-200 245 209 -43 0
-200 245 209 201 0
-200 -27 -36 -44 0
-200 -27 -36 202 0
-200 -27 210 -44 0
-200 -27 210 202 0
-200 246 -36 -44 0
-200 246 -36 202 0
-200 246 210 -44 0
-200 246 210 202 0
-200 -28 -37 -45 0
-200 -28 -37 203 0
-200 -28 211 -45 0
-200 -28 211 203 0
-200 247 -37 -45 0
-200 247 -37 203 0
-200 247 211 -45 0
-200 247 211 203 0
-200 -29 -38 -46 0
-200 -29 -38 204 0
-200 -29 212 -46 0
-200 -29 212 204 0
-200 248 -38 -46 0
-200 248 -38 204 0
-200 248 212 -46 0
-200 248 212 204 0
-200 -30 -39 -47 0
-200 -30 -39 205 0
-200 -30 213 -47 0
-200 -30 213 205 0
-200 249 -39 -47 0
-200 249 -39 205 0
-200 249 213 -47 0
-200 249 213 205 0
-200 -31 -40 -48 0
-200 -31 -40 206 0
-200 -31 214 -48 0
-200 -31 214 206 0
-200 250 -40 -48 0
-200 250 -40 206 0
-200 250 214 -48 0
-200 250 214 206 0
-200 -32 -41 -49 0
-200 -32 -41 207 0
-200 -32 215 -49 0
-200 -32 215 207 0
-200 251 -41 -49 0
-200 251 -41 207 0
-200 251 215 -49 0
-200 251 215 207 0
-200 -33 -42 -50 0
-200 -33 -42 208 0
-200 -33 216 -50 0
-200 -33 216 208 0
-200 252 -42 -50 0
-200 252 -42 208 0
-200 252 216 -50 0
-200 252 216 208 0
-201 -2 -3 -5 0
-201 -2 -3 90 0
-201 -2 92 -5 0
-201 -2 92 90 0
-201 101 -3 -5 0
-201 101 -3 90 0
-201 101 92 -5 0
-201 101 92 90 0
-201 -13 -14 -16 0
-201 -13 -14 145 0
-201 -13 147 -16 0
-201 -13 147 145 0
-201 156 -14 -16 0
-201 156 -14 145 0
-201 156 147 -16 0
-201 156 147 145 0
-201 -25 -34 -43 0
-201 -25 -34 200 0
-201 -25 209 -43 0
-201 -25 209 200 0
-201 245 -34 -43 0
-201 245 -34 200 0
-201 245 209 -43 0
-201 245 209 200 0
-201 -27 -36 -51 0
-201 -27 -36 202 0
-201 -27 217 -51 0
-201 -27 217 202 0
-201 253 -36 -51 0
-201 253 -36 202 0
-201 253 217 -51 0
-201 253 217 202 0
-201 -28 -37 -52 0
-201 -28 -37 203 0
-201 -28 218 -52 0
-201 -28 218 203 0
-201 254 -37 -52 0
-201 254 -37 203 0
-201 254 218 -52 0
-201 254 218 203 0
-201 -29 -38 -53 0
-201 -29 -38 204 0
-201 -29 219 -53 0
-201 -29 219 204 0
-201 255 -38 -53 0
-201 255 -38 204 0
-201 255 219 -53 0
-201 255 219 204 0
-201 -30 -39 -54 0
-201 -30 -39 205 0
-201 -30 220 -54 0
-201 -30 220 205 0
-201 256 -39 -54 0
-201 256 -39 205 0
-201 256 220 -54 0
-201 256 220 205 0
-201 -31 -40 -55 0
-201 -31 -40 206 0
-201 -31 221 -55 0
-201 -31 221 206 0
-201 257 -40 -55 0
-201 257 -40 206 0
-201 257 221 -55 0
-201 257 221 206 0
-201 -32 -41 -56 0
-201 -32 -41 207 0
-201 -32 222 -56 0
-201 -32 222 207 0
-201 258 -41 -56 0
-201 258 -41 207 0
-201 258 222 -56 0
-201 258 222 207 0
-201 -33 -42 -57 0
-201 -33 -42 208 0
-201 -33 223 -57 0
-201 -33 223 208 0
-201 259 -42 -57 0
-201 259 -42 208 0
-201 259 223 -57 0
-201 259 223 208 0
-202 -2 -3 -6 0
-202 -2 -3 90 0
-202 -2 93 -6 0
-202 -2 93 90 0
-202 102 -3 -6 0
-202 102 -3 90 0
-202 102 93 -6 0
-202 102 93 90 0
-202 -13 -14 -17 0
-202 -13 -14 145 0
-202 -13 148 -17 0
-202 -13 148 145 0
-202 157 -14 -17 0
-202 157 -14 145 0
-202 157 148 -17 0
-202 157 148 145 0
-202 -25 -34 -44 0
-202 -25 -34 200 0
-202 -25 210 -44 0
-202 -25 210 200 0
-202 246 -34 -44 0
-202 246 -34 200 0
-202 246 210 -44 0
-202 246 210 200 0
-202 -26 -35 -51 0
-202 -26 -35 201 0
-202 -26 217 -51 0
-202 -26 217 201 0
-202 253 -35 -51 0
-202 253 -35 201 0
-202 253 217 -51 0
-202 253 217 201 0
-202 -28 -37 -58 0
-202 -28 -37 203 0
-202 -28 224 -58 0
-202 -28 224 203 0
-202 260 -37 -58 0
-202 260 -37 203 0
-202 260 224 -58 0
-202 260 224 203 0
-202 -29 -38 -59 0
-202 -29 -38 204 0
-202 -29 225 -59 0
-202 -29 225 204 0
-202 261 -38 -59 0
-202 261 -38 204 0
-202 261 225 -59 0
-202 261 225 204 0
-202 -30 -39 -60 0
-202 -30 -39 205 0
-202 -30 226 -60 0
-202 -30 226 205 0
-202 262 -39 -60 0
-202 262 -39 205 0
-202 262 226 -60 0
-202 262 226 205 0
-202 -31 -40 -61 0
-202 -31 -40 206 0
-202 -31 227 -61 0
-202 -31 227 206 0
-202 263 -40 -61 0
-202 263 -40 206 0
-202 263 227 -61 0
-202 263 227 206 0
-202 -32 -41 -62 0
-202 -32 -41 207 0
-202 -32 228 -62 0
-202 -32 228 207 0
-202 264 -41 -62 0
-202 264 -41 207 0
-202 264 228 -62 0
-202 264 228 207 0
-202 -33 -42 -63 0
-202 -33 -42 208 0
-202 -33 229 -63 0
-202 -33 229 208 0
-202 265 -42 -63 0
-202 265 -42 208 0
-202 265 229 -63 0
-202 265 229 208 0
-203 -2 -3 -7 0
-203 -2 -3 90 0
-203 -2 94 -7 0
-203 -2 94 90 0
-203 103 -3 -7 0
-203 103 -3 90 0
-203 103 94 -7 0
-203 103 94 90 0
-203 -13 -14 -18 0
-203 -13 -14 145 0
-203 -13 149 -18 0
-203 -13 149 145 0
-203 158 -14 -18 0
-203 158 -14 145 0
-203 158 149 -18 0
-203 158 149 145 0
-203 -25 -34 -45 0
-203 -25 -34 200 0
-203 -25 211 -45 0
-203 -25 211 200 0
-203 247 -34 -45 0
-203 247 -34 200 0
-203 247 211 -45 0
-203 247 211 200 0
-203 -26 -35 -52 0
-203 -26 -35 201 0
-203 -26 218 -52 0
-203 -26 218 201 0
-203 254 -35 -52 0
-203 254 -35 201 0
-203 254 218 -52 0
-203 254 218 201 0
-203 -27 -36 -58 0
-203 -27 -36 202 0
-203 -27 224 -58 0
-203 -27 224 202 0
-203 260 -36 -58 0
-203 260 -36 202 0
-203 260 224 -58 0
-203 260 224 202 0
-203 -29 -38 -64 0
-203 -29 -38 204 0
-203 -29 230 -64 0
-203 -29 230 204 0
-203 266 -38 -64 0
-203 266 -38 204 0
-203 266 230 -64 0
-203 266 230 204 0
-203 -30 -39 -65 0
-203 -30 -39 205 0
-203 -30 231 -65 0
-203 -30 231 205 0
-203 267 -39 -65 0
-203 267 -39 205 0
-203 267 231 -65 0
-203 267 231 205 0
-203 -31 -40 -66 0
-203 -31 -40 206 0
-203 -31 232 -66 0
-203 -31 232 206 0
-203 268 -40 -66 0
-203 268 -40 206 0
-203 268 232 -66 0
-203 268 232 206 0
-203 -32 -41 -67 0
-203 -32 -41 207 0
-203 -32 233 -67 0
-203 -32 233 207 0
-203 269 -41 -67 0
-203 269 -41 207 0
-203 269 233 -67 0
-203 269 233 207 0
-203 -33 -42 -68 0
-203 -33 -42 208 0
-203 -33 234 -68 0
-203 -33 234 208 0
-203 270 -42 -68 0
-203 270 -42 208 0
-203 270 234 -68 0
-203 270 234 208 0
-204 -2 -3 -8 0
-204 -2 -3 90 0
-204 -2 95 -8 0
-204 -2 95 90 0
-204 104 -3 -8 0
-204 104 -3 90 0
-204 104 95 -8 0
-204 104 95 90 0
-204 -13 -14 -19 0
-204 -13 -14 145 0
-204 -13 150 -19 0
-204 -13 150 145 0
-204 159 -14 -19 0
-204 159 -14 145 0
-204 159 150 -19 0
-204 159 150 145 0
-204 -25 -34 -46 0
-204 -25 -34 200 0
-204 -25 212 -46 0
-204 -25 212 200 0
-204 248 -34 -46 0
-204 248 -34 200 0
-204 248 212 -46 0
-204 248 212 200 0
-204 -26 -35 -53 0
-204 -26 -35 201 0
-204 -26 219 -53 0
-204 -26 219 201 0
-204 255 -35 -53 0
-204 255 -35 201 0
-204 255 219 -53 0
-204 255 219 201 0
-204 -27 -36 -59 0
-204 -27 -36 202 0
-204 -27 225 -59 0
-204 -27 225 202 0
-204 261 -36 -59 0
-204 261 -36 202 0
-204 261 225 -59 0
-204 261 225 202 0
-204 -28 -37 -64 0
-204 -28 -37 203 0
-204 -28 230 -64 0
-204 -28 230 203 0
-204 266 -37 -64 0
-204 266 -37 203 0
-204 266 230 -64 0
-204 266 230 203 0
-204 -30 -39 -69 0
-204 -30 -39 205 0
-204 -30 235 -69 0
-204 -30 235 205 0
-204 271 -39 -69 0
-204 271 -39 205 0
-204 271 235 -69 0
-204 271 235 205 0
-204 -31 -40 -70 0
-204 -31 -40 206 0
-204 -31 236 -70 0
-204 -31 236 206 0
-204 272 -40 -70 0
-204 272 -40 206 0
-204 272 236 -70 0
-204 272 236 206 0
-204 -32 -41 -71 0
-204 -32 -41 207 0
-204 -32 237 -71 0
-204 -32 237 207 0
-204 273 -41 -71 0
-204 273 -41 207 0
-204 273 237 -71 0
-204 273 237 207 0
-204 -33 -42 -72 0
-204 -33 -42 208 0
-204 -33 238 -72 0
-204 -33 238 208 0
-204 274 -42 -72 0
-204 274 -42 208 0
-204 274 238 -72 0
-204 274 238 208 0
-205 -2 -3 -9 0
-205 -2 -3 90 0
-205 -2 96 -9 0
-205 -2 96 90 0
-205 105 -3 -9 0
-205 105 -3 90 0
-205 105 96 -9 0
-205 105 96 90 0
-205 -13 -14 -20 0
-205 -13 -14 145 0
-205 -13 151 -20 0
-205 -13 151 145 0
-205 160 -14 -20 0
-205 160 -14 145 0
-205 160 151 -20 0
-205 160 151 145 0
-205 -25 -34 -47 0
-205 -25 -34 200 0
-205 -25 213 -47 0
-205 -25 213 200 0
-205 249 -34 -47 0
-205 249 -34 200 0
-205 249 213 -47 0
-205 249 213 200 0
-205 -26 -35 -54 0
-205 -26 -35 201 0
-205 -26 220 -54 0
-205 -26 220 201 0
-205 256 -35 -54 0
-205 256 -35 201 0
-205 256 220 -54 0
-205 256 220 201 0
-205 -27 -36 -60 0
-205 -27 -36 202 0
-205 -27 226 -60 0
-205 -27 226 202 0
-205 262 -36 -60 0
-205 262 -36 202 0
-205 262 226 -60 0
-205 262 226 202 0
-205 -28 -37 -65 0
-205 -28 -37 203 0
-205 -28 231 -65 0
-205 -28 231 203 0
-205 267 -37 -65 0
-205 267 -37 203 0
-205 267 231 -65 0
-205 267 231 203 0
-205 -29 -38 -69 0
-205 -29 -38 204 0
-205 -29 235 -69 0
-205 -29 235 204 0
-205 271 -38 -69 0
-205 271 -38 204 0
-205 271 235 -69 0
-205 271 235 204 0
-205 -31 -40 -73 0
-205 -31 -40 206 0
-205 -31 239 -73 0
-205 -31 239 206 0
-205 275 -40 -73 0
-205 275 -40 206 0
-205 275 239 -73 0
-205 275 239 206 0
-205 -32 -41 -74 0
-205 -32 -41 207 0
-205 -32 240 -74 0
-205 -32 240 207 0
-205 276 -41 -74 0
-205 276 -41 207 0
-205 276 240 -74 0
-205 276 240 207 0
-205 -33 -42 -75 0
-205 -33 -42 208 0
-205 -33 241 -75 0
-205 -33 241 208 0
-205 277 -42 -75 0
-205 277 -42 208 0
-205 277 241 -75 0
-205 277 241 208 0
-206 -2 -3 -10 0
-206 -2 -3 90 0
-206 -2 97 -10 0
-206 -2 97 90 0
-206 106 -3 -10 0
-206 106 -3 90 0
-206 106 97 -10 0
-206 106 97 90 0
-206 -13 -14 -21 0
-206 -13 -14 145 0
-206 -13 152 -21 0
-206 -13 152 145 0
-206 161 -14 -21 0
-206 161 -14 145 0
-206 161 152 -21 0
-206 161 152 145 0
-206 -25 -34 -48 0
-206 -25 -34 200 0
-206 -25 214 -48 0
-206 -25 214 200 0
-206 250 -34 -48 0
-206 250 -34 200 0
-206 250 214 -48 0
-206 250 214 200 0
-206 -26 -35 -55 0
-206 -26 -35 201 0
-206 -26 221 -55 0
-206 -26 221 201 0
-206 257 -35 -55 0
-206 257 -35 201 0
-206 257 221 -55 0
-206 257 221 201 0
-206 -27 -36 -61 0
-206 -27 -36 202 0
-206 -27 227 -61 0
-206 -27 227 202 0
-206 263 -36 -61 0
-206 263 -36 202 0
-206 263 227 -61 0
-206 263 227 202 0
-206 -28 -37 -66 0
-206 -28 -37 203 0
-206 -28 232 -66 0
-206 -28 232 203 0
-206 268 -37 -66 0
-206 268 -37 203 0
-206 268 232 -66 0
-206 268 232 203 0
-206 -29 -38 -70 0
-206 -29 -38 204 0
-206 -29 236 -70 0
-206 -29 236 204 0
-206 272 -38 -70 0
-206 272 -38 204 0
-206 272 236 -70 0
-206 272 236 204 0
-206 -30 -39 -73 0
-206 -30 -39 205 0
-206 -30 239 -73 0
-206 -30 239 205 0
-206 275 -39 -73 0
-206 275 -39 205 0
-206 275 239 -73 0
-206 275 239 205 0
-206 -32 -41 -76 0
-206 -32 -41 207 0
-206 -32 242 -76 0
-206 -32 242 207 0
-206 278 -41 -76 0
-206 278 -41 207 0
-206 278 242 -76 0
-206 278 242 207 0
-206 -33 -42 -77 0
-206 -33 -42 208 0
-206 -33 243 -77 0
-206 -33 243 208 0
-206 279 -42 -77 0
-206 279 -42 208 0
-206 279 243 -77 0
-206 279 243 208 0
-207 -2 -3 -11 0
-207 -2 -3 90 0
-207 -2 98 -11 0
-207 -2 98 90 0
-207 107 -3 -11 0
-207 107 -3 90 0
-207 107 98 -11 0
-207 107 98 90 0
-207 -13 -14 -22 0
-207 -13 -14 145 0
-207 -13 153 -22 0
-207 -13 153 145 0
-207 162 -14 -22 0
-207 162 -14 145 0
-207 162 153 -22 0
-207 162 153 145 0
-207 -25 -34 -49 0
-207 -25 -34 200 0
-207 -25 215 -49 0
-207 -25 215 200 0
-207 251 -34 -49 0
-207 251 -34 200 0
-207 251 215 -49 0
-207 251 215 200 0
-207 -26 -35 -56 0
-207 -26 -35 201 0
-207 -26 222 -56 0
-207 -26 222 201 0
-207 258 -35 -56 0
-207 258 -35 201 0
-207 258 222 -56 0
-207 258 222 201 0
-207 -27 -36 -62 0
-207 -27 -36 202 0
-207 -27 228 -62 0
-207 -27 228 202 0
-207 264 -36 -62 0
-207 264 -36 202 0
-207 264 228 -62 0
-207 264 228 202 0
-207 -28 -37 -67 0
-207 -28 -37 203 0
-207 -28 233 -67 0
-207 -28 233 203 0
-207 269 -37 -67 0
-207 269 -37 203 0
-207 269 233 -67 0
-207 269 233 203 0
-207 -29 -38 -71 0
-207 -29 -38 204 0
-207 -29 237 -71 0
-207 -29 237 204 0
-207 273 -38 -71 0
-207 273 -38 204 0
-207 273 237 -71 0
-207 273 237 204 0
-207 -30 -39 -74 0
-207 -30 -39 205 0
-207 -30 240 -74 0
-207 -30 240 205 0
-207 276 -39 -74 0
-207 276 -39 205 0
-207 276 240 -74 0
-207 276 240 205 0
-207 -31 -40 -76 0
-207 -31 -40 206 0
-207 -31 242 -76 0
-207 -31 242 206 0
-207 278 -40 -76 0
-207 278 -40 206 0
-207 278 242 -76 0
-207 278 242 206 0
-207 -33 -42 -78 0
-207 -33 -42 208 0
-207 -33 244 -78 0
-207 -33 244 208 0
-207 280 -42 -78 0
-207 280 -42 208 0
-207 280 244 -78 0
-207 280 244 208 0
-208 -2 -3 -12 0
-208 -2 -3 90 0
-208 -2 99 -12 0
-208 -2 99 90 0
-208 108 -3 -12 0
-208 108 -3 90 0
-208 108 99 -12 0
-208 108 99 90 0
-208 -13 -14 -23 0
-208 -13 -14 145 0
-208 -13 154 -23 0
-208 -13 154 145 0
-208 163 -14 -23 0
-208 163 -14 145 0
-208 163 154 -23 0
-208 163 154 145 0
-208 -25 -34 -50 0
-208 -25 -34 200 0
-208 -25 216 -50 0
-208 -25 216 200 0
-208 252 -34 -50 0
-208 252 -34 200 0
-208 252 216 -50 0
-208 252 216 200 0
-208 -26 -35 -57 0
-208 -26 -35 201 0
-208 -26 223 -57 0
-208 -26 223 201 0
-208 259 -35 -57 0
-208 259 -35 201 0
-208 259 223 -57 0
-208 259 223 201 0
-208 -27 -36 -63 0
-208 -27 -36 202 0
-208 -27 229 -63 0
-208 -27 229 202 0
-208 265 -36 -63 0
-208 265 -36 202 0
-208 265 229 -63 0
-208 265 229 202 0
-208 -28 -37 -68 0
-208 -28 -37 203 0
-208 -28 234 -68 0
-208 -28 234 203 0
-208 270 -37 -68 0
-208 270 -37 203 0
-208 270 234 -68 0
-208 270 234 203 0
-208 -29 -38 -72 0
-208 -29 -38 204 0
-208 -29 238 -72 0
-208 -29 238 204 0
-208 274 -38 -72 0
-208 274 -38 204 0
-208 274 238 -72 0
-208 274 238 204 0
-208 -30 -39 -75 0
-208 -30 -39 205 0
-208 -30 241 -75 0
-208 -30 241 205 0
-208 277 -39 -75 0
-208 277 -39 205 0
-208 277 241 -75 0
-208 277 241 205 0
-208 -31 -40 -77 0
-208 -31 -40 206 0
-208 -31 243 -77 0
-208 -31 243 206 0
-208 279 -40 -77 0
-208 279 -40 206 0
-208 279 243 -77 0
-208 279 243 206 0
-208 -32 -41 -78 0
-208 -32 -41 207 0
-208 -32 244 -78 0
-208 -32 244 207 0
-208 280 -41 -78 0
-208 280 -41 207 0
-208 280 244 -78 0
-208 280 244 207 0
-209 -2 -4 -5 0
-209 -2 -4 91 0
-209 -2 92 -5 0
-209 -2 92 91 0
-209 109 -4 -5 0
-209 109 -4 91 0
-209 109 92 -5 0
-209 109 92 91 0
-209 -13 -15 -16 0
-209 -13 -15 146 0
-209 -13 147 -16 0
-209 -13 147 146 0
-209 164 -15 -16 0
-209 164 -15 146 0
-209 164 147 -16 0
-209 164 147 146 0
-209 -24 -34 -35 0
-209 -24 -34 200 0
-209 -24 201 -35 0
-209 -24 201 200 0
-209 245 -34 -35 0
-209 245 -34 200 0
-209 245 201 -35 0
-209 245 201 200 0
-209 -27 -44 -51 0
-209 -27 -44 210 0
-209 -27 217 -51 0
-209 -27 217 210 0
-209 281 -44 -51 0
-209 281 -44 210 0
-209 281 217 -51 0
-209 281 217 210 0
-209 -28 -45 -52 0
-209 -28 -45 211 0
-209 -28 218 -52 0
-209 -28 218 211 0
-209 282 -45 -52 0
-209 282 -45 211 0
-209 282 218 -52 0
-209 282 218 211 0
-209 -29 -46 -53 0
-209 -29 -46 212 0
-209 -29 219 -53 0
-209 -29 219 212 0
-209 283 -46 -53 0
-209 283 -46 212 0
-209 283 219 -53 0
-209 283 219 212 0
-209 -30 -47 -54 0
-209 -30 -47 213 0
-209 -30 220 -54 0
-209 -30 220 213 0
-209 284 -47 -54 0
-209 284 -47 213 0
-209 284 220 -54 0
-209 284 220 213 0
-209 -31 -48 -55 0
-209 -31 -48 214 0
-209 -31 221 -55 0
-209 -31 221 214 0
-209 285 -48 -55 0
-209 285 -48 214 0
-209 285 221 -55 0
-209 285 221 214 0
-209 -32 -49 -56 0
-209 -32 -49 215 0
-209 -32 222 -56 0
-209 -32 222 215 0
-209 286 -49 -56 0
-209 286 -49 215 0
-209 286 222 -56 0
-209 286 222 215 0
-209 -33 -50 -57 0
-209 -33 -50 216 0
-209 -33 223 -57 0
-209 -33 223 216 0
-209 287 -50 -57 0
-209 287 -50 216 0
-209 287 223 -57 0
-209 287 223 216 0
-210 -2 -4 -6 0
-210 -2 -4 91 0
-210 -2 93 -6 0
-210 -2 93 91 0
-210 110 -4 -6 0
-210 110 -4 91 0
-210 110 93 -6 0
-210 110 93 91 0
-210 -13 -15 -17 0
-210 -13 -15 146 0
-210 -13 148 -17 0
-210 -13 148 146 0
-210 165 -15 -17 0
-210 165 -15 146 0
-210 165 148 -17 0
-210 165 148 146 0
-210 -24 -34 -36 0
-210 -24 -34 200 0
-210 -24 202 -36 0
-210 -24 202 200 0
-210 246 -34 -36 0
-210 246 -34 200 0
-210 246 202 -36 0
-210 246 202 200 0
-210 -26 -43 -51 0
-210 -26 -43 209 0
-210 -26 217 -51 0
-210 -26 217 209 0
-210 281 -43 -51 0
-210 281 -43 209 0
-210 281 217 -51 0
-210 281 217 209 0
-210 -28 -45 -58 0
-210 -28 -45 211 0
-210 -28 224 -58 0
-210 -28 224 211 0
-210 288 -45 -58 0
-210 288 -45 211 0
-210 288 224 -58 0
-210 288 224 211 0
-210 -29 -46 -59 0
-210 -29 -46 212 0
-210 -29 225 -59 0
-210 -29 225 212 0
-210 289 -46 -59 0
-210 289 -46 212 0
-210 289 225 -59 0
-210 289 225 212 0
-210 -30 -47 -60 0
-210 -30 -47 213 0
-210 -30 226 -60 0
-210 -30 226 213 0
-210 290 -47 -60 0
-210 290 -47 213 0
-210 290 226 -60 0
-210 290 226 213 0
-210 -31 -48 -61 0
-210 -31 -48 214 0
-210 -31 227 -61 0
-210 -31 227 214 0
-210 291 -48 -61 0
-210 291 -48 214 0
-210 291 227 -61 0
-210 291 227 214 0
-210 -32 -49 -62 0
-210 -32 -49 215 0
-210 -32 228 -62 0
-210 -32 228 215 0
-210 292 -49 -62 0
-210 292 -49 215 0
-210 292 228 -62 0
-210 292 228 215 0
-210 -33 -50 -63 0
-210 -33 -50 216 0
-210 -33 229 -63 0
-210 -33 229 216 0
-210 293 -50 -63 0
-210 293 -50 216 0
-210 293 229 -63 0
-210 293 229 216 0
-211 -2 -4 -7 0
-211 -2 -4 91 0
-211 -2 94 -7 0
-211 -2 94 91 0
-211 111 -4 -7 0
-211 111 -4 91 0
-211 111 94 -7 0
-211 111 94 91 0
-211 -13 -15 -18 0
-211 -13 -15 146 0
-211 -13 149 -18 0
-211 -13 149 146 0
-211 166 -15 -18 0
-211 166 -15 146 0
-211 166 149 -18 0
-211 166 149 146 0
-211 -24 -34 -37 0
-211 -24 -34 200 0
-211 -24 203 -37 0
-211 -24 203 200 0
-211 247 -34 -37 0
-211 247 -34 200 0
-211 247 203 -37 0
-211 247 203 200 0
-211 -26 -43 -52 0
-211 -26 -43 209 0
-211 -26 218 -52 0
-211 -26 218 209 0
-211 282 -43 -52 0
-211 282 -43 209 0
-211 282 218 -52 0
-211 282 218 209 0
-211 -27 -44 -58 0
-211 -27 -44 210 0
-211 -27 224 -58 0
-211 -27 224 210 0
-211 288 -44 -58 0
-211 288 -44 210 0
-211 288 224 -58 0
-211 288 224 210 0
-211 -29 -46 -64 0
-211 -29 -46 212 0
-211 -29 230 -64 0
-211 -29 230 212 0
-211 294 -46 -64 0
-211 294 -46 212 0
-211 294 230 -64 0
-211 294 230 212 0
-211 -30 -47 -65 0
-211 -30 -47 213 0
-211 -30 231 -65 0
-211 -30 231 213 0
-211 295 -47 -65 0
-211 295 -47 213 0
-211 295 231 -65 0
-211 295 231 213 0
-211 -31 -48 -66 0
-211 -31 -48 214 0
-211 -31 232 -66 0
-211 -31 232 214 0
-211 296 -48 -66 0
-211 296 -48 214 0
-211 296 232 -66 0
-211 296 232 214 0
-211 -32 -49 -67 0
-211 -32 -49 215 0
-211 -32 233 -67 0
-211 -32 233 215 0
-211 297 -49 -67 0
-211 297 -49 215 0
-211 297 233 -67 0
-211 297 233 215 0
-211 -33 -50 -68 0
-211 -33 -50 216 0
-211 -33 234 -68 0
-211 -33 234 216 0
-211 298 -50 -68 0
-211 298 -50 216 0
-211 298 234 -68 0
-211 298 234 216 0
-212 -2 -4 -8 0
-212 -2 -4 91 0
-212 -2 95 -8 0
-212 -2 95 91 0
-212 112 -4 -8 0
-212 112 -4 91 0
-212 112 95 -8 0
-212 112 95 91 0
-212 -13 -15 -19 0
-212 -13 -15 146 0
-212 -13 150 -19 0
-212 -13 150 146 0
-212 167 -15 -19 0
-212 167 -15 146 0
-212 167 150 -19 0
-212 167 150 146 0
-212 -24 -34 -38 0
-212 -24 -34 200 0
-212 -24 204 -38 0
-212 -24 204 200 0
-212 248 -34 -38 0
-212 248 -34 200 0
-212 248 204 -38 0
-212 248 204 200 0
-212 -26 -43 -53 0
-212 -26 -43 209 0
-212 -26 219 -53 0
-212 -26 219 209 0
-212 283 -43 -53 0
-212 283 -43 209 0
-212 283 219 -53 0
-212 283 219 209 0
-212 -27 -44 -59 0
-212 -27 -44 210 0
-212 -27 225 -59 0
-212 -27 225 210 0
-212 289 -44 -59 0
-212 289 -44 210 0
-212 289 225 -59 0
-212 289 225 210 0
-212 -28 -45 -64 0
-212 -28 -45 211 0
-212 -28 230 -64 0
-212 -28 230 211 0
-212 294 -45 -64 0
-212 294 -45 211 0
-212 294 230 -64 0
-212 294 230 211 0
-212 -30 -47 -69 0
-212 -30 -47 213 0
-212 -30 235 -69 0
-212 -30 235 213 0
-212 299 -47 -69 0
-212 299 -47 213 0
-212 299 235 -69 0
-212 299 235 213 0
-212 -31 -48 -70 0
-212 -31 -48 214 0
-212 -31 236 -70 0
-212 -31 236 214 0
-212 300 -48 -70 0
-212 300 -48 214 0
-212 300 236 -70 0
-212 300 236 214 0
-212 -32 -49 -71 0
-212 -32 -49 215 0
-212 -32 237 -71 0
-212 -32 237 215 0
-212 301 -49 -71 0
-212 301 -49 215 0
-212 301 237 -71 0
-212 301 237 215 0
-212 -33 -50 -72 0
-212 -33 -50 216 0
-212 -33 238 -72 0
-212 -33 238 216 0
-212 302 -50 -72 0
-212 302 -50 216 0
-212 302 238 -72 0
-212 302 238 216 0
-213 -2 -4 -9 0
-213 -2 -4 91 0
-213 -2 96 -9 0
-213 -2 96 91 0
-213 113 -4 -9 0
-213 113 -4 91 0
-213 113 96 -9 0
-213 113 96 91 0
-213 -13 -15 -20 0
-213 -13 -15 146 0
-213 -13 151 -20 0
-213 -13 151 146 0
-213 168 -15 -20 0
-213 168 -15 146 0
-213 168 151 -20 0
-213 168 151 146 0
-213 -24 -34 -39 0
-213 -24 -34 200 0
-213 -24 205 -39 0
-213 -24 205 200 0
-213 249 -34 -39 0
-213 249 -34 200 0
-213 249 205 -39 0
-213 249 205 200 0
-213 -26 -43 -54 0
-213 -26 -43 209 0
-213 -26 220 -54 0
-213 -26 220 209 0
-213 284 -43 -54 0
-213 284 -43 209 0
-213 284 220 -54 0
-213 284 220 209 0
-213 -27 -44 -60 0
-213 -27 -44 210 0
-213 -27 226 -60 0
-213 -27 226 210 0
-213 290 -44 -60 0
-213 290 -44 210 0
-213 290 226 -60 0
-213 290 226 210 0
-213 -28 -45 -65 0
-213 -28 -45 211 0
-213 -28 231 -65 0
-213 -28 231 211 0
-213 295 -45 -65 0
-213 295 -45 211 0
-213 295 231 -65 0
-213 295 231 211 0
-213 -29 -46 -69 0
-213 -29 -46 212 0
-213 -29 235 -69 0
-213 -29 235 212 0
-213 299 -46 -69 0
-213 299 -46 212 0
-213 299 235 -69 0
-213 299 235 212 0
-213 -31 -48 -73 0
-213 -31 -48 214 0
-213 -31 239 -73 0
-213 -31 239 214 0
-213 303 -48 -73 0
-213 303 -48 214 0
-213 303 239 -73 0
-213 303 239 214 0
-213 -32 -49 -74 0
-213 -32 -49 215 0
-213 -32 240 -74 0
-213 -32 240 215 0
-213 304 -49 -74 0
-213 304 -49 215 0
-213 304 240 -74 0
-213 304 240 215 0
-213 -33 -50 -75 0
-213 -33 -50 216 0
-213 -33 241 -75 0
-213 -33 241 216 0
-213 305 -50 -75 0
-213 305 -50 216 0
-213 305 241 -75 0
-213 305 241 216 0
-214 -2 -4 -10 0
-214 -2 -4 91 0
-214 -2 97 -10 0
-214 -2 97 91 0
-214 114 -4 -10 0
-214 114 -4 91 0
-214 114 97 -10 0
-214 114 97 91 0
-214 -13 -15 -21 0
-214 -13 -15 146 0
-214 -13 152 -21 0
-214 -13 152 146 0
-214 169 -15 -21 0
-214 169 -15 146 0
-214 169 152 -21 0
-214 169 152 146 0
-214 -24 -34 -40 0
-214 -24 -34 200 0
-214 -24 206 -40 0
-214 -24 206 200 0
-214 250 -34 -40 0
-214 250 -34 200 0
-214 250 206 -40 0
-214 250 206 200 0
-214 -26 -43 -55 0
-214 -26 -43 209 0
-214 -26 221 -55 0
-214 -26 221 209 0
-214 285 -43 -55 0
-214 285 -43 209 0
-214 285 221 -55 0
-214 285 221 209 0
-214 -27 -44 -61 0
-214 -27 -44 210 0
-214 -27 227 -61 0
-214 -27 227 210 0
-214 291 -44 -61 0
-214 291 -44 210 0
-214 291 227 -61 0
-214 291 227 210 0
-214 -28 -45 -66 0
-214 -28 -45 211 0
-214 -28 232 -66 0
-214 -28 232 211 0
-214 296 -45 -66 0
-214 296 -45 211 0
-214 296 232 -66 0
-214 296 232 211 0
-214 -29 -46 -70 0
-214 -29 -46 212 0
-214 -29 236 -70 0
-214 -29 236 212 0
-214 300 -46 -70 0
-214 300 -46 212 0
-214 300 236 -70 0
-214 300 236 212 0
-214 -30 -47 -73 0
-214 -30 -47 213 0
-214 -30 239 -73 0
-214 -30 239 213 0
-214 303 -47 -73 0
-214 303 -47 213 0
-214 303 239 -73 0
-214 303 239 213 0
-214 -32 -49 -76 0
-214 -32 -49 215 0
-214 -32 242 -76 0
-214 -32 242 215 0
-214 306 -49 -76 0
-214 306 -49 215 0
-214 306 242 -76 0
-214 306 242 215 0
-214 -33 -50 -77 0
-214 -33 -50 216 0
-214 -33 243 -77 0
-214 -33 243 216 0
-214 307 -50 -77 0
-214 307 -50 216 0
-214 307 243 -77 0
-214 307 243 216 0
-215 -2 -4 -11 0
-215 -2 -4 91 0
-215 -2 98 -11 0
-215 -2 98 91 0
-215 115 -4 -11 0
-215 115 -4 91 0
-215 115 98 -11 0
-215 115 98 91 0
-215 -13 -15 -22 0
-215 -13 -15 146 0
-215 -13 153 -22 0
-215 -13 153 146 0
-215 170 -15 -22 0
-215 170 -15 146 0
-215 170 153 -22 0
-215 170 153 146 0
-215 -24 -34 -41 0
-215 -24 -34 200 0
-215 -24 207 -41 0
-215 -24 207 200 0
-215 251 -34 -41 0
-215 251 -34 200 0
-215 251 207 -41 0
-215 251 207 200 0
-215 -26 -43 -56 0
-215 -26 -43 209 0
-215 -26 222 -56 0
-215 -26 222 209 0
-215 286 -43 -56 0
-215 286 -43 209 0
-215 286 222 -56 0
-215 286 222 209 0
-215 -27 -44 -62 0
-215 -27 -44 210 0
-215 -27 228 -62 0
-215 -27 228 210 0
-215 292 -44 -62 0
-215 292 -44 210 0
-215 292 228 -62 0
-215 292 228 210 0
-215 -28 -45 -67 0
-215 -28 -45 211 0
-215 -28 233 -67 0
-215 -28 233 211 0
-215 297 -45 -67 0
-215 297 -45 211 0
-215 297 233 -67 0
-215 297 233 211 0
-215 -29 -46 -71 0
-215 -29 -46 212 0
-215 -29 237 -71 0
-215 -29 237 212 0
-215 301 -46 -71 0
-215 301 -46 212 0
-215 301 237 -71 0
-215 301 237 212 0
-215 -30 -47 -74 0
-215 -30 -47 213 0
-215 -30 240 -74 0
-215 -30 240 213 0
-215 304 -47 -74 0
-215 304 -47 213 0
-215 304 240 -74 0
-215 304 240 213 0
-215 -31 -48 -76 0
-215 -31 -48 214 0
-215 -31 242 -76 0
-215 -31 242 214 0
-215 306 -48 -76 0
-215 306 -48 214 0
-215 306 242 -76 0
-215 306 242 214 0
-215 -33 -50 -78 0
-215 -33 -50 216 0
-215 -33 244 -78 0
-215 -33 244 216 0
-215 308 -50 -78 0
-215 308 -50 216 0
-215 308 244 -78 0
-215 308 244 216 0
-216 -2 -4 -12 0
-216 -2 -4 91 0
-216 -2 99 -12 0
-216 -2 99 91 0
-216 116 -4 -12 0
-216 116 -4 91 0
-216 116 99 -12 0
-216 116 99 91 0
-216 -13 -15 -23 0
-216 -13 -15 146 0
-216 -13 154 -23 0
-216 -13 154 146 0
-216 171 -15 -23 0
-216 171 -15 146 0
-216 171 154 -23 0
-216 171 154 146 0
-216 -24 -34 -42 0
-216 -24 -34 200 0
-216 -24 208 -42 0
-216 -24 208 200 0
-216 252 -34 -42 0
-216 252 -34 200 0
-216 252 208 -42 0
-216 252 208 200 0
-216 -26 -43 -57 0
-216 -26 -43 209 0
-216 -26 223 -57 0
-216 -26 223 209 0
-216 287 -43 -57 0
-216 287 -43 209 0
-216 287 223 -57 0
-216 287 223 209 0
-216 -27 -44 -63 0
-216 -27 -44 210 0
-216 -27 229 -63 0
-216 -27 229 210 0
-216 293 -44 -63 0
-216 293 -44 210 0
-216 293 229 -63 0
-216 293 229 210 0
-216 -28 -45 -68 0
-216 -28 -45 211 0
-216 -28 234 -68 0
-216 -28 234 211 0
-216 298 -45 -68 0
-216 298 -45 211 0
-216 298 234 -68 0
-216 298 234 211 0
-216 -29 -46 -72 0
-216 -29 -46 212 0
-216 -29 238 -72 0
-216 -29 238 212 0
-216 302 -46 -72 0
-216 302 -46 212 0
-216 302 238 -72 0
-216 302 238 212 0
-216 -30 -47 -75 0
-216 -30 -47 213 0
-216 -30 241 -75 0
-216 -30 241 213 0
-216 305 -47 -75 0
-216 305 -47 213 0
-216 305 241 -75 0
-216 305 241 213 0
-216 -31 -48 -77 0
-216 -31 -48 214 0
-216 -31 243 -77 0
-216 -31 243 214 0
-216 307 -48 -77 0
-216 307 -48 214 0
-216 307 243 -77 0
-216 307 243 214 0
-216 -32 -49 -78 0
-216 -32 -49 215 0
-216 -32 244 -78 0
-216 -32 244 215 0
-216 308 -49 -78 0
-216 308 -49 215 0
-216 308 244 -78 0
-216 308 244 215 0
-217 -2 -5 -6 0
-217 -2 -5 92 0
-217 -2 93 -6 0
-217 -2 93 92 0
-217 117 -5 -6 0
-217 117 -5 92 0
-217 117 93 -6 0
-217 117 93 92 0
-217 -13 -16 -17 0
-217 -13 -16 147 0
-217 -13 148 -17 0
-217 -13 148 147 0
-217 172 -16 -17 0
-217 172 -16 147 0
-217 172 148 -17 0
-217 172 148 147 0
-217 -24 -35 -36 0
-217 -24 -35 201 0
-217 -24 202 -36 0
-217 -24 202 201 0
-217 253 -35 -36 0
-217 253 -35 201 0
-217 253 202 -36 0
-217 253 202 201 0
-217 -25 -43 -44 0
-217 -25 -43 209 0
-217 -25 210 -44 0
-217 -25 210 209 0
-217 281 -43 -44 0
-217 281 -43 209 0
-217 281 210 -44 0
-217 281 210 209 0
-217 -28 -52 -58 0
-217 -28 -52 218 0
-217 -28 224 -58 0
-217 -28 224 218 0
-217 309 -52 -58 0
-217 309 -52 218 0
-217 309 224 -58 0
-217 309 224 218 0
-217 -29 -53 -59 0
-217 -29 -53 219 0
-217 -29 225 -59 0
-217 -29 225 219 0
-217 310 -53 -59 0
-217 310 -53 219 0
-217 310 225 -59 0
-217 310 225 219 0
-217 -30 -54 -60 0
-217 -30 -54 220 0
-217 -30 226 -60 0
-217 -30 226 220 0
-217 311 -54 -60 0
-217 311 -54 220 0
-217 311 226 -60 0
-217 311 226 220 0
-217 -31 -55 -61 0
-217 -31 -55 221 0
-217 -31 227 -61 0
-217 -31 227 221 0
-217 312 -55 -61 0
-217 312 -55 221 0
-217 312 227 -61 0
-217 312 227 221 0
-217 -32 -56 -62 0
-217 -32 -56 222 0
-217 -32 228 -62 0
-217 -32 228 222 0
-217 313 -56 -62 0
-217 313 -56 222 0
-217 313 228 -62 0
-217 313 228 222 0
-217 -33 -57 -63 0
-217 -33 -57 223 0
-217 -33 229 -63 0
-217 -33 229 223 0
-217 314 -57 -63 0
-217 314 -57 223 0
-217 314 229 -63 0
-217 314 229 223 0
-218 -2 -5 -7 0
-218 -2 -5 92 0
-218 -2 94 -7 0
-218 -2 94 92 0
-218 118 -5 -7 0
-218 118 -5 92 0
-218 118 94 -7 0
-218 118 94 92 0
-218 -13 -16 -18 0
-218 -13 -16 147 0
-218 -13 149 -18 0
-218 -13 149 147 0
-218 173 -16 -18 0
-218 173 -16 147 0
-218 173 149 -18 0
-218 173 149 147 0
-218 -24 -35 -37 0
-218 -24 -35 201 0
-218 -24 203 -37 0
-218 -24 203 201 0
-218 254 -35 -37 0
-218 254 -35 201 0
-218 254 203 -37 0
-218 254 203 201 0
-218 -25 -43 -45 0
-218 -25 -43 209 0
-218 -25 211 -45 0
-218 -25 211 209 0
-218 282 -43 -45 0
-218 282 -43 209 0
-218 282 211 -45 0
-218 282 211 209 0
-218 -27 -51 -58 0
-218 -27 -51 217 0
-218 -27 224 -58 0
-218 -27 224 217 0
-218 309 -51 -58 0
-218 309 -51 217 0
-218 309 224 -58 0
-218 309 224 217 0
-218 -29 -53 -64 0
-218 -29 -53 219 0
-218 -29 230 -64 0
-218 -29 230 219 0
-218 315 -53 -64 0
-218 315 -53 219 0
-218 315 230 -64 0
-218 315 230 219 0
-218 -30 -54 -65 0
-218 -30 -54 220 0
-218 -30 231 -65 0
-218 -30 231 220 0
-218 316 -54 -65 0
-218 316 -54 220 0
-218 316 231 -65 0
-218 316 231 220 0
-218 -31 -55 -66 0
-218 -31 -55 221 0
-218 -31 232 -66 0
-218 -31 232 221 0
-218 317 -55 -66 0
-218 317 -55 221 0
-218 317 232 -66 0
-218 317 232 221 0
-218 -32 -56 -67 0
-218 -32 -56 222 0
-218 -32 233 -67 0
-218 -32 233 222 0
-218 318 -56 -67 0
-218 318 -56 222 0
-218 318 233 -67 0
-218 318 233 222 0
-218 -33 -57 -68 0
-218 -33 -57 223 0
-218 -33 234 -68 0
-218 -33 234 223 0
-218 319 -57 -68 0
-218 319 -57 223 0
-218 319 234 -68 0
-218 319 234 223 0
-219 -2 -5 -8 0
-219 -2 -5 92 0
-219 -2 95 -8 0
-219 -2 95 92 0
-219 119 -5 -8 0
-219 119 -5 92 0
-219 119 95 -8 0
-219 119 95 92 0
-219 -13 -16 -19 0
-219 -13 -16 147 0
-219 -13 150 -19 0
-219 -13 150 147 0
-219 174 -16 -19 0
-219 174 -16 147 0
-219 174 150 -19 0
-219 174 150 147 0
-219 -24 -35 -38 0
-219 -24 -35 201 0
-219 -24 204 -38 0
-219 -24 204 201 0
-219 255 -35 -38 0
-219 255 -35 201 0
-219 255 204 -38 0
-219 255 204 201 0
-219 -25 -43 -46 0
-219 -25 -43 209 0
-219 -25 212 -46 0
-219 -25 212 209 0
-219 283 -43 -46 0
-219 283 -43 209 0
-219 283 212 -46 0
-219 283 212 209 0
-219 -27 -51 -59 0
-219 -27 -51 217 0
-219 -27 225 -59 0
-219 -27 225 217 0
-219 310 -51 -59 0
-219 310 -51 217 0
-219 310 225 -59 0
-219 310 225 217 0
-219 -28 -52 -64 0
-219 -28 -52 218 0
-219 -28 230 -64 0
-219 -28 230 218 0
-219 315 -52 -64 0
-219 315 -52 218 0
-219 315 230 -64 0
-219 315 230 218 0
-219 -30 -54 -69 0
-219 -30 -54 220 0
-219 -30 235 -69 0
-219 -30 235 220 0
-219 320 -54 -69 0
-219 320 -54 220 0
-219 320 235 -69 0
-219 320 235 220 0
-219 -31 -55 -70 0
-219 -31 -55 221 0
-219 -31 236 -70 0
-219 -31 236 221 0
-219 321 -55 -70 0
-219 321 -55 221 0
-219 321 236 -70 0
-219 321 236 221 0
-219 -32 -56 -71 0
-219 -32 -56 222 0
-219 -32 237 -71 0
-219 -32 237 222 0
-219 322 -56 -71 0
-219 322 -56 222 0
-219 322 237 -71 0
-219 322 237 222 0
-219 -33 -57 -72 0
-219 -33 -57 223 0
-219 -33 238 -72 0
-219 -33 238 223 0
-219 323 -57 -72 0
-219 323 -57 223 0
-219 323 238 -72 0
-219 323 238 223 0
-220 -2 -5 -9 0
-220 -2 -5 92 0
-220 -2 96 -9 0
-220 -2 96 92 0
-220 120 -5 -9 0
-220 120 -5 92 0
-220 120 96 -9 0
-220 120 96 92 0
-220 -13 -16 -20 0
-220 -13 -16 147 0
-220 -13 151 -20 0
-220 -13 151 147 0
-220 175 -16 -20 0
-220 175 -16 147 0
-220 175 151 -20 0
-220 175 151 147 0
-220 -24 -35 -39 0
-220 -24 -35 201 0
-220 -24 205 -39 0
-220 -24 205 201 0
-220 256 -35 -39 0
-220 256 -35 201 0
-220 256 205 -39 0
-220 256 205 201 0
-220 -25 -43 -47 0
-220 -25 -43 209 0
-220 -25 213 -47 0
-220 -25 213 209 0
-220 284 -43 -47 0
-220 284 -43 209 0
-220 284 213 -47 0
-220 284 213 209 0
-220 -27 -51 -60 0
-220 -27 -51 217 0
-220 -27 226 -60 0
-220 -27 226 217 0
-220 311 -51 -60 0
-220 311 -51 217 0
-220 311 226 -60 0
-220 311 226 217 0
-220 -28 -52 -65 0
-220 -28 -52 218 0
-220 -28 231 -65 0
-220 -28 231 218 0
-220 316 -52 -65 0
-220 316 -52 218 0
-220 316 231 -65 0
-220 316 231 218 0
-220 -29 -53 -69 0
-220 -29 -53 219 0
-220 -29 235 -69 0
-220 -29 235 219 0
-220 320 -53 -69 0
-220 320 -53 219 0
-220 320 235 -69 0
-220 320 235 219 0
-220 -31 -55 -73 0
-220 -31 -55 221 0
-220 -31 239 -73 0
-220 -31 239 221 0
-220 324 -55 -73 0
-220 324 -55 221 0
-220 324 239 -73 0
-220 324 239 221 0
-220 -32 -56 -74 0
-220 -32 -56 222 0
-220 -32 240 -74 0
-220 -32 240 222 0
-220 325 -56 -74 0
-220 325 -56 222 0
-220 325 240 -74 0
-220 325 240 222 0
-220 -33 -57 -75 0
-220 -33 -57 223 0
-220 -33 241 -75 0
-220 -33 241 223 0
-220 326 -57 -75 0
-220 326 -57 223 0
-220 326 241 -75 0
-220 326 241 223 0
-221 -2 -5 -10 0
-221 -2 -5 92 0
-221 -2 97 -10 0
-221 -2 97 92 0
-221 121 -5 -10 0
-221 121 -5 92 0
-221 121 97 -10 0
-221 121 97 92 0
-221 -13 -16 -21 0
-221 -13 -16 147 0
-221 -13 152 -21 0
-221 -13 152 147 0
-221 176 -16 -21 0
-221 176 -16 147 0
-221 176 152 -21 0
-221 176 152 147 0
-221 -24 -35 -40 0
-221 -24 -35 201 0
-221 -24 206 -40 0
-221 -24 206 201 0
-221 257 -35 -40 0
-221 257 -35 201 0
-221 257 206 -40 0
-221 257 206 201 0
-221 -25 -43 -48 0
-221 -25 -43 209 0
-221 -25 214 -48 0
-221 -25 214 209 0
-221 285 -43 -48 0
-221 285 -43 209 0
-221 285 214 -48 0
-221 285 214 209 0
-221 -27 -51 -61 0
-221 -27 -51 217 0
-221 -27 227 -61 0
-221 -27 227 217 0
-221 312 -51 -61 0
-221 312 -51 217 0
-221 312 227 -61 0
-221 312 227 217 0
-221 -28 -52 -66 0
-221 -28 -52 218 0
-221 -28 232 -66 0
-221 -28 232 218 0
-221 317 -52 -66 0
-221 317 -52 218 0
-221 317 232 -66 0
-221 317 232 218 0
-221 -29 -53 -70 0
-221 -29 -53 219 0
-221 -29 236 -70 0
-221 -29 236 219 0
-221 321 -53 -70 0
-221 321 -53 219 0
-221 321 236 -70 0
-221 321 236 219 0
-221 -30 -54 -73 0
-221 -30 -54 220 0
-221 -30 239 -73 0
-221 -30 239 220 0
-221 324 -54 -73 0
-221 324 -54 220 0
-221 324 239 -73 0
-221 324 239 220 0
-221 -32 -56 -76 0
-221 -32 -56 222 0
-221 -32 242 -76 0
-221 -32 242 222 0
-221 327 -56 -76 0
-221 327 -56 222 0
-221 327 242 -76 0
-221 327 242 222 0
-221 -33 -57 -77 0
-221 -33 -57 223 0
-221 -33 243 -77 0
-221 -33 243 223 0
-221 328 -57 -77 0
-221 328 -57 223 0
-221 328 243 -77 0
-221 328 243 223 0
-222 -2 -5 -11 0
-222 -2 -5 92 0
-222 -2 98 -11 0
-222 -2 98 92 0
-222 122 -5 -11 0
-222 122 -5 92 0
-222 122 98 -11 0
-222 122 98 92 0
-222 -13 -16 -22 0
-222 -13 -16 147 0
-222 -13 153 -22 0
-222 -13 153 147 0
-222 177 -16 -22 0
-222 177 -16 147 0
-222 177 153 -22 0
-222 177 153 147 0
-222 -24 -35 -41 0
-222 -24 -35 201 0
-222 -24 207 -41 0
-222 -24 207 201 0
-222 258 -35 -41 0
-222 258 -35 201 0
-222 258 207 -41 0
-222 258 207 201 0
-222 -25 -43 -49 0
-222 -25 -43 209 0
-222 -25 215 -49 0
-222 -25 215 209 0
-222 286 -43 -49 0
-222 286 -43 209 0
-222 286 215 -49 0
-222 286 215 209 0
-222 -27 -51 -62 0
-222 -27 -51 217 0
-222 -27 228 -62 0
-222 -27 228 217 0
-222 313 -51 -62 0
-222 313 -51 217 0
-222 313 228 -62 0
-222 313 228 217 0
-222 -28 -52 -67 0
-222 -28 -52 218 0
-222 -28 233 -67 0
-222 -28 233 218 0
-222 318 -52 -67 0
-222 318 -52 218 0
-222 318 233 -67 0
-222 318 233 218 0
-222 -29 -53 -71 0
-222 -29 -53 219 0
-222 -29 237 -71 0
-222 -29 237 219 0
-222 322 -53 -71 0
-222 322 -53 219 0
-222 322 237 -71 0
-222 322 237 219 0
-222 -30 -54 -74 0
-222 -30 -54 220 0
-222 -30 240 -74 0
-222 -30 240 220 0
-222 325 -54 -74 0
-222 325 -54 220 0
-222 325 240 -74 0
-222 325 240 220 0
-222 -31 -55 -76 0
-222 -31 -55 221 0
-222 -31 242 -76 0
-222 -31 242 221 0
-222 327 -55 -76 0
-222 327 -55 221 0
-222 327 242 -76 0
-222 327 242 221 0
-222 -33 -57 -78 0
-222 -33 -57 223 0
-222 -33 244 -78 0
-222 -33 244 223 0
-222 329 -57 -78 0
-222 329 -57 223 0
-222 329 244 -78 0
-222 329 244 223 0
-223 -2 -5 -12 0
-223 -2 -5 92 0
-223 -2 99 -12 0
-223 -2 99 92 0
-223 123 -5 -12 0
-223 123 -5 92 0
-223 123 99 -12 0
-223 123 99 92 0
-223 -13 -16 -23 0
-223 -13 -16 147 0
-223 -13 154 -23 0
-223 -13 154 147 0
-223 178 -16 -23 0
-223 178 -16 147 0
-223 178 154 -23 0
-223 178 154 147 0
-223 -24 -35 -42 0
-223 -24 -35 201 0
-223 -24 208 -42 0
-223 -24 208 201 0
-223 259 -35 -42 0
-223 259 -35 201 0
-223 259 208 -42 0
-223 259 208 201 0
-223 -25 -43 -50 0
-223 -25 -43 209 0
-223 -25 216 -50 0
-223 -25 216 209 0
-223 287 -43 -50 0
-223 287 -43 209 0
-223 287 216 -50 0
-223 287 216 209 0
-223 -27 -51 -63 0
-223 -27 -51 217 0
-223 -27 229 -63 0
-223 -27 229 217 0
-223 314 -51 -63 0
-223 314 -51 217 0
-223 314 229 -63 0
-223 314 229 217 0
-223 -28 -52 -68 0
-223 -28 -52 218 0
-223 -28 234 -68 0
-223 -28 234 218 0
-223 319 -52 -68 0
-223 319 -52 218 0
-223 319 234 -68 0
-223 319 234 218 0
-223 -29 -53 -72 0
-223 -29 -53 219 0
-223 -29 238 -72 0
-223 -29 238 219 0
-223 323 -53 -72 0
-223 323 -53 219 0
-223 323 238 -72 0
-223 323 238 219 0
-223 -30 -54 -75 0
-223 -30 -54 220 0
-223 -30 241 -75 0
-223 -30 241 220 0
-223 326 -54 -75 0
-223 326 -54 220 0
-223 326 241 -75 0
-223 326 241 220 0
-223 -31 -55 -77 0
-223 -31 -55 221 0
-223 -31 243 -77 0
-223 -31 243 221 0
-223 328 -55 -77 0
-223 328 -55 221 0
-223 328 243 -77 0
-223 328 243 221 0
-223 -32 -56 -78 0
-223 -32 -56 222 0
-223 -32 244 -78 0
-223 -32 244 222 0
-223 329 -56 -78 0
-223 329 -56 222 0
-223 329 244 -78 0
-223 329 244 222 0
-224 -2 -6 -7 0
-224 -2 -6 93 0
-224 -2 94 -7 0
-224 -2 94 93 0
-224 124 -6 -7 0
-224 124 -6 93 0
-224 124 94 -7 0
-224 124 94 93 0
-224 -13 -17 -18 0
-224 -13 -17 148 0
-224 -13 149 -18 0
-224 -13 149 148 0
-224 179 -17 -18 0
-224 179 -17 148 0
-224 179 149 -18 0
-224 179 149 148 0
-224 -24 -36 -37 0
-224 -24 -36 202 0
-224 -24 203 -37 0
-224 -24 203 202 0
-224 260 -36 -37 0
-224 260 -36 202 0
-224 260 203 -37 0
-224 260 203 202 0
-224 -25 -44 -45 0
-224 -25 -44 210 0
-224 -25 211 -45 0
-224 -25 211 210 0
-224 288 -44 -45 0
-224 288 -44 210 0
-224 288 211 -45 0
-224 288 211 210 0
-224 -26 -51 -52 0
-224 -26 -51 217 0
-224 -26 218 -52 0
-224 -26 218 217 0
-224 309 -51 -52 0
-224 309 -51 217 0
-224 309 218 -52 0
-224 309 218 217 0
-224 -29 -59 -64 0
-224 -29 -59 225 0
-224 -29 230 -64 0
-224 -29 230 225 0
-224 330 -59 -64 0
-224 330 -59 225 0
-224 330 230 -64 0
-224 330 230 225 0
-224 -30 -60 -65 0
-224 -30 -60 226 0
-224 -30 231 -65 0
-224 -30 231 226 0
-224 331 -60 -65 0
-224 331 -60 226 0
-224 331 231 -65 0
-224 331 231 226 0
-224 -31 -61 -66 0
-224 -31 -61 227 0
-224 -31 232 -66 0
-224 -31 232 227 0
-224 332 -61 -66 0
-224 332 -61 227 0
-224 332 232 -66 0
-224 332 232 227 0
-224 -32 -62 -67 0
-224 -32 -62 228 0
-224 -32 233 -67 0
-224 -32 233 228 0
-224 333 -62 -67 0
-224 333 -62 228 0
-224 333 233 -67 0
-224 333 233 228 0
-224 -33 -63 -68 0
-224 -33 -63 229 0
-224 -33 234 -68 0
-224 -33 234 229 0
-224 334 -63 -68 0
-224 334 -63 229 0
-224 334 234 -68 0
-224 334 234 229 0
-225 -2 -6 -8 0
-225 -2 -6 93 0
-225 -2 95 -8 0
-225 -2 95 93 0
-225 125 -6 -8 0
-225 125 -6 93 0
-225 125 95 -8 0
-225 125 95 93 0
-225 -13 -17 -19 0
-225 -13 -17 148 0
-225 -13 150 -19 0
-225 -13 150 148 0
-225 180 -17 -19 0
-225 180 -17 148 0
-225 180 150 -19 0
-225 180 150 148 0
-225 -24 -36 -38 0
-225 -24 -36 202 0
-225 -24 204 -38 0
-225 -24 204 202 0
-225 261 -36 -38 0
-225 261 -36 202 0
-225 261 204 -38 0
-225 261 204 202 0
-225 -25 -44 -46 0
-225 -25 -44 210 0
-225 -25 212 -46 0
-225 -25 212 210 0
-225 289 -44 -46 0
-225 289 -44 210 0
-225 289 212 -46 0
-225 289 212 210 0
-225 -26 -51 -53 0
-225 -26 -51 217 0
-225 -26 219 -53 0
-225 -26 219 217 0
-225 310 -51 -53 0
-225 310 -51 217 0
-225 310 219 -53 0
-225 310 219 217 0
-225 -28 -58 -64 0
-225 -28 -58 224 0
-225 -28 230 -64 0
-225 -28 230 224 0
-225 330 -58 -64 0
-225 330 -58 224 0
-225 330 230 -64 0
-225 330 230 224 0
-225 -30 -60 -69 0
-225 -30 -60 226 0
-225 -30 235 -69 0
-225 -30 235 226 0
-225 335 -60 -69 0
-225 335 -60 226 0
-225 335 235 -69 0
-225 335 235 226 0
-225 -31 -61 -70 0
-225 -31 -61 227 0
-225 -31 236 -70 0
-225 -31 236 227 0
-225 336 -61 -70 0
-225 336 -61 227 0
-225 336 236 -70 0
-225 336 236 227 0
-225 -32 -62 -71 0
-225 -32 -62 228 0
-225 -32 237 -71 0
-225 -32 237 228 0
-225 337 -62 -71 0
-225 337 -62 228 0
-225 337 237 -71 0
-225 337 237 228 0
-225 -33 -63 -72 0
-225 -33 -63 229 0
-225 -33 238 -72 0
-225 -33 238 229 0
-225 338 -63 -72 0
-225 338 -63 229 0
-225 338 238 -72 0
-225 338 238 229 0
-226 -2 -6 -9 0
-226 -2 -6 93 0
-226 -2 96 -9 0
-226 -2 96 93 0
-226 126 -6 -9 0
-226 126 -6 93 0
-226 126 96 -9 0
-226 126 96 93 0
-226 -13 -17 -20 0
-226 -13 -17 148 0
-226 -13 151 -20 0
-226 -13 151 148 0
-226 181 -17 -20 0
-226 181 -17 148 0
-226 181 151 -20 0
-226 181 151 148 0
-226 -24 -36 -39 0
-226 -24 -36 202 0
-226 -24 205 -39 0
-226 -24 205 202 0
-226 262 -36 -39 0
-226 262 -36 202 0
-226 262 205 -39 0
-226 262 205 202 0
-226 -25 -44 -47 0
-226 -25 -44 210 0
-226 -25 213 -47 0
-226 -25 213 210 0
-226 290 -44 -47 0
-226 290 -44 210 0
-226 290 213 -47 0
-226 290 213 210 0
-226 -26 -51 -54 0
-226 -26 -51 217 0
-226 -26 220 -54 0
-226 -26 220 217 0
-226 311 -51 -54 0
-226 311 -51 217 0
-226 311 220 -54 0
-226 311 220 217 0
-226 -28 -58 -65 0
-226 -28 -58 224 0
-226 -28 231 -65 0
-226 -28 231 224 0
-226 331 -58 -65 0
-226 331 -58 224 0
-226 331 231 -65 0
-226 331 231 224 0
-226 -29 -59 -69 0
-226 -29 -59 225 0
-226 -29 235 -69 0
-226 -29 235 225 0
-226 335 -59 -69 0
-226 335 -59 225 0
-226 335 235 -69 0
-226 335 235 225 0
-226 -31 -61 -73 0
-226 -31 -61 227 0
-226 -31 239 -73 0
-226 -31 239 227 0
-226 339 -61 -73 0
-226 339 -61 227 0
-226 339 239 -73 0
-226 339 239 227 0
-226 -32 -62 -74 0
-226 -32 -62 228 0
-226 -32 240 -74 0
-226 -32 240 228 0
-226 340 -62 -74 0
-226 340 -62 228 0
-226 340 240 -74 0
-226 340 240 228 0
-226 -33 -63 -75 0
-226 -33 -63 229 0
-226 -33 241 -75 0
-226 -33 241 229 0
-226 341 -63 -75 0
-226 341 -63 229 0
-226 341 241 -75 0
-226 341 241 229 0
-227 -2 -6 -10 0
-227 -2 -6 93 0
-227 -2 97 -10 0
-227 -2 97 93 0
-227 127 -6 -10 0
-227 127 -6 93 0
-227 127 97 -10 0
-227 127 97 93 0
-227 -13 -17 -21 0
-227 -13 -17 148 0
-227 -13 152 -21 0
-227 -13 152 148 0
-227 182 -17 -21 0
-227 182 -17 148 0
-227 182 152 -21 0
-227 182 152 148 0
-227 -24 -36 -40 0
-227 -24 -36 202 0
-227 -24 206 -40 0
-227 -24 206 202 0
-227 263 -36 -40 0
-227 263 -36 202 0
-227 263 206 -40 0
-227 263 206 202 0
-227 -25 -44 -48 0
-227 -25 -44 210 0
-227 -25 214 -48 0
-227 -25 214 210 0
-227 291 -44 -48 0
-227 291 -44 210 0
-227 291 214 -48 0
-227 291 214 210 0
-227 -26 -51 -55 0
-227 -26 -51 217 0
-227 -26 221 -55 0
-227 -26 221 217 0
-227 312 -51 -55 0
-227 312 -51 217 0
-227 312 221 -55 0
-227 312 221 217 0
-227 -28 -58 -66 0
-227 -28 -58 224 0
-227 -28 232 -66 0
-227 -28 232 224 0
-227 332 -58 -66 0
-227 332 -58 224 0
-227 332 232 -66 0
-227 332 232 224 0
-227 -29 -59 -70 0
-227 -29 -59 225 0
-227 -29 236 -70 0
-227 -29 236 225 0
-227 336 -59 -70 0
-227 336 -59 225 0
-227 336 236 -70 0
-227 336 236 225 0
-227 -30 -60 -73 0
-227 -30 -60 226 0
-227 -30 239 -73 0
-227 -30 239 226 0
-227 339 -60 -73 0
-227 339 -60 226 0
-227 339 239 -73 0
-227 339 239 226 0
-227 -32 -62 -76 0
-227 -32 -62 228 0
-227 -32 242 -76 0
-227 -32 242 228 0
-227 342 -62 -76 0
-227 342 -62 228 0
-227 342 242 -76 0
-227 342 242 228 0
-227 -33 -63 -77 0
-227 -33 -63 229 0
-227 -33 243 -77 0
-227 -33 243 229 0
-227 343 -63 -77 0
-227 343 -63 229 0
-227 343 243 -77 0
-227 343 243 229 0
-228 -2 -6 -11 0
-228 -2 -6 93 0
-228 -2 98 -11 0
-228 -2 98 93 0
-228 128 -6 -11 0
-228 128 -6 93 0
-228 128 98 -11 0
-228 128 98 93 0
-228 -13 -17 -22 0
-228 -13 -17 148 0
-228 -13 153 -22 0
-228 -13 153 148 0
-228 183 -17 -22 0
-228 183 -17 148 0
-228 183 153 -22 0
-228 183 153 148 0
-228 -24 -36 -41 0
-228 -24 -36 202 0
-228 -24 207 -41 0
-228 -24 207 202 0
-228 264 -36 -41 0
-228 264 -36 202 0
-228 264 207 -41 0
-228 264 207 202 0
-228 -25 -44 -49 0
-228 -25 -44 210 0
-228 -25 215 -49 0
-228 -25 215 210 0
-228 292 -44 -49 0
-228 292 -44 210 0
-228 292 215 -49 0
-228 292 215 210 0
-228 -26 -51 -56 0
-228 -26 -51 217 0
-228 -26 222 -56 0
-228 -26 222 217 0
-228 313 -51 -56 0
-228 313 -51 217 0
-228 313 222 -56 0
-228 313 222 217 0
-228 -28 -58 -67 0
-228 -28 -58 224 0
-228 -28 233 -67 0
-228 -28 233 224 0
-228 333 -58 -67 0
-228 333 -58 224 0
-228 333 233 -67 0
-228 333 233 224 0
-228 -29 -59 -71 0
-228 -29 -59 225 0
-228 -29 237 -71 0
-228 -29 237 225 0
-228 337 -59 -71 0
-228 337 -59 225 0
-228 337 237 -71 0
-228 337 237 225 0
-228 -30 -60 -74 0
-228 -30 -60 226 0
-228 -30 240 -74 0
-228 -30 240 226 0
-228 340 -60 -74 0
-228 340 -60 226 0
-228 340 240 -74 0
-228 340 240 226 0
-228 -31 -61 -76 0
-228 -31 -61 227 0
-228 -31 242 -76 0
-228 -31 242 227 0
-228 342 -61 -76 0
-228 342 -61 227 0
-228 342 242 -76 0
-228 342 242 227 0
-228 -33 -63 -78 0
-228 -33 -63 229 0
-228 -33 244 -78 0
-228 -33 244 229 0
-228 344 -63 -78 0
-228 344 -63 229 0
-228 344 244 -78 0
-228 344 244 229 0
-229 -2 -6 -12 0
-229 -2 -6 93 0
-229 -2 99 -12 0
-229 -2 99 93 0
-229 129 -6 -12 0
-229 129 -6 93 0
-229 129 99 -12 0
-229 129 99 93 0
-229 -13 -17 -23 0
-229 -13 -17 148 0
-229 -13 154 -23 0
-229 -13 154 148 0
-229 184 -17 -23 0
-229 184 -17 148 0
-229 184 154 -23 0
-229 184 154 148 0
-229 -24 -36 -42 0
-229 -24 -36 202 0
-229 -24 208 -42 0
-229 -24 208 202 0
-229 265 -36 -42 0
-229 265 -36 202 0
-229 265 208 -42 0
-229 265 208 202 0
-229 -25 -44 -50 0
-229 -25 -44 210 0
-229 -25 216 -50 0
-229 -25 216 210 0
-229 293 -44 -50 0
-229 293 -44 210 0
-229 293 216 -50 0
-229 293 216 210 0
-229 -26 -51 -57 0
-229 -26 -51 217 0
-229 -26 223 -57 0
-229 -26 223 217 0
-229 314 -51 -57 0
-229 314 -51 217 0
-229 314 223 -57 0
-229 314 223 217 0
-229 -28 -58 -68 0
-229 -28 -58 224 0
-229 -28 234 -68 0
-229 -28 234 224 0
-229 334 -58 -68 0
-229 334 -58 224 0
-229 334 234 -68 0
-229 334 234 224 0
-229 -29 -59 -72 0
-229 -29 -59 225 0
-229 -29 238 -72 0
-229 -29 238 225 0
-229 338 -59 -72 0
-229 338 -59 225 0
-229 338 238 -72 0
-229 338 238 225 0
-229 -30 -60 -75 0
-229 -30 -60 226 0
-229 -30 241 -75 0
-229 -30 241 226 0
-229 341 -60 -75 0
-229 341 -60 226 0
-229 341 241 -75 0
-229 341 241 226 0
-229 -31 -61 -77 0
-229 -31 -61 227 0
-229 -31 243 -77 0
-229 -31 243 227 0
-229 343 -61 -77 0
-229 343 -61 227 0
-229 343 243 -77 0
-229 343 243 227 0
-229 -32 -62 -78 0
-229 -32 -62 228 0
-229 -32 244 -78 0
-229 -32 244 228 0
-229 344 -62 -78 0
-229 344 -62 228 0
-229 344 244 -78 0
-229 344 244 228 0
-230 -2 -7 -8 0
-230 -2 -7 94 0
-230 -2 95 -8 0
-230 -2 95 94 0
-230 130 -7 -8 0
-230 130 -7 94 0
-230 130 95 -8 0
-230 130 95 94 0
-230 -13 -18 -19 0
-230 -13 -18 149 0
-230 -13 150 -19 0
-230 -13 150 149 0
-230 185 -18 -19 0
-230 185 -18 149 0
-230 185 150 -19 0
-230 185 150 149 0
-230 -24 -37 -38 0
-230 -24 -37 203 0
-230 -24 204 -38 0
-230 -24 204 203 0
-230 266 -37 -38 0
-230 266 -37 203 0
-230 266 204 -38 0
-230 266 204 203 0
-230 -25 -45 -46 0
-230 -25 -45 211 0
-230 -25 212 -46 0
-230 -25 212 211 0
-230 294 -45 -46 0
-230 294 -45 211 0
-230 294 212 -46 0
-230 294 212 211 0
-230 -26 -52 -53 0
-230 -26 -52 218 0
-230 -26 219 -53 0
-230 -26 219 218 0
-230 315 -52 -53 0
-230 315 -52 218 0
-230 315 219 -53 0
-230 315 219 218 0
-230 -27 -58 -59 0
-230 -27 -58 224 0
-230 -27 225 -59 0
-230 -27 225 224 0
-230 330 -58 -59 0
-230 330 -58 224 0
-230 330 225 -59 0
-230 330 225 224 0
-230 -30 -65 -69 0
-230 -30 -65 231 0
-230 -30 235 -69 0
-230 -30 235 231 0
-230 345 -65 -69 0
-230 345 -65 231 0
-230 345 235 -69 0
-230 345 235 231 0
-230 -31 -66 -70 0
-230 -31 -66 232 0
-230 -31 236 -70 0
-230 -31 236 232 0
-230 346 -66 -70 0
-230 346 -66 232 0
-230 346 236 -70 0
-230 346 236 232 0
-230 -32 -67 -71 0
-230 -32 -67 233 0
-230 -32 237 -71 0
-230 -32 237 233 0
-230 347 -67 -71 0
-230 347 -67 233 0
-230 347 237 -71 0
-230 347 237 233 0
-230 -33 -68 -72 0
-230 -33 -68 234 0
-230 -33 238 -72 0
-230 -33 238 234 0
-230 348 -68 -72 0
-230 348 -68 234 0
-230 348 238 -72 0
-230 348 238 234 0
-231 -2 -7 -9 0
-231 -2 -7 94 0
-231 -2 96 -9 0
-231 -2 96 94 0
-231 131 -7 -9 0
-231 131 -7 94 0
-231 131 96 -9 0
-231 131 96 94 0
-231 -13 -18 -20 0
-231 -13 -18 149 0
-231 -13 151 -20 0
-231 -13 151 149 0
-231 186 -18 -20 0
-231 186 -18 149 0
-231 186 151 -20 0
-231 186 151 149 0
-231 -24 -37 -39 0
-231 -24 -37 203 0
-231 -24 205 -39 0
-231 -24 205 203 0
-231 267 -37 -39 0
-231 267 -37 203 0
-231 267 205 -39 0
-231 267 205 203 0
-231 -25 -45 -47 0
-231 -25 -45 211 0
-231 -25 213 -47 0
-231 -25 213 211 0
-231 295 -45 -47 0
-231 295 -45 211 0
-231 295 213 -47 0
-231 295 213 211 0
-231 -26 -52 -54 0
-231 -26 -52 218 0
-231 -26 220 -54 0
-231 -26 220 218 0
-231 316 -52 -54 0
-231 316 -52 218 0
-231 316 220 -54 0
-231 316 220 218 0
-231 -27 -58 -60 0
-231 -27 -58 224 0
-231 -27 226 -60 0
-231 -27 226 224 0
-231 331 -58 -60 0
-231 331 -58 224 0
-231 331 226 -60 0
-231 331 226 224 0
-231 -29 -64 -69 0
-231 -29 -64 230 0
-231 -29 235 -69 0
-231 -29 235 230 0
-231 345 -64 -69 0
-231 345 -64 230 0
-231 345 235 -69 0
-231 345 235 230 0
-231 -31 -66 -73 0
-231 -31 -66 232 0
-231 -31 239 -73 0
-231 -31 239 232 0
-231 349 -66 -73 0
-231 349 -66 232 0
-231 349 239 -73 0
-231 349 239 232 0
-231 -32 -67 -74 0
-231 -32 -67 233 0
-231 -32 240 -74 0
-231 -32 240 233 0
-231 350 -67 -74 0
-231 350 -67 233 0
-231 350 240 -74 0
-231 350 240 233 0
-231 -33 -68 -75 0
-231 -33 -68 234 0
-231 -33 241 -75 0
-231 -33 241 234 0
-231 351 -68 -75 0
-231 351 -68 234 0
-231 351 241 -75 0
-231 351 241 234 0
-232 -2 -7 -10 0
-232 -2 -7 94 0
-232 -2 97 -10 0
-232 -2 97 94 0
-232 132 -7 -10 0
-232 132 -7 94 0
-232 132 97 -10 0
-232 132 97 94 0
-232 -13 -18 -21 0
-232 -13 -18 149 0
-232 -13 152 -21 0
-232 -13 152 149 0
-232 187 -18 -21 0
-232 187 -18 149 0
-232 187 152 -21 0
-232 187 152 149 0
-232 -24 -37 -40 0
-232 -24 -37 203 0
-232 -24 206 -40 0
-232 -24 206 203 0
-232 268 -37 -40 0
-232 268 -37 203 0
-232 268 206 -40 0
-232 268 206 203 0
-232 -25 -45 -48 0
-232 -25 -45 211 0
-232 -25 214 -48 0
-232 -25 214 211 0
-232 296 -45 -48 0
-232 296 -45 211 0
-232 296 214 -48 0
-232 296 214 211 0
-232 -26 -52 -55 0
-232 -26 -52 218 0
-232 -26 221 -55 0
-232 -26 221 218 0
-232 317 -52 -55 0
-232 317 -52 218 0
-232 317 221 -55 0
-232 317 221 218 0
-232 -27 -58 -61 0
-232 -27 -58 224 0
-232 -27 227 -61 0
-232 -27 227 224 0
-232 332 -58 -61 0
-232 332 -58 224 0
-232 332 227 -61 0
-232 332 227 224 0
-232 -29 -64 -70 0
-232 -29 -64 230 0
-232 -29 236 -70 0
-232 -29 236 230 0
-232 346 -64 -70 0
-232 346 -64 230 0
-232 346 236 -70 0
-232 346 236 230 0
-232 -30 -65 -73 0
-232 -30 -65 231 0
-232 -30 239 -73 0
-232 -30 239 231 0
-232 349 -65 -73 0
-232 349 -65 231 0
-232 349 239 -73 0
-232 349 239 231 0
-232 -32 -67 -76 0
-232 -32 -67 233 0
-232 -32 242 -76 0
-232 -32 242 233 0
-232 352 -67 -76 0
-232 352 -67 233 0
-232 352 242 -76 0
-232 352 242 233 0
-232 -33 -68 -77 0
-232 -33 -68 234 0
-232 -33 243 -77 0
-232 -33 243 234 0
-232 353 -68 -77 0
-232 353 -68 234 0
-232 353 243 -77 0
-232 353 243 234 0
-233 -2 -7 -11 0
-233 -2 -7 94 0
-233 -2 98 -11 0
-233 -2 98 94 0
-233 133 -7 -11 0
-233 133 -7 94 0
-233 133 98 -11 0
-233 133 98 94 0
-233 -13 -18 -22 0
-233 -13 -18 149 0
-233 -13 153 -22 0
-233 -13 153 149 0
-233 188 -18 -22 0
-233 188 -18 149 0
-233 188 153 -22 0
-233 188 153 149 0
-233 -24 -37 -41 0
-233 -24 -37 203 0
-233 -24 207 -41 0
-233 -24 207 203 0
-233 269 -37 -41 0
-233 269 -37 203 0
-233 269 207 -41 0
-233 269 207 203 0
-233 -25 -45 -49 0
-233 -25 -45 211 0
-233 -25 215 -49 0
-233 -25 215 211 0
-233 297 -45 -49 0
-233 297 -45 211 0
-233 297 215 -49 0
-233 297 215 211 0
-233 -26 -52 -56 0
-233 -26 -52 218 0
-233 -26 222 -56 0
-233 -26 222 218 0
-233 318 -52 -56 0
-233 318 -52 218 0
-233 318 222 -56 0
-233 318 222 218 0
-233 -27 -58 -62 0
-233 -27 -58 224 0
-233 -27 228 -62 0
-233 -27 228 224 0
-233 333 -58 -62 0
-233 333 -58 224 0
-233 333 228 -62 0
-233 333 228 224 0
-233 -29 -64 -71 0
-233 -29 -64 230 0
-233 -29 237 -71 0
-233 -29 237 230 0
-233 347 -64 -71 0
-233 347 -64 230 0
-233 347 237 -71 0
-233 347 237 230 0
-233 -30 -65 -74 0
-233 -30 -65 231 0
-233 -30 240 -74 0
-233 -30 240 231 0
-233 350 -65 -74 0
-233 350 -65 231 0
-233 350 240 -74 0
-233 350 240 231 0
-233 -31 -66 -76 0
-233 -31 -66 232 0
-233 -31 242 -76 0
-233 -31 242 232 0
-233 352 -66 -76 0
-233 352 -66 232 0
-233 352 242 -76 0
-233 352 242 232 0
-233 -33 -68 -78 0
-233 -33 -68 234 0
-233 -33 244 -78 0
-233 -33 244 234 0
-233 354 -68 -78 0
-233 354 -68 234 0
-233 354 244 -78 0
-233 354 244 234 0
-234 -2 -7 -12 0
-234 -2 -7 94 0
-234 -2 99 -12 0
-234 -2 99 94 0
-234 134 -7 -12 0
-234 134 -7 94 0
-234 134 99 -12 0
-234 134 99 94 0
-234 -13 -18 -23 0
-234 -13 -18 149 0
-234 -13 154 -23 0
-234 -13 154 149 0
-234 189 -18 -23 0
-234 189 -18 149 0
-234 189 154 -23 0
-234 189 154 149 0
-234 -24 -37 -42 0
-234 -24 -37 203 0
-234 -24 208 -42 0
-234 -24 208 203 0
-234 270 -37 -42 0
-234 270 -37 203 0
-234 270 208 -42 0
-234 270 208 203 0
-234 -25 -45 -50 0
-234 -25 -45 211 0
-234 -25 216 -50 0
-234 -25 216 211 0
-234 298 -45 -50 0
-234 298 -45 211 0
-234 298 216 -50 0
-234 298 216 211 0
-234 -26 -52 -57 0
-234 -26 -52 218 0
-234 -26 223 -57 0
-234 -26 223 218 0
-234 319 -52 -57 0
-234 319 -52 218 0
-234 319 223 -57 0
-234 319 223 218 0
-234 -27 -58 -63 0
-234 -27 -58 224 0
-234 -27 229 -63 0
-234 -27 229 224 0
-234 334 -58 -63 0
-234 334 -58 224 0
-234 334 229 -63 0
-234 334 229 224 0
-234 -29 -64 -72 0
-234 -29 -64 230 0
-234 -29 238 -72 0
-234 -29 238 230 0
-234 348 -64 -72 0
-234 348 -64 230 0
-234 348 238 -72 0
-234 348 238 230 0
-234 -30 -65 -75 0
-234 -30 -65 231 0
-234 -30 241 -75 0
-234 -30 241 231 0
-234 351 -65 -75 0
-234 351 -65 231 0
-234 351 241 -75 0
-234 351 241 231 0
-234 -31 -66 -77 0
-234 -31 -66 232 0
-234 -31 243 -77 0
-234 -31 243 232 0
-234 353 -66 -77 0
-234 353 -66 232 0
-234 353 243 -77 0
-234 353 243 232 0
-234 -32 -67 -78 0
-234 -32 -67 233 0
-234 -32 244 -78 0
-234 -32 244 233 0
-234 354 -67 -78 0
-234 354 -67 233 0
-234 354 244 -78 0
-234 354 244 233 0
-235 -2 -8 -9 0
-235 -2 -8 95 0
-235 -2 96 -9 0
-235 -2 96 95 0
-235 135 -8 -9 0
-235 135 -8 95 0
-235 135 96 -9 0
-235 135 96 95 0
-235 -13 -19 -20 0
-235 -13 -19 150 0
-235 -13 151 -20 0
-235 -13 151 150 0
-235 190 -19 -20 0
-235 190 -19 150 0
-235 190 151 -20 0
-235 190 151 150 0
-235 -24 -38 -39 0
-235 -24 -38 204 0
-235 -24 205 -39 0
-235 -24 205 204 0
-235 271 -38 -39 0
-235 271 -38 204 0
-235 271 205 -39 0
-235 271 205 204 0
-235 -25 -46 -47 0
-235 -25 -46 212 0
-235 -25 213 -47 0
-235 -25 213 212 0
-235 299 -46 -47 0
-235 299 -46 212 0
-235 299 213 -47 0
-235 299 213 212 0
-235 -26 -53 -54 0
-235 -26 -53 219 0
-235 -26 220 -54 0
-235 -26 220 219 0
-235 320 -53 -54 0
-235 320 -53 219 0
-235 320 220 -54 0
-235 320 220 219 0
-235 -27 -59 -60 0
-235 -27 -59 225 0
-235 -27 226 -60 0
-235 -27 226 225 0
-235 335 -59 -60 0
-235 335 -59 225 0
-235 335 226 -60 0
-235 335 226 225 0
-235 -28 -64 -65 0
-235 -28 -64 230 0
-235 -28 231 -65 0
-235 -28 231 230 0
-235 345 -64 -65 0
-235 345 -64 230 0
-235 345 231 -65 0
-235 345 231 230 0
-235 -31 -70 -73 0
-235 -31 -70 236 0
-235 -31 239 -73 0
-235 -31 239 236 0
-235 355 -70 -73 0
-235 355 -70 236 0
-235 355 239 -73 0
-235 355 239 236 0
-235 -32 -71 -74 0
-235 -32 -71 237 0
-235 -32 240 -74 0
-235 -32 240 237 0
-235 356 -71 -74 0
-235 356 -71 237 0
-235 356 240 -74 0
-235 356 240 237 0
-235 -33 -72 -75 0
-235 -33 -72 238 0
-235 -33 241 -75 0
-235 -33 241 238 0
-235 357 -72 -75 0
-235 357 -72 238 0
-235 357 241 -75 0
-235 357 241 238 0
-236 -2 -8 -10 0
-236 -2 -8 95 0
-236 -2 97 -10 0
-236 -2 97 95 0
-236 136 -8 -10 0
-236 136 -8 95 0
-236 136 97 -10 0
-236 136 97 95 0
-236 -13 -19 -21 0
-236 -13 -19 150 0
-236 -13 152 -21 0
-236 -13 152 150 0
-236 191 -19 -21 0
-236 191 -19 150 0
-236 191 152 -21 0
-236 191 152 150 0
-236 -24 -38 -40 0
-236 -24 -38 204 0
-236 -24 206 -40 0
-236 -24 206 204 0
-236 272 -38 -40 0
-236 272 -38 204 0
-236 272 206 -40 0
-236 272 206 204 0
-236 -25 -46 -48 0
-236 -25 -46 212 0
-236 -25 214 -48 0
-236 -25 214 212 0
-236 300 -46 -48 0
-236 300 -46 212 0
-236 300 214 -48 0
-236 300 214 212 0
-236 -26 -53 -55 0
-236 -26 -53 219 0
-236 -26 221 -55 0
-236 -26 221 219 0
-236 321 -53 -55 0
-236 321 -53 219 0
-236 321 221 -55 0
-236 321 221 219 0
-236 -27 -59 -61 0
-236 -27 -59 225 0
-236 -27 227 -61 0
-236 -27 227 225 0
-236 336 -59 -61 0
-236 336 -59 225 0
-236 336 227 -61 0
-236 336 227 225 0
-236 -28 -64 -66 0
-236 -28 -64 230 0
-236 -28 232 -66 0
-236 -28 232 230 0
-236 346 -64 -66 0
-236 346 -64 230 0
-236 346 232 -66 0
-236 346 232 230 0
-236 -30 -69 -73 0
-236 -30 -69 235 0
-236 -30 239 -73 0
-236 -30 239 235 0
-236 355 -69 -73 0
-236 355 -69 235 0
-236 355 239 -73 0
-236 355 239 235 0
-236 -32 -71 -76 0
-236 -32 -71 237 0
-236 -32 242 -76 0
-236 -32 242 237 0
-236 358 -71 -76 0
-236 358 -71 237 0
-236 358 242 -76 0
-236 358 242 237 0
-236 -33 -72 -77 0
-236 -33 -72 238 0
-236 -33 243 -77 0
-236 -33 243 238 0
-236 359 -72 -77 0
-236 359 -72 238 0
-236 359 243 -77 0
-236 359 243 238 0
-237 -2 -8 -11 0
-237 -2 -8 95 0
-237 -2 98 -11 0
-237 -2 98 95 0
-237 137 -8 -11 0
-237 137 -8 95 0
-237 137 98 -11 0
-237 137 98 95 0
-237 -13 -19 -22 0
-237 -13 -19 150 0
-237 -13 153 -22 0
-237 -13 153 150 0
-237 192 -19 -22 0
-237 192 -19 150 0
-237 192 153 -22 0
-237 192 153 150 0
-237 -24 -38 -41 0
-237 -24 -38 204 0
-237 -24 207 -41 0
-237 -24 207 204 0
-237 273 -38 -41 0
-237 273 -38 204 0
-237 273 207 -41 0
-237 273 207 204 0
-237 -25 -46 -49 0
-237 -25 -46 212 0
-237 -25 215 -49 0
-237 -25 215 212 0
-237 301 -46 -49 0
-237 301 -46 212 0
-237 301 215 -49 0
-237 301 215 212 0
-237 -26 -53 -56 0
-237 -26 -53 219 0
-237 -26 222 -56 0
-237 -26 222 219 0
-237 322 -53 -56 0
-237 322 -53 219 0
-237 322 222 -56 0
-237 322 222 219 0
-237 -27 -59 -62 0
-237 -27 -59 225 0
-237 -27 228 -62 0
-237 -27 228 225 0
-237 337 -59 -62 0
-237 337 -59 225 0
-237 337 228 -62 0
-237 337 228 225 0
-237 -28 -64 -67 0
-237 -28 -64 230 0
-237 -28 233 -67 0
-237 -28 233 230 0
-237 347 -64 -67 0
-237 347 -64 230 0
-237 347 233 -67 0
-237 347 233 230 0
-237 -30 -69 -74 0
-237 -30 -69 235 0
-237 -30 240 -74 0
-237 -30 240 235 0
-237 356 -69 -74 0
-237 356 -69 235 0
-237 356 240 -74 0
-237 356 240 235 0
-237 -31 -70 -76 0
-237 -31 -70 236 0
-237 -31 242 -76 0
-237 -31 242 236 0
-237 358 -70 -76 0
-237 358 -70 236 0
-237 358 242 -76 0
-237 358 242 236 0
-237 -33 -72 -78 0
-237 -33 -72 238 0
-237 -33 244 -78 0
-237 -33 244 238 0
-237 360 -72 -78 0
-237 360 -72 238 0
-237 360 244 -78 0
-237 360 244 238 0
-238 -2 -8 -12 0
-238 -2 -8 95 0
-238 -2 99 -12 0
-238 -2 99 95 0
-238 138 -8 -12 0
-238 138 -8 95 0
-238 138 99 -12 0
-238 138 99 95 0
-238 -13 -19 -23 0
-238 -13 -19 150 0
-238 -13 154 -23 0
-238 -13 154 150 0
-238 193 -19 -23 0
-238 193 -19 150 0
-238 193 154 -23 0
-238 193 154 150 0
-238 -24 -38 -42 0
-238 -24 -38 204 0
-238 -24 208 -42 0
-238 -24 208 204 0
-238 274 -38 -42 0
-238 274 -38 204 0
-238 274 208 -42 0
-238 274 208 204 0
-238 -25 -46 -50 0
-238 -25 -46 212 0
-238 -25 216 -50 0
-238 -25 216 212 0
-238 302 -46 -50 0
-238 302 -46 212 0
-238 302 216 -50 0
-238 302 216 212 0
-238 -26 -53 -57 0
-238 -26 -53 219 0
-238 -26 223 -57 0
-238 -26 223 219 0
-238 323 -53 -57 0
-238 323 -53 219 0
-238 323 223 -57 0
-238 323 223 219 0
-238 -27 -59 -63 0
-238 -27 -59 225 0
-238 -27 229 -63 0
-238 -27 229 225 0
-238 338 -59 -63 0
-238 338 -59 225 0
-238 338 229 -63 0
-238 338 229 225 0
-238 -28 -64 -68 0
-238 -28 -64 230 0
-238 -28 234 -68 0
-238 -28 234 230 0
-238 348 -64 -68 0
-238 348 -64 230 0
-238 348 234 -68 0
-238 348 234 230 0
-238 -30 -69 -75 0
-238 -30 -69 235 0
-238 -30 241 -75 0
-238 -30 241 235 0
-238 357 -69 -75 0
-238 357 -69 235 0
-238 357 241 -75 0
-238 357 241 235 0
-238 -31 -70 -77 0
-238 -31 -70 236 0
-238 -31 243 -77 0
-238 -31 243 236 0
-238 359 -70 -77 0
-238 359 -70 236 0
-238 359 243 -77 0
-238 359 243 236 0
-238 -32 -71 -78 0
-238 -32 -71 237 0
-238 -32 244 -78 0
-238 -32 244 237 0
-238 360 -71 -78 0
-238 360 -71 237 0
-238 360 244 -78 0
-238 360 244 237 0
-239 -2 -9 -10 0
-239 -2 -9 96 0
-239 -2 97 -10 0
-239 -2 97 96 0
-239 139 -9 -10 0
-239 139 -9 96 0
-239 139 97 -10 0
-239 139 97 96 0
-239 -13 -20 -21 0
-239 -13 -20 151 0
-239 -13 152 -21 0
-239 -13 152 151 0
-239 194 -20 -21 0
-239 194 -20 151 0
-239 194 152 -21 0
-239 194 152 151 0
-239 -24 -39 -40 0
-239 -24 -39 205 0
-239 -24 206 -40 0
-239 -24 206 205 0
-239 275 -39 -40 0
-239 275 -39 205 0
-239 275 206 -40 0
-239 275 206 205 0
-239 -25 -47 -48 0
-239 -25 -47 213 0
-239 -25 214 -48 0
-239 -25 214 213 0
-239 303 -47 -48 0
-239 303 -47 213 0
-239 303 214 -48 0
-239 303 214 213 0
-239 -26 -54 -55 0
-239 -26 -54 220 0
-239 -26 221 -55 0
-239 -26 221 220 0
-239 324 -54 -55 0
-239 324 -54 220 0
-239 324 221 -55 0
-239 324 221 220 0
-239 -27 -60 -61 0
-239 -27 -60 226 0
-239 -27 227 -61 0
-239 -27 227 226 0
-239 339 -60 -61 0
-239 339 -60 226 0
-239 339 227 -61 0
-239 339 227 226 0
-239 -28 -65 -66 0
-239 -28 -65 231 0
-239 -28 232 -66 0
-239 -28 232 231 0
-239 349 -65 -66 0
-239 349 -65 231 0
-239 349 232 -66 0
-239 349 232 231 0
-239 -29 -69 -70 0
-239 -29 -69 235 0
-239 -29 236 -70 0
-239 -29 236 235 0
-239 355 -69 -70 0
-239 355 -69 235 0
-239 355 236 -70 0
-239 355 236 235 0
-239 -32 -74 -76 0
-239 -32 -74 240 0
-239 -32 242 -76 0
-239 -32 242 240 0
-239 361 -74 -76 0
-239 361 -74 240 0
-239 361 242 -76 0
-239 361 242 240 0
-239 -33 -75 -77 0
-239 -33 -75 241 0
-239 -33 243 -77 0
-239 -33 243 241 0
-239 362 -75 -77 0
-239 362 -75 241 0
-239 362 243 -77 0
-239 362 243 241 0
-240 -2 -9 -11 0
-240 -2 -9 96 0
-240 -2 98 -11 0
-240 -2 98 96 0
-240 140 -9 -11 0
-240 140 -9 96 0
-240 140 98 -11 0
-240 140 98 96 0
-240 -13 -20 -22 0
-240 -13 -20 151 0
-240 -13 153 -22 0
-240 -13 153 151 0
-240 195 -20 -22 0
-240 195 -20 151 0
-240 195 153 -22 0
-240 195 153 151 0
-240 -24 -39 -41 0
-240 -24 -39 205 0
-240 -24 207 -41 0
-240 -24 207 205 0
-240 276 -39 -41 0
-240 276 -39 205 0
-240 276 207 -41 0
-240 276 207 205 0
-240 -25 -47 -49 0
-240 -25 -47 213 0
-240 -25 215 -49 0
-240 -25 215 213 0
-240 304 -47 -49 0
-240 304 -47 213 0
-240 304 215 -49 0
-240 304 215 213 0
-240 -26 -54 -56 0
-240 -26 -54 220 0
-240 -26 222 -56 0
-240 -26 222 220 0
-240 325 -54 -56 0
-240 325 -54 220 0
-240 325 222 -56 0
-240 325 222 220 0
-240 -27 -60 -62 0
-240 -27 -60 226 0
-240 -27 228 -62 0
-240 -27 228 226 0
-240 340 -60 -62 0
-240 340 -60 226 0
-240 340 228 -62 0
-240 340 228 226 0
-240 -28 -65 -67 0
-240 -28 -65 231 0
-240 -28 233 -67 0
-240 -28 233 231 0
-240 350 -65 -67 0
-240 350 -65 231 0
-240 350 233 -67 0
-240 350 233 231 0
-240 -29 -69 -71 0
-240 -29 -69 235 0
-240 -29 237 -71 0
-240 -29 237 235 0
-240 356 -69 -71 0
-240 356 -69 235 0
-240 356 237 -71 0
-240 356 237 235 0
-240 -31 -73 -76 0
-240 -31 -73 239 0
-240 -31 242 -76 0
-240 -31 242 239 0
-240 361 -73 -76 0
-240 361 -73 239 0
-240 361 242 -76 0
-240 361 242 239 0
-240 -33 -75 -78 0
-240 -33 -75 241 0
-240 -33 244 -78 0
-240 -33 244 241 0
-240 363 -75 -78 0
-240 363 -75 241 0
-240 363 244 -78 0
-240 363 244 241 0
-241 -2 -9 -12 0
-241 -2 -9 96 0
-241 -2 99 -12 0
-241 -2 99 96 0
-241 141 -9 -12 0
-241 141 -9 96 0
-241 141 99 -12 0
-241 141 99 96 0
-241 -13 -20 -23 0
-241 -13 -20 151 0
-241 -13 154 -23 0
-241 -13 154 151 0
-241 196 -20 -23 0
-241 196 -20 151 0
-241 196 154 -23 0
-241 196 154 151 0
-241 -24 -39 -42 0
-241 -24 -39 205 0
-241 -24 208 -42 0
-241 -24 208 205 0
-241 277 -39 -42 0
-241 277 -39 205 0
-241 277 208 -42 0
-241 277 208 205 0
-241 -25 -47 -50 0
-241 -25 -47 213 0
-241 -25 216 -50 0
-241 -25 216 213 0
-241 305 -47 -50 0
-241 305 -47 213 0
-241 305 216 -50 0
-241 305 216 213 0
-241 -26 -54 -57 0
-241 -26 -54 220 0
-241 -26 223 -57 0
-241 -26 223 220 0
-241 326 -54 -57 0
-241 326 -54 220 0
-241 326 223 -57 0
-241 326 223 220 0
-241 -27 -60 -63 0
-241 -27 -60 226 0
-241 -27 229 -63 0
-241 -27 229 226 0
-241 341 -60 -63 0
-241 341 -60 226 0
-241 341 229 -63 0
-241 341 229 226 0
-241 -28 -65 -68 0
-241 -28 -65 231 0
-241 -28 234 -68 0
-241 -28 234 231 0
-241 351 -65 -68 0
-241 351 -65 231 0
-241 351 234 -68 0
-241 351 234 231 0
-241 -29 -69 -72 0
-241 -29 -69 235 0
-241 -29 238 -72 0
-241 -29 238 235 0
-241 357 -69 -72 0
-241 357 -69 235 0
-241 357 238 -72 0
-241 357 238 235 0
-241 -31 -73 -77 0
-241 -31 -73 239 0
-241 -31 243 -77 0
-241 -31 243 239 0
-241 362 -73 -77 0
-241 362 -73 239 0
-241 362 243 -77 0
-241 362 243 239 0
-241 -32 -74 -78 0
-241 -32 -74 240 0
-241 -32 244 -78 0
-241 -32 244 240 0
-241 363 -74 -78 0
-241 363 -74 240 0
-241 363 244 -78 0
-241 363 244 240 0
-242 -2 -10 -11 0
-242 -2 -10 97 0
-242 -2 98 -11 0
-242 -2 98 97 0
-242 142 -10 -11 0
-242 142 -10 97 0
-242 142 98 -11 0
-242 142 98 97 0
-242 -13 -21 -22 0
-242 -13 -21 152 0
-242 -13 153 -22 0
-242 -13 153 152 0
-242 197 -21 -22 0
-242 197 -21 152 0
-242 197 153 -22 0
-242 197 153 152 0
-242 -24 -40 -41 0
-242 -24 -40 206 0
-242 -24 207 -41 0
-242 -24 207 206 0
-242 278 -40 -41 0
-242 278 -40 206 0
-242 278 207 -41 0
-242 278 207 206 0
-242 -25 -48 -49 0
-242 -25 -48 214 0
-242 -25 215 -49 0
-242 -25 215 214 0
-242 306 -48 -49 0
-242 306 -48 214 0
-242 306 215 -49 0
-242 306 215 214 0
-242 -26 -55 -56 0
-242 -26 -55 221 0
-242 -26 222 -56 0
-242 -26 222 221 0
-242 327 -55 -56 0
-242 327 -55 221 0
-242 327 222 -56 0
-242 327 222 221 0
-242 -27 -61 -62 0
-242 -27 -61 227 0
-242 -27 228 -62 0
-242 -27 228 227 0
-242 342 -61 -62 0
-242 342 -61 227 0
-242 342 228 -62 0
-242 342 228 227 0
-242 -28 -66 -67 0
-242 -28 -66 232 0
-242 -28 233 -67 0
-242 -28 233 232 0
-242 352 -66 -67 0
-242 352 -66 232 0
-242 352 233 -67 0
-242 352 233 232 0
-242 -29 -70 -71 0
-242 -29 -70 236 0
-242 -29 237 -71 0
-242 -29 237 236 0
-242 358 -70 -71 0
-242 358 -70 236 0
-242 358 237 -71 0
-242 358 237 236 0
-242 -30 -73 -74 0
-242 -30 -73 239 0
-242 -30 240 -74 0
-242 -30 240 239 0
-242 361 -73 -74 0
-242 361 -73 239 0
-242 361 240 -74 0
-242 361 240 239 0
-242 -33 -77 -78 0
-242 -33 -77 243 0
-242 -33 244 -78 0
-242 -33 244 243 0
-242 364 -77 -78 0
-242 364 -77 243 0
-242 364 244 -78 0
-242 364 244 243 0
-243 -2 -10 -12 0
-243 -2 -10 97 0
-243 -2 99 -12 0
-243 -2 99 97 0
-243 143 -10 -12 0
-243 143 -10 97 0
-243 143 99 -12 0
-243 143 99 97 0
-243 -13 -21 -23 0
-243 -13 -21 152 0
-243 -13 154 -23 0
-243 -13 154 152 0
-243 198 -21 -23 0
-243 198 -21 152 0
-243 198 154 -23 0
-243 198 154 152 0
-243 -24 -40 -42 0
-243 -24 -40 206 0
-243 -24 208 -42 0
-243 -24 208 206 0
-243 279 -40 -42 0
-243 279 -40 206 0
-243 279 208 -42 0
-243 279 208 206 0
-243 -25 -48 -50 0
-243 -25 -48 214 0
-243 -25 216 -50 0
-243 -25 216 214 0
-243 307 -48 -50 0
-243 307 -48 214 0
-243 307 216 -50 0
-243 307 216 214 0
-243 -26 -55 -57 0
-243 -26 -55 221 0
-243 -26 223 -57 0
-243 -26 223 221 0
-243 328 -55 -57 0
-243 328 -55 221 0
-243 328 223 -57 0
-243 328 223 221 0
-243 -27 -61 -63 0
-243 -27 -61 227 0
-243 -27 229 -63 0
-243 -27 229 227 0
-243 343 -61 -63 0
-243 343 -61 227 0
-243 343 229 -63 0
-243 343 229 227 0
-243 -28 -66 -68 0
-243 -28 -66 232 0
-243 -28 234 -68 0
-243 -28 234 232 0
-243 353 -66 -68 0
-243 353 -66 232 0
-243 353 234 -68 0
-243 353 234 232 0
-243 -29 -70 -72 0
-243 -29 -70 236 0
-243 -29 238 -72 0
-243 -29 238 236 0
-243 359 -70 -72 0
-243 359 -70 236 0
-243 359 238 -72 0
-243 359 238 236 0
-243 -30 -73 -75 0
-243 -30 -73 239 0
-243 -30 241 -75 0
-243 -30 241 239 0
-243 362 -73 -75 0
-243 362 -73 239 0
-243 362 241 -75 0
-243 362 241 239 0
-243 -32 -76 -78 0
-243 -32 -76 242 0
-243 -32 244 -78 0
-243 -32 244 242 0
-243 364 -76 -78 0
-243 364 -76 242 0
-243 364 244 -78 0
-243 364 244 242 0
-244 -2 -11 -12 0
-244 -2 -11 98 0
-244 -2 99 -12 0
-244 -2 99 98 0
-244 144 -11 -12 0
-244 144 -11 98 0
-244 144 99 -12 0
-244 144 99 98 0
-244 -13 -22 -23 0
-244 -13 -22 153 0
-244 -13 154 -23 0
-244 -13 154 153 0
-244 199 -22 -23 0
-244 199 -22 153 0
-244 199 154 -23 0
-244 199 154 153 0
-244 -24 -41 -42 0
-244 -24 -41 207 0
-244 -24 208 -42 0
-244 -24 208 207 0
-244 280 -41 -42 0
-244 280 -41 207 0
-244 280 208 -42 0
-244 280 208 207 0
-244 -25 -49 -50 0
-244 -25 -49 215 0
-244 -25 216 -50 0
-244 -25 216 215 0
-244 308 -49 -50 0
-244 308 -49 215 0
-244 308 216 -50 0
-244 308 216 215 0
-244 -26 -56 -57 0
-244 -26 -56 222 0
-244 -26 223 -57 0
-244 -26 223 222 0
-244 329 -56 -57 0
-244 329 -56 222 0
-244 329 223 -57 0
-244 329 223 222 0
-244 -27 -62 -63 0
-244 -27 -62 228 0
-244 -27 229 -63 0
-244 -27 229 228 0
-244 344 -62 -63 0
-244 344 -62 228 0
-244 344 229 -63 0
-244 344 229 228 0
-244 -28 -67 -68 0
-244 -28 -67 233 0
-244 -28 234 -68 0
-244 -28 234 233 0
-244 354 -67 -68 0
-244 354 -67 233 0
-244 354 234 -68 0
-244 354 234 233 0
-244 -29 -71 -72 0
-244 -29 -71 237 0
-244 -29 238 -72 0
-244 -29 238 237 0
-244 360 -71 -72 0
-244 360 -71 237 0
-244 360 238 -72 0
-244 360 238 237 0
-244 -30 -74 -75 0
-244 -30 -74 240 0
-244 -30 241 -75 0
-244 -30 241 240 0
-244 363 -74 -75 0
-244 363 -74 240 0
-244 363 241 -75 0
-244 363 241 240 0
-244 -31 -76 -77 0
-244 -31 -76 242 0
-244 -31 243 -77 0
-244 -31 243 242 0
-244 364 -76 -77 0
-244 364 -76 242 0
-244 364 243 -77 0
-244 364 243 242 0
-245 -3 -4 -5 0
-245 -3 -4 100 0
-245 -3 101 -5 0
-245 -3 101 100 0
-245 109 -4 -5 0
-245 109 -4 100 0
-245 109 101 -5 0
-245 109 101 100 0
-245 -14 -15 -16 0
-245 -14 -15 155 0
-245 -14 156 -16 0
-245 -14 156 155 0
-245 164 -15 -16 0
-245 164 -15 155 0
-245 164 156 -16 0
-245 164 156 155 0
-245 -24 -25 -26 0
-245 -24 -25 200 0
-245 -24 201 -26 0
-245 -24 201 200 0
-245 209 -25 -26 0
-245 209 -25 200 0
-245 209 201 -26 0
-245 209 201 200 0
-245 -36 -44 -51 0
-245 -36 -44 246 0
-245 -36 253 -51 0
-245 -36 253 246 0
-245 281 -44 -51 0
-245 281 -44 246 0
-245 281 253 -51 0
-245 281 253 246 0
-245 -37 -45 -52 0
-245 -37 -45 247 0
-245 -37 254 -52 0
-245 -37 254 247 0
-245 282 -45 -52 0
-245 282 -45 247 0
-245 282 254 -52 0
-245 282 254 247 0
-245 -38 -46 -53 0
-245 -38 -46 248 0
-245 -38 255 -53 0
-245 -38 255 248 0
-245 283 -46 -53 0
-245 283 -46 248 0
-245 283 255 -53 0
-245 283 255 248 0
-245 -39 -47 -54 0
-245 -39 -47 249 0
-245 -39 256 -54 0
-245 -39 256 249 0
-245 284 -47 -54 0
-245 284 -47 249 0
-245 284 256 -54 0
-245 284 256 249 0
-245 -40 -48 -55 0
-245 -40 -48 250 0
-245 -40 257 -55 0
-245 -40 257 250 0
-245 285 -48 -55 0
-245 285 -48 250 0
-245 285 257 -55 0
-245 285 257 250 0
-245 -41 -49 -56 0
-245 -41 -49 251 0
-245 -41 258 -56 0
-245 -41 258 251 0
-245 286 -49 -56 0
-245 286 -49 251 0
-245 286 258 -56 0
-245 286 258 251 0
-245 -42 -50 -57 0
-245 -42 -50 252 0
-245 -42 259 -57 0
-245 -42 259 252 0
-245 287 -50 -57 0
-245 287 -50 252 0
-245 287 259 -57 0
-245 287 259 252 0
-246 -3 -4 -6 0
-246 -3 -4 100 0
-246 -3 102 -6 0
-246 -3 102 100 0
-246 110 -4 -6 0
-246 110 -4 100 0
-246 110 102 -6 0
-246 110 102 100 0
-246 -14 -15 -17 0
-246 -14 -15 155 0
-246 -14 157 -17 0
-246 -14 157 155 0
-246 165 -15 -17 0
-246 165 -15 155 0
-246 165 157 -17 0
-246 165 157 155 0
-246 -24 -25 -27 0
-246 -24 -25 200 0
-246 -24 202 -27 0
-246 -24 202 200 0
-246 210 -25 -27 0
-246 210 -25 200 0
-246 210 202 -27 0
-246 210 202 200 0
-246 -35 -43 -51 0
-246 -35 -43 245 0
-246 -35 253 -51 0
-246 -35 253 245 0
-246 281 -43 -51 0
-246 281 -43 245 0
-246 281 253 -51 0
-246 281 253 245 0
-246 -37 -45 -58 0
-246 -37 -45 247 0
-246 -37 260 -58 0
-246 -37 260 247 0
-246 288 -45 -58 0
-246 288 -45 247 0
-246 288 260 -58 0
-246 288 260 247 0
-246 -38 -46 -59 0
-246 -38 -46 248 0
-246 -38 261 -59 0
-246 -38 261 248 0
-246 289 -46 -59 0
-246 289 -46 248 0
-246 289 261 -59 0
-246 289 261 248 0
-246 -39 -47 -60 0
-246 -39 -47 249 0
-246 -39 262 -60 0
-246 -39 262 249 0
-246 290 -47 -60 0
-246 290 -47 249 0
-246 290 262 -60 0
-246 290 262 249 0
-246 -40 -48 -61 0
-246 -40 -48 250 0
-246 -40 263 -61 0
-246 -40 263 250 0
-246 291 -48 -61 0
-246 291 -48 250 0
-246 291 263 -61 0
-246 291 263 250 0
-246 -41 -49 -62 0
-246 -41 -49 251 0
-246 -41 264 -62 0
-246 -41 264 251 0
-246 292 -49 -62 0
-246 292 -49 251 0
-246 292 264 -62 0
-246 292 264 251 0
-246 -42 -50 -63 0
-246 -42 -50 252 0
-246 -42 265 -63 0
-246 -42 265 252 0
-246 293 -50 -63 0
-246 293 -50 252 0
-246 293 265 -63 0
-246 293 265 252 0
-247 -3 -4 -7 0
-247 -3 -4 100 0
-247 -3 103 -7 0
-247 -3 103 100 0
-247 111 -4 -7 0
-247 111 -4 100 0
-247 111 103 -7 0
-247 111 103 100 0
-247 -14 -15 -18 0
-247 -14 -15 155 0
-247 -14 158 -18 0
-247 -14 158 155 0
-247 166 -15 -18 0
-247 166 -15 155 0
-247 166 158 -18 0
-247 166 158 155 0
-247 -24 -25 -28 0
-247 -24 -25 200 0
-247 -24 203 -28 0
-247 -24 203 200 0
-247 211 -25 -28 0
-247 211 -25 200 0
-247 211 203 -28 0
-247 211 203 200 0
-247 -35 -43 -52 0
-247 -35 -43 245 0
-247 -35 254 -52 0
-247 -35 254 245 0
-247 282 -43 -52 0
-247 282 -43 245 0
-247 282 254 -52 0
-247 282 254 245 0
-247 -36 -44 -58 0
-247 -36 -44 246 0
-247 -36 260 -58 0
-247 -36 260 246 0
-247 288 -44 -58 0
-247 288 -44 246 0
-247 288 260 -58 0
-247 288 260 246 0
-247 -38 -46 -64 0
-247 -38 -46 248 0
-247 -38 266 -64 0
-247 -38 266 248 0
-247 294 -46 -64 0
-247 294 -46 248 0
-247 294 266 -64 0
-247 294 266 248 0
-247 -39 -47 -65 0
-247 -39 -47 249 0
-247 -39 267 -65 0
-247 -39 267 249 0
-247 295 -47 -65 0
-247 295 -47 249 0
-247 295 267 -65 0
-247 295 267 249 0
-247 -40 -48 -66 0
-247 -40 -48 250 0
-247 -40 268 -66 0
-247 -40 268 250 0
-247 296 -48 -66 0
-247 296 -48 250 0
-247 296 268 -66 0
-247 296 268 250 0
-247 -41 -49 -67 0
-247 -41 -49 251 0
-247 -41 269 -67 0
-247 -41 269 251 0
-247 297 -49 -67 0
-247 297 -49 251 0
-247 297 269 -67 0
-247 297 269 251 0
-247 -42 -50 -68 0
-247 -42 -50 252 0
-247 -42 270 -68 0
-247 -42 270 252 0
-247 298 -50 -68 0
-247 298 -50 252 0
-247 298 270 -68 0
-247 298 270 252 0
-248 -3 -4 -8 0
-248 -3 -4 100 0
-248 -3 104 -8 0
-248 -3 104 100 0
-248 112 -4 -8 0
-248 112 -4 100 0
-248 112 104 -8 0
-248 112 104 100 0
-248 -14 -15 -19 0
-248 -14 -15 155 0
-248 -14 159 -19 0
-248 -14 159 155 0
-248 167 -15 -19 0
-248 167 -15 155 0
-248 167 159 -19 0
-248 167 159 155 0
-248 -24 -25 -29 0
-248 -24 -25 200 0
-248 -24 204 -29 0
-248 -24 204 200 0
-248 212 -25 -29 0
-248 212 -25 200 0
-248 212 204 -29 0
-248 212 204 200 0
-248 -35 -43 -53 0
-248 -35 -43 245 0
-248 -35 255 -53 0
-248 -35 255 245 0
-248 283 -43 -53 0
-248 283 -43 245 0
-248 283 255 -53 0
-248 283 255 245 0
-248 -36 -44 -59 0
-248 -36 -44 246 0
-248 -36 261 -59 0
-248 -36 261 246 0
-248 289 -44 -59 0
-248 289 -44 246 0
-248 289 261 -59 0
-248 289 261 246 0
-248 -37 -45 -64 0
-248 -37 -45 247 0
-248 -37 266 -64 0
-248 -37 266 247 0
-248 294 -45 -64 0
-248 294 -45 247 0
-248 294 266 -64 0
-248 294 266 247 0
-248 -39 -47 -69 0
-248 -39 -47 249 0
-248 -39 271 -69 0
-248 -39 271 249 0
-248 299 -47 -69 0
-248 299 -47 249 0
-248 299 271 -69 0
-248 299 271 249 0
-248 -40 -48 -70 0
-248 -40 -48 250 0
-248 -40 272 -70 0
-248 -40 272 250 0
-248 300 -48 -70 0
-248 300 -48 250 0
-248 300 272 -70 0
-248 300 272 250 0
-248 -41 -49 -71 0
-248 -41 -49 251 0
-248 -41 273 -71 0
-248 -41 273 251 0
-248 301 -49 -71 0
-248 301 -49 251 0
-248 301 273 -71 0
-248 301 273 251 0
-248 -42 -50 -72 0
-248 -42 -50 252 0
-248 -42 274 -72 0
-248 -42 274 252 0
-248 302 -50 -72 0
-248 302 -50 252 0
-248 302 274 -72 0
-248 302 274 252 0
-249 -3 -4 -9 0
-249 -3 -4 100 0
-249 -3 105 -9 0
-249 -3 105 100 0
-249 113 -4 -9 0
-249 113 -4 100 0
-249 113 105 -9 0
-249 113 105 100 0
-249 -14 -15 -20 0
-249 -14 -15 155 0
-249 -14 160 -20 0
-249 -14 160 155 0
-249 168 -15 -20 0
-249 168 -15 155 0
-249 168 160 -20 0
-249 168 160 155 0
-249 -24 -25 -30 0
-249 -24 -25 200 0
-249 -24 205 -30 0
-249 -24 205 200 0
-249 213 -25 -30 0
-249 213 -25 200 0
-249 213 205 -30 0
-249 213 205 200 0
-249 -35 -43 -54 0
-249 -35 -43 245 0
-249 -35 256 -54 0
-249 -35 256 245 0
-249 284 -43 -54 0
-249 284 -43 245 0
-249 284 256 -54 0
-249 284 256 245 0
-249 -36 -44 -60 0
-249 -36 -44 246 0
-249 -36 262 -60 0
-249 -36 262 246 0
-249 290 -44 -60 0
-249 290 -44 246 0
-249 290 262 -60 0
-249 290 262 246 0
-249 -37 -45 -65 0
-249 -37 -45 247 0
-249 -37 267 -65 0
-249 -37 267 247 0
-249 295 -45 -65 0
-249 295 -45 247 0
-249 295 267 -65 0
-249 295 267 247 0
-249 -38 -46 -69 0
-249 -38 -46 248 0
-249 -38 271 -69 0
-249 -38 271 248 0
-249 299 -46 -69 0
-249 299 -46 248 0
-249 299 271 -69 0
-249 299 271 248 0
-249 -40 -48 -73 0
-249 -40 -48 250 0
-249 -40 275 -73 0
-249 -40 275 250 0
-249 303 -48 -73 0
-249 303 -48 250 0
-249 303 275 -73 0
-249 303 275 250 0
-249 -41 -49 -74 0
-249 -41 -49 251 0
-249 -41 276 -74 0
-249 -41 276 251 0
-249 304 -49 -74 0
-249 304 -49 251 0
-249 304 276 -74 0
-249 304 276 251 0
-249 -42 -50 -75 0
-249 -42 -50 252 0
-249 -42 277 -75 0
-249 -42 277 252 0
-249 305 -50 -75 0
-249 305 -50 252 0
-249 305 277 -75 0
-249 305 277 252 0
-250 -3 -4 -10 0
-250 -3 -4 100 0
-250 -3 106 -10 0
-250 -3 106 100 0
-250 114 -4 -10 0
-250 114 -4 100 0
-250 114 106 -10 0
-250 114 106 100 0
-250 -14 -15 -21 0
-250 -14 -15 155 0
-250 -14 161 -21 0
-250 -14 161 155 0
-250 169 -15 -21 0
-250 169 -15 155 0
-250 169 161 -21 0
-250 169 161 155 0
-250 -24 -25 -31 0
-250 -24 -25 200 0
-250 -24 206 -31 0
-250 -24 206 200 0
-250 214 -25 -31 0
-250 214 -25 200 0
-250 214 206 -31 0
-250 214 206 200 0
-250 -35 -43 -55 0
-250 -35 -43 245 0
-250 -35 257 -55 0
-250 -35 257 245 0
-250 285 -43 -55 0
-250 285 -43 245 0
-250 285 257 -55 0
-250 285 257 245 0
-250 -36 -44 -61 0
-250 -36 -44 246 0
-250 -36 263 -61 0
-250 -36 263 246 0
-250 291 -44 -61 0
-250 291 -44 246 0
-250 291 263 -61 0
-250 291 263 246 0
-250 -37 -45 -66 0
-250 -37 -45 247 0
-250 -37 268 -66 0
-250 -37 268 247 0
-250 296 -45 -66 0
-250 296 -45 247 0
-250 296 268 -66 0
-250 296 268 247 0
-250 -38 -46 -70 0
-250 -38 -46 248 0
-250 -38 272 -70 0
-250 -38 272 248 0
-250 300 -46 -70 0
-250 300 -46 248 0
-250 300 272 -70 0
-250 300 272 248 0
-250 -39 -47 -73 0
-250 -39 -47 249 0
-250 -39 275 -73 0
-250 -39 275 249 0
-250 303 -47 -73 0
-250 303 -47 249 0
-250 303 275 -73 0
-250 303 275 249 0
-250 -41 -49 -76 0
-250 -41 -49 251 0
-250 -41 278 -76 0
-250 -41 278 251 0
-250 306 -49 -76 0
-250 306 -49 251 0
-250 306 278 -76 0
-250 306 278 251 0
-250 -42 -50 -77 0
-250 -42 -50 252 0
-250 -42 279 -77 0
-250 -42 279 252 0
-250 307 -50 -77 0
-250 307 -50 252 0
-250 307 279 -77 0
-250 307 279 252 0
-251 -3 -4 -11 0
-251 -3 -4 100 0
-251 -3 107 -11 0
-251 -3 107 100 0
-251 115 -4 -11 0
-251 115 -4 100 0
-251 115 107 -11 0
-251 115 107 100 0
-251 -14 -15 -22 0
-251 -14 -15 155 0
-251 -14 162 -22 0
-251 -14 162 155 0
-251 170 -15 -22 0
-251 170 -15 155 0
-251 170 162 -22 0
-251 170 162 155 0
-251 -24 -25 -32 0
-251 -24 -25 200 0
-251 -24 207 -32 0
-251 -24 207 200 0
-251 215 -25 -32 0
-251 215 -25 200 0
-251 215 207 -32 0
-251 215 207 200 0
-251 -35 -43 -56 0
-251 -35 -43 245 0
-251 -35 258 -56 0
-251 -35 258 245 0
-251 286 -43 -56 0
-251 286 -43 245 0
-251 286 258 -56 0
-251 286 258 245 0
-251 -36 -44 -62 0
-251 -36 -44 246 0
-251 -36 264 -62 0
-251 -36 264 246 0
-251 292 -44 -62 0
-251 292 -44 246 0
-251 292 264 -62 0
-251 292 264 246 0
-251 -37 -45 -67 0
-251 -37 -45 247 0
-251 -37 269 -67 0
-251 -37 269 247 0
-251 297 -45 -67 0
-251 297 -45 247 0
-251 297 269 -67 0
-251 297 269 247 0
-251 -38 -46 -71 0
-251 -38 -46 248 0
-251 -38 273 -71 0
-251 -38 273 248 0
-251 301 -46 -71 0
-251 301 -46 248 0
-251 301 273 -71 0
-251 301 273 248 0
-251 -39 -47 -74 0
-251 -39 -47 249 0
-251 -39 276 -74 0
-251 -39 276 249 0
-251 304 -47 -74 0
-251 304 -47 249 0
-251 304 276 -74 0
-251 304 276 249 0
-251 -40 -48 -76 0
-251 -40 -48 250 0
-251 -40 278 -76 0
-251 -40 278 250 0
-251 306 -48 -76 0
-251 306 -48 250 0
-251 306 278 -76 0
-251 306 278 250 0
-251 -42 -50 -78 0
-251 -42 -50 252 0
-251 -42 280 -78 0
-251 -42 280 252 0
-251 308 -50 -78 0
-251 308 -50 252 0
-251 308 280 -78 0
-251 308 280 252 0
-252 -3 -4 -12 0
-252 -3 -4 100 0
-252 -3 108 -12 0
-252 -3 108 100 0
-252 116 -4 -12 0
-252 116 -4 100 0
-252 116 108 -12 0
-252 116 108 100 0
-252 -14 -15 -23 0
-252 -14 -15 155 0
-252 -14 163 -23 0
-252 -14 163 155 0
-252 171 -15 -23 0
-252 171 -15 155 0
-252 171 163 -23 0
-252 171 163 155 0
-252 -24 -25 -33 0
-252 -24 -25 200 0
-252 -24 208 -33 0
-252 -24 208 200 0
-252 216 -25 -33 0
-252 216 -25 200 0
-252 216 208 -33 0
-252 216 208 200 0
-252 -35 -43 -57 0
-252 -35 -43 245 0
-252 -35 259 -57 0
-252 -35 259 245 0
-252 287 -43 -57 0
-252 287 -43 245 0
-252 287 259 -57 0
-252 287 259 245 0
-252 -36 -44 -63 0
-252 -36 -44 246 0
-252 -36 265 -63 0
-252 -36 265 246 0
-252 293 -44 -63 0
-252 293 -44 246 0
-252 293 265 -63 0
-252 293 265 246 0
-252 -37 -45 -68 0
-252 -37 -45 247 0
-252 -37 270 -68 0
-252 -37 270 247 0
-252 298 -45 -68 0
-252 298 -45 247 0
-252 298 270 -68 0
-252 298 270 247 0
-252 -38 -46 -72 0
-252 -38 -46 248 0
-252 -38 274 -72 0
-252 -38 274 248 0
-252 302 -46 -72 0
-252 302 -46 248 0
-252 302 274 -72 0
-252 302 274 248 0
-252 -39 -47 -75 0
-252 -39 -47 249 0
-252 -39 277 -75 0
-252 -39 277 249 0
-252 305 -47 -75 0
-252 305 -47 249 0
-252 305 277 -75 0
-252 305 277 249 0
-252 -40 -48 -77 0
-252 -40 -48 250 0
-252 -40 279 -77 0
-252 -40 279 250 0
-252 307 -48 -77 0
-252 307 -48 250 0
-252 307 279 -77 0
-252 307 279 250 0
-252 -41 -49 -78 0
-252 -41 -49 251 0
-252 -41 280 -78 0
-252 -41 280 251 0
-252 308 -49 -78 0
-252 308 -49 251 0
-252 308 280 -78 0
-252 308 280 251 0
-253 -3 -5 -6 0
-253 -3 -5 101 0
-253 -3 102 -6 0
-253 -3 102 101 0
-253 117 -5 -6 0
-253 117 -5 101 0
-253 117 102 -6 0
-253 117 102 101 0
-253 -14 -16 -17 0
-253 -14 -16 156 0
-253 -14 157 -17 0
-253 -14 157 156 0
-253 172 -16 -17 0
-253 172 -16 156 0
-253 172 157 -17 0
-253 172 157 156 0
-253 -24 -26 -27 0
-253 -24 -26 201 0
-253 -24 202 -27 0
-253 -24 202 201 0
-253 217 -26 -27 0
-253 217 -26 201 0
-253 217 202 -27 0
-253 217 202 201 0
-253 -34 -43 -44 0
-253 -34 -43 245 0
-253 -34 246 -44 0
-253 -34 246 245 0
-253 281 -43 -44 0
-253 281 -43 245 0
-253 281 246 -44 0
-253 281 246 245 0
-253 -37 -52 -58 0
-253 -37 -52 254 0
-253 -37 260 -58 0
-253 -37 260 254 0
-253 309 -52 -58 0
-253 309 -52 254 0
-253 309 260 -58 0
-253 309 260 254 0
-253 -38 -53 -59 0
-253 -38 -53 255 0
-253 -38 261 -59 0
-253 -38 261 255 0
-253 310 -53 -59 0
-253 310 -53 255 0
-253 310 261 -59 0
-253 310 261 255 0
-253 -39 -54 -60 0
-253 -39 -54 256 0
-253 -39 262 -60 0
-253 -39 262 256 0
-253 311 -54 -60 0
-253 311 -54 256 0
-253 311 262 -60 0
-253 311 262 256 0
-253 -40 -55 -61 0
-253 -40 -55 257 0
-253 -40 263 -61 0
-253 -40 263 257 0
-253 312 -55 -61 0
-253 312 -55 257 0
-253 312 263 -61 0
-253 312 263 257 0
-253 -41 -56 -62 0
-253 -41 -56 258 0
-253 -41 264 -62 0
-253 -41 264 258 0
-253 313 -56 -62 0
-253 313 -56 258 0
-253 313 264 -62 0
-253 313 264 258 0
-253 -42 -57 -63 0
-253 -42 -57 259 0
-253 -42 265 -63 0
-253 -42 265 259 0
-253 314 -57 -63 0
-253 314 -57 259 0
-253 314 265 -63 0
-253 314 265 259 0
-254 -3 -5 -7 0
-254 -3 -5 101 0
-254 -3 103 -7 0
-254 -3 103 101 0
-254 118 -5 -7 0
-254 118 -5 101 0
-254 118 103 -7 0
-254 118 103 101 0
-254 -14 -16 -18 0
-254 -14 -16 156 0
-254 -14 158 -18 0
-254 -14 158 156 0
-254 173 -16 -18 0
-254 173 -16 156 0
-254 173 158 -18 0
-254 173 158 156 0
-254 -24 -26 -28 0
-254 -24 -26 201 0
-254 -24 203 -28 0
-254 -24 203 201 0
-254 218 -26 -28 0
-254 218 -26 201 0
-254 218 203 -28 0
-254 218 203 201 0
-254 -34 -43 -45 0
-254 -34 -43 245 0
-254 -34 247 -45 0
-254 -34 247 245 0
-254 282 -43 -45 0
-254 282 -43 245 0
-254 282 247 -45 0
-254 282 247 245 0
-254 -36 -51 -58 0
-254 -36 -51 253 0
-254 -36 260 -58 0
-254 -36 260 253 0
-254 309 -51 -58 0
-254 309 -51 253 0
-254 309 260 -58 0
-254 309 260 253 0
-254 -38 -53 -64 0
-254 -38 -53 255 0
-254 -38 266 -64 0
-254 -38 266 255 0
-254 315 -53 -64 0
-254 315 -53 255 0
-254 315 266 -64 0
-254 315 266 255 0
-254 -39 -54 -65 0
-254 -39 -54 256 0
-254 -39 267 -65 0
-254 -39 267 256 0
-254 316 -54 -65 0
-254 316 -54 256 0
-254 316 267 -65 0
-254 316 267 256 0
-254 -40 -55 -66 0
-254 -40 -55 257 0
-254 -40 268 -66 0
-254 -40 268 257 0
-254 317 -55 -66 0
-254 317 -55 257 0
-254 317 268 -66 0
-254 317 268 257 0
-254 -41 -56 -67 0
-254 -41 -56 258 0
-254 -41 269 -67 0
-254 -41 269 258 0
-254 318 -56 -67 0
-254 318 -56 258 0
-254 318 269 -67 0
-254 318 269 258 0
-254 -42 -57 -68 0
-254 -42 -57 259 0
-254 -42 270 -68 0
-254 -42 270 259 0
-254 319 -57 -68 0
-254 319 -57 259 0
-254 319 270 -68 0
-254 319 270 259 0
-255 -3 -5 -8 0
-255 -3 -5 101 0
-255 -3 104 -8 0
-255 -3 104 101 0
-255 119 -5 -8 0
-255 119 -5 101 0
-255 119 104 -8 0
-255 119 104 101 0
-255 -14 -16 -19 0
-255 -14 -16 156 0
-255 -14 159 -19 0
-255 -14 159 156 0
-255 174 -16 -19 0
-255 174 -16 156 0
-255 174 159 -19 0
-255 174 159 156 0
-255 -24 -26 -29 0
-255 -24 -26 201 0
-255 -24 204 -29 0
-255 -24 204 201 0
-255 219 -26 -29 0
-255 219 -26 201 0
-255 219 204 -29 0
-255 219 204 201 0
-255 -34 -43 -46 0
-255 -34 -43 245 0
-255 -34 248 -46 0
-255 -34 248 245 0
-255 283 -43 -46 0
-255 283 -43 245 0
-255 283 248 -46 0
-255 283 248 245 0
-255 -36 -51 -59 0
-255 -36 -51 253 0
-255 -36 261 -59 0
-255 -36 261 253 0
-255 310 -51 -59 0
-255 310 -51 253 0
-255 310 261 -59 0
-255 310 261 253 0
-255 -37 -52 -64 0
-255 -37 -52 254 0
-255 -37 266 -64 0
-255 -37 266 254 0
-255 315 -52 -64 0
-255 315 -52 254 0
-255 315 266 -64 0
-255 315 266 254 0
-255 -39 -54 -69 0
-255 -39 -54 256 0
-255 -39 271 -69 0
-255 -39 271 256 0
-255 320 -54 -69 0
-255 320 -54 256 0
-255 320 271 -69 0
-255 320 271 256 0
-255 -40 -55 -70 0
-255 -40 -55 257 0
-255 -40 272 -70 0
-255 -40 272 257 0
-255 321 -55 -70 0
-255 321 -55 257 0
-255 321 272 -70 0
-255 321 272 257 0
-255 -41 -56 -71 0
-255 -41 -56 258 0
-255 -41 273 -71 0
-255 -41 273 258 0
-255 322 -56 -71 0
-255 322 -56 258 0
-255 322 273 -71 0
-255 322 273 258 0
-255 -42 -57 -72 0
-255 -42 -57 259 0
-255 -42 274 -72 0
-255 -42 274 259 0
-255 323 -57 -72 0
-255 323 -57 259 0
-255 323 274 -72 0
-255 323 274 259 0
-256 -3 -5 -9 0
-256 -3 -5 101 0
-256 -3 105 -9 0
-256 -3 105 101 0
-256 120 -5 -9 0
-256 120 -5 101 0
-256 120 105 -9 0
-256 120 105 101 0
-256 -14 -16 -20 0
-256 -14 -16 156 0
-256 -14 160 -20 0
-256 -14 160 156 0
-256 175 -16 -20 0
-256 175 -16 156 0
-256 175 160 -20 0
-256 175 160 156 0
-256 -24 -26 -30 0
-256 -24 -26 201 0
-256 -24 205 -30 0
-256 -24 205 201 0
-256 220 -26 -30 0
-256 220 -26 201 0
-256 220 205 -30 0
-256 220 205 201 0
-256 -34 -43 -47 0
-256 -34 -43 245 0
-256 -34 249 -47 0
-256 -34 249 245 0
-256 284 -43 -47 0
-256 284 -43 245 0
-256 284 249 -47 0
-256 284 249 245 0
-256 -36 -51 -60 0
-256 -36 -51 253 0
-256 -36 262 -60 0
-256 -36 262 253 0
-256 311 -51 -60 0
-256 311 -51 253 0
-256 311 262 -60 0
-256 311 262 253 0
-256 -37 -52 -65 0
-256 -37 -52 254 0
-256 -37 267 -65 0
-256 -37 267 254 0
-256 316 -52 -65 0
-256 316 -52 254 0
-256 316 267 -65 0
-256 316 267 254 0
-256 -38 -53 -69 0
-256 -38 -53 255 0
-256 -38 271 -69 0
-256 -38 271 255 0
-256 320 -53 -69 0
-256 320 -53 255 0
-256 320 271 -69 0
-256 320 271 255 0
-256 -40 -55 -73 0
-256 -40 -55 257 0
-256 -40 275 -73 0
-256 -40 275 257 0
-256 324 -55 -73 0
-256 324 -55 257 0
-256 324 275 -73 0
-256 324 275 257 0
-256 -41 -56 -74 0
-256 -41 -56 258 0
-256 -41 276 -74 0
-256 -41 276 258 0
-256 325 -56 -74 0
-256 325 -56 258 0
-256 325 276 -74 0
-256 325 276 258 0
-256 -42 -57 -75 0
-256 -42 -57 259 0
-256 -42 277 -75 0
-256 -42 277 259 0
-256 326 -57 -75 0
-256 326 -57 259 0
-256 326 277 -75 0
-256 326 277 259 0
-257 -3 -5 -10 0
-257 -3 -5 101 0
-257 -3 106 -10 0
-257 -3 106 101 0
-257 121 -5 -10 0
-257 121 -5 101 0
-257 121 106 -10 0
-257 121 106 101 0
-257 -14 -16 -21 0
-257 -14 -16 156 0
-257 -14 161 -21 0
-257 -14 161 156 0
-257 176 -16 -21 0
-257 176 -16 156 0
-257 176 161 -21 0
-257 176 161 156 0
-257 -24 -26 -31 0
-257 -24 -26 201 0
-257 -24 206 -31 0
-257 -24 206 201 0
-257 221 -26 -31 0
-257 221 -26 201 0
-257 221 206 -31 0
-257 221 206 201 0
-257 -34 -43 -48 0
-257 -34 -43 245 0
-257 -34 250 -48 0
-257 -34 250 245 0
-257 285 -43 -48 0
-257 285 -43 245 0
-257 285 250 -48 0
-257 285 250 245 0
-257 -36 -51 -61 0
-257 -36 -51 253 0
-257 -36 263 -61 0
-257 -36 263 253 0
-257 312 -51 -61 0
-257 312 -51 253 0
-257 312 263 -61 0
-257 312 263 253 0
-257 -37 -52 -66 0
-257 -37 -52 254 0
-257 -37 268 -66 0
-257 -37 268 254 0
-257 317 -52 -66 0
-257 317 -52 254 0
-257 317 268 -66 0
-257 317 268 254 0
-257 -38 -53 -70 0
-257 -38 -53 255 0
-257 -38 272 -70 0
-257 -38 272 255 0
-257 321 -53 -70 0
-257 321 -53 255 0
-257 321 272 -70 0
-257 321 272 255 0
-257 -39 -54 -73 0
-257 -39 -54 256 0
-257 -39 275 -73 0
-257 -39 275 256 0
-257 324 -54 -73 0
-257 324 -54 256 0
-257 324 275 -73 0
-257 324 275 256 0
-257 -41 -56 -76 0
-257 -41 -56 258 0
-257 -41 278 -76 0
-257 -41 278 258 0
-257 327 -56 -76 0
-257 327 -56 258 0
-257 327 278 -76 0
-257 327 278 258 0
-257 -42 -57 -77 0
-257 -42 -57 259 0
-257 -42 279 -77 0
-257 -42 279 259 0
-257 328 -57 -77 0
-257 328 -57 259 0
-257 328 279 -77 0
-257 328 279 259 0
-258 -3 -5 -11 0
-258 -3 -5 101 0
-258 -3 107 -11 0
-258 -3 107 101 0
-258 122 -5 -11 0
-258 122 -5 101 0
-258 122 107 -11 0
-258 122 107 101 0
-258 -14 -16 -22 0
-258 -14 -16 156 0
-258 -14 162 -22 0
-258 -14 162 156 0
-258 177 -16 -22 0
-258 177 -16 156 0
-258 177 162 -22 0
-258 177 162 156 0
-258 -24 -26 -32 0
-258 -24 -26 201 0
-258 -24 207 -32 0
-258 -24 207 201 0
-258 222 -26 -32 0
-258 222 -26 201 0
-258 222 207 -32 0
-258 222 207 201 0
-258 -34 -43 -49 0
-258 -34 -43 245 0
-258 -34 251 -49 0
-258 -34 251 245 0
-258 286 -43 -49 0
-258 286 -43 245 0
-258 286 251 -49 0
-258 286 251 245 0
-258 -36 -51 -62 0
-258 -36 -51 253 0
-258 -36 264 -62 0
-258 -36 264 253 0
-258 313 -51 -62 0
-258 313 -51 253 0
-258 313 264 -62 0
-258 313 264 253 0
-258 -37 -52 -67 0
-258 -37 -52 254 0
-258 -37 269 -67 0
-258 -37 269 254 0
-258 318 -52 -67 0
-258 318 -52 254 0
-258 318 269 -67 0
-258 318 269 254 0
-258 -38 -53 -71 0
-258 -38 -53 255 0
-258 -38 273 -71 0
-258 -38 273 255 0
-258 322 -53 -71 0
-258 322 -53 255 0
-258 322 273 -71 0
-258 322 273 255 0
-258 -39 -54 -74 0
-258 -39 -54 256 0
-258 -39 276 -74 0
-258 -39 276 256 0
-258 325 -54 -74 0
-258 325 -54 256 0
-258 325 276 -74 0
-258 325 276 256 0
-258 -40 -55 -76 0
-258 -40 -55 257 0
-258 -40 278 -76 0
-258 -40 278 257 0
-258 327 -55 -76 0
-258 327 -55 257 0
-258 327 278 -76 0
-258 327 278 257 0
-258 -42 -57 -78 0
-258 -42 -57 259 0
-258 -42 280 -78 0
-258 -42 280 259 0
-258 329 -57 -78 0
-258 329 -57 259 0
-258 329 280 -78 0
-258 329 280 259 0
-259 -3 -5 -12 0
-259 -3 -5 101 0
-259 -3 108 -12 0
-259 -3 108 101 0
-259 123 -5 -12 0
-259 123 -5 101 0
-259 123 108 -12 0
-259 123 108 101 0
-259 -14 -16 -23 0
-259 -14 -16 156 0
-259 -14 163 -23 0
-259 -14 163 156 0
-259 178 -16 -23 0
-259 178 -16 156 0
-259 178 163 -23 0
-259 178 163 156 0
-259 -24 -26 -33 0
-259 -24 -26 201 0
-259 -24 208 -33 0
-259 -24 208 201 0
-259 223 -26 -33 0
-259 223 -26 201 0
-259 223 208 -33 0
-259 223 208 201 0
-259 -34 -43 -50 0
-259 -34 -43 245 0
-259 -34 252 -50 0
-259 -34 252 245 0
-259 287 -43 -50 0
-259 287 -43 245 0
-259 287 252 -50 0
-259 287 252 245 0
-259 -36 -51 -63 0
-259 -36 -51 253 0
-259 -36 265 -63 0
-259 -36 265 253 0
-259 314 -51 -63 0
-259 314 -51 253 0
-259 314 265 -63 0
-259 314 265 253 0
-259 -37 -52 -68 0
-259 -37 -52 254 0
-259 -37 270 -68 0
-259 -37 270 254 0
-259 319 -52 -68 0
-259 319 -52 254 0
-259 319 270 -68 0
-259 319 270 254 0
-259 -38 -53 -72 0
-259 -38 -53 255 0
-259 -38 274 -72 0
-259 -38 274 255 0
-259 323 -53 -72 0
-259 323 -53 255 0
-259 323 274 -72 0
-259 323 274 255 0
-259 -39 -54 -75 0
-259 -39 -54 256 0
-259 -39 277 -75 0
-259 -39 277 256 0
-259 326 -54 -75 0
-259 326 -54 256 0
-259 326 277 -75 0
-259 326 277 256 0
-259 -40 -55 -77 0
-259 -40 -55 257 0
-259 -40 279 -77 0
-259 -40 279 257 0
-259 328 -55 -77 0
-259 328 -55 257 0
-259 328 279 -77 0
-259 328 279 257 0
-259 -41 -56 -78 0
-259 -41 -56 258 0
-259 -41 280 -78 0
-259 -41 280 258 0
-259 329 -56 -78 0
-259 329 -56 258 0
-259 329 280 -78 0
-259 329 280 258 0
-260 -3 -6 -7 0
-260 -3 -6 102 0
-260 -3 103 -7 0
-260 -3 103 102 0
-260 124 -6 -7 0
-260 124 -6 102 0
-260 124 103 -7 0
-260 124 103 102 0
-260 -14 -17 -18 0
-260 -14 -17 157 0
-260 -14 158 -18 0
-260 -14 158 157 0
-260 179 -17 -18 0
-260 179 -17 157 0
-260 179 158 -18 0
-260 179 158 157 0
-260 -24 -27 -28 0
-260 -24 -27 202 0
-260 -24 203 -28 0
-260 -24 203 202 0
-260 224 -27 -28 0
-260 224 -27 202 0
-260 224 203 -28 0
-260 224 203 202 0
-260 -34 -44 -45 0
-260 -34 -44 246 0
-260 -34 247 -45 0
-260 -34 247 246 0
-260 288 -44 -45 0
-260 288 -44 246 0
-260 288 247 -45 0
-260 288 247 246 0
-260 -35 -51 -52 0
-260 -35 -51 253 0
-260 -35 254 -52 0
-260 -35 254 253 0
-260 309 -51 -52 0
-260 309 -51 253 0
-260 309 254 -52 0
-260 309 254 253 0
-260 -38 -59 -64 0
-260 -38 -59 261 0
-260 -38 266 -64 0
-260 -38 266 261 0
-260 330 -59 -64 0
-260 330 -59 261 0
-260 330 266 -64 0
-260 330 266 261 0
-260 -39 -60 -65 0
-260 -39 -60 262 0
-260 -39 267 -65 0
-260 -39 267 262 0
-260 331 -60 -65 0
-260 331 -60 262 0
-260 331 267 -65 0
-260 331 267 262 0
-260 -40 -61 -66 0
-260 -40 -61 263 0
-260 -40 268 -66 0
-260 -40 268 263 0
-260 332 -61 -66 0
-260 332 -61 263 0
-260 332 268 -66 0
-260 332 268 263 0
-260 -41 -62 -67 0
-260 -41 -62 264 0
-260 -41 269 -67 0
-260 -41 269 264 0
-260 333 -62 -67 0
-260 333 -62 264 0
-260 333 269 -67 0
-260 333 269 264 0
-260 -42 -63 -68 0
-260 -42 -63 265 0
-260 -42 270 -68 0
-260 -42 270 265 0
-260 334 -63 -68 0
-260 334 -63 265 0
-260 334 270 -68 0
-260 334 270 265 0
-261 -3 -6 -8 0
-261 -3 -6 102 0
-261 -3 104 -8 0
-261 -3 104 102 0
-261 125 -6 -8 0
-261 125 -6 102 0
-261 125 104 -8 0
-261 125 104 102 0
-261 -14 -17 -19 0
-261 -14 -17 157 0
-261 -14 159 -19 0
-261 -14 159 157 0
-261 180 -17 -19 0
-261 180 -17 157 0
-261 180 159 -19 0
-261 180 159 157 0
-261 -24 -27 -29 0
-261 -24 -27 202 0
-261 -24 204 -29 0
-261 -24 204 202 0
-261 225 -27 -29 0
-261 225 -27 202 0
-261 225 204 -29 0
-261 225 204 202 0
-261 -34 -44 -46 0
-261 -34 -44 246 0
-261 -34 248 -46 0
-261 -34 248 246 0
-261 289 -44 -46 0
-261 289 -44 246 0
-261 289 248 -46 0
-261 289 248 246 0
-261 -35 -51 -53 0
-261 -35 -51 253 0
-261 -35 255 -53 0
-261 -35 255 253 0
-261 310 -51 -53 0
-261 310 -51 253 0
-261 310 255 -53 0
-261 310 255 253 0
-261 -37 -58 -64 0
-261 -37 -58 260 0
-261 -37 266 -64 0
-261 -37 266 260 0
-261 330 -58 -64 0
-261 330 -58 260 0
-261 330 266 -64 0
-261 330 266 260 0
-261 -39 -60 -69 0
-261 -39 -60 262 0
-261 -39 271 -69 0
-261 -39 271 262 0
-261 335 -60 -69 0
-261 335 -60 262 0
-261 335 271 -69 0
-261 335 271 262 0
-261 -40 -61 -70 0
-261 -40 -61 263 0
-261 -40 272 -70 0
-261 -40 272 263 0
-261 336 -61 -70 0
-261 336 -61 263 0
-261 336 272 -70 0
-261 336 272 263 0
-261 -41 -62 -71 0
-261 -41 -62 264 0
-261 -41 273 -71 0
-261 -41 273 264 0
-261 337 -62 -71 0
-261 337 -62 264 0
-261 337 273 -71 0
-261 337 273 264 0
-261 -42 -63 -72 0
-261 -42 -63 265 0
-261 -42 274 -72 0
-261 -42 274 265 0
-261 338 -63 -72 0
-261 338 -63 265 0
-261 338 274 -72 0
-261 338 274 265 0
-262 -3 -6 -9 0
-262 -3 -6 102 0
-262 -3 105 -9 0
-262 -3 105 102 0
-262 126 -6 -9 0
-262 126 -6 102 0
-262 126 105 -9 0
-262 126 105 102 0
-262 -14 -17 -20 0
-262 -14 -17 157 0
-262 -14 160 -20 0
-262 -14 160 157 0
-262 181 -17 -20 0
-262 181 -17 157 0
-262 181 160 -20 0
-262 181 160 157 0
-262 -24 -27 -30 0
-262 -24 -27 202 0
-262 -24 205 -30 0
-262 -24 205 202 0
-262 226 -27 -30 0
-262 226 -27 202 0
-262 226 205 -30 0
-262 226 205 202 0
-262 -34 -44 -47 0
-262 -34 -44 246 0
-262 -34 249 -47 0
-262 -34 249 246 0
-262 290 -44 -47 0
-262 290 -44 246 0
-262 290 249 -47 0
-262 290 249 246 0
-262 -35 -51 -54 0
-262 -35 -51 253 0
-262 -35 256 -54 0
-262 -35 256 253 0
-262 311 -51 -54 0
-262 311 -51 253 0
-262 311 256 -54 0
-262 311 256 253 0
-262 -37 -58 -65 0
-262 -37 -58 260 0
-262 -37 267 -65 0
-262 -37 267 260 0
-262 331 -58 -65 0
-262 331 -58 260 0
-262 331 267 -65 0
-262 331 267 260 0
-262 -38 -59 -69 0
-262 -38 -59 261 0
-262 -38 271 -69 0
-262 -38 271 261 0
-262 335 -59 -69 0
-262 335 -59 261 0
-262 335 271 -69 0
-262 335 271 261 0
-262 -40 -61 -73 0
-262 -40 -61 263 0
-262 -40 275 -73 0
-262 -40 275 263 0
-262 339 -61 -73 0
-262 339 -61 263 0
-262 339 275 -73 0
-262 339 275 263 0
-262 -41 -62 -74 0
-262 -41 -62 264 0
-262 -41 276 -74 0
-262 -41 276 264 0
-262 340 -62 -74 0
-262 340 -62 264 0
-262 340 276 -74 0
-262 340 276 264 0
-262 -42 -63 -75 0
-262 -42 -63 265 0
-262 -42 277 -75 0
-262 -42 277 265 0
-262 341 -63 -75 0
-262 341 -63 265 0
-262 341 277 -75 0
-262 341 277 265 0
-263 -3 -6 -10 0
-263 -3 -6 102 0
-263 -3 106 -10 0
-263 -3 106 102 0
-263 127 -6 -10 0
-263 127 -6 102 0
-263 127 106 -10 0
-263 127 106 102 0
-263 -14 -17 -21 0
-263 -14 -17 157 0
-263 -14 161 -21 0
-263 -14 161 157 0
-263 182 -17 -21 0
-263 182 -17 157 0
-263 182 161 -21 0
-263 182 161 157 0
-263 -24 -27 -31 0
-263 -24 -27 202 0
-263 -24 206 -31 0
-263 -24 206 202 0
-263 227 -27 -31 0
-263 227 -27 202 0
-263 227 206 -31 0
-263 227 206 202 0
-263 -34 -44 -48 0
-263 -34 -44 246 0
-263 -34 250 -48 0
-263 -34 250 246 0
-263 291 -44 -48 0
-263 291 -44 246 0
-263 291 250 -48 0
-263 291 250 246 0
-263 -35 -51 -55 0
-263 -35 -51 253 0
-263 -35 257 -55 0
-263 -35 257 253 0
-263 312 -51 -55 0
-263 312 -51 253 0
-263 312 257 -55 0
-263 312 257 253 0
-263 -37 -58 -66 0
-263 -37 -58 260 0
-263 -37 268 -66 0
-263 -37 268 260 0
-263 332 -58 -66 0
-263 332 -58 260 0
-263 332 268 -66 0
-263 332 268 260 0
-263 -38 -59 -70 0
-263 -38 -59 261 0
-263 -38 272 -70 0
-263 -38 272 261 0
-263 336 -59 -70 0
-263 336 -59 261 0
-263 336 272 -70 0
-263 336 272 261 0
-263 -39 -60 -73 0
-263 -39 -60 262 0
-263 -39 275 -73 0
-263 -39 275 262 0
-263 339 -60 -73 0
-263 339 -60 262 0
-263 339 275 -73 0
-263 339 275 262 0
-263 -41 -62 -76 0
-263 -41 -62 264 0
-263 -41 278 -76 0
-263 -41 278 264 0
-263 342 -62 -76 0
-263 342 -62 264 0
-263 342 278 -76 0
-263 342 278 264 0
-263 -42 -63 -77 0
-263 -42 -63 265 0
-263 -42 279 -77 0
-263 -42 279 265 0
-263 343 -63 -77 0
-263 343 -63 265 0
-263 343 279 -77 0
-263 343 279 265 0
-264 -3 -6 -11 0
-264 -3 -6 102 0
-264 -3 107 -11 0
-264 -3 107 102 0
-264 128 -6 -11 0
-264 128 -6 102 0
-264 128 107 -11 0
-264 128 107 102 0
-264 -14 -17 -22 0
-264 -14 -17 157 0
-264 -14 162 -22 0
-264 -14 162 157 0
-264 183 -17 -22 0
-264 183 -17 157 0
-264 183 162 -22 0
-264 183 162 157 0
-264 -24 -27 -32 0
-264 -24 -27 202 0
-264 -24 207 -32 0
-264 -24 207 202 0
-264 228 -27 -32 0
-264 228 -27 202 0
-264 228 207 -32 0
-264 228 207 202 0
-264 -34 -44 -49 0
-264 -34 -44 246 0
-264 -34 251 -49 0
-264 -34 251 246 0
-264 292 -44 -49 0
-264 292 -44 246 0
-264 292 251 -49 0
-264 292 251 246 0
-264 -35 -51 -56 0
-264 -35 -51 253 0
-264 -35 258 -56 0
-264 -35 258 253 0
-264 313 -51 -56 0
-264 313 -51 253 0
-264 313 258 -56 0
-264 313 258 253 0
-264 -37 -58 -67 0
-264 -37 -58 260 0
-264 -37 269 -67 0
-264 -37 269 260 0
-264 333 -58 -67 0
-264 333 -58 260 0
-264 333 269 -67 0
-264 333 269 260 0
-264 -38 -59 -71 0
-264 -38 -59 261 0
-264 -38 273 -71 0
-264 -38 273 261 0
-264 337 -59 -71 0
-264 337 -59 261 0
-264 337 273 -71 0
-264 337 273 261 0
-264 -39 -60 -74 0
-264 -39 -60 262 0
-264 -39 276 -74 0
-264 -39 276 262 0
-264 340 -60 -74 0
-264 340 -60 262 0
-264 340 276 -74 0
-264 340 276 262 0
-264 -40 -61 -76 0
-264 -40 -61 263 0
-264 -40 278 -76 0
-264 -40 278 263 0
-264 342 -61 -76 0
-264 342 -61 263 0
-264 342 278 -76 0
-264 342 278 263 0
-264 -42 -63 -78 0
-264 -42 -63 265 0
-264 -42 280 -78 0
-264 -42 280 265 0
-264 344 -63 -78 0
-264 344 -63 265 0
-264 344 280 -78 0
-264 344 280 265 0
-265 -3 -6 -12 0
-265 -3 -6 102 0
-265 -3 108 -12 0
-265 -3 108 102 0
-265 129 -6 -12 0
-265 129 -6 102 0
-265 129 108 -12 0
-265 129 108 102 0
-265 -14 -17 -23 0
-265 -14 -17 157 0
-265 -14 163 -23 0
-265 -14 163 157 0
-265 184 -17 -23 0
-265 184 -17 157 0
-265 184 163 -23 0
-265 184 163 157 0
-265 -24 -27 -33 0
-265 -24 -27 202 0
-265 -24 208 -33 0
-265 -24 208 202 0
-265 229 -27 -33 0
-265 229 -27 202 0
-265 229 208 -33 0
-265 229 208 202 0
-265 -34 -44 -50 0
-265 -34 -44 246 0
-265 -34 252 -50 0
-265 -34 252 246 0
-265 293 -44 -50 0
-265 293 -44 246 0
-265 293 252 -50 0
-265 293 252 246 0
-265 -35 -51 -57 0
-265 -35 -51 253 0
-265 -35 259 -57 0
-265 -35 259 253 0
-265 314 -51 -57 0
-265 314 -51 253 0
-265 314 259 -57 0
-265 314 259 253 0
-265 -37 -58 -68 0
-265 -37 -58 260 0
-265 -37 270 -68 0
-265 -37 270 260 0
-265 334 -58 -68 0
-265 334 -58 260 0
-265 334 270 -68 0
-265 334 270 260 0
-265 -38 -59 -72 0
-265 -38 -59 261 0
-265 -38 274 -72 0
-265 -38 274 261 0
-265 338 -59 -72 0
-265 338 -59 261 0
-265 338 274 -72 0
-265 338 274 261 0
-265 -39 -60 -75 0
-265 -39 -60 262 0
-265 -39 277 -75 0
-265 -39 277 262 0
-265 341 -60 -75 0
-265 341 -60 262 0
-265 341 277 -75 0
-265 341 277 262 0
-265 -40 -61 -77 0
-265 -40 -61 263 0
-265 -40 279 -77 0
-265 -40 279 263 0
-265 343 -61 -77 0
-265 343 -61 263 0
-265 343 279 -77 0
-265 343 279 263 0
-265 -41 -62 -78 0
-265 -41 -62 264 0
-265 -41 280 -78 0
-265 -41 280 264 0
-265 344 -62 -78 0
-265 344 -62 264 0
-265 344 280 -78 0
-265 344 280 264 0
-266 -3 -7 -8 0
-266 -3 -7 103 0
-266 -3 104 -8 0
-266 -3 104 103 0
-266 130 -7 -8 0
-266 130 -7 103 0
-266 130 104 -8 0
-266 130 104 103 0
-266 -14 -18 -19 0
-266 -14 -18 158 0
-266 -14 159 -19 0
-266 -14 159 158 0
-266 185 -18 -19 0
-266 185 -18 158 0
-266 185 159 -19 0
-266 185 159 158 0
-266 -24 -28 -29 0
-266 -24 -28 203 0
-266 -24 204 -29 0
-266 -24 204 203 0
-266 230 -28 -29 0
-266 230 -28 203 0
-266 230 204 -29 0
-266 230 204 203 0
-266 -34 -45 -46 0
-266 -34 -45 247 0
-266 -34 248 -46 0
-266 -34 248 247 0
-266 294 -45 -46 0
-266 294 -45 247 0
-266 294 248 -46 0
-266 294 248 247 0
-266 -35 -52 -53 0
-266 -35 -52 254 0
-266 -35 255 -53 0
-266 -35 255 254 0
-266 315 -52 -53 0
-266 315 -52 254 0
-266 315 255 -53 0
-266 315 255 254 0
-266 -36 -58 -59 0
-266 -36 -58 260 0
-266 -36 261 -59 0
-266 -36 261 260 0
-266 330 -58 -59 0
-266 330 -58 260 0
-266 330 261 -59 0
-266 330 261 260 0
-266 -39 -65 -69 0
-266 -39 -65 267 0
-266 -39 271 -69 0
-266 -39 271 267 0
-266 345 -65 -69 0
-266 345 -65 267 0
-266 345 271 -69 0
-266 345 271 267 0
-266 -40 -66 -70 0
-266 -40 -66 268 0
-266 -40 272 -70 0
-266 -40 272 268 0
-266 346 -66 -70 0
-266 346 -66 268 0
-266 346 272 -70 0
-266 346 272 268 0
-266 -41 -67 -71 0
-266 -41 -67 269 0
-266 -41 273 -71 0
-266 -41 273 269 0
-266 347 -67 -71 0
-266 347 -67 269 0
-266 347 273 -71 0
-266 347 273 269 0
-266 -42 -68 -72 0
-266 -42 -68 270 0
-266 -42 274 -72 0
-266 -42 274 270 0
-266 348 -68 -72 0
-266 348 -68 270 0
-266 348 274 -72 0
-266 348 274 270 0
-267 -3 -7 -9 0
-267 -3 -7 103 0
-267 -3 105 -9 0
-267 -3 105 103 0
-267 131 -7 -9 0
-267 131 -7 103 0
-267 131 105 -9 0
-267 131 105 103 0
-267 -14 -18 -20 0
-267 -14 -18 158 0
-267 -14 160 -20 0
-267 -14 160 158 0
-267 186 -18 -20 0
-267 186 -18 158 0
-267 186 160 -20 0
-267 186 160 158 0
-267 -24 -28 -30 0
-267 -24 -28 203 0
-267 -24 205 -30 0
-267 -24 205 203 0
-267 231 -28 -30 0
-267 231 -28 203 0
-267 231 205 -30 0
-267 231 205 203 0
-267 -34 -45 -47 0
-267 -34 -45 247 0
-267 -34 249 -47 0
-267 -34 249 247 0
-267 295 -45 -47 0
-267 295 -45 247 0
-267 295 249 -47 0
-267 295 249 247 0
-267 -35 -52 -54 0
-267 -35 -52 254 0
-267 -35 256 -54 0
-267 -35 256 254 0
-267 316 -52 -54 0
-267 316 -52 254 0
-267 316 256 -54 0
-267 316 256 254 0
-267 -36 -58 -60 0
-267 -36 -58 260 0
-267 -36 262 -60 0
-267 -36 262 260 0
-267 331 -58 -60 0
-267 331 -58 260 0
-267 331 262 -60 0
-267 331 262 260 0
-267 -38 -64 -69 0
-267 -38 -64 266 0
-267 -38 271 -69 0
-267 -38 271 266 0
-267 345 -64 -69 0
-267 345 -64 266 0
-267 345 271 -69 0
-267 345 271 266 0
-267 -40 -66 -73 0
-267 -40 -66 268 0
-267 -40 275 -73 0
-267 -40 275 268 0
-267 349 -66 -73 0
-267 349 -66 268 0
-267 349 275 -73 0
-267 349 275 268 0
-267 -41 -67 -74 0
-267 -41 -67 269 0
-267 -41 276 -74 0
-267 -41 276 269 0
-267 350 -67 -74 0
-267 350 -67 269 0
-267 350 276 -74 0
-267 350 276 269 0
-267 -42 -68 -75 0
-267 -42 -68 270 0
-267 -42 277 -75 0
-267 -42 277 270 0
-267 351 -68 -75 0
-267 351 -68 270 0
-267 351 277 -75 0
-267 351 277 270 0
-268 -3 -7 -10 0
-268 -3 -7 103 0
-268 -3 106 -10 0
-268 -3 106 103 0
-268 132 -7 -10 0
-268 132 -7 103 0
-268 132 106 -10 0
-268 132 106 103 0
-268 -14 -18 -21 0
-268 -14 -18 158 0
-268 -14 161 -21 0
-268 -14 161 158 0
-268 187 -18 -21 0
-268 187 -18 158 0
-268 187 161 -21 0
-268 187 161 158 0
-268 -24 -28 -31 0
-268 -24 -28 203 0
-268 -24 206 -31 0
-268 -24 206 203 0
-268 232 -28 -31 0
-268 232 -28 203 0
-268 232 206 -31 0
-268 232 206 203 0
-268 -34 -45 -48 0
-268 -34 -45 247 0
-268 -34 250 -48 0
-268 -34 250 247 0
-268 296 -45 -48 0
-268 296 -45 247 0
-268 296 250 -48 0
-268 296 250 247 0
-268 -35 -52 -55 0
-268 -35 -52 254 0
-268 -35 257 -55 0
-268 -35 257 254 0
-268 317 -52 -55 0
-268 317 -52 254 0
-268 317 257 -55 0
-268 317 257 254 0
-268 -36 -58 -61 0
-268 -36 -58 260 0
-268 -36 263 -61 0
-268 -36 263 260 0
-268 332 -58 -61 0
-268 332 -58 260 0
-268 332 263 -61 0
-268 332 263 260 0
-268 -38 -64 -70 0
-268 -38 -64 266 0
-268 -38 272 -70 0
-268 -38 272 266 0
-268 346 -64 -70 0
-268 346 -64 266 0
-268 346 272 -70 0
-268 346 272 266 0
-268 -39 -65 -73 0
-268 -39 -65 267 0
-268 -39 275 -73 0
-268 -39 275 267 0
-268 349 -65 -73 0
-268 349 -65 267 0
-268 349 275 -73 0
-268 349 275 267 0
-268 -41 -67 -76 0
-268 -41 -67 269 0
-268 -41 278 -76 0
-268 -41 278 269 0
-268 352 -67 -76 0
-268 352 -67 269 0
-268 352 278 -76 0
-268 352 278 269 0
-268 -42 -68 -77 0
-268 -42 -68 270 0
-268 -42 279 -77 0
-268 -42 279 270 0
-268 353 -68 -77 0
-268 353 -68 270 0
-268 353 279 -77 0
-268 353 279 270 0
-269 -3 -7 -11 0
-269 -3 -7 103 0
-269 -3 107 -11 0
-269 -3 107 103 0
-269 133 -7 -11 0
-269 133 -7 103 0
-269 133 107 -11 0
-269 133 107 103 0
-269 -14 -18 -22 0
-269 -14 -18 158 0
-269 -14 162 -22 0
-269 -14 162 158 0
-269 188 -18 -22 0
-269 188 -18 158 0
-269 188 162 -22 0
-269 188 162 158 0
-269 -24 -28 -32 0
-269 -24 -28 203 0
-269 -24 207 -32 0
-269 -24 207 203 0
-269 233 -28 -32 0
-269 233 -28 203 0
-269 233 207 -32 0
-269 233 207 203 0
-269 -34 -45 -49 0
-269 -34 -45 247 0
-269 -34 251 -49 0
-269 -34 251 247 0
-269 297 -45 -49 0
-269 297 -45 247 0
-269 297 251 -49 0
-269 297 251 247 0
-269 -35 -52 -56 0
-269 -35 -52 254 0
-269 -35 258 -56 0
-269 -35 258 254 0
-269 318 -52 -56 0
-269 318 -52 254 0
-269 318 258 -56 0
-269 318 258 254 0
-269 -36 -58 -62 0
-269 -36 -58 260 0
-269 -36 264 -62 0
-269 -36 264 260 0
-269 333 -58 -62 0
-269 333 -58 260 0
-269 333 264 -62 0
-269 333 264 260 0
-269 -38 -64 -71 0
-269 -38 -64 266 0
-269 -38 273 -71 0
-269 -38 273 266 0
-269 347 -64 -71 0
-269 347 -64 266 0
-269 347 273 -71 0
-269 347 273 266 0
-269 -39 -65 -74 0
-269 -39 -65 267 0
-269 -39 276 -74 0
-269 -39 276 267 0
-269 350 -65 -74 0
-269 350 -65 267 0
-269 350 276 -74 0
-269 350 276 267 0
-269 -40 -66 -76 0
-269 -40 -66 268 0
-269 -40 278 -76 0
-269 -40 278 268 0
-269 352 -66 -76 0
-269 352 -66 268 0
-269 352 278 -76 0
-269 352 278 268 0
-269 -42 -68 -78 0
-269 -42 -68 270 0
-269 -42 280 -78 0
-269 -42 280 270 0
-269 354 -68 -78 0
-269 354 -68 270 0
-269 354 280 -78 0
-269 354 280 270 0
-270 -3 -7 -12 0
-270 -3 -7 103 0
-270 -3 108 -12 0
-270 -3 108 103 0
-270 134 -7 -12 0
-270 134 -7 103 0
-270 134 108 -12 0
-270 134 108 103 0
-270 -14 -18 -23 0
-270 -14 -18 158 0
-270 -14 163 -23 0
-270 -14 163 158 0
-270 189 -18 -23 0
-270 189 -18 158 0
-270 189 163 -23 0
-270 189 163 158 0
-270 -24 -28 -33 0
-270 -24 -28 203 0
-270 -24 208 -33 0
-270 -24 208 203 0
-270 234 -28 -33 0
-270 234 -28 203 0
-270 234 208 -33 0
-270 234 208 203 0
-270 -34 -45 -50 0
-270 -34 -45 247 0
-270 -34 252 -50 0
-270 -34 252 247 0
-270 298 -45 -50 0
-270 298 -45 247 0
-270 298 252 -50 0
-270 298 252 247 0
-270 -35 -52 -57 0
-270 -35 -52 254 0
-270 -35 259 -57 0
-270 -35 259 254 0
-270 319 -52 -57 0
-270 319 -52 254 0
-270 319 259 -57 0
-270 319 259 254 0
-270 -36 -58 -63 0
-270 -36 -58 260 0
-270 -36 265 -63 0
-270 -36 265 260 0
-270 334 -58 -63 0
-270 334 -58 260 0
-270 334 265 -63 0
-270 334 265 260 0
-270 -38 -64 -72 0
-270 -38 -64 266 0
-270 -38 274 -72 0
-270 -38 274 266 0
-270 348 -64 -72 0
-270 348 -64 266 0
-270 348 274 -72 0
-270 348 274 266 0
-270 -39 -65 -75 0
-270 -39 -65 267 0
-270 -39 277 -75 0
-270 -39 277 267 0
-270 351 -65 -75 0
-270 351 -65 267 0
-270 351 277 -75 0
-270 351 277 267 0
-270 -40 -66 -77 0
-270 -40 -66 268 0
-270 -40 279 -77 0
-270 -40 279 268 0
-270 353 -66 -77 0
-270 353 -66 268 0
-270 353 279 -77 0
-270 353 279 268 0
-270 -41 -67 -78 0
-270 -41 -67 269 0
-270 -41 280 -78 0
-270 -41 280 269 0
-270 354 -67 -78 0
-270 354 -67 269 0
-270 354 280 -78 0
-270 354 280 269 0
-271 -3 -8 -9 0
-271 -3 -8 104 0
-271 -3 105 -9 0
-271 -3 105 104 0
-271 135 -8 -9 0
-271 135 -8 104 0
-271 135 105 -9 0
-271 135 105 104 0
-271 -14 -19 -20 0
-271 -14 -19 159 0
-271 -14 160 -20 0
-271 -14 160 159 0
-271 190 -19 -20 0
-271 190 -19 159 0
-271 190 160 -20 0
-271 190 160 159 0
-271 -24 -29 -30 0
-271 -24 -29 204 0
-271 -24 205 -30 0
-271 -24 205 204 0
-271 235 -29 -30 0
-271 235 -29 204 0
-271 235 205 -30 0
-271 235 205 204 0
-271 -34 -46 -47 0
-271 -34 -46 248 0
-271 -34 249 -47 0
-271 -34 249 248 0
-271 299 -46 -47 0
-271 299 -46 248 0
-271 299 249 -47 0
-271 299 249 248 0
-271 -35 -53 -54 0
-271 -35 -53 255 0
-271 -35 256 -54 0
-271 -35 256 255 0
-271 320 -53 -54 0
-271 320 -53 255 0
-271 320 256 -54 0
-271 320 256 255 0
-271 -36 -59 -60 0
-271 -36 -59 261 0
-271 -36 262 -60 0
-271 -36 262 261 0
-271 335 -59 -60 0
-271 335 -59 261 0
-271 335 262 -60 0
-271 335 262 261 0
-271 -37 -64 -65 0
-271 -37 -64 266 0
-271 -37 267 -65 0
-271 -37 267 266 0
-271 345 -64 -65 0
-271 345 -64 266 0
-271 345 267 -65 0
-271 345 267 266 0
-271 -40 -70 -73 0
-271 -40 -70 272 0
-271 -40 275 -73 0
-271 -40 275 272 0
-271 355 -70 -73 0
-271 355 -70 272 0
-271 355 275 -73 0
-271 355 275 272 0
-271 -41 -71 -74 0
-271 -41 -71 273 0
-271 -41 276 -74 0
-271 -41 276 273 0
-271 356 -71 -74 0
-271 356 -71 273 0
-271 356 276 -74 0
-271 356 276 273 0
-271 -42 -72 -75 0
-271 -42 -72 274 0
-271 -42 277 -75 0
-271 -42 277 274 0
-271 357 -72 -75 0
-271 357 -72 274 0
-271 357 277 -75 0
-271 357 277 274 0
-272 -3 -8 -10 0
-272 -3 -8 104 0
-272 -3 106 -10 0
-272 -3 106 104 0
-272 136 -8 -10 0
-272 136 -8 104 0
-272 136 106 -10 0
-272 136 106 104 0
-272 -14 -19 -21 0
-272 -14 -19 159 0
-272 -14 161 -21 0
-272 -14 161 159 0
-272 191 -19 -21 0
-272 191 -19 159 0
-272 191 161 -21 0
-272 191 161 159 0
-272 -24 -29 -31 0
-272 -24 -29 204 0
-272 -24 206 -31 0
-272 -24 206 204 0
-272 236 -29 -31 0
-272 236 -29 204 0
-272 236 206 -31 0
-272 236 206 204 0
-272 -34 -46 -48 0
-272 -34 -46 248 0
-272 -34 250 -48 0
-272 -34 250 248 0
-272 300 -46 -48 0
-272 300 -46 248 0
-272 300 250 -48 0
-272 300 250 248 0
-272 -35 -53 -55 0
-272 -35 -53 255 0
-272 -35 257 -55 0
-272 -35 257 255 0
-272 321 -53 -55 0
-272 321 -53 255 0
-272 321 257 -55 0
-272 321 257 255 0
-272 -36 -59 -61 0
-272 -36 -59 261 0
-272 -36 263 -61 0
-272 -36 263 261 0
-272 336 -59 -61 0
-272 336 -59 261 0
-272 336 263 -61 0
-272 336 263 261 0
-272 -37 -64 -66 0
-272 -37 -64 266 0
-272 -37 268 -66 0
-272 -37 268 266 0
-272 346 -64 -66 0
-272 346 -64 266 0
-272 346 268 -66 0
-272 346 268 266 0
-272 -39 -69 -73 0
-272 -39 -69 271 0
-272 -39 275 -73 0
-272 -39 275 271 0
-272 355 -69 -73 0
-272 355 -69 271 0
-272 355 275 -73 0
-272 355 275 271 0
-272 -41 -71 -76 0
-272 -41 -71 273 0
-272 -41 278 -76 0
-272 -41 278 273 0
-272 358 -71 -76 0
-272 358 -71 273 0
-272 358 278 -76 0
-272 358 278 273 0
-272 -42 -72 -77 0
-272 -42 -72 274 0
-272 -42 279 -77 0
-272 -42 279 274 0
-272 359 -72 -77 0
-272 359 -72 274 0
-272 359 279 -77 0
-272 359 279 274 0
-273 -3 -8 -11 0
-273 -3 -8 104 0
-273 -3 107 -11 0
-273 -3 107 104 0
-273 137 -8 -11 0
-273 137 -8 104 0
-273 137 107 -11 0
-273 137 107 104 0
-273 -14 -19 -22 0
-273 -14 -19 159 0
-273 -14 162 -22 0
-273 -14 162 159 0
-273 192 -19 -22 0
-273 192 -19 159 0
-273 192 162 -22 0
-273 192 162 159 0
-273 -24 -29 -32 0
-273 -24 -29 204 0
-273 -24 207 -32 0
-273 -24 207 204 0
-273 237 -29 -32 0
-273 237 -29 204 0
-273 237 207 -32 0
-273 237 207 204 0
-273 -34 -46 -49 0
-273 -34 -46 248 0
-273 -34 251 -49 0
-273 -34 251 248 0
-273 301 -46 -49 0
-273 301 -46 248 0
-273 301 251 -49 0
-273 301 251 248 0
-273 -35 -53 -56 0
-273 -35 -53 255 0
-273 -35 258 -56 0
-273 -35 258 255 0
-273 322 -53 -56 0
-273 322 -53 255 0
-273 322 258 -56 0
-273 322 258 255 0
-273 -36 -59 -62 0
-273 -36 -59 261 0
-273 -36 264 -62 0
-273 -36 264 261 0
-273 337 -59 -62 0
-273 337 -59 261 0
-273 337 264 -62 0
-273 337 264 261 0
-273 -37 -64 -67 0
-273 -37 -64 266 0
-273 -37 269 -67 0
-273 -37 269 266 0
-273 347 -64 -67 0
-273 347 -64 266 0
-273 347 269 -67 0
-273 347 269 266 0
-273 -39 -69 -74 0
-273 -39 -69 271 0
-273 -39 276 -74 0
-273 -39 276 271 0
-273 356 -69 -74 0
-273 356 -69 271 0
-273 356 276 -74 0
-273 356 276 271 0
-273 -40 -70 -76 0
-273 -40 -70 272 0
-273 -40 278 -76 0
-273 -40 278 272 0
-273 358 -70 -76 0
-273 358 -70 272 0
-273 358 278 -76 0
-273 358 278 272 0
-273 -42 -72 -78 0
-273 -42 -72 274 0
-273 -42 280 -78 0
-273 -42 280 274 0
-273 360 -72 -78 0
-273 360 -72 274 0
-273 360 280 -78 0
-273 360 280 274 0
-274 -3 -8 -12 0
-274 -3 -8 104 0
-274 -3 108 -12 0
-274 -3 108 104 0
-274 138 -8 -12 0
-274 138 -8 104 0
-274 138 108 -12 0
-274 138 108 104 0
-274 -14 -19 -23 0
-274 -14 -19 159 0
-274 -14 163 -23 0
-274 -14 163 159 0
-274 193 -19 -23 0
-274 193 -19 159 0
-274 193 163 -23 0
-274 193 163 159 0
-274 -24 -29 -33 0
-274 -24 -29 204 0
-274 -24 208 -33 0
-274 -24 208 204 0
-274 238 -29 -33 0
-274 238 -29 204 0
-274 238 208 -33 0
-274 238 208 204 0
-274 -34 -46 -50 0
-274 -34 -46 248 0
-274 -34 252 -50 0
-274 -34 252 248 0
-274 302 -46 -50 0
-274 302 -46 248 0
-274 302 252 -50 0
-274 302 252 248 0
-274 -35 -53 -57 0
-274 -35 -53 255 0
-274 -35 259 -57 0
-274 -35 259 255 0
-274 323 -53 -57 0
-274 323 -53 255 0
-274 323 259 -57 0
-274 323 259 255 0
-274 -36 -59 -63 0
-274 -36 -59 261 0
-274 -36 265 -63 0
-274 -36 265 261 0
-274 338 -59 -63 0
-274 338 -59 261 0
-274 338 265 -63 0
-274 338 265 261 0
-274 -37 -64 -68 0
-274 -37 -64 266 0
-274 -37 270 -68 0
-274 -37 270 266 0
-274 348 -64 -68 0
-274 348 -64 266 0
-274 348 270 -68 0
-274 348 270 266 0
-274 -39 -69 -75 0
-274 -39 -69 271 0
-274 -39 277 -75 0
-274 -39 277 271 0
-274 357 -69 -75 0
-274 357 -69 271 0
-274 357 277 -75 0
-274 357 277 271 0
-274 -40 -70 -77 0
-274 -40 -70 272 0
-274 -40 279 -77 0
-274 -40 279 272 0
-274 359 -70 -77 0
-274 359 -70 272 0
-274 359 279 -77 0
-274 359 279 272 0
-274 -41 -71 -78 0
-274 -41 -71 273 0
-274 -41 280 -78 0
-274 -41 280 273 0
-274 360 -71 -78 0
-274 360 -71 273 0
-274 360 280 -78 0
-274 360 280 273 0
-275 -3 -9 -10 0
-275 -3 -9 105 0
-275 -3 106 -10 0
-275 -3 106 105 0
-275 139 -9 -10 0
-275 139 -9 105 0
-275 139 106 -10 0
-275 139 106 105 0
-275 -14 -20 -21 0
-275 -14 -20 160 0
-275 -14 161 -21 0
-275 -14 161 160 0
-275 194 -20 -21 0
-275 194 -20 160 0
-275 194 161 -21 0
-275 194 161 160 0
-275 -24 -30 -31 0
-275 -24 -30 205 0
-275 -24 206 -31 0
-275 -24 206 205 0
-275 239 -30 -31 0
-275 239 -30 205 0
-275 239 206 -31 0
-275 239 206 205 0
-275 -34 -47 -48 0
-275 -34 -47 249 0
-275 -34 250 -48 0
-275 -34 250 249 0
-275 303 -47 -48 0
-275 303 -47 249 0
-275 303 250 -48 0
-275 303 250 249 0
-275 -35 -54 -55 0
-275 -35 -54 256 0
-275 -35 257 -55 0
-275 -35 257 256 0
-275 324 -54 -55 0
-275 324 -54 256 0
-275 324 257 -55 0
-275 324 257 256 0
-275 -36 -60 -61 0
-275 -36 -60 262 0
-275 -36 263 -61 0
-275 -36 263 262 0
-275 339 -60 -61 0
-275 339 -60 262 0
-275 339 263 -61 0
-275 339 263 262 0
-275 -37 -65 -66 0
-275 -37 -65 267 0
-275 -37 268 -66 0
-275 -37 268 267 0
-275 349 -65 -66 0
-275 349 -65 267 0
-275 349 268 -66 0
-275 349 268 267 0
-275 -38 -69 -70 0
-275 -38 -69 271 0
-275 -38 272 -70 0
-275 -38 272 271 0
-275 355 -69 -70 0
-275 355 -69 271 0
-275 355 272 -70 0
-275 355 272 271 0
-275 -41 -74 -76 0
-275 -41 -74 276 0
-275 -41 278 -76 0
-275 -41 278 276 0
-275 361 -74 -76 0
-275 361 -74 276 0
-275 361 278 -76 0
-275 361 278 276 0
-275 -42 -75 -77 0
-275 -42 -75 277 0
-275 -42 279 -77 0
-275 -42 279 277 0
-275 362 -75 -77 0
-275 362 -75 277 0
-275 362 279 -77 0
-275 362 279 277 0
-276 -3 -9 -11 0
-276 -3 -9 105 0
-276 -3 107 -11 0
-276 -3 107 105 0
-276 140 -9 -11 0
-276 140 -9 105 0
-276 140 107 -11 0
-276 140 107 105 0
-276 -14 -20 -22 0
-276 -14 -20 160 0
-276 -14 162 -22 0
-276 -14 162 160 0
-276 195 -20 -22 0
-276 195 -20 160 0
-276 195 162 -22 0
-276 195 162 160 0
-276 -24 -30 -32 0
-276 -24 -30 205 0
-276 -24 207 -32 0
-276 -24 207 205 0
-276 240 -30 -32 0
-276 240 -30 205 0
-276 240 207 -32 0
-276 240 207 205 0
-276 -34 -47 -49 0
-276 -34 -47 249 0
-276 -34 251 -49 0
-276 -34 251 249 0
-276 304 -47 -49 0
-276 304 -47 249 0
-276 304 251 -49 0
-276 304 251 249 0
-276 -35 -54 -56 0
-276 -35 -54 256 0
-276 -35 258 -56 0
-276 -35 258 256 0
-276 325 -54 -56 0
-276 325 -54 256 0
-276 325 258 -56 0
-276 325 258 256 0
-276 -36 -60 -62 0
-276 -36 -60 262 0
-276 -36 264 -62 0
-276 -36 264 262 0
-276 340 -60 -62 0
-276 340 -60 262 0
-276 340 264 -62 0
-276 340 264 262 0
-276 -37 -65 -67 0
-276 -37 -65 267 0
-276 -37 269 -67 0
-276 -37 269 267 0
-276 350 -65 -67 0
-276 350 -65 267 0
-276 350 269 -67 0
-276 350 269 267 0
-276 -38 -69 -71 0
-276 -38 -69 271 0
-276 -38 273 -71 0
-276 -38 273 271 0
-276 356 -69 -71 0
-276 356 -69 271 0
-276 356 273 -71 0
-276 356 273 271 0
-276 -40 -73 -76 0
-276 -40 -73 275 0
-276 -40 278 -76 0
-276 -40 278 275 0
-276 361 -73 -76 0
-276 361 -73 275 0
-276 361 278 -76 0
-276 361 278 275 0
-276 -42 -75 -78 0
-276 -42 -75 277 0
-276 -42 280 -78 0
-276 -42 280 277 0
-276 363 -75 -78 0
-276 363 -75 277 0
-276 363 280 -78 0
-276 363 280 277 0
-277 -3 -9 -12 0
-277 -3 -9 105 0
-277 -3 108 -12 0
-277 -3 108 105 0
-277 141 -9 -12 0
-277 141 -9 105 0
-277 141 108 -12 0
-277 141 108 105 0
-277 -14 -20 -23 0
-277 -14 -20 160 0
-277 -14 163 -23 0
-277 -14 163 160 0
-277 196 -20 -23 0
-277 196 -20 160 0
-277 196 163 -23 0
-277 196 163 160 0
-277 -24 -30 -33 0
-277 -24 -30 205 0
-277 -24 208 -33 0
-277 -24 208 205 0
-277 241 -30 -33 0
-277 241 -30 205 0
-277 241 208 -33 0
-277 241 208 205 0
-277 -34 -47 -50 0
-277 -34 -47 249 0
-277 -34 252 -50 0
-277 -34 252 249 0
-277 305 -47 -50 0
-277 305 -47 249 0
-277 305 252 -50 0
-277 305 252 249 0
-277 -35 -54 -57 0
-277 -35 -54 256 0
-277 -35 259 -57 0
-277 -35 259 256 0
-277 326 -54 -57 0
-277 326 -54 256 0
-277 326 259 -57 0
-277 326 259 256 0
-277 -36 -60 -63 0
-277 -36 -60 262 0
-277 -36 265 -63 0
-277 -36 265 262 0
-277 341 -60 -63 0
-277 341 -60 262 0
-277 341 265 -63 0
-277 341 265 262 0
-277 -37 -65 -68 0
-277 -37 -65 267 0
-277 -37 270 -68 0
-277 -37 270 267 0
-277 351 -65 -68 0
-277 351 -65 267 0
-277 351 270 -68 0
-277 351 270 267 0
-277 -38 -69 -72 0
-277 -38 -69 271 0
-277 -38 274 -72 0
-277 -38 274 271 0
-277 357 -69 -72 0
-277 357 -69 271 0
-277 357 274 -72 0
-277 357 274 271 0
-277 -40 -73 -77 0
-277 -40 -73 275 0
-277 -40 279 -77 0
-277 -40 279 275 0
-277 362 -73 -77 0
-277 362 -73 275 0
-277 362 279 -77 0
-277 362 279 275 0
-277 -41 -74 -78 0
-277 -41 -74 276 0
-277 -41 280 -78 0
-277 -41 280 276 0
-277 363 -74 -78 0
-277 363 -74 276 0
-277 363 280 -78 0
-277 363 280 276 0
-278 -3 -10 -11 0
-278 -3 -10 106 0
-278 -3 107 -11 0
-278 -3 107 106 0
-278 142 -10 -11 0
-278 142 -10 106 0
-278 142 107 -11 0
-278 142 107 106 0
-278 -14 -21 -22 0
-278 -14 -21 161 0
-278 -14 162 -22 0
-278 -14 162 161 0
-278 197 -21 -22 0
-278 197 -21 161 0
-278 197 162 -22 0
-278 197 162 161 0
-278 -24 -31 -32 0
-278 -24 -31 206 0
-278 -24 207 -32 0
-278 -24 207 206 0
-278 242 -31 -32 0
-278 242 -31 206 0
-278 242 207 -32 0
-278 242 207 206 0
-278 -34 -48 -49 0
-278 -34 -48 250 0
-278 -34 251 -49 0
-278 -34 251 250 0
-278 306 -48 -49 0
-278 306 -48 250 0
-278 306 251 -49 0
-278 306 251 250 0
-278 -35 -55 -56 0
-278 -35 -55 257 0
-278 -35 258 -56 0
-278 -35 258 257 0
-278 327 -55 -56 0
-278 327 -55 257 0
-278 327 258 -56 0
-278 327 258 257 0
-278 -36 -61 -62 0
-278 -36 -61 263 0
-278 -36 264 -62 0
-278 -36 264 263 0
-278 342 -61 -62 0
-278 342 -61 263 0
-278 342 264 -62 0
-278 342 264 263 0
-278 -37 -66 -67 0
-278 -37 -66 268 0
-278 -37 269 -67 0
-278 -37 269 268 0
-278 352 -66 -67 0
-278 352 -66 268 0
-278 352 269 -67 0
-278 352 269 268 0
-278 -38 -70 -71 0
-278 -38 -70 272 0
-278 -38 273 -71 0
-278 -38 273 272 0
-278 358 -70 -71 0
-278 358 -70 272 0
-278 358 273 -71 0
-278 358 273 272 0
-278 -39 -73 -74 0
-278 -39 -73 275 0
-278 -39 276 -74 0
-278 -39 276 275 0
-278 361 -73 -74 0
-278 361 -73 275 0
-278 361 276 -74 0
-278 361 276 275 0
-278 -42 -77 -78 0
-278 -42 -77 279 0
-278 -42 280 -78 0
-278 -42 280 279 0
-278 364 -77 -78 0
-278 364 -77 279 0
-278 364 280 -78 0
-278 364 280 279 0
-279 -3 -10 -12 0
-279 -3 -10 106 0
-279 -3 108 -12 0
-279 -3 108 106 0
-279 143 -10 -12 0
-279 143 -10 106 0
-279 143 108 -12 0
-279 143 108 106 0
-279 -14 -21 -23 0
-279 -14 -21 161 0
-279 -14 163 -23 0
-279 -14 163 161 0
-279 198 -21 -23 0
-279 198 -21 161 0
-279 198 163 -23 0
-279 198 163 161 0
-279 -24 -31 -33 0
-279 -24 -31 206 0
-279 -24 208 -33 0
-279 -24 208 206 0
-279 243 -31 -33 0
-279 243 -31 206 0
-279 243 208 -33 0
-279 243 208 206 0
-279 -34 -48 -50 0
-279 -34 -48 250 0
-279 -34 252 -50 0
-279 -34 252 250 0
-279 307 -48 -50 0
-279 307 -48 250 0
-279 307 252 -50 0
-279 307 252 250 0
-279 -35 -55 -57 0
-279 -35 -55 257 0
-279 -35 259 -57 0
-279 -35 259 257 0
-279 328 -55 -57 0
-279 328 -55 257 0
-279 328 259 -57 0
-279 328 259 257 0
-279 -36 -61 -63 0
-279 -36 -61 263 0
-279 -36 265 -63 0
-279 -36 265 263 0
-279 343 -61 -63 0
-279 343 -61 263 0
-279 343 265 -63 0
-279 343 265 263 0
-279 -37 -66 -68 0
-279 -37 -66 268 0
-279 -37 270 -68 0
-279 -37 270 268 0
-279 353 -66 -68 0
-279 353 -66 268 0
-279 353 270 -68 0
-279 353 270 268 0
-279 -38 -70 -72 0
-279 -38 -70 272 0
-279 -38 274 -72 0
-279 -38 274 272 0
-279 359 -70 -72 0
-279 359 -70 272 0
-279 359 274 -72 0
-279 359 274 272 0
-279 -39 -73 -75 0
-279 -39 -73 275 0
-279 -39 277 -75 0
-279 -39 277 275 0
-279 362 -73 -75 0
-279 362 -73 275 0
-279 362 277 -75 0
-279 362 277 275 0
-279 -41 -76 -78 0
-279 -41 -76 278 0
-279 -41 280 -78 0
-279 -41 280 278 0
-279 364 -76 -78 0
-279 364 -76 278 0
-279 364 280 -78 0
-279 364 280 278 0
-280 -3 -11 -12 0
-280 -3 -11 107 0
-280 -3 108 -12 0
-280 -3 108 107 0
-280 144 -11 -12 0
-280 144 -11 107 0
-280 144 108 -12 0
-280 144 108 107 0
-280 -14 -22 -23 0
-280 -14 -22 162 0
-280 -14 163 -23 0
-280 -14 163 162 0
-280 199 -22 -23 0
-280 199 -22 162 0
-280 199 163 -23 0
-280 199 163 162 0
-280 -24 -32 -33 0
-280 -24 -32 207 0
-280 -24 208 -33 0
-280 -24 208 207 0
-280 244 -32 -33 0
-280 244 -32 207 0
-280 244 208 -33 0
-280 244 208 207 0
-280 -34 -49 -50 0
-280 -34 -49 251 0
-280 -34 252 -50 0
-280 -34 252 251 0
-280 308 -49 -50 0
-280 308 -49 251 0
-280 308 252 -50 0
-280 308 252 251 0
-280 -35 -56 -57 0
-280 -35 -56 258 0
-280 -35 259 -57 0
-280 -35 259 258 0
-280 329 -56 -57 0
-280 329 -56 258 0
-280 329 259 -57 0
-280 329 259 258 0
-280 -36 -62 -63 0
-280 -36 -62 264 0
-280 -36 265 -63 0
-280 -36 265 264 0
-280 344 -62 -63 0
-280 344 -62 264 0
-280 344 265 -63 0
-280 344 265 264 0
-280 -37 -67 -68 0
-280 -37 -67 269 0
-280 -37 270 -68 0
-280 -37 270 269 0
-280 354 -67 -68 0
-280 354 -67 269 0
-280 354 270 -68 0
-280 354 270 269 0
-280 -38 -71 -72 0
-280 -38 -71 273 0
-280 -38 274 -72 0
-280 -38 274 273 0
-280 360 -71 -72 0
-280 360 -71 273 0
-280 360 274 -72 0
-280 360 274 273 0
-280 -39 -74 -75 0
-280 -39 -74 276 0
-280 -39 277 -75 0
-280 -39 277 276 0
-280 363 -74 -75 0
-280 363 -74 276 0
-280 363 277 -75 0
-280 363 277 276 0
-280 -40 -76 -77 0
-280 -40 -76 278 0
-280 -40 279 -77 0
-280 -40 279 278 0
-280 364 -76 -77 0
-280 364 -76 278 0
-280 364 279 -77 0
-280 364 279 278 0
-281 -4 -5 -6 0
-281 -4 -5 109 0
-281 -4 110 -6 0
-281 -4 110 109 0
-281 117 -5 -6 0
-281 117 -5 109 0
-281 117 110 -6 0
-281 117 110 109 0
-281 -15 -16 -17 0
-281 -15 -16 164 0
-281 -15 165 -17 0
-281 -15 165 164 0
-281 172 -16 -17 0
-281 172 -16 164 0
-281 172 165 -17 0
-281 172 165 164 0
-281 -25 -26 -27 0
-281 -25 -26 209 0
-281 -25 210 -27 0
-281 -25 210 209 0
-281 217 -26 -27 0
-281 217 -26 209 0
-281 217 210 -27 0
-281 217 210 209 0
-281 -34 -35 -36 0
-281 -34 -35 245 0
-281 -34 246 -36 0
-281 -34 246 245 0
-281 253 -35 -36 0
-281 253 -35 245 0
-281 253 246 -36 0
-281 253 246 245 0
-281 -45 -52 -58 0
-281 -45 -52 282 0
-281 -45 288 -58 0
-281 -45 288 282 0
-281 309 -52 -58 0
-281 309 -52 282 0
-281 309 288 -58 0
-281 309 288 282 0
-281 -46 -53 -59 0
-281 -46 -53 283 0
-281 -46 289 -59 0
-281 -46 289 283 0
-281 310 -53 -59 0
-281 310 -53 283 0
-281 310 289 -59 0
-281 310 289 283 0
-281 -47 -54 -60 0
-281 -47 -54 284 0
-281 -47 290 -60 0
-281 -47 290 284 0
-281 311 -54 -60 0
-281 311 -54 284 0
-281 311 290 -60 0
-281 311 290 284 0
-281 -48 -55 -61 0
-281 -48 -55 285 0
-281 -48 291 -61 0
-281 -48 291 285 0
-281 312 -55 -61 0
-281 312 -55 285 0
-281 312 291 -61 0
-281 312 291 285 0
-281 -49 -56 -62 0
-281 -49 -56 286 0
-281 -49 292 -62 0
-281 -49 292 286 0
-281 313 -56 -62 0
-281 313 -56 286 0
-281 313 292 -62 0
-281 313 292 286 0
-281 -50 -57 -63 0
-281 -50 -57 287 0
-281 -50 293 -63 0
-281 -50 293 287 0
-281 314 -57 -63 0
-281 314 -57 287 0
-281 314 293 -63 0
-281 314 293 287 0
-282 -4 -5 -7 0
-282 -4 -5 109 0
-282 -4 111 -7 0
-282 -4 111 109 0
-282 118 -5 -7 0
-282 118 -5 109 0
-282 118 111 -7 0
-282 118 111 109 0
-282 -15 -16 -18 0
-282 -15 -16 164 0
-282 -15 166 -18 0
-282 -15 166 164 0
-282 173 -16 -18 0
-282 173 -16 164 0
-282 173 166 -18 0
-282 173 166 164 0
-282 -25 -26 -28 0
-282 -25 -26 209 0
-282 -25 211 -28 0
-282 -25 211 209 0
-282 218 -26 -28 0
-282 218 -26 209 0
-282 218 211 -28 0
-282 218 211 209 0
-282 -34 -35 -37 0
-282 -34 -35 245 0
-282 -34 247 -37 0
-282 -34 247 245 0
-282 254 -35 -37 0
-282 254 -35 245 0
-282 254 247 -37 0
-282 254 247 245 0
-282 -44 -51 -58 0
-282 -44 -51 281 0
-282 -44 288 -58 0
-282 -44 288 281 0
-282 309 -51 -58 0
-282 309 -51 281 0
-282 309 288 -58 0
-282 309 288 281 0
-282 -46 -53 -64 0
-282 -46 -53 283 0
-282 -46 294 -64 0
-282 -46 294 283 0
-282 315 -53 -64 0
-282 315 -53 283 0
-282 315 294 -64 0
-282 315 294 283 0
-282 -47 -54 -65 0
-282 -47 -54 284 0
-282 -47 295 -65 0
-282 -47 295 284 0
-282 316 -54 -65 0
-282 316 -54 284 0
-282 316 295 -65 0
-282 316 295 284 0
-282 -48 -55 -66 0
-282 -48 -55 285 0
-282 -48 296 -66 0
-282 -48 296 285 0
-282 317 -55 -66 0
-282 317 -55 285 0
-282 317 296 -66 0
-282 317 296 285 0
-282 -49 -56 -67 0
-282 -49 -56 286 0
-282 -49 297 -67 0
-282 -49 297 286 0
-282 318 -56 -67 0
-282 318 -56 286 0
-282 318 297 -67 0
-282 318 297 286 0
-282 -50 -57 -68 0
-282 -50 -57 287 0
-282 -50 298 -68 0
-282 -50 298 287 0
-282 319 -57 -68 0
-282 319 -57 287 0
-282 319 298 -68 0
-282 319 298 287 0
-283 -4 -5 -8 0
-283 -4 -5 109 0
-283 -4 112 -8 0
-283 -4 112 109 0
-283 119 -5 -8 0
-283 119 -5 109 0
-283 119 112 -8 0
-283 119 112 109 0
-283 -15 -16 -19 0
-283 -15 -16 164 0
-283 -15 167 -19 0
-283 -15 167 164 0
-283 174 -16 -19 0
-283 174 -16 164 0
-283 174 167 -19 0
-283 174 167 164 0
-283 -25 -26 -29 0
-283 -25 -26 209 0
-283 -25 212 -29 0
-283 -25 212 209 0
-283 219 -26 -29 0
-283 219 -26 209 0
-283 219 212 -29 0
-283 219 212 209 0
-283 -34 -35 -38 0
-283 -34 -35 245 0
-283 -34 248 -38 0
-283 -34 248 245 0
-283 255 -35 -38 0
-283 255 -35 245 0
-283 255 248 -38 0
-283 255 248 245 0
-283 -44 -51 -59 0
-283 -44 -51 281 0
-283 -44 289 -59 0
-283 -44 289 281 0
-283 310 -51 -59 0
-283 310 -51 281 0
-283 310 289 -59 0
-283 310 289 281 0
-283 -45 -52 -64 0
-283 -45 -52 282 0
-283 -45 294 -64 0
-283 -45 294 282 0
-283 315 -52 -64 0
-283 315 -52 282 0
-283 315 294 -64 0
-283 315 294 282 0
-283 -47 -54 -69 0
-283 -47 -54 284 0
-283 -47 299 -69 0
-283 -47 299 284 0
-283 320 -54 -69 0
-283 320 -54 284 0
-283 320 299 -69 0
-283 320 299 284 0
-283 -48 -55 -70 0
-283 -48 -55 285 0
-283 -48 300 -70 0
-283 -48 300 285 0
-283 321 -55 -70 0
-283 321 -55 285 0
-283 321 300 -70 0
-283 321 300 285 0
-283 -49 -56 -71 0
-283 -49 -56 286 0
-283 -49 301 -71 0
-283 -49 301 286 0
-283 322 -56 -71 0
-283 322 -56 286 0
-283 322 301 -71 0
-283 322 301 286 0
-283 -50 -57 -72 0
-283 -50 -57 287 0
-283 -50 302 -72 0
-283 -50 302 287 0
-283 323 -57 -72 0
-283 323 -57 287 0
-283 323 302 -72 0
-283 323 302 287 0
-284 -4 -5 -9 0
-284 -4 -5 109 0
-284 -4 113 -9 0
-284 -4 113 109 0
-284 120 -5 -9 0
-284 120 -5 109 0
-284 120 113 -9 0
-284 120 113 109 0
-284 -15 -16 -20 0
-284 -15 -16 164 0
-284 -15 168 -20 0
-284 -15 168 164 0
-284 175 -16 -20 0
-284 175 -16 164 0
-284 175 168 -20 0
-284 175 168 164 0
-284 -25 -26 -30 0
-284 -25 -26 209 0
-284 -25 213 -30 0
-284 -25 213 209 0
-284 220 -26 -30 0
-284 220 -26 209 0
-284 220 213 -30 0
-284 220 213 209 0
-284 -34 -35 -39 0
-284 -34 -35 245 0
-284 -34 249 -39 0
-284 -34 249 245 0
-284 256 -35 -39 0
-284 256 -35 245 0
-284 256 249 -39 0
-284 256 249 245 0
-284 -44 -51 -60 0
-284 -44 -51 281 0
-284 -44 290 -60 0
-284 -44 290 281 0
-284 311 -51 -60 0
-284 311 -51 281 0
-284 311 290 -60 0
-284 311 290 281 0
-284 -45 -52 -65 0
-284 -45 -52 282 0
-284 -45 295 -65 0
-284 -45 295 282 0
-284 316 -52 -65 0
-284 316 -52 282 0
-284 316 295 -65 0
-284 316 295 282 0
-284 -46 -53 -69 0
-284 -46 -53 283 0
-284 -46 299 -69 0
-284 -46 299 283 0
-284 320 -53 -69 0
-284 320 -53 283 0
-284 320 299 -69 0
-284 320 299 283 0
-284 -48 -55 -73 0
-284 -48 -55 285 0
-284 -48 303 -73 0
-284 -48 303 285 0
-284 324 -55 -73 0
-284 324 -55 285 0
-284 324 303 -73 0
-284 324 303 285 0
-284 -49 -56 -74 0
-284 -49 -56 286 0
-284 -49 304 -74 0
-284 -49 304 286 0
-284 325 -56 -74 0
-284 325 -56 286 0
-284 325 304 -74 0
-284 325 304 286 0
-284 -50 -57 -75 0
-284 -50 -57 287 0
-284 -50 305 -75 0
-284 -50 305 287 0
-284 326 -57 -75 0
-284 326 -57 287 0
-284 326 305 -75 0
-284 326 305 287 0
-285 -4 -5 -10 0
-285 -4 -5 109 0
-285 -4 114 -10 0
-285 -4 114 109 0
-285 121 -5 -10 0
-285 121 -5 109 0
-285 121 114 -10 0
-285 121 114 109 0
-285 -15 -16 -21 0
-285 -15 -16 164 0
-285 -15 169 -21 0
-285 -15 169 164 0
-285 176 -16 -21 0
-285 176 -16 164 0
-285 176 169 -21 0
-285 176 169 164 0
-285 -25 -26 -31 0
-285 -25 -26 209 0
-285 -25 214 -31 0
-285 -25 214 209 0
-285 221 -26 -31 0
-285 221 -26 209 0
-285 221 214 -31 0
-285 221 214 209 0
-285 -34 -35 -40 0
-285 -34 -35 245 0
-285 -34 250 -40 0
-285 -34 250 245 0
-285 257 -35 -40 0
-285 257 -35 245 0
-285 257 250 -40 0
-285 257 250 245 0
-285 -44 -51 -61 0
-285 -44 -51 281 0
-285 -44 291 -61 0
-285 -44 291 281 0
-285 312 -51 -61 0
-285 312 -51 281 0
-285 312 291 -61 0
-285 312 291 281 0
-285 -45 -52 -66 0
-285 -45 -52 282 0
-285 -45 296 -66 0
-285 -45 296 282 0
-285 317 -52 -66 0
-285 317 -52 282 0
-285 317 296 -66 0
-285 317 296 282 0
-285 -46 -53 -70 0
-285 -46 -53 283 0
-285 -46 300 -70 0
-285 -46 300 283 0
-285 321 -53 -70 0
-285 321 -53 283 0
-285 321 300 -70 0
-285 321 300 283 0
-285 -47 -54 -73 0
-285 -47 -54 284 0
-285 -47 303 -73 0
-285 -47 303 284 0
-285 324 -54 -73 0
-285 324 -54 284 0
-285 324 303 -73 0
-285 324 303 284 0
-285 -49 -56 -76 0
-285 -49 -56 286 0
-285 -49 306 -76 0
-285 -49 306 286 0
-285 327 -56 -76 0
-285 327 -56 286 0
-285 327 306 -76 0
-285 327 306 286 0
-285 -50 -57 -77 0
-285 -50 -57 287 0
-285 -50 307 -77 0
-285 -50 307 287 0
-285 328 -57 -77 0
-285 328 -57 287 0
-285 328 307 -77 0
-285 328 307 287 0
-286 -4 -5 -11 0
-286 -4 -5 109 0
-286 -4 115 -11 0
-286 -4 115 109 0
-286 122 -5 -11 0
-286 122 -5 109 0
-286 122 115 -11 0
-286 122 115 109 0
-286 -15 -16 -22 0
-286 -15 -16 164 0
-286 -15 170 -22 0
-286 -15 170 164 0
-286 177 -16 -22 0
-286 177 -16 164 0
-286 177 170 -22 0
-286 177 170 164 0
-286 -25 -26 -32 0
-286 -25 -26 209 0
-286 -25 215 -32 0
-286 -25 215 209 0
-286 222 -26 -32 0
-286 222 -26 209 0
-286 222 215 -32 0
-286 222 215 209 0
-286 -34 -35 -41 0
-286 -34 -35 245 0
-286 -34 251 -41 0
-286 -34 251 245 0
-286 258 -35 -41 0
-286 258 -35 245 0
-286 258 251 -41 0
-286 258 251 245 0
-286 -44 -51 -62 0
-286 -44 -51 281 0
-286 -44 292 -62 0
-286 -44 292 281 0
-286 313 -51 -62 0
-286 313 -51 281 0
-286 313 292 -62 0
-286 313 292 281 0
-286 -45 -52 -67 0
-286 -45 -52 282 0
-286 -45 297 -67 0
-286 -45 297 282 0
-286 318 -52 -67 0
-286 318 -52 282 0
-286 318 297 -67 0
-286 318 297 282 0
-286 -46 -53 -71 0
-286 -46 -53 283 0
-286 -46 301 -71 0
-286 -46 301 283 0
-286 322 -53 -71 0
-286 322 -53 283 0
-286 322 301 -71 0
-286 322 301 283 0
-286 -47 -54 -74 0
-286 -47 -54 284 0
-286 -47 304 -74 0
-286 -47 304 284 0
-286 325 -54 -74 0
-286 325 -54 284 0
-286 325 304 -74 0
-286 325 304 284 0
-286 -48 -55 -76 0
-286 -48 -55 285 0
-286 -48 306 -76 0
-286 -48 306 285 0
-286 327 -55 -76 0
-286 327 -55 285 0
-286 327 306 -76 0
-286 327 306 285 0
-286 -50 -57 -78 0
-286 -50 -57 287 0
-286 -50 308 -78 0
-286 -50 308 287 0
-286 329 -57 -78 0
-286 329 -57 287 0
-286 329 308 -78 0
-286 329 308 287 0
-287 -4 -5 -12 0
-287 -4 -5 109 0
-287 -4 116 -12 0
-287 -4 116 109 0
-287 123 -5 -12 0
-287 123 -5 109 0
-287 123 116 -12 0
-287 123 116 109 0
-287 -15 -16 -23 0
-287 -15 -16 164 0
-287 -15 171 -23 0
-287 -15 171 164 0
-287 178 -16 -23 0
-287 178 -16 164 0
-287 178 171 -23 0
-287 178 171 164 0
-287 -25 -26 -33 0
-287 -25 -26 209 0
-287 -25 216 -33 0
-287 -25 216 209 0
-287 223 -26 -33 0
-287 223 -26 209 0
-287 223 216 -33 0
-287 223 216 209 0
-287 -34 -35 -42 0
-287 -34 -35 245 0
-287 -34 252 -42 0
-287 -34 252 245 0
-287 259 -35 -42 0
-287 259 -35 245 0
-287 259 252 -42 0
-287 259 252 245 0
-287 -44 -51 -63 0
-287 -44 -51 281 0
-287 -44 293 -63 0
-287 -44 293 281 0
-287 314 -51 -63 0
-287 314 -51 281 0
-287 314 293 -63 0
-287 314 293 281 0
-287 -45 -52 -68 0
-287 -45 -52 282 0
-287 -45 298 -68 0
-287 -45 298 282 0
-287 319 -52 -68 0
-287 319 -52 282 0
-287 319 298 -68 0
-287 319 298 282 0
-287 -46 -53 -72 0
-287 -46 -53 283 0
-287 -46 302 -72 0
-287 -46 302 283 0
-287 323 -53 -72 0
-287 323 -53 283 0
-287 323 302 -72 0
-287 323 302 283 0
-287 -47 -54 -75 0
-287 -47 -54 284 0
-287 -47 305 -75 0
-287 -47 305 284 0
-287 326 -54 -75 0
-287 326 -54 284 0
-287 326 305 -75 0
-287 326 305 284 0
-287 -48 -55 -77 0
-287 -48 -55 285 0
-287 -48 307 -77 0
-287 -48 307 285 0
-287 328 -55 -77 0
-287 328 -55 285 0
-287 328 307 -77 0
-287 328 307 285 0
-287 -49 -56 -78 0
-287 -49 -56 286 0
-287 -49 308 -78 0
-287 -49 308 286 0
-287 329 -56 -78 0
-287 329 -56 286 0
-287 329 308 -78 0
-287 329 308 286 0
-288 -4 -6 -7 0
-288 -4 -6 110 0
-288 -4 111 -7 0
-288 -4 111 110 0
-288 124 -6 -7 0
-288 124 -6 110 0
-288 124 111 -7 0
-288 124 111 110 0
-288 -15 -17 -18 0
-288 -15 -17 165 0
-288 -15 166 -18 0
-288 -15 166 165 0
-288 179 -17 -18 0
-288 179 -17 165 0
-288 179 166 -18 0
-288 179 166 165 0
-288 -25 -27 -28 0
-288 -25 -27 210 0
-288 -25 211 -28 0
-288 -25 211 210 0
-288 224 -27 -28 0
-288 224 -27 210 0
-288 224 211 -28 0
-288 224 211 210 0
-288 -34 -36 -37 0
-288 -34 -36 246 0
-288 -34 247 -37 0
-288 -34 247 246 0
-288 260 -36 -37 0
-288 260 -36 246 0
-288 260 247 -37 0
-288 260 247 246 0
-288 -43 -51 -52 0
-288 -43 -51 281 0
-288 -43 282 -52 0
-288 -43 282 281 0
-288 309 -51 -52 0
-288 309 -51 281 0
-288 309 282 -52 0
-288 309 282 281 0
-288 -46 -59 -64 0
-288 -46 -59 289 0
-288 -46 294 -64 0
-288 -46 294 289 0
-288 330 -59 -64 0
-288 330 -59 289 0
-288 330 294 -64 0
-288 330 294 289 0
-288 -47 -60 -65 0
-288 -47 -60 290 0
-288 -47 295 -65 0
-288 -47 295 290 0
-288 331 -60 -65 0
-288 331 -60 290 0
-288 331 295 -65 0
-288 331 295 290 0
-288 -48 -61 -66 0
-288 -48 -61 291 0
-288 -48 296 -66 0
-288 -48 296 291 0
-288 332 -61 -66 0
-288 332 -61 291 0
-288 332 296 -66 0
-288 332 296 291 0
-288 -49 -62 -67 0
-288 -49 -62 292 0
-288 -49 297 -67 0
-288 -49 297 292 0
-288 333 -62 -67 0
-288 333 -62 292 0
-288 333 297 -67 0
-288 333 297 292 0
-288 -50 -63 -68 0
-288 -50 -63 293 0
-288 -50 298 -68 0
-288 -50 298 293 0
-288 334 -63 -68 0
-288 334 -63 293 0
-288 334 298 -68 0
-288 334 298 293 0
-289 -4 -6 -8 0
-289 -4 -6 110 0
-289 -4 112 -8 0
-289 -4 112 110 0
-289 125 -6 -8 0
-289 125 -6 110 0
-289 125 112 -8 0
-289 125 112 110 0
-289 -15 -17 -19 0
-289 -15 -17 165 0
-289 -15 167 -19 0
-289 -15 167 165 0
-289 180 -17 -19 0
-289 180 -17 165 0
-289 180 167 -19 0
-289 180 167 165 0
-289 -25 -27 -29 0
-289 -25 -27 210 0
-289 -25 212 -29 0
-289 -25 212 210 0
-289 225 -27 -29 0
-289 225 -27 210 0
-289 225 212 -29 0
-289 225 212 210 0
-289 -34 -36 -38 0
-289 -34 -36 246 0
-289 -34 248 -38 0
-289 -34 248 246 0
-289 261 -36 -38 0
-289 261 -36 246 0
-289 261 248 -38 0
-289 261 248 246 0
-289 -43 -51 -53 0
-289 -43 -51 281 0
-289 -43 283 -53 0
-289 -43 283 281 0
-289 310 -51 -53 0
-289 310 -51 281 0
-289 310 283 -53 0
-289 310 283 281 0
-289 -45 -58 -64 0
-289 -45 -58 288 0
-289 -45 294 -64 0
-289 -45 294 288 0
-289 330 -58 -64 0
-289 330 -58 288 0
-289 330 294 -64 0
-289 330 294 288 0
-289 -47 -60 -69 0
-289 -47 -60 290 0
-289 -47 299 -69 0
-289 -47 299 290 0
-289 335 -60 -69 0
-289 335 -60 290 0
-289 335 299 -69 0
-289 335 299 290 0
-289 -48 -61 -70 0
-289 -48 -61 291 0
-289 -48 300 -70 0
-289 -48 300 291 0
-289 336 -61 -70 0
-289 336 -61 291 0
-289 336 300 -70 0
-289 336 300 291 0
-289 -49 -62 -71 0
-289 -49 -62 292 0
-289 -49 301 -71 0
-289 -49 301 292 0
-289 337 -62 -71 0
-289 337 -62 292 0
-289 337 301 -71 0
-289 337 301 292 0
-289 -50 -63 -72 0
-289 -50 -63 293 0
-289 -50 302 -72 0
-289 -50 302 293 0
-289 338 -63 -72 0
-289 338 -63 293 0
-289 338 302 -72 0
-289 338 302 293 0
-290 -4 -6 -9 0
-290 -4 -6 110 0
-290 -4 113 -9 0
-290 -4 113 110 0
-290 126 -6 -9 0
-290 126 -6 110 0
-290 126 113 -9 0
-290 126 113 110 0
-290 -15 -17 -20 0
-290 -15 -17 165 0
-290 -15 168 -20 0
-290 -15 168 165 0
-290 181 -17 -20 0
-290 181 -17 165 0
-290 181 168 -20 0
-290 181 168 165 0
-290 -25 -27 -30 0
-290 -25 -27 210 0
-290 -25 213 -30 0
-290 -25 213 210 0
-290 226 -27 -30 0
-290 226 -27 210 0
-290 226 213 -30 0
-290 226 213 210 0
-290 -34 -36 -39 0
-290 -34 -36 246 0
-290 -34 249 -39 0
-290 -34 249 246 0
-290 262 -36 -39 0
-290 262 -36 246 0
-290 262 249 -39 0
-290 262 249 246 0
-290 -43 -51 -54 0
-290 -43 -51 281 0
-290 -43 284 -54 0
-290 -43 284 281 0
-290 311 -51 -54 0
-290 311 -51 281 0
-290 311 284 -54 0
-290 311 284 281 0
-290 -45 -58 -65 0
-290 -45 -58 288 0
-290 -45 295 -65 0
-290 -45 295 288 0
-290 331 -58 -65 0
-290 331 -58 288 0
-290 331 295 -65 0
-290 331 295 288 0
-290 -46 -59 -69 0
-290 -46 -59 289 0
-290 -46 299 -69 0
-290 -46 299 289 0
-290 335 -59 -69 0
-290 335 -59 289 0
-290 335 299 -69 0
-290 335 299 289 0
-290 -48 -61 -73 0
-290 -48 -61 291 0
-290 -48 303 -73 0
-290 -48 303 291 0
-290 339 -61 -73 0
-290 339 -61 291 0
-290 339 303 -73 0
-290 339 303 291 0
-290 -49 -62 -74 0
-290 -49 -62 292 0
-290 -49 304 -74 0
-290 -49 304 292 0
-290 340 -62 -74 0
-290 340 -62 292 0
-290 340 304 -74 0
-290 340 304 292 0
-290 -50 -63 -75 0
-290 -50 -63 293 0
-290 -50 305 -75 0
-290 -50 305 293 0
-290 341 -63 -75 0
-290 341 -63 293 0
-290 341 305 -75 0
-290 341 305 293 0
-291 -4 -6 -10 0
-291 -4 -6 110 0
-291 -4 114 -10 0
-291 -4 114 110 0
-291 127 -6 -10 0
-291 127 -6 110 0
-291 127 114 -10 0
-291 127 114 110 0
-291 -15 -17 -21 0
-291 -15 -17 165 0
-291 -15 169 -21 0
-291 -15 169 165 0
-291 182 -17 -21 0
-291 182 -17 165 0
-291 182 169 -21 0
-291 182 169 165 0
-291 -25 -27 -31 0
-291 -25 -27 210 0
-291 -25 214 -31 0
-291 -25 214 210 0
-291 227 -27 -31 0
-291 227 -27 210 0
-291 227 214 -31 0
-291 227 214 210 0
-291 -34 -36 -40 0
-291 -34 -36 246 0
-291 -34 250 -40 0
-291 -34 250 246 0
-291 263 -36 -40 0
-291 263 -36 246 0
-291 263 250 -40 0
-291 263 250 246 0
-291 -43 -51 -55 0
-291 -43 -51 281 0
-291 -43 285 -55 0
-291 -43 285 281 0
-291 312 -51 -55 0
-291 312 -51 281 0
-291 312 285 -55 0
-291 312 285 281 0
-291 -45 -58 -66 0
-291 -45 -58 288 0
-291 -45 296 -66 0
-291 -45 296 288 0
-291 332 -58 -66 0
-291 332 -58 288 0
-291 332 296 -66 0
-291 332 296 288 0
-291 -46 -59 -70 0
-291 -46 -59 289 0
-291 -46 300 -70 0
-291 -46 300 289 0
-291 336 -59 -70 0
-291 336 -59 289 0
-291 336 300 -70 0
-291 336 300 289 0
-291 -47 -60 -73 0
-291 -47 -60 290 0
-291 -47 303 -73 0
-291 -47 303 290 0
-291 339 -60 -73 0
-291 339 -60 290 0
-291 339 303 -73 0
-291 339 303 290 0
-291 -49 -62 -76 0
-291 -49 -62 292 0
-291 -49 306 -76 0
-291 -49 306 292 0
-291 342 -62 -76 0
-291 342 -62 292 0
-291 342 306 -76 0
-291 342 306 292 0
-291 -50 -63 -77 0
-291 -50 -63 293 0
-291 -50 307 -77 0
-291 -50 307 293 0
-291 343 -63 -77 0
-291 343 -63 293 0
-291 343 307 -77 0
-291 343 307 293 0
-292 -4 -6 -11 0
-292 -4 -6 110 0
-292 -4 115 -11 0
-292 -4 115 110 0
-292 128 -6 -11 0
-292 128 -6 110 0
-292 128 115 -11 0
-292 128 115 110 0
-292 -15 -17 -22 0
-292 -15 -17 165 0
-292 -15 170 -22 0
-292 -15 170 165 0
-292 183 -17 -22 0
-292 183 -17 165 0
-292 183 170 -22 0
-292 183 170 165 0
-292 -25 -27 -32 0
-292 -25 -27 210 0
-292 -25 215 -32 0
-292 -25 215 210 0
-292 228 -27 -32 0
-292 228 -27 210 0
-292 228 215 -32 0
-292 228 215 210 0
-292 -34 -36 -41 0
-292 -34 -36 246 0
-292 -34 251 -41 0
-292 -34 251 246 0
-292 264 -36 -41 0
-292 264 -36 246 0
-292 264 251 -41 0
-292 264 251 246 0
-292 -43 -51 -56 0
-292 -43 -51 281 0
-292 -43 286 -56 0
-292 -43 286 281 0
-292 313 -51 -56 0
-292 313 -51 281 0
-292 313 286 -56 0
-292 313 286 281 0
-292 -45 -58 -67 0
-292 -45 -58 288 0
-292 -45 297 -67 0
-292 -45 297 288 0
-292 333 -58 -67 0
-292 333 -58 288 0
-292 333 297 -67 0
-292 333 297 288 0
-292 -46 -59 -71 0
-292 -46 -59 289 0
-292 -46 301 -71 0
-292 -46 301 289 0
-292 337 -59 -71 0
-292 337 -59 289 0
-292 337 301 -71 0
-292 337 301 289 0
-292 -47 -60 -74 0
-292 -47 -60 290 0
-292 -47 304 -74 0
-292 -47 304 290 0
-292 340 -60 -74 0
-292 340 -60 290 0
-292 340 304 -74 0
-292 340 304 290 0
-292 -48 -61 -76 0
-292 -48 -61 291 0
-292 -48 306 -76 0
-292 -48 306 291 0
-292 342 -61 -76 0
-292 342 -61 291 0
-292 342 306 -76 0
-292 342 306 291 0
-292 -50 -63 -78 0
-292 -50 -63 293 0
-292 -50 308 -78 0
-292 -50 308 293 0
-292 344 -63 -78 0
-292 344 -63 293 0
-292 344 308 -78 0
-292 344 308 293 0
-293 -4 -6 -12 0
-293 -4 -6 110 0
-293 -4 116 -12 0
-293 -4 116 110 0
-293 129 -6 -12 0
-293 129 -6 110 0
-293 129 116 -12 0
-293 129 116 110 0
-293 -15 -17 -23 0
-293 -15 -17 165 0
-293 -15 171 -23 0
-293 -15 171 165 0
-293 184 -17 -23 0
-293 184 -17 165 0
-293 184 171 -23 0
-293 184 171 165 0
-293 -25 -27 -33 0
-293 -25 -27 210 0
-293 -25 216 -33 0
-293 -25 216 210 0
-293 229 -27 -33 0
-293 229 -27 210 0
-293 229 216 -33 0
-293 229 216 210 0
-293 -34 -36 -42 0
-293 -34 -36 246 0
-293 -34 252 -42 0
-293 -34 252 246 0
-293 265 -36 -42 0
-293 265 -36 246 0
-293 265 252 -42 0
-293 265 252 246 0
-293 -43 -51 -57 0
-293 -43 -51 281 0
-293 -43 287 -57 0
-293 -43 287 281 0
-293 314 -51 -57 0
-293 314 -51 281 0
-293 314 287 -57 0
-293 314 287 281 0
-293 -45 -58 -68 0
-293 -45 -58 288 0
-293 -45 298 -68 0
-293 -45 298 288 0
-293 334 -58 -68 0
-293 334 -58 288 0
-293 334 298 -68 0
-293 334 298 288 0
-293 -46 -59 -72 0
-293 -46 -59 289 0
-293 -46 302 -72 0
-293 -46 302 289 0
-293 338 -59 -72 0
-293 338 -59 289 0
-293 338 302 -72 0
-293 338 302 289 0
-293 -47 -60 -75 0
-293 -47 -60 290 0
-293 -47 305 -75 0
-293 -47 305 290 0
-293 341 -60 -75 0
-293 341 -60 290 0
-293 341 305 -75 0
-293 341 305 290 0
-293 -48 -61 -77 0
-293 -48 -61 291 0
-293 -48 307 -77 0
-293 -48 307 291 0
-293 343 -61 -77 0
-293 343 -61 291 0
-293 343 307 -77 0
-293 343 307 291 0
-293 -49 -62 -78 0
-293 -49 -62 292 0
-293 -49 308 -78 0
-293 -49 308 292 0
-293 344 -62 -78 0
-293 344 -62 292 0
-293 344 308 -78 0
-293 344 308 292 0
-294 -4 -7 -8 0
-294 -4 -7 111 0
-294 -4 112 -8 0
-294 -4 112 111 0
-294 130 -7 -8 0
-294 130 -7 111 0
-294 130 112 -8 0
-294 130 112 111 0
-294 -15 -18 -19 0
-294 -15 -18 166 0
-294 -15 167 -19 0
-294 -15 167 166 0
-294 185 -18 -19 0
-294 185 -18 166 0
-294 185 167 -19 0
-294 185 167 166 0
-294 -25 -28 -29 0
-294 -25 -28 211 0
-294 -25 212 -29 0
-294 -25 212 211 0
-294 230 -28 -29 0
-294 230 -28 211 0
-294 230 212 -29 0
-294 230 212 211 0
-294 -34 -37 -38 0
-294 -34 -37 247 0
-294 -34 248 -38 0
-294 -34 248 247 0
-294 266 -37 -38 0
-294 266 -37 247 0
-294 266 248 -38 0
-294 266 248 247 0
-294 -43 -52 -53 0
-294 -43 -52 282 0
-294 -43 283 -53 0
-294 -43 283 282 0
-294 315 -52 -53 0
-294 315 -52 282 0
-294 315 283 -53 0
-294 315 283 282 0
-294 -44 -58 -59 0
-294 -44 -58 288 0
-294 -44 289 -59 0
-294 -44 289 288 0
-294 330 -58 -59 0
-294 330 -58 288 0
-294 330 289 -59 0
-294 330 289 288 0
-294 -47 -65 -69 0
-294 -47 -65 295 0
-294 -47 299 -69 0
-294 -47 299 295 0
-294 345 -65 -69 0
-294 345 -65 295 0
-294 345 299 -69 0
-294 345 299 295 0
-294 -48 -66 -70 0
-294 -48 -66 296 0
-294 -48 300 -70 0
-294 -48 300 296 0
-294 346 -66 -70 0
-294 346 -66 296 0
-294 346 300 -70 0
-294 346 300 296 0
-294 -49 -67 -71 0
-294 -49 -67 297 0
-294 -49 301 -71 0
-294 -49 301 297 0
-294 347 -67 -71 0
-294 347 -67 297 0
-294 347 301 -71 0
-294 347 301 297 0
-294 -50 -68 -72 0
-294 -50 -68 298 0
-294 -50 302 -72 0
-294 -50 302 298 0
-294 348 -68 -72 0
-294 348 -68 298 0
-294 348 302 -72 0
-294 348 302 298 0
-295 -4 -7 -9 0
-295 -4 -7 111 0
-295 -4 113 -9 0
-295 -4 113 111 0
-295 131 -7 -9 0
-295 131 -7 111 0
-295 131 113 -9 0
-295 131 113 111 0
-295 -15 -18 -20 0
-295 -15 -18 166 0
-295 -15 168 -20 0
-295 -15 168 166 0
-295 186 -18 -20 0
-295 186 -18 166 0
-295 186 168 -20 0
-295 186 168 166 0
-295 -25 -28 -30 0
-295 -25 -28 211 0
-295 -25 213 -30 0
-295 -25 213 211 0
-295 231 -28 -30 0
-295 231 -28 211 0
-295 231 213 -30 0
-295 231 213 211 0
-295 -34 -37 -39 0
-295 -34 -37 247 0
-295 -34 249 -39 0
-295 -34 249 247 0
-295 267 -37 -39 0
-295 267 -37 247 0
-295 267 249 -39 0
-295 267 249 247 0
-295 -43 -52 -54 0
-295 -43 -52 282 0
-295 -43 284 -54 0
-295 -43 284 282 0
-295 316 -52 -54 0
-295 316 -52 282 0
-295 316 284 -54 0
-295 316 284 282 0
-295 -44 -58 -60 0
-295 -44 -58 288 0
-295 -44 290 -60 0
-295 -44 290 288 0
-295 331 -58 -60 0
-295 331 -58 288 0
-295 331 290 -60 0
-295 331 290 288 0
-295 -46 -64 -69 0
-295 -46 -64 294 0
-295 -46 299 -69 0
-295 -46 299 294 0
-295 345 -64 -69 0
-295 345 -64 294 0
-295 345 299 -69 0
-295 345 299 294 0
-295 -48 -66 -73 0
-295 -48 -66 296 0
-295 -48 303 -73 0
-295 -48 303 296 0
-295 349 -66 -73 0
-295 349 -66 296 0
-295 349 303 -73 0
-295 349 303 296 0
-295 -49 -67 -74 0
-295 -49 -67 297 0
-295 -49 304 -74 0
-295 -49 304 297 0
-295 350 -67 -74 0
-295 350 -67 297 0
-295 350 304 -74 0
-295 350 304 297 0
-295 -50 -68 -75 0
-295 -50 -68 298 0
-295 -50 305 -75 0
-295 -50 305 298 0
-295 351 -68 -75 0
-295 351 -68 298 0
-295 351 305 -75 0
-295 351 305 298 0
-296 -4 -7 -10 0
-296 -4 -7 111 0
-296 -4 114 -10 0
-296 -4 114 111 0
-296 132 -7 -10 0
-296 132 -7 111 0
-296 132 114 -10 0
-296 132 114 111 0
-296 -15 -18 -21 0
-296 -15 -18 166 0
-296 -15 169 -21 0
-296 -15 169 166 0
-296 187 -18 -21 0
-296 187 -18 166 0
-296 187 169 -21 0
-296 187 169 166 0
-296 -25 -28 -31 0
-296 -25 -28 211 0
-296 -25 214 -31 0
-296 -25 214 211 0
-296 232 -28 -31 0
-296 232 -28 211 0
-296 232 214 -31 0
-296 232 214 211 0
-296 -34 -37 -40 0
-296 -34 -37 247 0
-296 -34 250 -40 0
-296 -34 250 247 0
-296 268 -37 -40 0
-296 268 -37 247 0
-296 268 250 -40 0
-296 268 250 247 0
-296 -43 -52 -55 0
-296 -43 -52 282 0
-296 -43 285 -55 0
-296 -43 285 282 0
-296 317 -52 -55 0
-296 317 -52 282 0
-296 317 285 -55 0
-296 317 285 282 0
-296 -44 -58 -61 0
-296 -44 -58 288 0
-296 -44 291 -61 0
-296 -44 291 288 0
-296 332 -58 -61 0
-296 332 -58 288 0
-296 332 291 -61 0
-296 332 291 288 0
-296 -46 -64 -70 0
-296 -46 -64 294 0
-296 -46 300 -70 0
-296 -46 300 294 0
-296 346 -64 -70 0
-296 346 -64 294 0
-296 346 300 -70 0
-296 346 300 294 0
-296 -47 -65 -73 0
-296 -47 -65 295 0
-296 -47 303 -73 0
-296 -47 303 295 0
-296 349 -65 -73 0
-296 349 -65 295 0
-296 349 303 -73 0
-296 349 303 295 0
-296 -49 -67 -76 0
-296 -49 -67 297 0
-296 -49 306 -76 0
-296 -49 306 297 0
-296 352 -67 -76 0
-296 352 -67 297 0
-296 352 306 -76 0
-296 352 306 297 0
-296 -50 -68 -77 0
-296 -50 -68 298 0
-296 -50 307 -77 0
-296 -50 307 298 0
-296 353 -68 -77 0
-296 353 -68 298 0
-296 353 307 -77 0
-296 353 307 298 0
-297 -4 -7 -11 0
-297 -4 -7 111 0
-297 -4 115 -11 0
-297 -4 115 111 0
-297 133 -7 -11 0
-297 133 -7 111 0
-297 133 115 -11 0
-297 133 115 111 0
-297 -15 -18 -22 0
-297 -15 -18 166 0
-297 -15 170 -22 0
-297 -15 170 166 0
-297 188 -18 -22 0
-297 188 -18 166 0
-297 188 170 -22 0
-297 188 170 166 0
-297 -25 -28 -32 0
-297 -25 -28 211 0
-297 -25 215 -32 0
-297 -25 215 211 0
-297 233 -28 -32 0
-297 233 -28 211 0
-297 233 215 -32 0
-297 233 215 211 0
-297 -34 -37 -41 0
-297 -34 -37 247 0
-297 -34 251 -41 0
-297 -34 251 247 0
-297 269 -37 -41 0
-297 269 -37 247 0
-297 269 251 -41 0
-297 269 251 247 0
-297 -43 -52 -56 0
-297 -43 -52 282 0
-297 -43 286 -56 0
-297 -43 286 282 0
-297 318 -52 -56 0
-297 318 -52 282 0
-297 318 286 -56 0
-297 318 286 282 0
-297 -44 -58 -62 0
-297 -44 -58 288 0
-297 -44 292 -62 0
-297 -44 292 288 0
-297 333 -58 -62 0
-297 333 -58 288 0
-297 333 292 -62 0
-297 333 292 288 0
-297 -46 -64 -71 0
-297 -46 -64 294 0
-297 -46 301 -71 0
-297 -46 301 294 0
-297 347 -64 -71 0
-297 347 -64 294 0
-297 347 301 -71 0
-297 347 301 294 0
-297 -47 -65 -74 0
-297 -47 -65 295 0
-297 -47 304 -74 0
-297 -47 304 295 0
-297 350 -65 -74 0
-297 350 -65 295 0
-297 350 304 -74 0
-297 350 304 295 0
-297 -48 -66 -76 0
-297 -48 -66 296 0
-297 -48 306 -76 0
-297 -48 306 296 0
-297 352 -66 -76 0
-297 352 -66 296 0
-297 352 306 -76 0
-297 352 306 296 0
-297 -50 -68 -78 0
-297 -50 -68 298 0
-297 -50 308 -78 0
-297 -50 308 298 0
-297 354 -68 -78 0
-297 354 -68 298 0
-297 354 308 -78 0
-297 354 308 298 0
-298 -4 -7 -12 0
-298 -4 -7 111 0
-298 -4 116 -12 0
-298 -4 116 111 0
-298 134 -7 -12 0
-298 134 -7 111 0
-298 134 116 -12 0
-298 134 116 111 0
-298 -15 -18 -23 0
-298 -15 -18 166 0
-298 -15 171 -23 0
-298 -15 171 166 0
-298 189 -18 -23 0
-298 189 -18 166 0
-298 189 171 -23 0
-298 189 171 166 0
-298 -25 -28 -33 0
-298 -25 -28 211 0
-298 -25 216 -33 0
-298 -25 216 211 0
-298 234 -28 -33 0
-298 234 -28 211 0
-298 234 216 -33 0
-298 234 216 211 0
-298 -34 -37 -42 0
-298 -34 -37 247 0
-298 -34 252 -42 0
-298 -34 252 247 0
-298 270 -37 -42 0
-298 270 -37 247 0
-298 270 252 -42 0
-298 270 252 247 0
-298 -43 -52 -57 0
-298 -43 -52 282 0
-298 -43 287 -57 0
-298 -43 287 282 0
-298 319 -52 -57 0
-298 319 -52 282 0
-298 319 287 -57 0
-298 319 287 282 0
-298 -44 -58 -63 0
-298 -44 -58 288 0
-298 -44 293 -63 0
-298 -44 293 288 0
-298 334 -58 -63 0
-298 334 -58 288 0
-298 334 293 -63 0
-298 334 293 288 0
-298 -46 -64 -72 0
-298 -46 -64 294 0
-298 -46 302 -72 0
-298 -46 302 294 0
-298 348 -64 -72 0
-298 348 -64 294 0
-298 348 302 -72 0
-298 348 302 294 0
-298 -47 -65 -75 0
-298 -47 -65 295 0
-298 -47 305 -75 0
-298 -47 305 295 0
-298 351 -65 -75 0
-298 351 -65 295 0
-298 351 305 -75 0
-298 351 305 295 0
-298 -48 -66 -77 0
-298 -48 -66 296 0
-298 -48 307 -77 0
-298 -48 307 296 0
-298 353 -66 -77 0
-298 353 -66 296 0
-298 353 307 -77 0
-298 353 307 296 0
-298 -49 -67 -78 0
-298 -49 -67 297 0
-298 -49 308 -78 0
-298 -49 308 297 0
-298 354 -67 -78 0
-298 354 -67 297 0
-298 354 308 -78 0
-298 354 308 297 0
-299 -4 -8 -9 0
-299 -4 -8 112 0
-299 -4 113 -9 0
-299 -4 113 112 0
-299 135 -8 -9 0
-299 135 -8 112 0
-299 135 113 -9 0
-299 135 113 112 0
-299 -15 -19 -20 0
-299 -15 -19 167 0
-299 -15 168 -20 0
-299 -15 168 167 0
-299 190 -19 -20 0
-299 190 -19 167 0
-299 190 168 -20 0
-299 190 168 167 0
-299 -25 -29 -30 0
-299 -25 -29 212 0
-299 -25 213 -30 0
-299 -25 213 212 0
-299 235 -29 -30 0
-299 235 -29 212 0
-299 235 213 -30 0
-299 235 213 212 0
-299 -34 -38 -39 0
-299 -34 -38 248 0
-299 -34 249 -39 0
-299 -34 249 248 0
-299 271 -38 -39 0
-299 271 -38 248 0
-299 271 249 -39 0
-299 271 249 248 0
-299 -43 -53 -54 0
-299 -43 -53 283 0
-299 -43 284 -54 0
-299 -43 284 283 0
-299 320 -53 -54 0
-299 320 -53 283 0
-299 320 284 -54 0
-299 320 284 283 0
-299 -44 -59 -60 0
-299 -44 -59 289 0
-299 -44 290 -60 0
-299 -44 290 289 0
-299 335 -59 -60 0
-299 335 -59 289 0
-299 335 290 -60 0
-299 335 290 289 0
-299 -45 -64 -65 0
-299 -45 -64 294 0
-299 -45 295 -65 0
-299 -45 295 294 0
-299 345 -64 -65 0
-299 345 -64 294 0
-299 345 295 -65 0
-299 345 295 294 0
-299 -48 -70 -73 0
-299 -48 -70 300 0
-299 -48 303 -73 0
-299 -48 303 300 0
-299 355 -70 -73 0
-299 355 -70 300 0
-299 355 303 -73 0
-299 355 303 300 0
-299 -49 -71 -74 0
-299 -49 -71 301 0
-299 -49 304 -74 0
-299 -49 304 301 0
-299 356 -71 -74 0
-299 356 -71 301 0
-299 356 304 -74 0
-299 356 304 301 0
-299 -50 -72 -75 0
-299 -50 -72 302 0
-299 -50 305 -75 0
-299 -50 305 302 0
-299 357 -72 -75 0
-299 357 -72 302 0
-299 357 305 -75 0
-299 357 305 302 0
-300 -4 -8 -10 0
-300 -4 -8 112 0
-300 -4 114 -10 0
-300 -4 114 112 0
-300 136 -8 -10 0
-300 136 -8 112 0
-300 136 114 -10 0
-300 136 114 112 0
-300 -15 -19 -21 0
-300 -15 -19 167 0
-300 -15 169 -21 0
-300 -15 169 167 0
-300 191 -19 -21 0
-300 191 -19 167 0
-300 191 169 -21 0
-300 191 169 167 0
-300 -25 -29 -31 0
-300 -25 -29 212 0
-300 -25 214 -31 0
-300 -25 214 212 0
-300 236 -29 -31 0
-300 236 -29 212 0
-300 236 214 -31 0
-300 236 214 212 0
-300 -34 -38 -40 0
-300 -34 -38 248 0
-300 -34 250 -40 0
-300 -34 250 248 0
-300 272 -38 -40 0
-300 272 -38 248 0
-300 272 250 -40 0
-300 272 250 248 0
-300 -43 -53 -55 0
-300 -43 -53 283 0
-300 -43 285 -55 0
-300 -43 285 283 0
-300 321 -53 -55 0
-300 321 -53 283 0
-300 321 285 -55 0
-300 321 285 283 0
-300 -44 -59 -61 0
-300 -44 -59 289 0
-300 -44 291 -61 0
-300 -44 291 289 0
-300 336 -59 -61 0
-300 336 -59 289 0
-300 336 291 -61 0
-300 336 291 289 0
-300 -45 -64 -66 0
-300 -45 -64 294 0
-300 -45 296 -66 0
-300 -45 296 294 0
-300 346 -64 -66 0
-300 346 -64 294 0
-300 346 296 -66 0
-300 346 296 294 0
-300 -47 -69 -73 0
-300 -47 -69 299 0
-300 -47 303 -73 0
-300 -47 303 299 0
-300 355 -69 -73 0
-300 355 -69 299 0
-300 355 303 -73 0
-300 355 303 299 0
-300 -49 -71 -76 0
-300 -49 -71 301 0
-300 -49 306 -76 0
-300 -49 306 301 0
-300 358 -71 -76 0
-300 358 -71 301 0
-300 358 306 -76 0
-300 358 306 301 0
-300 -50 -72 -77 0
-300 -50 -72 302 0
-300 -50 307 -77 0
-300 -50 307 302 0
-300 359 -72 -77 0
-300 359 -72 302 0
-300 359 307 -77 0
-300 359 307 302 0
-301 -4 -8 -11 0
-301 -4 -8 112 0
-301 -4 115 -11 0
-301 -4 115 112 0
-301 137 -8 -11 0
-301 137 -8 112 0
-301 137 115 -11 0
-301 137 115 112 0
-301 -15 -19 -22 0
-301 -15 -19 167 0
-301 -15 170 -22 0
-301 -15 170 167 0
-301 192 -19 -22 0
-301 192 -19 167 0
-301 192 170 -22 0
-301 192 170 167 0
-301 -25 -29 -32 0
-301 -25 -29 212 0
-301 -25 215 -32 0
-301 -25 215 212 0
-301 237 -29 -32 0
-301 237 -29 212 0
-301 237 215 -32 0
-301 237 215 212 0
-301 -34 -38 -41 0
-301 -34 -38 248 0
-301 -34 251 -41 0
-301 -34 251 248 0
-301 273 -38 -41 0
-301 273 -38 248 0
-301 273 251 -41 0
-301 273 251 248 0
-301 -43 -53 -56 0
-301 -43 -53 283 0
-301 -43 286 -56 0
-301 -43 286 283 0
-301 322 -53 -56 0
-301 322 -53 283 0
-301 322 286 -56 0
-301 322 286 283 0
-301 -44 -59 -62 0
-301 -44 -59 289 0
-301 -44 292 -62 0
-301 -44 292 289 0
-301 337 -59 -62 0
-301 337 -59 289 0
-301 337 292 -62 0
-301 337 292 289 0
-301 -45 -64 -67 0
-301 -45 -64 294 0
-301 -45 297 -67 0
-301 -45 297 294 0
-301 347 -64 -67 0
-301 347 -64 294 0
-301 347 297 -67 0
-301 347 297 294 0
-301 -47 -69 -74 0
-301 -47 -69 299 0
-301 -47 304 -74 0
-301 -47 304 299 0
-301 356 -69 -74 0
-301 356 -69 299 0
-301 356 304 -74 0
-301 356 304 299 0
-301 -48 -70 -76 0
-301 -48 -70 300 0
-301 -48 306 -76 0
-301 -48 306 300 0
-301 358 -70 -76 0
-301 358 -70 300 0
-301 358 306 -76 0
-301 358 306 300 0
-301 -50 -72 -78 0
-301 -50 -72 302 0
-301 -50 308 -78 0
-301 -50 308 302 0
-301 360 -72 -78 0
-301 360 -72 302 0
-301 360 308 -78 0
-301 360 308 302 0
-302 -4 -8 -12 0
-302 -4 -8 112 0
-302 -4 116 -12 0
-302 -4 116 112 0
-302 138 -8 -12 0
-302 138 -8 112 0
-302 138 116 -12 0
-302 138 116 112 0
-302 -15 -19 -23 0
-302 -15 -19 167 0
-302 -15 171 -23 0
-302 -15 171 167 0
-302 193 -19 -23 0
-302 193 -19 167 0
-302 193 171 -23 0
-302 193 171 167 0
-302 -25 -29 -33 0
-302 -25 -29 212 0
-302 -25 216 -33 0
-302 -25 216 212 0
-302 238 -29 -33 0
-302 238 -29 212 0
-302 238 216 -33 0
-302 238 216 212 0
-302 -34 -38 -42 0
-302 -34 -38 248 0
-302 -34 252 -42 0
-302 -34 252 248 0
-302 274 -38 -42 0
-302 274 -38 248 0
-302 274 252 -42 0
-302 274 252 248 0
-302 -43 -53 -57 0
-302 -43 -53 283 0
-302 -43 287 -57 0
-302 -43 287 283 0
-302 323 -53 -57 0
-302 323 -53 283 0
-302 323 287 -57 0
-302 323 287 283 0
-302 -44 -59 -63 0
-302 -44 -59 289 0
-302 -44 293 -63 0
-302 -44 293 289 0
-302 338 -59 -63 0
-302 338 -59 289 0
-302 338 293 -63 0
-302 338 293 289 0
-302 -45 -64 -68 0
-302 -45 -64 294 0
-302 -45 298 -68 0
-302 -45 298 294 0
-302 348 -64 -68 0
-302 348 -64 294 0
-302 348 298 -68 0
-302 348 298 294 0
-302 -47 -69 -75 0
-302 -47 -69 299 0
-302 -47 305 -75 0
-302 -47 305 299 0
-302 357 -69 -75 0
-302 357 -69 299 0
-302 357 305 -75 0
-302 357 305 299 0
-302 -48 -70 -77 0
-302 -48 -70 300 0
-302 -48 307 -77 0
-302 -48 307 300 0
-302 359 -70 -77 0
-302 359 -70 300 0
-302 359 307 -77 0
-302 359 307 300 0
-302 -49 -71 -78 0
-302 -49 -71 301 0
-302 -49 308 -78 0
-302 -49 308 301 0
-302 360 -71 -78 0
-302 360 -71 301 0
-302 360 308 -78 0
-302 360 308 301 0
-303 -4 -9 -10 0
-303 -4 -9 113 0
-303 -4 114 -10 0
-303 -4 114 113 0
-303 139 -9 -10 0
-303 139 -9 113 0
-303 139 114 -10 0
-303 139 114 113 0
-303 -15 -20 -21 0
-303 -15 -20 168 0
-303 -15 169 -21 0
-303 -15 169 168 0
-303 194 -20 -21 0
-303 194 -20 168 0
-303 194 169 -21 0
-303 194 169 168 0
-303 -25 -30 -31 0
-303 -25 -30 213 0
-303 -25 214 -31 0
-303 -25 214 213 0
-303 239 -30 -31 0
-303 239 -30 213 0
-303 239 214 -31 0
-303 239 214 213 0
-303 -34 -39 -40 0
-303 -34 -39 249 0
-303 -34 250 -40 0
-303 -34 250 249 0
-303 275 -39 -40 0
-303 275 -39 249 0
-303 275 250 -40 0
-303 275 250 249 0
-303 -43 -54 -55 0
-303 -43 -54 284 0
-303 -43 285 -55 0
-303 -43 285 284 0
-303 324 -54 -55 0
-303 324 -54 284 0
-303 324 285 -55 0
-303 324 285 284 0
-303 -44 -60 -61 0
-303 -44 -60 290 0
-303 -44 291 -61 0
-303 -44 291 290 0
-303 339 -60 -61 0
-303 339 -60 290 0
-303 339 291 -61 0
-303 339 291 290 0
-303 -45 -65 -66 0
-303 -45 -65 295 0
-303 -45 296 -66 0
-303 -45 296 295 0
-303 349 -65 -66 0
-303 349 -65 295 0
-303 349 296 -66 0
-303 349 296 295 0
-303 -46 -69 -70 0
-303 -46 -69 299 0
-303 -46 300 -70 0
-303 -46 300 299 0
-303 355 -69 -70 0
-303 355 -69 299 0
-303 355 300 -70 0
-303 355 300 299 0
-303 -49 -74 -76 0
-303 -49 -74 304 0
-303 -49 306 -76 0
-303 -49 306 304 0
-303 361 -74 -76 0
-303 361 -74 304 0
-303 361 306 -76 0
-303 361 306 304 0
-303 -50 -75 -77 0
-303 -50 -75 305 0
-303 -50 307 -77 0
-303 -50 307 305 0
-303 362 -75 -77 0
-303 362 -75 305 0
-303 362 307 -77 0
-303 362 307 305 0
-304 -4 -9 -11 0
-304 -4 -9 113 0
-304 -4 115 -11 0
-304 -4 115 113 0
-304 140 -9 -11 0
-304 140 -9 113 0
-304 140 115 -11 0
-304 140 115 113 0
-304 -15 -20 -22 0
-304 -15 -20 168 0
-304 -15 170 -22 0
-304 -15 170 168 0
-304 195 -20 -22 0
-304 195 -20 168 0
-304 195 170 -22 0
-304 195 170 168 0
-304 -25 -30 -32 0
-304 -25 -30 213 0
-304 -25 215 -32 0
-304 -25 215 213 0
-304 240 -30 -32 0
-304 240 -30 213 0
-304 240 215 -32 0
-304 240 215 213 0
-304 -34 -39 -41 0
-304 -34 -39 249 0
-304 -34 251 -41 0
-304 -34 251 249 0
-304 276 -39 -41 0
-304 276 -39 249 0
-304 276 251 -41 0
-304 276 251 249 0
-304 -43 -54 -56 0
-304 -43 -54 284 0
-304 -43 286 -56 0
-304 -43 286 284 0
-304 325 -54 -56 0
-304 325 -54 284 0
-304 325 286 -56 0
-304 325 286 284 0
-304 -44 -60 -62 0
-304 -44 -60 290 0
-304 -44 292 -62 0
-304 -44 292 290 0
-304 340 -60 -62 0
-304 340 -60 290 0
-304 340 292 -62 0
-304 340 292 290 0
-304 -45 -65 -67 0
-304 -45 -65 295 0
-304 -45 297 -67 0
-304 -45 297 295 0
-304 350 -65 -67 0
-304 350 -65 295 0
-304 350 297 -67 0
-304 350 297 295 0
-304 -46 -69 -71 0
-304 -46 -69 299 0
-304 -46 301 -71 0
-304 -46 301 299 0
-304 356 -69 -71 0
-304 356 -69 299 0
-304 356 301 -71 0
-304 356 301 299 0
-304 -48 -73 -76 0
-304 -48 -73 303 0
-304 -48 306 -76 0
-304 -48 306 303 0
-304 361 -73 -76 0
-304 361 -73 303 0
-304 361 306 -76 0
-304 361 306 303 0
-304 -50 -75 -78 0
-304 -50 -75 305 0
-304 -50 308 -78 0
-304 -50 308 305 0
-304 363 -75 -78 0
-304 363 -75 305 0
-304 363 308 -78 0
-304 363 308 305 0
-305 -4 -9 -12 0
-305 -4 -9 113 0
-305 -4 116 -12 0
-305 -4 116 113 0
-305 141 -9 -12 0
-305 141 -9 113 0
-305 141 116 -12 0
-305 141 116 113 0
-305 -15 -20 -23 0
-305 -15 -20 168 0
-305 -15 171 -23 0
-305 -15 171 168 0
-305 196 -20 -23 0
-305 196 -20 168 0
-305 196 171 -23 0
-305 196 171 168 0
-305 -25 -30 -33 0
-305 -25 -30 213 0
-305 -25 216 -33 0
-305 -25 216 213 0
-305 241 -30 -33 0
-305 241 -30 213 0
-305 241 216 -33 0
-305 241 216 213 0
-305 -34 -39 -42 0
-305 -34 -39 249 0
-305 -34 252 -42 0
-305 -34 252 249 0
-305 277 -39 -42 0
-305 277 -39 249 0
-305 277 252 -42 0
-305 277 252 249 0
-305 -43 -54 -57 0
-305 -43 -54 284 0
-305 -43 287 -57 0
-305 -43 287 284 0
-305 326 -54 -57 0
-305 326 -54 284 0
-305 326 287 -57 0
-305 326 287 284 0
-305 -44 -60 -63 0
-305 -44 -60 290 0
-305 -44 293 -63 0
-305 -44 293 290 0
-305 341 -60 -63 0
-305 341 -60 290 0
-305 341 293 -63 0
-305 341 293 290 0
-305 -45 -65 -68 0
-305 -45 -65 295 0
-305 -45 298 -68 0
-305 -45 298 295 0
-305 351 -65 -68 0
-305 351 -65 295 0
-305 351 298 -68 0
-305 351 298 295 0
-305 -46 -69 -72 0
-305 -46 -69 299 0
-305 -46 302 -72 0
-305 -46 302 299 0
-305 357 -69 -72 0
-305 357 -69 299 0
-305 357 302 -72 0
-305 357 302 299 0
-305 -48 -73 -77 0
-305 -48 -73 303 0
-305 -48 307 -77 0
-305 -48 307 303 0
-305 362 -73 -77 0
-305 362 -73 303 0
-305 362 307 -77 0
-305 362 307 303 0
-305 -49 -74 -78 0
-305 -49 -74 304 0
-305 -49 308 -78 0
-305 -49 308 304 0
-305 363 -74 -78 0
-305 363 -74 304 0
-305 363 308 -78 0
-305 363 308 304 0
-306 -4 -10 -11 0
-306 -4 -10 114 0
-306 -4 115 -11 0
-306 -4 115 114 0
-306 142 -10 -11 0
-306 142 -10 114 0
-306 142 115 -11 0
-306 142 115 114 0
-306 -15 -21 -22 0
-306 -15 -21 169 0
-306 -15 170 -22 0
-306 -15 170 169 0
-306 197 -21 -22 0
-306 197 -21 169 0
-306 197 170 -22 0
-306 197 170 169 0
-306 -25 -31 -32 0
-306 -25 -31 214 0
-306 -25 215 -32 0
-306 -25 215 214 0
-306 242 -31 -32 0
-306 242 -31 214 0
-306 242 215 -32 0
-306 242 215 214 0
-306 -34 -40 -41 0
-306 -34 -40 250 0
-306 -34 251 -41 0
-306 -34 251 250 0
-306 278 -40 -41 0
-306 278 -40 250 0
-306 278 251 -41 0
-306 278 251 250 0
-306 -43 -55 -56 0
-306 -43 -55 285 0
-306 -43 286 -56 0
-306 -43 286 285 0
-306 327 -55 -56 0
-306 327 -55 285 0
-306 327 286 -56 0
-306 327 286 285 0
-306 -44 -61 -62 0
-306 -44 -61 291 0
-306 -44 292 -62 0
-306 -44 292 291 0
-306 342 -61 -62 0
-306 342 -61 291 0
-306 342 292 -62 0
-306 342 292 291 0
-306 -45 -66 -67 0
-306 -45 -66 296 0
-306 -45 297 -67 0
-306 -45 297 296 0
-306 352 -66 -67 0
-306 352 -66 296 0
-306 352 297 -67 0
-306 352 297 296 0
-306 -46 -70 -71 0
-306 -46 -70 300 0
-306 -46 301 -71 0
-306 -46 301 300 0
-306 358 -70 -71 0
-306 358 -70 300 0
-306 358 301 -71 0
-306 358 301 300 0
-306 -47 -73 -74 0
-306 -47 -73 303 0
-306 -47 304 -74 0
-306 -47 304 303 0
-306 361 -73 -74 0
-306 361 -73 303 0
-306 361 304 -74 0
-306 361 304 303 0
-306 -50 -77 -78 0
-306 -50 -77 307 0
-306 -50 308 -78 0
-306 -50 308 307 0
-306 364 -77 -78 0
-306 364 -77 307 0
-306 364 308 -78 0
-306 364 308 307 0
-307 -4 -10 -12 0
-307 -4 -10 114 0
-307 -4 116 -12 0
-307 -4 116 114 0
-307 143 -10 -12 0
-307 143 -10 114 0
-307 143 116 -12 0
-307 143 116 114 0
-307 -15 -21 -23 0
-307 -15 -21 169 0
-307 -15 171 -23 0
-307 -15 171 169 0
-307 198 -21 -23 0
-307 198 -21 169 0
-307 198 171 -23 0
-307 198 171 169 0
-307 -25 -31 -33 0
-307 -25 -31 214 0
-307 -25 216 -33 0
-307 -25 216 214 0
-307 243 -31 -33 0
-307 243 -31 214 0
-307 243 216 -33 0
-307 243 216 214 0
-307 -34 -40 -42 0
-307 -34 -40 250 0
-307 -34 252 -42 0
-307 -34 252 250 0
-307 279 -40 -42 0
-307 279 -40 250 0
-307 279 252 -42 0
-307 279 252 250 0
-307 -43 -55 -57 0
-307 -43 -55 285 0
-307 -43 287 -57 0
-307 -43 287 285 0
-307 328 -55 -57 0
-307 328 -55 285 0
-307 328 287 -57 0
-307 328 287 285 0
-307 -44 -61 -63 0
-307 -44 -61 291 0
-307 -44 293 -63 0
-307 -44 293 291 0
-307 343 -61 -63 0
-307 343 -61 291 0
-307 343 293 -63 0
-307 343 293 291 0
-307 -45 -66 -68 0
-307 -45 -66 296 0
-307 -45 298 -68 0
-307 -45 298 296 0
-307 353 -66 -68 0
-307 353 -66 296 0
-307 353 298 -68 0
-307 353 298 296 0
-307 -46 -70 -72 0
-307 -46 -70 300 0
-307 -46 302 -72 0
-307 -46 302 300 0
-307 359 -70 -72 0
-307 359 -70 300 0
-307 359 302 -72 0
-307 359 302 300 0
-307 -47 -73 -75 0
-307 -47 -73 303 0
-307 -47 305 -75 0
-307 -47 305 303 0
-307 362 -73 -75 0
-307 362 -73 303 0
-307 362 305 -75 0
-307 362 305 303 0
-307 -49 -76 -78 0
-307 -49 -76 306 0
-307 -49 308 -78 0
-307 -49 308 306 0
-307 364 -76 -78 0
-307 364 -76 306 0
-307 364 308 -78 0
-307 364 308 306 0
-308 -4 -11 -12 0
-308 -4 -11 115 0
-308 -4 116 -12 0
-308 -4 116 115 0
-308 144 -11 -12 0
-308 144 -11 115 0
-308 144 116 -12 0
-308 144 116 115 0
-308 -15 -22 -23 0
-308 -15 -22 170 0
-308 -15 171 -23 0
-308 -15 171 170 0
-308 199 -22 -23 0
-308 199 -22 170 0
-308 199 171 -23 0
-308 199 171 170 0
-308 -25 -32 -33 0
-308 -25 -32 215 0
-308 -25 216 -33 0
-308 -25 216 215 0
-308 244 -32 -33 0
-308 244 -32 215 0
-308 244 216 -33 0
-308 244 216 215 0
-308 -34 -41 -42 0
-308 -34 -41 251 0
-308 -34 252 -42 0
-308 -34 252 251 0
-308 280 -41 -42 0
-308 280 -41 251 0
-308 280 252 -42 0
-308 280 252 251 0
-308 -43 -56 -57 0
-308 -43 -56 286 0
-308 -43 287 -57 0
-308 -43 287 286 0
-308 329 -56 -57 0
-308 329 -56 286 0
-308 329 287 -57 0
-308 329 287 286 0
-308 -44 -62 -63 0
-308 -44 -62 292 0
-308 -44 293 -63 0
-308 -44 293 292 0
-308 344 -62 -63 0
-308 344 -62 292 0
-308 344 293 -63 0
-308 344 293 292 0
-308 -45 -67 -68 0
-308 -45 -67 297 0
-308 -45 298 -68 0
-308 -45 298 297 0
-308 354 -67 -68 0
-308 354 -67 297 0
-308 354 298 -68 0
-308 354 298 297 0
-308 -46 -71 -72 0
-308 -46 -71 301 0
-308 -46 302 -72 0
-308 -46 302 301 0
-308 360 -71 -72 0
-308 360 -71 301 0
-308 360 302 -72 0
-308 360 302 301 0
-308 -47 -74 -75 0
-308 -47 -74 304 0
-308 -47 305 -75 0
-308 -47 305 304 0
-308 363 -74 -75 0
-308 363 -74 304 0
-308 363 305 -75 0
-308 363 305 304 0
-308 -48 -76 -77 0
-308 -48 -76 306 0
-308 -48 307 -77 0
-308 -48 307 306 0
-308 364 -76 -77 0
-308 364 -76 306 0
-308 364 307 -77 0
-308 364 307 306 0
-309 -5 -6 -7 0
-309 -5 -6 117 0
-309 -5 118 -7 0
-309 -5 118 117 0
-309 124 -6 -7 0
-309 124 -6 117 0
-309 124 118 -7 0
-309 124 118 117 0
-309 -16 -17 -18 0
-309 -16 -17 172 0
-309 -16 173 -18 0
-309 -16 173 172 0
-309 179 -17 -18 0
-309 179 -17 172 0
-309 179 173 -18 0
-309 179 173 172 0
-309 -26 -27 -28 0
-309 -26 -27 217 0
-309 -26 218 -28 0
-309 -26 218 217 0
-309 224 -27 -28 0
-309 224 -27 217 0
-309 224 218 -28 0
-309 224 218 217 0
-309 -35 -36 -37 0
-309 -35 -36 253 0
-309 -35 254 -37 0
-309 -35 254 253 0
-309 260 -36 -37 0
-309 260 -36 253 0
-309 260 254 -37 0
-309 260 254 253 0
-309 -43 -44 -45 0
-309 -43 -44 281 0
-309 -43 282 -45 0
-309 -43 282 281 0
-309 288 -44 -45 0
-309 288 -44 281 0
-309 288 282 -45 0
-309 288 282 281 0
-309 -53 -59 -64 0
-309 -53 -59 310 0
-309 -53 315 -64 0
-309 -53 315 310 0
-309 330 -59 -64 0
-309 330 -59 310 0
-309 330 315 -64 0
-309 330 315 310 0
-309 -54 -60 -65 0
-309 -54 -60 311 0
-309 -54 316 -65 0
-309 -54 316 311 0
-309 331 -60 -65 0
-309 331 -60 311 0
-309 331 316 -65 0
-309 331 316 311 0
-309 -55 -61 -66 0
-309 -55 -61 312 0
-309 -55 317 -66 0
-309 -55 317 312 0
-309 332 -61 -66 0
-309 332 -61 312 0
-309 332 317 -66 0
-309 332 317 312 0
-309 -56 -62 -67 0
-309 -56 -62 313 0
-309 -56 318 -67 0
-309 -56 318 313 0
-309 333 -62 -67 0
-309 333 -62 313 0
-309 333 318 -67 0
-309 333 318 313 0
-309 -57 -63 -68 0
-309 -57 -63 314 0
-309 -57 319 -68 0
-309 -57 319 314 0
-309 334 -63 -68 0
-309 334 -63 314 0
-309 334 319 -68 0
-309 334 319 314 0
-310 -5 -6 -8 0
-310 -5 -6 117 0
-310 -5 119 -8 0
-310 -5 119 117 0
-310 125 -6 -8 0
-310 125 -6 117 0
-310 125 119 -8 0
-310 125 119 117 0
-310 -16 -17 -19 0
-310 -16 -17 172 0
-310 -16 174 -19 0
-310 -16 174 172 0
-310 180 -17 -19 0
-310 180 -17 172 0
-310 180 174 -19 0
-310 180 174 172 0
-310 -26 -27 -29 0
-310 -26 -27 217 0
-310 -26 219 -29 0
-310 -26 219 217 0
-310 225 -27 -29 0
-310 225 -27 217 0
-310 225 219 -29 0
-310 225 219 217 0
-310 -35 -36 -38 0
-310 -35 -36 253 0
-310 -35 255 -38 0
-310 -35 255 253 0
-310 261 -36 -38 0
-310 261 -36 253 0
-310 261 255 -38 0
-310 261 255 253 0
-310 -43 -44 -46 0
-310 -43 -44 281 0
-310 -43 283 -46 0
-310 -43 283 281 0
-310 289 -44 -46 0
-310 289 -44 281 0
-310 289 283 -46 0
-310 289 283 281 0
-310 -52 -58 -64 0
-310 -52 -58 309 0
-310 -52 315 -64 0
-310 -52 315 309 0
-310 330 -58 -64 0
-310 330 -58 309 0
-310 330 315 -64 0
-310 330 315 309 0
-310 -54 -60 -69 0
-310 -54 -60 311 0
-310 -54 320 -69 0
-310 -54 320 311 0
-310 335 -60 -69 0
-310 335 -60 311 0
-310 335 320 -69 0
-310 335 320 311 0
-310 -55 -61 -70 0
-310 -55 -61 312 0
-310 -55 321 -70 0
-310 -55 321 312 0
-310 336 -61 -70 0
-310 336 -61 312 0
-310 336 321 -70 0
-310 336 321 312 0
-310 -56 -62 -71 0
-310 -56 -62 313 0
-310 -56 322 -71 0
-310 -56 322 313 0
-310 337 -62 -71 0
-310 337 -62 313 0
-310 337 322 -71 0
-310 337 322 313 0
-310 -57 -63 -72 0
-310 -57 -63 314 0
-310 -57 323 -72 0
-310 -57 323 314 0
-310 338 -63 -72 0
-310 338 -63 314 0
-310 338 323 -72 0
-310 338 323 314 0
-311 -5 -6 -9 0
-311 -5 -6 117 0
-311 -5 120 -9 0
-311 -5 120 117 0
-311 126 -6 -9 0
-311 126 -6 117 0
-311 126 120 -9 0
-311 126 120 117 0
-311 -16 -17 -20 0
-311 -16 -17 172 0
-311 -16 175 -20 0
-311 -16 175 172 0
-311 181 -17 -20 0
-311 181 -17 172 0
-311 181 175 -20 0
-311 181 175 172 0
-311 -26 -27 -30 0
-311 -26 -27 217 0
-311 -26 220 -30 0
-311 -26 220 217 0
-311 226 -27 -30 0
-311 226 -27 217 0
-311 226 220 -30 0
-311 226 220 217 0
-311 -35 -36 -39 0
-311 -35 -36 253 0
-311 -35 256 -39 0
-311 -35 256 253 0
-311 262 -36 -39 0
-311 262 -36 253 0
-311 262 256 -39 0
-311 262 256 253 0
-311 -43 -44 -47 0
-311 -43 -44 281 0
-311 -43 284 -47 0
-311 -43 284 281 0
-311 290 -44 -47 0
-311 290 -44 281 0
-311 290 284 -47 0
-311 290 284 281 0
-311 -52 -58 -65 0
-311 -52 -58 309 0
-311 -52 316 -65 0
-311 -52 316 309 0
-311 331 -58 -65 0
-311 331 -58 309 0
-311 331 316 -65 0
-311 331 316 309 0
-311 -53 -59 -69 0
-311 -53 -59 310 0
-311 -53 320 -69 0
-311 -53 320 310 0
-311 335 -59 -69 0
-311 335 -59 310 0
-311 335 320 -69 0
-311 335 320 310 0
-311 -55 -61 -73 0
-311 -55 -61 312 0
-311 -55 324 -73 0
-311 -55 324 312 0
-311 339 -61 -73 0
-311 339 -61 312 0
-311 339 324 -73 0
-311 339 324 312 0
-311 -56 -62 -74 0
-311 -56 -62 313 0
-311 -56 325 -74 0
-311 -56 325 313 0
-311 340 -62 -74 0
-311 340 -62 313 0
-311 340 325 -74 0
-311 340 325 313 0
-311 -57 -63 -75 0
-311 -57 -63 314 0
-311 -57 326 -75 0
-311 -57 326 314 0
-311 341 -63 -75 0
-311 341 -63 314 0
-311 341 326 -75 0
-311 341 326 314 0
-312 -5 -6 -10 0
-312 -5 -6 117 0
-312 -5 121 -10 0
-312 -5 121 117 0
-312 127 -6 -10 0
-312 127 -6 117 0
-312 127 121 -10 0
-312 127 121 117 0
-312 -16 -17 -21 0
-312 -16 -17 172 0
-312 -16 176 -21 0
-312 -16 176 172 0
-312 182 -17 -21 0
-312 182 -17 172 0
-312 182 176 -21 0
-312 182 176 172 0
-312 -26 -27 -31 0
-312 -26 -27 217 0
-312 -26 221 -31 0
-312 -26 221 217 0
-312 227 -27 -31 0
-312 227 -27 217 0
-312 227 221 -31 0
-312 227 221 217 0
-312 -35 -36 -40 0
-312 -35 -36 253 0
-312 -35 257 -40 0
-312 -35 257 253 0
-312 263 -36 -40 0
-312 263 -36 253 0
-312 263 257 -40 0
-312 263 257 253 0
-312 -43 -44 -48 0
-312 -43 -44 281 0
-312 -43 285 -48 0
-312 -43 285 281 0
-312 291 -44 -48 0
-312 291 -44 281 0
-312 291 285 -48 0
-312 291 285 281 0
-312 -52 -58 -66 0
-312 -52 -58 309 0
-312 -52 317 -66 0
-312 -52 317 309 0
-312 332 -58 -66 0
-312 332 -58 309 0
-312 332 317 -66 0
-312 332 317 309 0
-312 -53 -59 -70 0
-312 -53 -59 310 0
-312 -53 321 -70 0
-312 -53 321 310 0
-312 336 -59 -70 0
-312 336 -59 310 0
-312 336 321 -70 0
-312 336 321 310 0
-312 -54 -60 -73 0
-312 -54 -60 311 0
-312 -54 324 -73 0
-312 -54 324 311 0
-312 339 -60 -73 0
-312 339 -60 311 0
-312 339 324 -73 0
-312 339 324 311 0
-312 -56 -62 -76 0
-312 -56 -62 313 0
-312 -56 327 -76 0
-312 -56 327 313 0
-312 342 -62 -76 0
-312 342 -62 313 0
-312 342 327 -76 0
-312 342 327 313 0
-312 -57 -63 -77 0
-312 -57 -63 314 0
-312 -57 328 -77 0
-312 -57 328 314 0
-312 343 -63 -77 0
-312 343 -63 314 0
-312 343 328 -77 0
-312 343 328 314 0
-313 -5 -6 -11 0
-313 -5 -6 117 0
-313 -5 122 -11 0
-313 -5 122 117 0
-313 128 -6 -11 0
-313 128 -6 117 0
-313 128 122 -11 0
-313 128 122 117 0
-313 -16 -17 -22 0
-313 -16 -17 172 0
-313 -16 177 -22 0
-313 -16 177 172 0
-313 183 -17 -22 0
-313 183 -17 172 0
-313 183 177 -22 0
-313 183 177 172 0
-313 -26 -27 -32 0
-313 -26 -27 217 0
-313 -26 222 -32 0
-313 -26 222 217 0
-313 228 -27 -32 0
-313 228 -27 217 0
-313 228 222 -32 0
-313 228 222 217 0
-313 -35 -36 -41 0
-313 -35 -36 253 0
-313 -35 258 -41 0
-313 -35 258 253 0
-313 264 -36 -41 0
-313 264 -36 253 0
-313 264 258 -41 0
-313 264 258 253 0
-313 -43 -44 -49 0
-313 -43 -44 281 0
-313 -43 286 -49 0
-313 -43 286 281 0
-313 292 -44 -49 0
-313 292 -44 281 0
-313 292 286 -49 0
-313 292 286 281 0
-313 -52 -58 -67 0
-313 -52 -58 309 0
-313 -52 318 -67 0
-313 -52 318 309 0
-313 333 -58 -67 0
-313 333 -58 309 0
-313 333 318 -67 0
-313 333 318 309 0
-313 -53 -59 -71 0
-313 -53 -59 310 0
-313 -53 322 -71 0
-313 -53 322 310 0
-313 337 -59 -71 0
-313 337 -59 310 0
-313 337 322 -71 0
-313 337 322 310 0
-313 -54 -60 -74 0
-313 -54 -60 311 0
-313 -54 325 -74 0
-313 -54 325 311 0
-313 340 -60 -74 0
-313 340 -60 311 0
-313 340 325 -74 0
-313 340 325 311 0
-313 -55 -61 -76 0
-313 -55 -61 312 0
-313 -55 327 -76 0
-313 -55 327 312 0
-313 342 -61 -76 0
-313 342 -61 312 0
-313 342 327 -76 0
-313 342 327 312 0
-313 -57 -63 -78 0
-313 -57 -63 314 0
-313 -57 329 -78 0
-313 -57 329 314 0
-313 344 -63 -78 0
-313 344 -63 314 0
-313 344 329 -78 0
-313 344 329 314 0
-314 -5 -6 -12 0
-314 -5 -6 117 0
-314 -5 123 -12 0
-314 -5 123 117 0
-314 129 -6 -12 0
-314 129 -6 117 0
-314 129 123 -12 0
-314 129 123 117 0
-314 -16 -17 -23 0
-314 -16 -17 172 0
-314 -16 178 -23 0
-314 -16 178 172 0
-314 184 -17 -23 0
-314 184 -17 172 0
-314 184 178 -23 0
-314 184 178 172 0
-314 -26 -27 -33 0
-314 -26 -27 217 0
-314 -26 223 -33 0
-314 -26 223 217 0
-314 229 -27 -33 0
-314 229 -27 217 0
-314 229 223 -33 0
-314 229 223 217 0
-314 -35 -36 -42 0
-314 -35 -36 253 0
-314 -35 259 -42 0
-314 -35 259 253 0
-314 265 -36 -42 0
-314 265 -36 253 0
-314 265 259 -42 0
-314 265 259 253 0
-314 -43 -44 -50 0
-314 -43 -44 281 0
-314 -43 287 -50 0
-314 -43 287 281 0
-314 293 -44 -50 0
-314 293 -44 281 0
-314 293 287 -50 0
-314 293 287 281 0
-314 -52 -58 -68 0
-314 -52 -58 309 0
-314 -52 319 -68 0
-314 -52 319 309 0
-314 334 -58 -68 0
-314 334 -58 309 0
-314 334 319 -68 0
-314 334 319 309 0
-314 -53 -59 -72 0
-314 -53 -59 310 0
-314 -53 323 -72 0
-314 -53 323 310 0
-314 338 -59 -72 0
-314 338 -59 310 0
-314 338 323 -72 0
-314 338 323 310 0
-314 -54 -60 -75 0
-314 -54 -60 311 0
-314 -54 326 -75 0
-314 -54 326 311 0
-314 341 -60 -75 0
-314 341 -60 311 0
-314 341 326 -75 0
-314 341 326 311 0
-314 -55 -61 -77 0
-314 -55 -61 312 0
-314 -55 328 -77 0
-314 -55 328 312 0
-314 343 -61 -77 0
-314 343 -61 312 0
-314 343 328 -77 0
-314 343 328 312 0
-314 -56 -62 -78 0
-314 -56 -62 313 0
-314 -56 329 -78 0
-314 -56 329 313 0
-314 344 -62 -78 0
-314 344 -62 313 0
-314 344 329 -78 0
-314 344 329 313 0
-315 -5 -7 -8 0
-315 -5 -7 118 0
-315 -5 119 -8 0
-315 -5 119 118 0
-315 130 -7 -8 0
-315 130 -7 118 0
-315 130 119 -8 0
-315 130 119 118 0
-315 -16 -18 -19 0
-315 -16 -18 173 0
-315 -16 174 -19 0
-315 -16 174 173 0
-315 185 -18 -19 0
-315 185 -18 173 0
-315 185 174 -19 0
-315 185 174 173 0
-315 -26 -28 -29 0
-315 -26 -28 218 0
-315 -26 219 -29 0
-315 -26 219 218 0
-315 230 -28 -29 0
-315 230 -28 218 0
-315 230 219 -29 0
-315 230 219 218 0
-315 -35 -37 -38 0
-315 -35 -37 254 0
-315 -35 255 -38 0
-315 -35 255 254 0
-315 266 -37 -38 0
-315 266 -37 254 0
-315 266 255 -38 0
-315 266 255 254 0
-315 -43 -45 -46 0
-315 -43 -45 282 0
-315 -43 283 -46 0
-315 -43 283 282 0
-315 294 -45 -46 0
-315 294 -45 282 0
-315 294 283 -46 0
-315 294 283 282 0
-315 -51 -58 -59 0
-315 -51 -58 309 0
-315 -51 310 -59 0
-315 -51 310 309 0
-315 330 -58 -59 0
-315 330 -58 309 0
-315 330 310 -59 0
-315 330 310 309 0
-315 -54 -65 -69 0
-315 -54 -65 316 0
-315 -54 320 -69 0
-315 -54 320 316 0
-315 345 -65 -69 0
-315 345 -65 316 0
-315 345 320 -69 0
-315 345 320 316 0
-315 -55 -66 -70 0
-315 -55 -66 317 0
-315 -55 321 -70 0
-315 -55 321 317 0
-315 346 -66 -70 0
-315 346 -66 317 0
-315 346 321 -70 0
-315 346 321 317 0
-315 -56 -67 -71 0
-315 -56 -67 318 0
-315 -56 322 -71 0
-315 -56 322 318 0
-315 347 -67 -71 0
-315 347 -67 318 0
-315 347 322 -71 0
-315 347 322 318 0
-315 -57 -68 -72 0
-315 -57 -68 319 0
-315 -57 323 -72 0
-315 -57 323 319 0
-315 348 -68 -72 0
-315 348 -68 319 0
-315 348 323 -72 0
-315 348 323 319 0
-316 -5 -7 -9 0
-316 -5 -7 118 0
-316 -5 120 -9 0
-316 -5 120 118 0
-316 131 -7 -9 0
-316 131 -7 118 0
-316 131 120 -9 0
-316 131 120 118 0
-316 -16 -18 -20 0
-316 -16 -18 173 0
-316 -16 175 -20 0
-316 -16 175 173 0
-316 186 -18 -20 0
-316 186 -18 173 0
-316 186 175 -20 0
-316 186 175 173 0
-316 -26 -28 -30 0
-316 -26 -28 218 0
-316 -26 220 -30 0
-316 -26 220 218 0
-316 231 -28 -30 0
-316 231 -28 218 0
-316 231 220 -30 0
-316 231 220 218 0
-316 -35 -37 -39 0
-316 -35 -37 254 0
-316 -35 256 -39 0
-316 -35 256 254 0
-316 267 -37 -39 0
-316 267 -37 254 0
-316 267 256 -39 0
-316 267 256 254 0
-316 -43 -45 -47 0
-316 -43 -45 282 0
-316 -43 284 -47 0
-316 -43 284 282 0
-316 295 -45 -47 0
-316 295 -45 282 0
-316 295 284 -47 0
-316 295 284 282 0
-316 -51 -58 -60 0
-316 -51 -58 309 0
-316 -51 311 -60 0
-316 -51 311 309 0
-316 331 -58 -60 0
-316 331 -58 309 0
-316 331 311 -60 0
-316 331 311 309 0
-316 -53 -64 -69 0
-316 -53 -64 315 0
-316 -53 320 -69 0
-316 -53 320 315 0
-316 345 -64 -69 0
-316 345 -64 315 0
-316 345 320 -69 0
-316 345 320 315 0
-316 -55 -66 -73 0
-316 -55 -66 317 0
-316 -55 324 -73 0
-316 -55 324 317 0
-316 349 -66 -73 0
-316 349 -66 317 0
-316 349 324 -73 0
-316 349 324 317 0
-316 -56 -67 -74 0
-316 -56 -67 318 0
-316 -56 325 -74 0
-316 -56 325 318 0
-316 350 -67 -74 0
-316 350 -67 318 0
-316 350 325 -74 0
-316 350 325 318 0
-316 -57 -68 -75 0
-316 -57 -68 319 0
-316 -57 326 -75 0
-316 -57 326 319 0
-316 351 -68 -75 0
-316 351 -68 319 0
-316 351 326 -75 0
-316 351 326 319 0
-317 -5 -7 -10 0
-317 -5 -7 118 0
-317 -5 121 -10 0
-317 -5 121 118 0
-317 132 -7 -10 0
-317 132 -7 118 0
-317 132 121 -10 0
-317 132 121 118 0
-317 -16 -18 -21 0
-317 -16 -18 173 0
-317 -16 176 -21 0
-317 -16 176 173 0
-317 187 -18 -21 0
-317 187 -18 173 0
-317 187 176 -21 0
-317 187 176 173 0
-317 -26 -28 -31 0
-317 -26 -28 218 0
-317 -26 221 -31 0
-317 -26 221 218 0
-317 232 -28 -31 0
-317 232 -28 218 0
-317 232 221 -31 0
-317 232 221 218 0
-317 -35 -37 -40 0
-317 -35 -37 254 0
-317 -35 257 -40 0
-317 -35 257 254 0
-317 268 -37 -40 0
-317 268 -37 254 0
-317 268 257 -40 0
-317 268 257 254 0
-317 -43 -45 -48 0
-317 -43 -45 282 0
-317 -43 285 -48 0
-317 -43 285 282 0
-317 296 -45 -48 0
-317 296 -45 282 0
-317 296 285 -48 0
-317 296 285 282 0
-317 -51 -58 -61 0
-317 -51 -58 309 0
-317 -51 312 -61 0
-317 -51 312 309 0
-317 332 -58 -61 0
-317 332 -58 309 0
-317 332 312 -61 0
-317 332 312 309 0
-317 -53 -64 -70 0
-317 -53 -64 315 0
-317 -53 321 -70 0
-317 -53 321 315 0
-317 346 -64 -70 0
-317 346 -64 315 0
-317 346 321 -70 0
-317 346 321 315 0
-317 -54 -65 -73 0
-317 -54 -65 316 0
-317 -54 324 -73 0
-317 -54 324 316 0
-317 349 -65 -73 0
-317 349 -65 316 0
-317 349 324 -73 0
-317 349 324 316 0
-317 -56 -67 -76 0
-317 -56 -67 318 0
-317 -56 327 -76 0
-317 -56 327 318 0
-317 352 -67 -76 0
-317 352 -67 318 0
-317 352 327 -76 0
-317 352 327 318 0
-317 -57 -68 -77 0
-317 -57 -68 319 0
-317 -57 328 -77 0
-317 -57 328 319 0
-317 353 -68 -77 0
-317 353 -68 319 0
-317 353 328 -77 0
-317 353 328 319 0
-318 -5 -7 -11 0
-318 -5 -7 118 0
-318 -5 122 -11 0
-318 -5 122 118 0
-318 133 -7 -11 0
-318 133 -7 118 0
-318 133 122 -11 0
-318 133 122 118 0
-318 -16 -18 -22 0
-318 -16 -18 173 0
-318 -16 177 -22 0
-318 -16 177 173 0
-318 188 -18 -22 0
-318 188 -18 173 0
-318 188 177 -22 0
-318 188 177 173 0
-318 -26 -28 -32 0
-318 -26 -28 218 0
-318 -26 222 -32 0
-318 -26 222 218 0
-318 233 -28 -32 0
-318 233 -28 218 0
-318 233 222 -32 0
-318 233 222 218 0
-318 -35 -37 -41 0
-318 -35 -37 254 0
-318 -35 258 -41 0
-318 -35 258 254 0
-318 269 -37 -41 0
-318 269 -37 254 0
-318 269 258 -41 0
-318 269 258 254 0
-318 -43 -45 -49 0
-318 -43 -45 282 0
-318 -43 286 -49 0
-318 -43 286 282 0
-318 297 -45 -49 0
-318 297 -45 282 0
-318 297 286 -49 0
-318 297 286 282 0
-318 -51 -58 -62 0
-318 -51 -58 309 0
-318 -51 313 -62 0
-318 -51 313 309 0
-318 333 -58 -62 0
-318 333 -58 309 0
-318 333 313 -62 0
-318 333 313 309 0
-318 -53 -64 -71 0
-318 -53 -64 315 0
-318 -53 322 -71 0
-318 -53 322 315 0
-318 347 -64 -71 0
-318 347 -64 315 0
-318 347 322 -71 0
-318 347 322 315 0
-318 -54 -65 -74 0
-318 -54 -65 316 0
-318 -54 325 -74 0
-318 -54 325 316 0
-318 350 -65 -74 0
-318 350 -65 316 0
-318 350 325 -74 0
-318 350 325 316 0
-318 -55 -66 -76 0
-318 -55 -66 317 0
-318 -55 327 -76 0
-318 -55 327 317 0
-318 352 -66 -76 0
-318 352 -66 317 0
-318 352 327 -76 0
-318 352 327 317 0
-318 -57 -68 -78 0
-318 -57 -68 319 0
-318 -57 329 -78 0
-318 -57 329 319 0
-318 354 -68 -78 0
-318 354 -68 319 0
-318 354 329 -78 0
-318 354 329 319 0
-319 -5 -7 -12 0
-319 -5 -7 118 0
-319 -5 123 -12 0
-319 -5 123 118 0
-319 134 -7 -12 0
-319 134 -7 118 0
-319 134 123 -12 0
-319 134 123 118 0
-319 -16 -18 -23 0
-319 -16 -18 173 0
-319 -16 178 -23 0
-319 -16 178 173 0
-319 189 -18 -23 0
-319 189 -18 173 0
-319 189 178 -23 0
-319 189 178 173 0
-319 -26 -28 -33 0
-319 -26 -28 218 0
-319 -26 223 -33 0
-319 -26 223 218 0
-319 234 -28 -33 0
-319 234 -28 218 0
-319 234 223 -33 0
-319 234 223 218 0
-319 -35 -37 -42 0
-319 -35 -37 254 0
-319 -35 259 -42 0
-319 -35 259 254 0
-319 270 -37 -42 0
-319 270 -37 254 0
-319 270 259 -42 0
-319 270 259 254 0
-319 -43 -45 -50 0
-319 -43 -45 282 0
-319 -43 287 -50 0
-319 -43 287 282 0
-319 298 -45 -50 0
-319 298 -45 282 0
-319 298 287 -50 0
-319 298 287 282 0
-319 -51 -58 -63 0
-319 -51 -58 309 0
-319 -51 314 -63 0
-319 -51 314 309 0
-319 334 -58 -63 0
-319 334 -58 309 0
-319 334 314 -63 0
-319 334 314 309 0
-319 -53 -64 -72 0
-319 -53 -64 315 0
-319 -53 323 -72 0
-319 -53 323 315 0
-319 348 -64 -72 0
-319 348 -64 315 0
-319 348 323 -72 0
-319 348 323 315 0
-319 -54 -65 -75 0
-319 -54 -65 316 0
-319 -54 326 -75 0
-319 -54 326 316 0
-319 351 -65 -75 0
-319 351 -65 316 0
-319 351 326 -75 0
-319 351 326 316 0
-319 -55 -66 -77 0
-319 -55 -66 317 0
-319 -55 328 -77 0
-319 -55 328 317 0
-319 353 -66 -77 0
-319 353 -66 317 0
-319 353 328 -77 0
-319 353 328 317 0
-319 -56 -67 -78 0
-319 -56 -67 318 0
-319 -56 329 -78 0
-319 -56 329 318 0
-319 354 -67 -78 0
-319 354 -67 318 0
-319 354 329 -78 0
-319 354 329 318 0
-320 -5 -8 -9 0
-320 -5 -8 119 0
-320 -5 120 -9 0
-320 -5 120 119 0
-320 135 -8 -9 0
-320 135 -8 119 0
-320 135 120 -9 0
-320 135 120 119 0
-320 -16 -19 -20 0
-320 -16 -19 174 0
-320 -16 175 -20 0
-320 -16 175 174 0
-320 190 -19 -20 0
-320 190 -19 174 0
-320 190 175 -20 0
-320 190 175 174 0
-320 -26 -29 -30 0
-320 -26 -29 219 0
-320 -26 220 -30 0
-320 -26 220 219 0
-320 235 -29 -30 0
-320 235 -29 219 0
-320 235 220 -30 0
-320 235 220 219 0
-320 -35 -38 -39 0
-320 -35 -38 255 0
-320 -35 256 -39 0
-320 -35 256 255 0
-320 271 -38 -39 0
-320 271 -38 255 0
-320 271 256 -39 0
-320 271 256 255 0
-320 -43 -46 -47 0
-320 -43 -46 283 0
-320 -43 284 -47 0
-320 -43 284 283 0
-320 299 -46 -47 0
-320 299 -46 283 0
-320 299 284 -47 0
-320 299 284 283 0
-320 -51 -59 -60 0
-320 -51 -59 310 0
-320 -51 311 -60 0
-320 -51 311 310 0
-320 335 -59 -60 0
-320 335 -59 310 0
-320 335 311 -60 0
-320 335 311 310 0
-320 -52 -64 -65 0
-320 -52 -64 315 0
-320 -52 316 -65 0
-320 -52 316 315 0
-320 345 -64 -65 0
-320 345 -64 315 0
-320 345 316 -65 0
-320 345 316 315 0
-320 -55 -70 -73 0
-320 -55 -70 321 0
-320 -55 324 -73 0
-320 -55 324 321 0
-320 355 -70 -73 0
-320 355 -70 321 0
-320 355 324 -73 0
-320 355 324 321 0
-320 -56 -71 -74 0
-320 -56 -71 322 0
-320 -56 325 -74 0
-320 -56 325 322 0
-320 356 -71 -74 0
-320 356 -71 322 0
-320 356 325 -74 0
-320 356 325 322 0
-320 -57 -72 -75 0
-320 -57 -72 323 0
-320 -57 326 -75 0
-320 -57 326 323 0
-320 357 -72 -75 0
-320 357 -72 323 0
-320 357 326 -75 0
-320 357 326 323 0
-321 -5 -8 -10 0
-321 -5 -8 119 0
-321 -5 121 -10 0
-321 -5 121 119 0
-321 136 -8 -10 0
-321 136 -8 119 0
-321 136 121 -10 0
-321 136 121 119 0
-321 -16 -19 -21 0
-321 -16 -19 174 0
-321 -16 176 -21 0
-321 -16 176 174 0
-321 191 -19 -21 0
-321 191 -19 174 0
-321 191 176 -21 0
-321 191 176 174 0
-321 -26 -29 -31 0
-321 -26 -29 219 0
-321 -26 221 -31 0
-321 -26 221 219 0
-321 236 -29 -31 0
-321 236 -29 219 0
-321 236 221 -31 0
-321 236 221 219 0
-321 -35 -38 -40 0
-321 -35 -38 255 0
-321 -35 257 -40 0
-321 -35 257 255 0
-321 272 -38 -40 0
-321 272 -38 255 0
-321 272 257 -40 0
-321 272 257 255 0
-321 -43 -46 -48 0
-321 -43 -46 283 0
-321 -43 285 -48 0
-321 -43 285 283 0
-321 300 -46 -48 0
-321 300 -46 283 0
-321 300 285 -48 0
-321 300 285 283 0
-321 -51 -59 -61 0
-321 -51 -59 310 0
-321 -51 312 -61 0
-321 -51 312 310 0
-321 336 -59 -61 0
-321 336 -59 310 0
-321 336 312 -61 0
-321 336 312 310 0
-321 -52 -64 -66 0
-321 -52 -64 315 0
-321 -52 317 -66 0
-321 -52 317 315 0
-321 346 -64 -66 0
-321 346 -64 315 0
-321 346 317 -66 0
-321 346 317 315 0
-321 -54 -69 -73 0
-321 -54 -69 320 0
-321 -54 324 -73 0
-321 -54 324 320 0
-321 355 -69 -73 0
-321 355 -69 320 0
-321 355 324 -73 0
-321 355 324 320 0
-321 -56 -71 -76 0
-321 -56 -71 322 0
-321 -56 327 -76 0
-321 -56 327 322 0
-321 358 -71 -76 0
-321 358 -71 322 0
-321 358 327 -76 0
-321 358 327 322 0
-321 -57 -72 -77 0
-321 -57 -72 323 0
-321 -57 328 -77 0
-321 -57 328 323 0
-321 359 -72 -77 0
-321 359 -72 323 0
-321 359 328 -77 0
-321 359 328 323 0
-322 -5 -8 -11 0
-322 -5 -8 119 0
-322 -5 122 -11 0
-322 -5 122 119 0
-322 137 -8 -11 0
-322 137 -8 119 0
-322 137 122 -11 0
-322 137 122 119 0
-322 -16 -19 -22 0
-322 -16 -19 174 0
-322 -16 177 -22 0
-322 -16 177 174 0
-322 192 -19 -22 0
-322 192 -19 174 0
-322 192 177 -22 0
-322 192 177 174 0
-322 -26 -29 -32 0
-322 -26 -29 219 0
-322 -26 222 -32 0
-322 -26 222 219 0
-322 237 -29 -32 0
-322 237 -29 219 0
-322 237 222 -32 0
-322 237 222 219 0
-322 -35 -38 -41 0
-322 -35 -38 255 0
-322 -35 258 -41 0
-322 -35 258 255 0
-322 273 -38 -41 0
-322 273 -38 255 0
-322 273 258 -41 0
-322 273 258 255 0
-322 -43 -46 -49 0
-322 -43 -46 283 0
-322 -43 286 -49 0
-322 -43 286 283 0
-322 301 -46 -49 0
-322 301 -46 283 0
-322 301 286 -49 0
-322 301 286 283 0
-322 -51 -59 -62 0
-322 -51 -59 310 0
-322 -51 313 -62 0
-322 -51 313 310 0
-322 337 -59 -62 0
-322 337 -59 310 0
-322 337 313 -62 0
-322 337 313 310 0
-322 -52 -64 -67 0
-322 -52 -64 315 0
-322 -52 318 -67 0
-322 -52 318 315 0
-322 347 -64 -67 0
-322 347 -64 315 0
-322 347 318 -67 0
-322 347 318 315 0
-322 -54 -69 -74 0
-322 -54 -69 320 0
-322 -54 325 -74 0
-322 -54 325 320 0
-322 356 -69 -74 0
-322 356 -69 320 0
-322 356 325 -74 0
-322 356 325 320 0
-322 -55 -70 -76 0
-322 -55 -70 321 0
-322 -55 327 -76 0
-322 -55 327 321 0
-322 358 -70 -76 0
-322 358 -70 321 0
-322 358 327 -76 0
-322 358 327 321 0
-322 -57 -72 -78 0
-322 -57 -72 323 0
-322 -57 329 -78 0
-322 -57 329 323 0
-322 360 -72 -78 0
-322 360 -72 323 0
-322 360 329 -78 0
-322 360 329 323 0
-323 -5 -8 -12 0
-323 -5 -8 119 0
-323 -5 123 -12 0
-323 -5 123 119 0
-323 138 -8 -12 0
-323 138 -8 119 0
-323 138 123 -12 0
-323 138 123 119 0
-323 -16 -19 -23 0
-323 -16 -19 174 0
-323 -16 178 -23 0
-323 -16 178 174 0
-323 193 -19 -23 0
-323 193 -19 174 0
-323 193 178 -23 0
-323 193 178 174 0
-323 -26 -29 -33 0
-323 -26 -29 219 0
-323 -26 223 -33 0
-323 -26 223 219 0
-323 238 -29 -33 0
-323 238 -29 219 0
-323 238 223 -33 0
-323 238 223 219 0
-323 -35 -38 -42 0
-323 -35 -38 255 0
-323 -35 259 -42 0
-323 -35 259 255 0
-323 274 -38 -42 0
-323 274 -38 255 0
-323 274 259 -42 0
-323 274 259 255 0
-323 -43 -46 -50 0
-323 -43 -46 283 0
-323 -43 287 -50 0
-323 -43 287 283 0
-323 302 -46 -50 0
-323 302 -46 283 0
-323 302 287 -50 0
-323 302 287 283 0
-323 -51 -59 -63 0
-323 -51 -59 310 0
-323 -51 314 -63 0
-323 -51 314 310 0
-323 338 -59 -63 0
-323 338 -59 310 0
-323 338 314 -63 0
-323 338 314 310 0
-323 -52 -64 -68 0
-323 -52 -64 315 0
-323 -52 319 -68 0
-323 -52 319 315 0
-323 348 -64 -68 0
-323 348 -64 315 0
-323 348 319 -68 0
-323 348 319 315 0
-323 -54 -69 -75 0
-323 -54 -69 320 0
-323 -54 326 -75 0
-323 -54 326 320 0
-323 357 -69 -75 0
-323 357 -69 320 0
-323 357 326 -75 0
-323 357 326 320 0
-323 -55 -70 -77 0
-323 -55 -70 321 0
-323 -55 328 -77 0
-323 -55 328 321 0
-323 359 -70 -77 0
-323 359 -70 321 0
-323 359 328 -77 0
-323 359 328 321 0
-323 -56 -71 -78 0
-323 -56 -71 322 0
-323 -56 329 -78 0
-323 -56 329 322 0
-323 360 -71 -78 0
-323 360 -71 322 0
-323 360 329 -78 0
-323 360 329 322 0
-324 -5 -9 -10 0
-324 -5 -9 120 0
-324 -5 121 -10 0
-324 -5 121 120 0
-324 139 -9 -10 0
-324 139 -9 120 0
-324 139 121 -10 0
-324 139 121 120 0
-324 -16 -20 -21 0
-324 -16 -20 175 0
-324 -16 176 -21 0
-324 -16 176 175 0
-324 194 -20 -21 0
-324 194 -20 175 0
-324 194 176 -21 0
-324 194 176 175 0
-324 -26 -30 -31 0
-324 -26 -30 220 0
-324 -26 221 -31 0
-324 -26 221 220 0
-324 239 -30 -31 0
-324 239 -30 220 0
-324 239 221 -31 0
-324 239 221 220 0
-324 -35 -39 -40 0
-324 -35 -39 256 0
-324 -35 257 -40 0
-324 -35 257 256 0
-324 275 -39 -40 0
-324 275 -39 256 0
-324 275 257 -40 0
-324 275 257 256 0
-324 -43 -47 -48 0
-324 -43 -47 284 0
-324 -43 285 -48 0
-324 -43 285 284 0
-324 303 -47 -48 0
-324 303 -47 284 0
-324 303 285 -48 0
-324 303 285 284 0
-324 -51 -60 -61 0
-324 -51 -60 311 0
-324 -51 312 -61 0
-324 -51 312 311 0
-324 339 -60 -61 0
-324 339 -60 311 0
-324 339 312 -61 0
-324 339 312 311 0
-324 -52 -65 -66 0
-324 -52 -65 316 0
-324 -52 317 -66 0
-324 -52 317 316 0
-324 349 -65 -66 0
-324 349 -65 316 0
-324 349 317 -66 0
-324 349 317 316 0
-324 -53 -69 -70 0
-324 -53 -69 320 0
-324 -53 321 -70 0
-324 -53 321 320 0
-324 355 -69 -70 0
-324 355 -69 320 0
-324 355 321 -70 0
-324 355 321 320 0
-324 -56 -74 -76 0
-324 -56 -74 325 0
-324 -56 327 -76 0
-324 -56 327 325 0
-324 361 -74 -76 0
-324 361 -74 325 0
-324 361 327 -76 0
-324 361 327 325 0
-324 -57 -75 -77 0
-324 -57 -75 326 0
-324 -57 328 -77 0
-324 -57 328 326 0
-324 362 -75 -77 0
-324 362 -75 326 0
-324 362 328 -77 0
-324 362 328 326 0
-325 -5 -9 -11 0
-325 -5 -9 120 0
-325 -5 122 -11 0
-325 -5 122 120 0
-325 140 -9 -11 0
-325 140 -9 120 0
-325 140 122 -11 0
-325 140 122 120 0
-325 -16 -20 -22 0
-325 -16 -20 175 0
-325 -16 177 -22 0
-325 -16 177 175 0
-325 195 -20 -22 0
-325 195 -20 175 0
-325 195 177 -22 0
-325 195 177 175 0
-325 -26 -30 -32 0
-325 -26 -30 220 0
-325 -26 222 -32 0
-325 -26 222 220 0
-325 240 -30 -32 0
-325 240 -30 220 0
-325 240 222 -32 0
-325 240 222 220 0
-325 -35 -39 -41 0
-325 -35 -39 256 0
-325 -35 258 -41 0
-325 -35 258 256 0
-325 276 -39 -41 0
-325 276 -39 256 0
-325 276 258 -41 0
-325 276 258 256 0
-325 -43 -47 -49 0
-325 -43 -47 284 0
-325 -43 286 -49 0
-325 -43 286 284 0
-325 304 -47 -49 0
-325 304 -47 284 0
-325 304 286 -49 0
-325 304 286 284 0
-325 -51 -60 -62 0
-325 -51 -60 311 0
-325 -51 313 -62 0
-325 -51 313 311 0
-325 340 -60 -62 0
-325 340 -60 311 0
-325 340 313 -62 0
-325 340 313 311 0
-325 -52 -65 -67 0
-325 -52 -65 316 0
-325 -52 318 -67 0
-325 -52 318 316 0
-325 350 -65 -67 0
-325 350 -65 316 0
-325 350 318 -67 0
-325 350 318 316 0
-325 -53 -69 -71 0
-325 -53 -69 320 0
-325 -53 322 -71 0
-325 -53 322 320 0
-325 356 -69 -71 0
-325 356 -69 320 0
-325 356 322 -71 0
-325 356 322 320 0
-325 -55 -73 -76 0
-325 -55 -73 324 0
-325 -55 327 -76 0
-325 -55 327 324 0
-325 361 -73 -76 0
-325 361 -73 324 0
-325 361 327 -76 0
-325 361 327 324 0
-325 -57 -75 -78 0
-325 -57 -75 326 0
-325 -57 329 -78 0
-325 -57 329 326 0
-325 363 -75 -78 0
-325 363 -75 326 0
-325 363 329 -78 0
-325 363 329 326 0
-326 -5 -9 -12 0
-326 -5 -9 120 0
-326 -5 123 -12 0
-326 -5 123 120 0
-326 141 -9 -12 0
-326 141 -9 120 0
-326 141 123 -12 0
-326 141 123 120 0
-326 -16 -20 -23 0
-326 -16 -20 175 0
-326 -16 178 -23 0
-326 -16 178 175 0
-326 196 -20 -23 0
-326 196 -20 175 0
-326 196 178 -23 0
-326 196 178 175 0
-326 -26 -30 -33 0
-326 -26 -30 220 0
-326 -26 223 -33 0
-326 -26 223 220 0
-326 241 -30 -33 0
-326 241 -30 220 0
-326 241 223 -33 0
-326 241 223 220 0
-326 -35 -39 -42 0
-326 -35 -39 256 0
-326 -35 259 -42 0
-326 -35 259 256 0
-326 277 -39 -42 0
-326 277 -39 256 0
-326 277 259 -42 0
-326 277 259 256 0
-326 -43 -47 -50 0
-326 -43 -47 284 0
-326 -43 287 -50 0
-326 -43 287 284 0
-326 305 -47 -50 0
-326 305 -47 284 0
-326 305 287 -50 0
-326 305 287 284 0
-326 -51 -60 -63 0
-326 -51 -60 311 0
-326 -51 314 -63 0
-326 -51 314 311 0
-326 341 -60 -63 0
-326 341 -60 311 0
-326 341 314 -63 0
-326 341 314 311 0
-326 -52 -65 -68 0
-326 -52 -65 316 0
-326 -52 319 -68 0
-326 -52 319 316 0
-326 351 -65 -68 0
-326 351 -65 316 0
-326 351 319 -68 0
-326 351 319 316 0
-326 -53 -69 -72 0
-326 -53 -69 320 0
-326 -53 323 -72 0
-326 -53 323 320 0
-326 357 -69 -72 0
-326 357 -69 320 0
-326 357 323 -72 0
-326 357 323 320 0
-326 -55 -73 -77 0
-326 -55 -73 324 0
-326 -55 328 -77 0
-326 -55 328 324 0
-326 362 -73 -77 0
-326 362 -73 324 0
-326 362 328 -77 0
-326 362 328 324 0
-326 -56 -74 -78 0
-326 -56 -74 325 0
-326 -56 329 -78 0
-326 -56 329 325 0
-326 363 -74 -78 0
-326 363 -74 325 0
-326 363 329 -78 0
-326 363 329 325 0
-327 -5 -10 -11 0
-327 -5 -10 121 0
-327 -5 122 -11 0
-327 -5 122 121 0
-327 142 -10 -11 0
-327 142 -10 121 0
-327 142 122 -11 0
-327 142 122 121 0
-327 -16 -21 -22 0
-327 -16 -21 176 0
-327 -16 177 -22 0
-327 -16 177 176 0
-327 197 -21 -22 0
-327 197 -21 176 0
-327 197 177 -22 0
-327 197 177 176 0
-327 -26 -31 -32 0
-327 -26 -31 221 0
-327 -26 222 -32 0
-327 -26 222 221 0
-327 242 -31 -32 0
-327 242 -31 221 0
-327 242 222 -32 0
-327 242 222 221 0
-327 -35 -40 -41 0
-327 -35 -40 257 0
-327 -35 258 -41 0
-327 -35 258 257 0
-327 278 -40 -41 0
-327 278 -40 257 0
-327 278 258 -41 0
-327 278 258 257 0
-327 -43 -48 -49 0
-327 -43 -48 285 0
-327 -43 286 -49 0
-327 -43 286 285 0
-327 306 -48 -49 0
-327 306 -48 285 0
-327 306 286 -49 0
-327 306 286 285 0
-327 -51 -61 -62 0
-327 -51 -61 312 0
-327 -51 313 -62 0
-327 -51 313 312 0
-327 342 -61 -62 0
-327 342 -61 312 0
-327 342 313 -62 0
-327 342 313 312 0
-327 -52 -66 -67 0
-327 -52 -66 317 0
-327 -52 318 -67 0
-327 -52 318 317 0
-327 352 -66 -67 0
-327 352 -66 317 0
-327 352 318 -67 0
-327 352 318 317 0
-327 -53 -70 -71 0
-327 -53 -70 321 0
-327 -53 322 -71 0
-327 -53 322 321 0
-327 358 -70 -71 0
-327 358 -70 321 0
-327 358 322 -71 0
-327 358 322 321 0
-327 -54 -73 -74 0
-327 -54 -73 324 0
-327 -54 325 -74 0
-327 -54 325 324 0
-327 361 -73 -74 0
-327 361 -73 324 0
-327 361 325 -74 0
-327 361 325 324 0
-327 -57 -77 -78 0
-327 -57 -77 328 0
-327 -57 329 -78 0
-327 -57 329 328 0
-327 364 -77 -78 0
-327 364 -77 328 0
-327 364 329 -78 0
-327 364 329 328 0
-328 -5 -10 -12 0
-328 -5 -10 121 0
-328 -5 123 -12 0
-328 -5 123 121 0
-328 143 -10 -12 0
-328 143 -10 121 0
-328 143 123 -12 0
-328 143 123 121 0
-328 -16 -21 -23 0
-328 -16 -21 176 0
-328 -16 178 -23 0
-328 -16 178 176 0
-328 198 -21 -23 0
-328 198 -21 176 0
-328 198 178 -23 0
-328 198 178 176 0
-328 -26 -31 -33 0
-328 -26 -31 221 0
-328 -26 223 -33 0
-328 -26 223 221 0
-328 243 -31 -33 0
-328 243 -31 221 0
-328 243 223 -33 0
-328 243 223 221 0
-328 -35 -40 -42 0
-328 -35 -40 257 0
-328 -35 259 -42 0
-328 -35 259 257 0
-328 279 -40 -42 0
-328 279 -40 257 0
-328 279 259 -42 0
-328 279 259 257 0
-328 -43 -48 -50 0
-328 -43 -48 285 0
-328 -43 287 -50 0
-328 -43 287 285 0
-328 307 -48 -50 0
-328 307 -48 285 0
-328 307 287 -50 0
-328 307 287 285 0
-328 -51 -61 -63 0
-328 -51 -61 312 0
-328 -51 314 -63 0
-328 -51 314 312 0
-328 343 -61 -63 0
-328 343 -61 312 0
-328 343 314 -63 0
-328 343 314 312 0
-328 -52 -66 -68 0
-328 -52 -66 317 0
-328 -52 319 -68 0
-328 -52 319 317 0
-328 353 -66 -68 0
-328 353 -66 317 0
-328 353 319 -68 0
-328 353 319 317 0
-328 -53 -70 -72 0
-328 -53 -70 321 0
-328 -53 323 -72 0
-328 -53 323 321 0
-328 359 -70 -72 0
-328 359 -70 321 0
-328 359 323 -72 0
-328 359 323 321 0
-328 -54 -73 -75 0
-328 -54 -73 324 0
-328 -54 326 -75 0
-328 -54 326 324 0
-328 362 -73 -75 0
-328 362 -73 324 0
-328 362 326 -75 0
-328 362 326 324 0
-328 -56 -76 -78 0
-328 -56 -76 327 0
-328 -56 329 -78 0
-328 -56 329 327 0
-328 364 -76 -78 0
-328 364 -76 327 0
-328 364 329 -78 0
-328 364 329 327 0
-329 -5 -11 -12 0
-329 -5 -11 122 0
-329 -5 123 -12 0
-329 -5 123 122 0
-329 144 -11 -12 0
-329 144 -11 122 0
-329 144 123 -12 0
-329 144 123 122 0
-329 -16 -22 -23 0
-329 -16 -22 177 0
-329 -16 178 -23 0
-329 -16 178 177 0
-329 199 -22 -23 0
-329 199 -22 177 0
-329 199 178 -23 0
-329 199 178 177 0
-329 -26 -32 -33 0
-329 -26 -32 222 0
-329 -26 223 -33 0
-329 -26 223 222 0
-329 244 -32 -33 0
-329 244 -32 222 0
-329 244 223 -33 0
-329 244 223 222 0
-329 -35 -41 -42 0
-329 -35 -41 258 0
-329 -35 259 -42 0
-329 -35 259 258 0
-329 280 -41 -42 0
-329 280 -41 258 0
-329 280 259 -42 0
-329 280 259 258 0
-329 -43 -49 -50 0
-329 -43 -49 286 0
-329 -43 287 -50 0
-329 -43 287 286 0
-329 308 -49 -50 0
-329 308 -49 286 0
-329 308 287 -50 0
-329 308 287 286 0
-329 -51 -62 -63 0
-329 -51 -62 313 0
-329 -51 314 -63 0
-329 -51 314 313 0
-329 344 -62 -63 0
-329 344 -62 313 0
-329 344 314 -63 0
-329 344 314 313 0
-329 -52 -67 -68 0
-329 -52 -67 318 0
-329 -52 319 -68 0
-329 -52 319 318 0
-329 354 -67 -68 0
-329 354 -67 318 0
-329 354 319 -68 0
-329 354 319 318 0
-329 -53 -71 -72 0
-329 -53 -71 322 0
-329 -53 323 -72 0
-329 -53 323 322 0
-329 360 -71 -72 0
-329 360 -71 322 0
-329 360 323 -72 0
-329 360 323 322 0
-329 -54 -74 -75 0
-329 -54 -74 325 0
-329 -54 326 -75 0
-329 -54 326 325 0
-329 363 -74 -75 0
-329 363 -74 325 0
-329 363 326 -75 0
-329 363 326 325 0
-329 -55 -76 -77 0
-329 -55 -76 327 0
-329 -55 328 -77 0
-329 -55 328 327 0
-329 364 -76 -77 0
-329 364 -76 327 0
-329 364 328 -77 0
-329 364 328 327 0
-330 -6 -7 -8 0
-330 -6 -7 124 0
-330 -6 125 -8 0
-330 -6 125 124 0
-330 130 -7 -8 0
-330 130 -7 124 0
-330 130 125 -8 0
-330 130 125 124 0
-330 -17 -18 -19 0
-330 -17 -18 179 0
-330 -17 180 -19 0
-330 -17 180 179 0
-330 185 -18 -19 0
-330 185 -18 179 0
-330 185 180 -19 0
-330 185 180 179 0
-330 -27 -28 -29 0
-330 -27 -28 224 0
-330 -27 225 -29 0
-330 -27 225 224 0
-330 230 -28 -29 0
-330 230 -28 224 0
-330 230 225 -29 0
-330 230 225 224 0
-330 -36 -37 -38 0
-330 -36 -37 260 0
-330 -36 261 -38 0
-330 -36 261 260 0
-330 266 -37 -38 0
-330 266 -37 260 0
-330 266 261 -38 0
-330 266 261 260 0
-330 -44 -45 -46 0
-330 -44 -45 288 0
-330 -44 289 -46 0
-330 -44 289 288 0
-330 294 -45 -46 0
-330 294 -45 288 0
-330 294 289 -46 0
-330 294 289 288 0
-330 -51 -52 -53 0
-330 -51 -52 309 0
-330 -51 310 -53 0
-330 -51 310 309 0
-330 315 -52 -53 0
-330 315 -52 309 0
-330 315 310 -53 0
-330 315 310 309 0
-330 -60 -65 -69 0
-330 -60 -65 331 0
-330 -60 335 -69 0
-330 -60 335 331 0
-330 345 -65 -69 0
-330 345 -65 331 0
-330 345 335 -69 0
-330 345 335 331 0
-330 -61 -66 -70 0
-330 -61 -66 332 0
-330 -61 336 -70 0
-330 -61 336 332 0
-330 346 -66 -70 0
-330 346 -66 332 0
-330 346 336 -70 0
-330 346 336 332 0
-330 -62 -67 -71 0
-330 -62 -67 333 0
-330 -62 337 -71 0
-330 -62 337 333 0
-330 347 -67 -71 0
-330 347 -67 333 0
-330 347 337 -71 0
-330 347 337 333 0
-330 -63 -68 -72 0
-330 -63 -68 334 0
-330 -63 338 -72 0
-330 -63 338 334 0
-330 348 -68 -72 0
-330 348 -68 334 0
-330 348 338 -72 0
-330 348 338 334 0
-331 -6 -7 -9 0
-331 -6 -7 124 0
-331 -6 126 -9 0
-331 -6 126 124 0
-331 131 -7 -9 0
-331 131 -7 124 0
-331 131 126 -9 0
-331 131 126 124 0
-331 -17 -18 -20 0
-331 -17 -18 179 0
-331 -17 181 -20 0
-331 -17 181 179 0
-331 186 -18 -20 0
-331 186 -18 179 0
-331 186 181 -20 0
-331 186 181 179 0
-331 -27 -28 -30 0
-331 -27 -28 224 0
-331 -27 226 -30 0
-331 -27 226 224 0
-331 231 -28 -30 0
-331 231 -28 224 0
-331 231 226 -30 0
-331 231 226 224 0
-331 -36 -37 -39 0
-331 -36 -37 260 0
-331 -36 262 -39 0
-331 -36 262 260 0
-331 267 -37 -39 0
-331 267 -37 260 0
-331 267 262 -39 0
-331 267 262 260 0
-331 -44 -45 -47 0
-331 -44 -45 288 0
-331 -44 290 -47 0
-331 -44 290 288 0
-331 295 -45 -47 0
-331 295 -45 288 0
-331 295 290 -47 0
-331 295 290 288 0
-331 -51 -52 -54 0
-331 -51 -52 309 0
-331 -51 311 -54 0
-331 -51 311 309 0
-331 316 -52 -54 0
-331 316 -52 309 0
-331 316 311 -54 0
-331 316 311 309 0
-331 -59 -64 -69 0
-331 -59 -64 330 0
-331 -59 335 -69 0
-331 -59 335 330 0
-331 345 -64 -69 0
-331 345 -64 330 0
-331 345 335 -69 0
-331 345 335 330 0
-331 -61 -66 -73 0
-331 -61 -66 332 0
-331 -61 339 -73 0
-331 -61 339 332 0
-331 349 -66 -73 0
-331 349 -66 332 0
-331 349 339 -73 0
-331 349 339 332 0
-331 -62 -67 -74 0
-331 -62 -67 333 0
-331 -62 340 -74 0
-331 -62 340 333 0
-331 350 -67 -74 0
-331 350 -67 333 0
-331 350 340 -74 0
-331 350 340 333 0
-331 -63 -68 -75 0
-331 -63 -68 334 0
-331 -63 341 -75 0
-331 -63 341 334 0
-331 351 -68 -75 0
-331 351 -68 334 0
-331 351 341 -75 0
-331 351 341 334 0
-332 -6 -7 -10 0
-332 -6 -7 124 0
-332 -6 127 -10 0
-332 -6 127 124 0
-332 132 -7 -10 0
-332 132 -7 124 0
-332 132 127 -10 0
-332 132 127 124 0
-332 -17 -18 -21 0
-332 -17 -18 179 0
-332 -17 182 -21 0
-332 -17 182 179 0
-332 187 -18 -21 0
-332 187 -18 179 0
-332 187 182 -21 0
-332 187 182 179 0
-332 -27 -28 -31 0
-332 -27 -28 224 0
-332 -27 227 -31 0
-332 -27 227 224 0
-332 232 -28 -31 0
-332 232 -28 224 0
-332 232 227 -31 0
-332 232 227 224 0
-332 -36 -37 -40 0
-332 -36 -37 260 0
-332 -36 263 -40 0
-332 -36 263 260 0
-332 268 -37 -40 0
-332 268 -37 260 0
-332 268 263 -40 0
-332 268 263 260 0
-332 -44 -45 -48 0
-332 -44 -45 288 0
-332 -44 291 -48 0
-332 -44 291 288 0
-332 296 -45 -48 0
-332 296 -45 288 0
-332 296 291 -48 0
-332 296 291 288 0
-332 -51 -52 -55 0
-332 -51 -52 309 0
-332 -51 312 -55 0
-332 -51 312 309 0
-332 317 -52 -55 0
-332 317 -52 309 0
-332 317 312 -55 0
-332 317 312 309 0
-332 -59 -64 -70 0
-332 -59 -64 330 0
-332 -59 336 -70 0
-332 -59 336 330 0
-332 346 -64 -70 0
-332 346 -64 330 0
-332 346 336 -70 0
-332 346 336 330 0
-332 -60 -65 -73 0
-332 -60 -65 331 0
-332 -60 339 -73 0
-332 -60 339 331 0
-332 349 -65 -73 0
-332 349 -65 331 0
-332 349 339 -73 0
-332 349 339 331 0
-332 -62 -67 -76 0
-332 -62 -67 333 0
-332 -62 342 -76 0
-332 -62 342 333 0
-332 352 -67 -76 0
-332 352 -67 333 0
-332 352 342 -76 0
-332 352 342 333 0
-332 -63 -68 -77 0
-332 -63 -68 334 0
-332 -63 343 -77 0
-332 -63 343 334 0
-332 353 -68 -77 0
-332 353 -68 334 0
-332 353 343 -77 0
-332 353 343 334 0
-333 -6 -7 -11 0
-333 -6 -7 124 0
-333 -6 128 -11 0
-333 -6 128 124 0
-333 133 -7 -11 0
-333 133 -7 124 0
-333 133 128 -11 0
-333 133 128 124 0
-333 -17 -18 -22 0
-333 -17 -18 179 0
-333 -17 183 -22 0
-333 -17 183 179 0
-333 188 -18 -22 0
-333 188 -18 179 0
-333 188 183 -22 0
-333 188 183 179 0
-333 -27 -28 -32 0
-333 -27 -28 224 0
-333 -27 228 -32 0
-333 -27 228 224 0
-333 233 -28 -32 0
-333 233 -28 224 0
-333 233 228 -32 0
-333 233 228 224 0
-333 -36 -37 -41 0
-333 -36 -37 260 0
-333 -36 264 -41 0
-333 -36 264 260 0
-333 269 -37 -41 0
-333 269 -37 260 0
-333 269 264 -41 0
-333 269 264 260 0
-333 -44 -45 -49 0
-333 -44 -45 288 0
-333 -44 292 -49 0
-333 -44 292 288 0
-333 297 -45 -49 0
-333 297 -45 288 0
-333 297 292 -49 0
-333 297 292 288 0
-333 -51 -52 -56 0
-333 -51 -52 309 0
-333 -51 313 -56 0
-333 -51 313 309 0
-333 318 -52 -56 0
-333 318 -52 309 0
-333 318 313 -56 0
-333 318 313 309 0
-333 -59 -64 -71 0
-333 -59 -64 330 0
-333 -59 337 -71 0
-333 -59 337 330 0
-333 347 -64 -71 0
-333 347 -64 330 0
-333 347 337 -71 0
-333 347 337 330 0
-333 -60 -65 -74 0
-333 -60 -65 331 0
-333 -60 340 -74 0
-333 -60 340 331 0
-333 350 -65 -74 0
-333 350 -65 331 0
-333 350 340 -74 0
-333 350 340 331 0
-333 -61 -66 -76 0
-333 -61 -66 332 0
-333 -61 342 -76 0
-333 -61 342 332 0
-333 352 -66 -76 0
-333 352 -66 332 0
-333 352 342 -76 0
-333 352 342 332 0
-333 -63 -68 -78 0
-333 -63 -68 334 0
-333 -63 344 -78 0
-333 -63 344 334 0
-333 354 -68 -78 0
-333 354 -68 334 0
-333 354 344 -78 0
-333 354 344 334 0
-334 -6 -7 -12 0
-334 -6 -7 124 0
-334 -6 129 -12 0
-334 -6 129 124 0
-334 134 -7 -12 0
-334 134 -7 124 0
-334 134 129 -12 0
-334 134 129 124 0
-334 -17 -18 -23 0
-334 -17 -18 179 0
-334 -17 184 -23 0
-334 -17 184 179 0
-334 189 -18 -23 0
-334 189 -18 179 0
-334 189 184 -23 0
-334 189 184 179 0
-334 -27 -28 -33 0
-334 -27 -28 224 0
-334 -27 229 -33 0
-334 -27 229 224 0
-334 234 -28 -33 0
-334 234 -28 224 0
-334 234 229 -33 0
-334 234 229 224 0
-334 -36 -37 -42 0
-334 -36 -37 260 0
-334 -36 265 -42 0
-334 -36 265 260 0
-334 270 -37 -42 0
-334 270 -37 260 0
-334 270 265 -42 0
-334 270 265 260 0
-334 -44 -45 -50 0
-334 -44 -45 288 0
-334 -44 293 -50 0
-334 -44 293 288 0
-334 298 -45 -50 0
-334 298 -45 288 0
-334 298 293 -50 0
-334 298 293 288 0
-334 -51 -52 -57 0
-334 -51 -52 309 0
-334 -51 314 -57 0
-334 -51 314 309 0
-334 319 -52 -57 0
-334 319 -52 309 0
-334 319 314 -57 0
-334 319 314 309 0
-334 -59 -64 -72 0
-334 -59 -64 330 0
-334 -59 338 -72 0
-334 -59 338 330 0
-334 348 -64 -72 0
-334 348 -64 330 0
-334 348 338 -72 0
-334 348 338 330 0
-334 -60 -65 -75 0
-334 -60 -65 331 0
-334 -60 341 -75 0
-334 -60 341 331 0
-334 351 -65 -75 0
-334 351 -65 331 0
-334 351 341 -75 0
-334 351 341 331 0
-334 -61 -66 -77 0
-334 -61 -66 332 0
-334 -61 343 -77 0
-334 -61 343 332 0
-334 353 -66 -77 0
-334 353 -66 332 0
-334 353 343 -77 0
-334 353 343 332 0
-334 -62 -67 -78 0
-334 -62 -67 333 0
-334 -62 344 -78 0
-334 -62 344 333 0
-334 354 -67 -78 0
-334 354 -67 333 0
-334 354 344 -78 0
-334 354 344 333 0
-335 -6 -8 -9 0
-335 -6 -8 125 0
-335 -6 126 -9 0
-335 -6 126 125 0
-335 135 -8 -9 0
-335 135 -8 125 0
-335 135 126 -9 0
-335 135 126 125 0
-335 -17 -19 -20 0
-335 -17 -19 180 0
-335 -17 181 -20 0
-335 -17 181 180 0
-335 190 -19 -20 0
-335 190 -19 180 0
-335 190 181 -20 0
-335 190 181 180 0
-335 -27 -29 -30 0
-335 -27 -29 225 0
-335 -27 226 -30 0
-335 -27 226 225 0
-335 235 -29 -30 0
-335 235 -29 225 0
-335 235 226 -30 0
-335 235 226 225 0
-335 -36 -38 -39 0
-335 -36 -38 261 0
-335 -36 262 -39 0
-335 -36 262 261 0
-335 271 -38 -39 0
-335 271 -38 261 0
-335 271 262 -39 0
-335 271 262 261 0
-335 -44 -46 -47 0
-335 -44 -46 289 0
-335 -44 290 -47 0
-335 -44 290 289 0
-335 299 -46 -47 0
-335 299 -46 289 0
-335 299 290 -47 0
-335 299 290 289 0
-335 -51 -53 -54 0
-335 -51 -53 310 0
-335 -51 311 -54 0
-335 -51 311 310 0
-335 320 -53 -54 0
-335 320 -53 310 0
-335 320 311 -54 0
-335 320 311 310 0
-335 -58 -64 -65 0
-335 -58 -64 330 0
-335 -58 331 -65 0
-335 -58 331 330 0
-335 345 -64 -65 0
-335 345 -64 330 0
-335 345 331 -65 0
-335 345 331 330 0
-335 -61 -70 -73 0
-335 -61 -70 336 0
-335 -61 339 -73 0
-335 -61 339 336 0
-335 355 -70 -73 0
-335 355 -70 336 0
-335 355 339 -73 0
-335 355 339 336 0
-335 -62 -71 -74 0
-335 -62 -71 337 0
-335 -62 340 -74 0
-335 -62 340 337 0
-335 356 -71 -74 0
-335 356 -71 337 0
-335 356 340 -74 0
-335 356 340 337 0
-335 -63 -72 -75 0
-335 -63 -72 338 0
-335 -63 341 -75 0
-335 -63 341 338 0
-335 357 -72 -75 0
-335 357 -72 338 0
-335 357 341 -75 0
-335 357 341 338 0
-336 -6 -8 -10 0
-336 -6 -8 125 0
-336 -6 127 -10 0
-336 -6 127 125 0
-336 136 -8 -10 0
-336 136 -8 125 0
-336 136 127 -10 0
-336 136 127 125 0
-336 -17 -19 -21 0
-336 -17 -19 180 0
-336 -17 182 -21 0
-336 -17 182 180 0
-336 191 -19 -21 0
-336 191 -19 180 0
-336 191 182 -21 0
-336 191 182 180 0
-336 -27 -29 -31 0
-336 -27 -29 225 0
-336 -27 227 -31 0
-336 -27 227 225 0
-336 236 -29 -31 0
-336 236 -29 225 0
-336 236 227 -31 0
-336 236 227 225 0
-336 -36 -38 -40 0
-336 -36 -38 261 0
-336 -36 263 -40 0
-336 -36 263 261 0
-336 272 -38 -40 0
-336 272 -38 261 0
-336 272 263 -40 0
-336 272 263 261 0
-336 -44 -46 -48 0
-336 -44 -46 289 0
-336 -44 291 -48 0
-336 -44 291 289 0
-336 300 -46 -48 0
-336 300 -46 289 0
-336 300 291 -48 0
-336 300 291 289 0
-336 -51 -53 -55 0
-336 -51 -53 310 0
-336 -51 312 -55 0
-336 -51 312 310 0
-336 321 -53 -55 0
-336 321 -53 310 0
-336 321 312 -55 0
-336 321 312 310 0
-336 -58 -64 -66 0
-336 -58 -64 330 0
-336 -58 332 -66 0
-336 -58 332 330 0
-336 346 -64 -66 0
-336 346 -64 330 0
-336 346 332 -66 0
-336 346 332 330 0
-336 -60 -69 -73 0
-336 -60 -69 335 0
-336 -60 339 -73 0
-336 -60 339 335 0
-336 355 -69 -73 0
-336 355 -69 335 0
-336 355 339 -73 0
-336 355 339 335 0
-336 -62 -71 -76 0
-336 -62 -71 337 0
-336 -62 342 -76 0
-336 -62 342 337 0
-336 358 -71 -76 0
-336 358 -71 337 0
-336 358 342 -76 0
-336 358 342 337 0
-336 -63 -72 -77 0
-336 -63 -72 338 0
-336 -63 343 -77 0
-336 -63 343 338 0
-336 359 -72 -77 0
-336 359 -72 338 0
-336 359 343 -77 0
-336 359 343 338 0
-337 -6 -8 -11 0
-337 -6 -8 125 0
-337 -6 128 -11 0
-337 -6 128 125 0
-337 137 -8 -11 0
-337 137 -8 125 0
-337 137 128 -11 0
-337 137 128 125 0
-337 -17 -19 -22 0
-337 -17 -19 180 0
-337 -17 183 -22 0
-337 -17 183 180 0
-337 192 -19 -22 0
-337 192 -19 180 0
-337 192 183 -22 0
-337 192 183 180 0
-337 -27 -29 -32 0
-337 -27 -29 225 0
-337 -27 228 -32 0
-337 -27 228 225 0
-337 237 -29 -32 0
-337 237 -29 225 0
-337 237 228 -32 0
-337 237 228 225 0
-337 -36 -38 -41 0
-337 -36 -38 261 0
-337 -36 264 -41 0
-337 -36 264 261 0
-337 273 -38 -41 0
-337 273 -38 261 0
-337 273 264 -41 0
-337 273 264 261 0
-337 -44 -46 -49 0
-337 -44 -46 289 0
-337 -44 292 -49 0
-337 -44 292 289 0
-337 301 -46 -49 0
-337 301 -46 289 0
-337 301 292 -49 0
-337 301 292 289 0
-337 -51 -53 -56 0
-337 -51 -53 310 0
-337 -51 313 -56 0
-337 -51 313 310 0
-337 322 -53 -56 0
-337 322 -53 310 0
-337 322 313 -56 0
-337 322 313 310 0
-337 -58 -64 -67 0
-337 -58 -64 330 0
-337 -58 333 -67 0
-337 -58 333 330 0
-337 347 -64 -67 0
-337 347 -64 330 0
-337 347 333 -67 0
-337 347 333 330 0
-337 -60 -69 -74 0
-337 -60 -69 335 0
-337 -60 340 -74 0
-337 -60 340 335 0
-337 356 -69 -74 0
-337 356 -69 335 0
-337 356 340 -74 0
-337 356 340 335 0
-337 -61 -70 -76 0
-337 -61 -70 336 0
-337 -61 342 -76 0
-337 -61 342 336 0
-337 358 -70 -76 0
-337 358 -70 336 0
-337 358 342 -76 0
-337 358 342 336 0
-337 -63 -72 -78 0
-337 -63 -72 338 0
-337 -63 344 -78 0
-337 -63 344 338 0
-337 360 -72 -78 0
-337 360 -72 338 0
-337 360 344 -78 0
-337 360 344 338 0
-338 -6 -8 -12 0
-338 -6 -8 125 0
-338 -6 129 -12 0
-338 -6 129 125 0
-338 138 -8 -12 0
-338 138 -8 125 0
-338 138 129 -12 0
-338 138 129 125 0
-338 -17 -19 -23 0
-338 -17 -19 180 0
-338 -17 184 -23 0
-338 -17 184 180 0
-338 193 -19 -23 0
-338 193 -19 180 0
-338 193 184 -23 0
-338 193 184 180 0
-338 -27 -29 -33 0
-338 -27 -29 225 0
-338 -27 229 -33 0
-338 -27 229 225 0
-338 238 -29 -33 0
-338 238 -29 225 0
-338 238 229 -33 0
-338 238 229 225 0
-338 -36 -38 -42 0
-338 -36 -38 261 0
-338 -36 265 -42 0
-338 -36 265 261 0
-338 274 -38 -42 0
-338 274 -38 261 0
-338 274 265 -42 0
-338 274 265 261 0
-338 -44 -46 -50 0
-338 -44 -46 289 0
-338 -44 293 -50 0
-338 -44 293 289 0
-338 302 -46 -50 0
-338 302 -46 289 0
-338 302 293 -50 0
-338 302 293 289 0
-338 -51 -53 -57 0
-338 -51 -53 310 0
-338 -51 314 -57 0
-338 -51 314 310 0
-338 323 -53 -57 0
-338 323 -53 310 0
-338 323 314 -57 0
-338 323 314 310 0
-338 -58 -64 -68 0
-338 -58 -64 330 0
-338 -58 334 -68 0
-338 -58 334 330 0
-338 348 -64 -68 0
-338 348 -64 330 0
-338 348 334 -68 0
-338 348 334 330 0
-338 -60 -69 -75 0
-338 -60 -69 335 0
-338 -60 341 -75 0
-338 -60 341 335 0
-338 357 -69 -75 0
-338 357 -69 335 0
-338 357 341 -75 0
-338 357 341 335 0
-338 -61 -70 -77 0
-338 -61 -70 336 0
-338 -61 343 -77 0
-338 -61 343 336 0
-338 359 -70 -77 0
-338 359 -70 336 0
-338 359 343 -77 0
-338 359 343 336 0
-338 -62 -71 -78 0
-338 -62 -71 337 0
-338 -62 344 -78 0
-338 -62 344 337 0
-338 360 -71 -78 0
-338 360 -71 337 0
-338 360 344 -78 0
-338 360 344 337 0
-339 -6 -9 -10 0
-339 -6 -9 126 0
-339 -6 127 -10 0
-339 -6 127 126 0
-339 139 -9 -10 0
-339 139 -9 126 0
-339 139 127 -10 0
-339 139 127 126 0
-339 -17 -20 -21 0
-339 -17 -20 181 0
-339 -17 182 -21 0
-339 -17 182 181 0
-339 194 -20 -21 0
-339 194 -20 181 0
-339 194 182 -21 0
-339 194 182 181 0
-339 -27 -30 -31 0
-339 -27 -30 226 0
-339 -27 227 -31 0
-339 -27 227 226 0
-339 239 -30 -31 0
-339 239 -30 226 0
-339 239 227 -31 0
-339 239 227 226 0
-339 -36 -39 -40 0
-339 -36 -39 262 0
-339 -36 263 -40 0
-339 -36 263 262 0
-339 275 -39 -40 0
-339 275 -39 262 0
-339 275 263 -40 0
-339 275 263 262 0
-339 -44 -47 -48 0
-339 -44 -47 290 0
-339 -44 291 -48 0
-339 -44 291 290 0
-339 303 -47 -48 0
-339 303 -47 290 0
-339 303 291 -48 0
-339 303 291 290 0
-339 -51 -54 -55 0
-339 -51 -54 311 0
-339 -51 312 -55 0
-339 -51 312 311 0
-339 324 -54 -55 0
-339 324 -54 311 0
-339 324 312 -55 0
-339 324 312 311 0
-339 -58 -65 -66 0
-339 -58 -65 331 0
-339 -58 332 -66 0
-339 -58 332 331 0
-339 349 -65 -66 0
-339 349 -65 331 0
-339 349 332 -66 0
-339 349 332 331 0
-339 -59 -69 -70 0
-339 -59 -69 335 0
-339 -59 336 -70 0
-339 -59 336 335 0
-339 355 -69 -70 0
-339 355 -69 335 0
-339 355 336 -70 0
-339 355 336 335 0
-339 -62 -74 -76 0
-339 -62 -74 340 0
-339 -62 342 -76 0
-339 -62 342 340 0
-339 361 -74 -76 0
-339 361 -74 340 0
-339 361 342 -76 0
-339 361 342 340 0
-339 -63 -75 -77 0
-339 -63 -75 341 0
-339 -63 343 -77 0
-339 -63 343 341 0
-339 362 -75 -77 0
-339 362 -75 341 0
-339 362 343 -77 0
-339 362 343 341 0
-340 -6 -9 -11 0
-340 -6 -9 126 0
-340 -6 128 -11 0
-340 -6 128 126 0
-340 140 -9 -11 0
-340 140 -9 126 0
-340 140 128 -11 0
-340 140 128 126 0
-340 -17 -20 -22 0
-340 -17 -20 181 0
-340 -17 183 -22 0
-340 -17 183 181 0
-340 195 -20 -22 0
-340 195 -20 181 0
-340 195 183 -22 0
-340 195 183 181 0
-340 -27 -30 -32 0
-340 -27 -30 226 0
-340 -27 228 -32 0
-340 -27 228 226 0
-340 240 -30 -32 0
-340 240 -30 226 0
-340 240 228 -32 0
-340 240 228 226 0
-340 -36 -39 -41 0
-340 -36 -39 262 0
-340 -36 264 -41 0
-340 -36 264 262 0
-340 276 -39 -41 0
-340 276 -39 262 0
-340 276 264 -41 0
-340 276 264 262 0
-340 -44 -47 -49 0
-340 -44 -47 290 0
-340 -44 292 -49 0
-340 -44 292 290 0
-340 304 -47 -49 0
-340 304 -47 290 0
-340 304 292 -49 0
-340 304 292 290 0
-340 -51 -54 -56 0
-340 -51 -54 311 0
-340 -51 313 -56 0
-340 -51 313 311 0
-340 325 -54 -56 0
-340 325 -54 311 0
-340 325 313 -56 0
-340 325 313 311 0
-340 -58 -65 -67 0
-340 -58 -65 331 0
-340 -58 333 -67 0
-340 -58 333 331 0
-340 350 -65 -67 0
-340 350 -65 331 0
-340 350 333 -67 0
-340 350 333 331 0
-340 -59 -69 -71 0
-340 -59 -69 335 0
-340 -59 337 -71 0
-340 -59 337 335 0
-340 356 -69 -71 0
-340 356 -69 335 0
-340 356 337 -71 0
-340 356 337 335 0
-340 -61 -73 -76 0
-340 -61 -73 339 0
-340 -61 342 -76 0
-340 -61 342 339 0
-340 361 -73 -76 0
-340 361 -73 339 0
-340 361 342 -76 0
-340 361 342 339 0
-340 -63 -75 -78 0
-340 -63 -75 341 0
-340 -63 344 -78 0
-340 -63 344 341 0
-340 363 -75 -78 0
-340 363 -75 341 0
-340 363 344 -78 0
-340 363 344 341 0
-341 -6 -9 -12 0
-341 -6 -9 126 0
-341 -6 129 -12 0
-341 -6 129 126 0
-341 141 -9 -12 0
-341 141 -9 126 0
-341 141 129 -12 0
-341 141 129 126 0
-341 -17 -20 -23 0
-341 -17 -20 181 0
-341 -17 184 -23 0
-341 -17 184 181 0
-341 196 -20 -23 0
-341 196 -20 181 0
-341 196 184 -23 0
-341 196 184 181 0
-341 -27 -30 -33 0
-341 -27 -30 226 0
-341 -27 229 -33 0
-341 -27 229 226 0
-341 241 -30 -33 0
-341 241 -30 226 0
-341 241 229 -33 0
-341 241 229 226 0
-341 -36 -39 -42 0
-341 -36 -39 262 0
-341 -36 265 -42 0
-341 -36 265 262 0
-341 277 -39 -42 0
-341 277 -39 262 0
-341 277 265 -42 0
-341 277 265 262 0
-341 -44 -47 -50 0
-341 -44 -47 290 0
-341 -44 293 -50 0
-341 -44 293 290 0
-341 305 -47 -50 0
-341 305 -47 290 0
-341 305 293 -50 0
-341 305 293 290 0
-341 -51 -54 -57 0
-341 -51 -54 311 0
-341 -51 314 -57 0
-341 -51 314 311 0
-341 326 -54 -57 0
-341 326 -54 311 0
-341 326 314 -57 0
-341 326 314 311 0
-341 -58 -65 -68 0
-341 -58 -65 331 0
-341 -58 334 -68 0
-341 -58 334 331 0
-341 351 -65 -68 0
-341 351 -65 331 0
-341 351 334 -68 0
-341 351 334 331 0
-341 -59 -69 -72 0
-341 -59 -69 335 0
-341 -59 338 -72 0
-341 -59 338 335 0
-341 357 -69 -72 0
-341 357 -69 335 0
-341 357 338 -72 0
-341 357 338 335 0
-341 -61 -73 -77 0
-341 -61 -73 339 0
-341 -61 343 -77 0
-341 -61 343 339 0
-341 362 -73 -77 0
-341 362 -73 339 0
-341 362 343 -77 0
-341 362 343 339 0
-341 -62 -74 -78 0
-341 -62 -74 340 0
-341 -62 344 -78 0
-341 -62 344 340 0
-341 363 -74 -78 0
-341 363 -74 340 0
-341 363 344 -78 0
-341 363 344 340 0
-342 -6 -10 -11 0
-342 -6 -10 127 0
-342 -6 128 -11 0
-342 -6 128 127 0
-342 142 -10 -11 0
-342 142 -10 127 0
-342 142 128 -11 0
-342 142 128 127 0
-342 -17 -21 -22 0
-342 -17 -21 182 0
-342 -17 183 -22 0
-342 -17 183 182 0
-342 197 -21 -22 0
-342 197 -21 182 0
-342 197 183 -22 0
-342 197 183 182 0
-342 -27 -31 -32 0
-342 -27 -31 227 0
-342 -27 228 -32 0
-342 -27 228 227 0
-342 242 -31 -32 0
-342 242 -31 227 0
-342 242 228 -32 0
-342 242 228 227 0
-342 -36 -40 -41 0
-342 -36 -40 263 0
-342 -36 264 -41 0
-342 -36 264 263 0
-342 278 -40 -41 0
-342 278 -40 263 0
-342 278 264 -41 0
-342 278 264 263 0
-342 -44 -48 -49 0
-342 -44 -48 291 0
-342 -44 292 -49 0
-342 -44 292 291 0
-342 306 -48 -49 0
-342 306 -48 291 0
-342 306 292 -49 0
-342 306 292 291 0
-342 -51 -55 -56 0
-342 -51 -55 312 0
-342 -51 313 -56 0
-342 -51 313 312 0
-342 327 -55 -56 0
-342 327 -55 312 0
-342 327 313 -56 0
-342 327 313 312 0
-342 -58 -66 -67 0
-342 -58 -66 332 0
-342 -58 333 -67 0
-342 -58 333 332 0
-342 352 -66 -67 0
-342 352 -66 332 0
-342 352 333 -67 0
-342 352 333 332 0
-342 -59 -70 -71 0
-342 -59 -70 336 0
-342 -59 337 -71 0
-342 -59 337 336 0
-342 358 -70 -71 0
-342 358 -70 336 0
-342 358 337 -71 0
-342 358 337 336 0
-342 -60 -73 -74 0
-342 -60 -73 339 0
-342 -60 340 -74 0
-342 -60 340 339 0
-342 361 -73 -74 0
-342 361 -73 339 0
-342 361 340 -74 0
-342 361 340 339 0
-342 -63 -77 -78 0
-342 -63 -77 343 0
-342 -63 344 -78 0
-342 -63 344 343 0
-342 364 -77 -78 0
-342 364 -77 343 0
-342 364 344 -78 0
-342 364 344 343 0
-343 -6 -10 -12 0
-343 -6 -10 127 0
-343 -6 129 -12 0
-343 -6 129 127 0
-343 143 -10 -12 0
-343 143 -10 127 0
-343 143 129 -12 0
-343 143 129 127 0
-343 -17 -21 -23 0
-343 -17 -21 182 0
-343 -17 184 -23 0
-343 -17 184 182 0
-343 198 -21 -23 0
-343 198 -21 182 0
-343 198 184 -23 0
-343 198 184 182 0
-343 -27 -31 -33 0
-343 -27 -31 227 0
-343 -27 229 -33 0
-343 -27 229 227 0
-343 243 -31 -33 0
-343 243 -31 227 0
-343 243 229 -33 0
-343 243 229 227 0
-343 -36 -40 -42 0
-343 -36 -40 263 0
-343 -36 265 -42 0
-343 -36 265 263 0
-343 279 -40 -42 0
-343 279 -40 263 0
-343 279 265 -42 0
-343 279 265 263 0
-343 -44 -48 -50 0
-343 -44 -48 291 0
-343 -44 293 -50 0
-343 -44 293 291 0
-343 307 -48 -50 0
-343 307 -48 291 0
-343 307 293 -50 0
-343 307 293 291 0
-343 -51 -55 -57 0
-343 -51 -55 312 0
-343 -51 314 -57 0
-343 -51 314 312 0
-343 328 -55 -57 0
-343 328 -55 312 0
-343 328 314 -57 0
-343 328 314 312 0
-343 -58 -66 -68 0
-343 -58 -66 332 0
-343 -58 334 -68 0
-343 -58 334 332 0
-343 353 -66 -68 0
-343 353 -66 332 0
-343 353 334 -68 0
-343 353 334 332 0
-343 -59 -70 -72 0
-343 -59 -70 336 0
-343 -59 338 -72 0
-343 -59 338 336 0
-343 359 -70 -72 0
-343 359 -70 336 0
-343 359 338 -72 0
-343 359 338 336 0
-343 -60 -73 -75 0
-343 -60 -73 339 0
-343 -60 341 -75 0
-343 -60 341 339 0
-343 362 -73 -75 0
-343 362 -73 339 0
-343 362 341 -75 0
-343 362 341 339 0
-343 -62 -76 -78 0
-343 -62 -76 342 0
-343 -62 344 -78 0
-343 -62 344 342 0
-343 364 -76 -78 0
-343 364 -76 342 0
-343 364 344 -78 0
-343 364 344 342 0
-344 -6 -11 -12 0
-344 -6 -11 128 0
-344 -6 129 -12 0
-344 -6 129 128 0
-344 144 -11 -12 0
-344 144 -11 128 0
-344 144 129 -12 0
-344 144 129 128 0
-344 -17 -22 -23 0
-344 -17 -22 183 0
-344 -17 184 -23 0
-344 -17 184 183 0
-344 199 -22 -23 0
-344 199 -22 183 0
-344 199 184 -23 0
-344 199 184 183 0
-344 -27 -32 -33 0
-344 -27 -32 228 0
-344 -27 229 -33 0
-344 -27 229 228 0
-344 244 -32 -33 0
-344 244 -32 228 0
-344 244 229 -33 0
-344 244 229 228 0
-344 -36 -41 -42 0
-344 -36 -41 264 0
-344 -36 265 -42 0
-344 -36 265 264 0
-344 280 -41 -42 0
-344 280 -41 264 0
-344 280 265 -42 0
-344 280 265 264 0
-344 -44 -49 -50 0
-344 -44 -49 292 0
-344 -44 293 -50 0
-344 -44 293 292 0
-344 308 -49 -50 0
-344 308 -49 292 0
-344 308 293 -50 0
-344 308 293 292 0
-344 -51 -56 -57 0
-344 -51 -56 313 0
-344 -51 314 -57 0
-344 -51 314 313 0
-344 329 -56 -57 0
-344 329 -56 313 0
-344 329 314 -57 0
-344 329 314 313 0
-344 -58 -67 -68 0
-344 -58 -67 333 0
-344 -58 334 -68 0
-344 -58 334 333 0
-344 354 -67 -68 0
-344 354 -67 333 0
-344 354 334 -68 0
-344 354 334 333 0
-344 -59 -71 -72 0
-344 -59 -71 337 0
-344 -59 338 -72 0
-344 -59 338 337 0
-344 360 -71 -72 0
-344 360 -71 337 0
-344 360 338 -72 0
-344 360 338 337 0
-344 -60 -74 -75 0
-344 -60 -74 340 0
-344 -60 341 -75 0
-344 -60 341 340 0
-344 363 -74 -75 0
-344 363 -74 340 0
-344 363 341 -75 0
-344 363 341 340 0
-344 -61 -76 -77 0
-344 -61 -76 342 0
-344 -61 343 -77 0
-344 -61 343 342 0
-344 364 -76 -77 0
-344 364 -76 342 0
-344 364 343 -77 0
-344 364 343 342 0
-345 -7 -8 -9 0
-345 -7 -8 130 0
-345 -7 131 -9 0
-345 -7 131 130 0
-345 135 -8 -9 0
-345 135 -8 130 0
-345 135 131 -9 0
-345 135 131 130 0
-345 -18 -19 -20 0
-345 -18 -19 185 0
-345 -18 186 -20 0
-345 -18 186 185 0
-345 190 -19 -20 0
-345 190 -19 185 0
-345 190 186 -20 0
-345 190 186 185 0
-345 -28 -29 -30 0
-345 -28 -29 230 0
-345 -28 231 -30 0
-345 -28 231 230 0
-345 235 -29 -30 0
-345 235 -29 230 0
-345 235 231 -30 0
-345 235 231 230 0
-345 -37 -38 -39 0
-345 -37 -38 266 0
-345 -37 267 -39 0
-345 -37 267 266 0
-345 271 -38 -39 0
-345 271 -38 266 0
-345 271 267 -39 0
-345 271 267 266 0
-345 -45 -46 -47 0
-345 -45 -46 294 0
-345 -45 295 -47 0
-345 -45 295 294 0
-345 299 -46 -47 0
-345 299 -46 294 0
-345 299 295 -47 0
-345 299 295 294 0
-345 -52 -53 -54 0
-345 -52 -53 315 0
-345 -52 316 -54 0
-345 -52 316 315 0
-345 320 -53 -54 0
-345 320 -53 315 0
-345 320 316 -54 0
-345 320 316 315 0
-345 -58 -59 -60 0
-345 -58 -59 330 0
-345 -58 331 -60 0
-345 -58 331 330 0
-345 335 -59 -60 0
-345 335 -59 330 0
-345 335 331 -60 0
-345 335 331 330 0
-345 -66 -70 -73 0
-345 -66 -70 346 0
-345 -66 349 -73 0
-345 -66 349 346 0
-345 355 -70 -73 0
-345 355 -70 346 0
-345 355 349 -73 0
-345 355 349 346 0
-345 -67 -71 -74 0
-345 -67 -71 347 0
-345 -67 350 -74 0
-345 -67 350 347 0
-345 356 -71 -74 0
-345 356 -71 347 0
-345 356 350 -74 0
-345 356 350 347 0
-345 -68 -72 -75 0
-345 -68 -72 348 0
-345 -68 351 -75 0
-345 -68 351 348 0
-345 357 -72 -75 0
-345 357 -72 348 0
-345 357 351 -75 0
-345 357 351 348 0
-346 -7 -8 -10 0
-346 -7 -8 130 0
-346 -7 132 -10 0
-346 -7 132 130 0
-346 136 -8 -10 0
-346 136 -8 130 0
-346 136 132 -10 0
-346 136 132 130 0
-346 -18 -19 -21 0
-346 -18 -19 185 0
-346 -18 187 -21 0
-346 -18 187 185 0
-346 191 -19 -21 0
-346 191 -19 185 0
-346 191 187 -21 0
-346 191 187 185 0
-346 -28 -29 -31 0
-346 -28 -29 230 0
-346 -28 232 -31 0
-346 -28 232 230 0
-346 236 -29 -31 0
-346 236 -29 230 0
-346 236 232 -31 0
-346 236 232 230 0
-346 -37 -38 -40 0
-346 -37 -38 266 0
-346 -37 268 -40 0
-346 -37 268 266 0
-346 272 -38 -40 0
-346 272 -38 266 0
-346 272 268 -40 0
-346 272 268 266 0
-346 -45 -46 -48 0
-346 -45 -46 294 0
-346 -45 296 -48 0
-346 -45 296 294 0
-346 300 -46 -48 0
-346 300 -46 294 0
-346 300 296 -48 0
-346 300 296 294 0
-346 -52 -53 -55 0
-346 -52 -53 315 0
-346 -52 317 -55 0
-346 -52 317 315 0
-346 321 -53 -55 0
-346 321 -53 315 0
-346 321 317 -55 0
-346 321 317 315 0
-346 -58 -59 -61 0
-346 -58 -59 330 0
-346 -58 332 -61 0
-346 -58 332 330 0
-346 336 -59 -61 0
-346 336 -59 330 0
-346 336 332 -61 0
-346 336 332 330 0
-346 -65 -69 -73 0
-346 -65 -69 345 0
-346 -65 349 -73 0
-346 -65 349 345 0
-346 355 -69 -73 0
-346 355 -69 345 0
-346 355 349 -73 0
-346 355 349 345 0
-346 -67 -71 -76 0
-346 -67 -71 347 0
-346 -67 352 -76 0
-346 -67 352 347 0
-346 358 -71 -76 0
-346 358 -71 347 0
-346 358 352 -76 0
-346 358 352 347 0
-346 -68 -72 -77 0
-346 -68 -72 348 0
-346 -68 353 -77 0
-346 -68 353 348 0
-346 359 -72 -77 0
-346 359 -72 348 0
-346 359 353 -77 0
-346 359 353 348 0
-347 -7 -8 -11 0
-347 -7 -8 130 0
-347 -7 133 -11 0
-347 -7 133 130 0
-347 137 -8 -11 0
-347 137 -8 130 0
-347 137 133 -11 0
-347 137 133 130 0
-347 -18 -19 -22 0
-347 -18 -19 185 0
-347 -18 188 -22 0
-347 -18 188 185 0
-347 192 -19 -22 0
-347 192 -19 185 0
-347 192 188 -22 0
-347 192 188 185 0
-347 -28 -29 -32 0
-347 -28 -29 230 0
-347 -28 233 -32 0
-347 -28 233 230 0
-347 237 -29 -32 0
-347 237 -29 230 0
-347 237 233 -32 0
-347 237 233 230 0
-347 -37 -38 -41 0
-347 -37 -38 266 0
-347 -37 269 -41 0
-347 -37 269 266 0
-347 273 -38 -41 0
-347 273 -38 266 0
-347 273 269 -41 0
-347 273 269 266 0
-347 -45 -46 -49 0
-347 -45 -46 294 0
-347 -45 297 -49 0
-347 -45 297 294 0
-347 301 -46 -49 0
-347 301 -46 294 0
-347 301 297 -49 0
-347 301 297 294 0
-347 -52 -53 -56 0
-347 -52 -53 315 0
-347 -52 318 -56 0
-347 -52 318 315 0
-347 322 -53 -56 0
-347 322 -53 315 0
-347 322 318 -56 0
-347 322 318 315 0
-347 -58 -59 -62 0
-347 -58 -59 330 0
-347 -58 333 -62 0
-347 -58 333 330 0
-347 337 -59 -62 0
-347 337 -59 330 0
-347 337 333 -62 0
-347 337 333 330 0
-347 -65 -69 -74 0
-347 -65 -69 345 0
-347 -65 350 -74 0
-347 -65 350 345 0
-347 356 -69 -74 0
-347 356 -69 345 0
-347 356 350 -74 0
-347 356 350 345 0
-347 -66 -70 -76 0
-347 -66 -70 346 0
-347 -66 352 -76 0
-347 -66 352 346 0
-347 358 -70 -76 0
-347 358 -70 346 0
-347 358 352 -76 0
-347 358 352 346 0
-347 -68 -72 -78 0
-347 -68 -72 348 0
-347 -68 354 -78 0
-347 -68 354 348 0
-347 360 -72 -78 0
-347 360 -72 348 0
-347 360 354 -78 0
-347 360 354 348 0
-348 -7 -8 -12 0
-348 -7 -8 130 0
-348 -7 134 -12 0
-348 -7 134 130 0
-348 138 -8 -12 0
-348 138 -8 130 0
-348 138 134 -12 0
-348 138 134 130 0
-348 -18 -19 -23 0
-348 -18 -19 185 0
-348 -18 189 -23 0
-348 -18 189 185 0
-348 193 -19 -23 0
-348 193 -19 185 0
-348 193 189 -23 0
-348 193 189 185 0
-348 -28 -29 -33 0
-348 -28 -29 230 0
-348 -28 234 -33 0
-348 -28 234 230 0
-348 238 -29 -33 0
-348 238 -29 230 0
-348 238 234 -33 0
-348 238 234 230 0
-348 -37 -38 -42 0
-348 -37 -38 266 0
-348 -37 270 -42 0
-348 -37 270 266 0
-348 274 -38 -42 0
-348 274 -38 266 0
-348 274 270 -42 0
-348 274 270 266 0
-348 -45 -46 -50 0
-348 -45 -46 294 0
-348 -45 298 -50 0
-348 -45 298 294 0
-348 302 -46 -50 0
-348 302 -46 294 0
-348 302 298 -50 0
-348 302 298 294 0
-348 -52 -53 -57 0
-348 -52 -53 315 0
-348 -52 319 -57 0
-348 -52 319 315 0
-348 323 -53 -57 0
-348 323 -53 315 0
-348 323 319 -57 0
-348 323 319 315 0
-348 -58 -59 -63 0
-348 -58 -59 330 0
-348 -58 334 -63 0
-348 -58 334 330 0
-348 338 -59 -63 0
-348 338 -59 330 0
-348 338 334 -63 0
-348 338 334 330 0
-348 -65 -69 -75 0
-348 -65 -69 345 0
-348 -65 351 -75 0
-348 -65 351 345 0
-348 357 -69 -75 0
-348 357 -69 345 0
-348 357 351 -75 0
-348 357 351 345 0
-348 -66 -70 -77 0
-348 -66 -70 346 0
-348 -66 353 -77 0
-348 -66 353 346 0
-348 359 -70 -77 0
-348 359 -70 346 0
-348 359 353 -77 0
-348 359 353 346 0
-348 -67 -71 -78 0
-348 -67 -71 347 0
-348 -67 354 -78 0
-348 -67 354 347 0
-348 360 -71 -78 0
-348 360 -71 347 0
-348 360 354 -78 0
-348 360 354 347 0
-349 -7 -9 -10 0
-349 -7 -9 131 0
-349 -7 132 -10 0
-349 -7 132 131 0
-349 139 -9 -10 0
-349 139 -9 131 0
-349 139 132 -10 0
-349 139 132 131 0
-349 -18 -20 -21 0
-349 -18 -20 186 0
-349 -18 187 -21 0
-349 -18 187 186 0
-349 194 -20 -21 0
-349 194 -20 186 0
-349 194 187 -21 0
-349 194 187 186 0
-349 -28 -30 -31 0
-349 -28 -30 231 0
-349 -28 232 -31 0
-349 -28 232 231 0
-349 239 -30 -31 0
-349 239 -30 231 0
-349 239 232 -31 0
-349 239 232 231 0
-349 -37 -39 -40 0
-349 -37 -39 267 0
-349 -37 268 -40 0
-349 -37 268 267 0
-349 275 -39 -40 0
-349 275 -39 267 0
-349 275 268 -40 0
-349 275 268 267 0
-349 -45 -47 -48 0
-349 -45 -47 295 0
-349 -45 296 -48 0
-349 -45 296 295 0
-349 303 -47 -48 0
-349 303 -47 295 0
-349 303 296 -48 0
-349 303 296 295 0
-349 -52 -54 -55 0
-349 -52 -54 316 0
-349 -52 317 -55 0
-349 -52 317 316 0
-349 324 -54 -55 0
-349 324 -54 316 0
-349 324 317 -55 0
-349 324 317 316 0
-349 -58 -60 -61 0
-349 -58 -60 331 0
-349 -58 332 -61 0
-349 -58 332 331 0
-349 339 -60 -61 0
-349 339 -60 331 0
-349 339 332 -61 0
-349 339 332 331 0
-349 -64 -69 -70 0
-349 -64 -69 345 0
-349 -64 346 -70 0
-349 -64 346 345 0
-349 355 -69 -70 0
-349 355 -69 345 0
-349 355 346 -70 0
-349 355 346 345 0
-349 -67 -74 -76 0
-349 -67 -74 350 0
-349 -67 352 -76 0
-349 -67 352 350 0
-349 361 -74 -76 0
-349 361 -74 350 0
-349 361 352 -76 0
-349 361 352 350 0
-349 -68 -75 -77 0
-349 -68 -75 351 0
-349 -68 353 -77 0
-349 -68 353 351 0
-349 362 -75 -77 0
-349 362 -75 351 0
-349 362 353 -77 0
-349 362 353 351 0
-350 -7 -9 -11 0
-350 -7 -9 131 0
-350 -7 133 -11 0
-350 -7 133 131 0
-350 140 -9 -11 0
-350 140 -9 131 0
-350 140 133 -11 0
-350 140 133 131 0
-350 -18 -20 -22 0
-350 -18 -20 186 0
-350 -18 188 -22 0
-350 -18 188 186 0
-350 195 -20 -22 0
-350 195 -20 186 0
-350 195 188 -22 0
-350 195 188 186 0
-350 -28 -30 -32 0
-350 -28 -30 231 0
-350 -28 233 -32 0
-350 -28 233 231 0
-350 240 -30 -32 0
-350 240 -30 231 0
-350 240 233 -32 0
-350 240 233 231 0
-350 -37 -39 -41 0
-350 -37 -39 267 0
-350 -37 269 -41 0
-350 -37 269 267 0
-350 276 -39 -41 0
-350 276 -39 267 0
-350 276 269 -41 0
-350 276 269 267 0
-350 -45 -47 -49 0
-350 -45 -47 295 0
-350 -45 297 -49 0
-350 -45 297 295 0
-350 304 -47 -49 0
-350 304 -47 295 0
-350 304 297 -49 0
-350 304 297 295 0
-350 -52 -54 -56 0
-350 -52 -54 316 0
-350 -52 318 -56 0
-350 -52 318 316 0
-350 325 -54 -56 0
-350 325 -54 316 0
-350 325 318 -56 0
-350 325 318 316 0
-350 -58 -60 -62 0
-350 -58 -60 331 0
-350 -58 333 -62 0
-350 -58 333 331 0
-350 340 -60 -62 0
-350 340 -60 331 0
-350 340 333 -62 0
-350 340 333 331 0
-350 -64 -69 -71 0
-350 -64 -69 345 0
-350 -64 347 -71 0
-350 -64 347 345 0
-350 356 -69 -71 0
-350 356 -69 345 0
-350 356 347 -71 0
-350 356 347 345 0
-350 -66 -73 -76 0
-350 -66 -73 349 0
-350 -66 352 -76 0
-350 -66 352 349 0
-350 361 -73 -76 0
-350 361 -73 349 0
-350 361 352 -76 0
-350 361 352 349 0
-350 -68 -75 -78 0
-350 -68 -75 351 0
-350 -68 354 -78 0
-350 -68 354 351 0
-350 363 -75 -78 0
-350 363 -75 351 0
-350 363 354 -78 0
-350 363 354 351 0
-351 -7 -9 -12 0
-351 -7 -9 131 0
-351 -7 134 -12 0
-351 -7 134 131 0
-351 141 -9 -12 0
-351 141 -9 131 0
-351 141 134 -12 0
-351 141 134 131 0
-351 -18 -20 -23 0
-351 -18 -20 186 0
-351 -18 189 -23 0
-351 -18 189 186 0
-351 196 -20 -23 0
-351 196 -20 186 0
-351 196 189 -23 0
-351 196 189 186 0
-351 -28 -30 -33 0
-351 -28 -30 231 0
-351 -28 234 -33 0
-351 -28 234 231 0
-351 241 -30 -33 0
-351 241 -30 231 0
-351 241 234 -33 0
-351 241 234 231 0
-351 -37 -39 -42 0
-351 -37 -39 267 0
-351 -37 270 -42 0
-351 -37 270 267 0
-351 277 -39 -42 0
-351 277 -39 267 0
-351 277 270 -42 0
-351 277 270 267 0
-351 -45 -47 -50 0
-351 -45 -47 295 0
-351 -45 298 -50 0
-351 -45 298 295 0
-351 305 -47 -50 0
-351 305 -47 295 0
-351 305 298 -50 0
-351 305 298 295 0
-351 -52 -54 -57 0
-351 -52 -54 316 0
-351 -52 319 -57 0
-351 -52 319 316 0
-351 326 -54 -57 0
-351 326 -54 316 0
-351 326 319 -57 0
-351 326 319 316 0
-351 -58 -60 -63 0
-351 -58 -60 331 0
-351 -58 334 -63 0
-351 -58 334 331 0
-351 341 -60 -63 0
-351 341 -60 331 0
-351 341 334 -63 0
-351 341 334 331 0
-351 -64 -69 -72 0
-351 -64 -69 345 0
-351 -64 348 -72 0
-351 -64 348 345 0
-351 357 -69 -72 0
-351 357 -69 345 0
-351 357 348 -72 0
-351 357 348 345 0
-351 -66 -73 -77 0
-351 -66 -73 349 0
-351 -66 353 -77 0
-351 -66 353 349 0
-351 362 -73 -77 0
-351 362 -73 349 0
-351 362 353 -77 0
-351 362 353 349 0
-351 -67 -74 -78 0
-351 -67 -74 350 0
-351 -67 354 -78 0
-351 -67 354 350 0
-351 363 -74 -78 0
-351 363 -74 350 0
-351 363 354 -78 0
-351 363 354 350 0
-352 -7 -10 -11 0
-352 -7 -10 132 0
-352 -7 133 -11 0
-352 -7 133 132 0
-352 142 -10 -11 0
-352 142 -10 132 0
-352 142 133 -11 0
-352 142 133 132 0
-352 -18 -21 -22 0
-352 -18 -21 187 0
-352 -18 188 -22 0
-352 -18 188 187 0
-352 197 -21 -22 0
-352 197 -21 187 0
-352 197 188 -22 0
-352 197 188 187 0
-352 -28 -31 -32 0
-352 -28 -31 232 0
-352 -28 233 -32 0
-352 -28 233 232 0
-352 242 -31 -32 0
-352 242 -31 232 0
-352 242 233 -32 0
-352 242 233 232 0
-352 -37 -40 -41 0
-352 -37 -40 268 0
-352 -37 269 -41 0
-352 -37 269 268 0
-352 278 -40 -41 0
-352 278 -40 268 0
-352 278 269 -41 0
-352 278 269 268 0
-352 -45 -48 -49 0
-352 -45 -48 296 0
-352 -45 297 -49 0
-352 -45 297 296 0
-352 306 -48 -49 0
-352 306 -48 296 0
-352 306 297 -49 0
-352 306 297 296 0
-352 -52 -55 -56 0
-352 -52 -55 317 0
-352 -52 318 -56 0
-352 -52 318 317 0
-352 327 -55 -56 0
-352 327 -55 317 0
-352 327 318 -56 0
-352 327 318 317 0
-352 -58 -61 -62 0
-352 -58 -61 332 0
-352 -58 333 -62 0
-352 -58 333 332 0
-352 342 -61 -62 0
-352 342 -61 332 0
-352 342 333 -62 0
-352 342 333 332 0
-352 -64 -70 -71 0
-352 -64 -70 346 0
-352 -64 347 -71 0
-352 -64 347 346 0
-352 358 -70 -71 0
-352 358 -70 346 0
-352 358 347 -71 0
-352 358 347 346 0
-352 -65 -73 -74 0
-352 -65 -73 349 0
-352 -65 350 -74 0
-352 -65 350 349 0
-352 361 -73 -74 0
-352 361 -73 349 0
-352 361 350 -74 0
-352 361 350 349 0
-352 -68 -77 -78 0
-352 -68 -77 353 0
-352 -68 354 -78 0
-352 -68 354 353 0
-352 364 -77 -78 0
-352 364 -77 353 0
-352 364 354 -78 0
-352 364 354 353 0
-353 -7 -10 -12 0
-353 -7 -10 132 0
-353 -7 134 -12 0
-353 -7 134 132 0
-353 143 -10 -12 0
-353 143 -10 132 0
-353 143 134 -12 0
-353 143 134 132 0
-353 -18 -21 -23 0
-353 -18 -21 187 0
-353 -18 189 -23 0
-353 -18 189 187 0
-353 198 -21 -23 0
-353 198 -21 187 0
-353 198 189 -23 0
-353 198 189 187 0
-353 -28 -31 -33 0
-353 -28 -31 232 0
-353 -28 234 -33 0
-353 -28 234 232 0
-353 243 -31 -33 0
-353 243 -31 232 0
-353 243 234 -33 0
-353 243 234 232 0
-353 -37 -40 -42 0
-353 -37 -40 268 0
-353 -37 270 -42 0
-353 -37 270 268 0
-353 279 -40 -42 0
-353 279 -40 268 0
-353 279 270 -42 0
-353 279 270 268 0
-353 -45 -48 -50 0
-353 -45 -48 296 0
-353 -45 298 -50 0
-353 -45 298 296 0
-353 307 -48 -50 0
-353 307 -48 296 0
-353 307 298 -50 0
-353 307 298 296 0
-353 -52 -55 -57 0
-353 -52 -55 317 0
-353 -52 319 -57 0
-353 -52 319 317 0
-353 328 -55 -57 0
-353 328 -55 317 0
-353 328 319 -57 0
-353 328 319 317 0
-353 -58 -61 -63 0
-353 -58 -61 332 0
-353 -58 334 -63 0
-353 -58 334 332 0
-353 343 -61 -63 0
-353 343 -61 332 0
-353 343 334 -63 0
-353 343 334 332 0
-353 -64 -70 -72 0
-353 -64 -70 346 0
-353 -64 348 -72 0
-353 -64 348 346 0
-353 359 -70 -72 0
-353 359 -70 346 0
-353 359 348 -72 0
-353 359 348 346 0
-353 -65 -73 -75 0
-353 -65 -73 349 0
-353 -65 351 -75 0
-353 -65 351 349 0
-353 362 -73 -75 0
-353 362 -73 349 0
-353 362 351 -75 0
-353 362 351 349 0
-353 -67 -76 -78 0
-353 -67 -76 352 0
-353 -67 354 -78 0
-353 -67 354 352 0
-353 364 -76 -78 0
-353 364 -76 352 0
-353 364 354 -78 0
-353 364 354 352 0
-354 -7 -11 -12 0
-354 -7 -11 133 0
-354 -7 134 -12 0
-354 -7 134 133 0
-354 144 -11 -12 0
-354 144 -11 133 0
-354 144 134 -12 0
-354 144 134 133 0
-354 -18 -22 -23 0
-354 -18 -22 188 0
-354 -18 189 -23 0
-354 -18 189 188 0
-354 199 -22 -23 0
-354 199 -22 188 0
-354 199 189 -23 0
-354 199 189 188 0
-354 -28 -32 -33 0
-354 -28 -32 233 0
-354 -28 234 -33 0
-354 -28 234 233 0
-354 244 -32 -33 0
-354 244 -32 233 0
-354 244 234 -33 0
-354 244 234 233 0
-354 -37 -41 -42 0
-354 -37 -41 269 0
-354 -37 270 -42 0
-354 -37 270 269 0
-354 280 -41 -42 0
-354 280 -41 269 0
-354 280 270 -42 0
-354 280 270 269 0
-354 -45 -49 -50 0
-354 -45 -49 297 0
-354 -45 298 -50 0
-354 -45 298 297 0
-354 308 -49 -50 0
-354 308 -49 297 0
-354 308 298 -50 0
-354 308 298 297 0
-354 -52 -56 -57 0
-354 -52 -56 318 0
-354 -52 319 -57 0
-354 -52 319 318 0
-354 329 -56 -57 0
-354 329 -56 318 0
-354 329 319 -57 0
-354 329 319 318 0
-354 -58 -62 -63 0
-354 -58 -62 333 0
-354 -58 334 -63 0
-354 -58 334 333 0
-354 344 -62 -63 0
-354 344 -62 333 0
-354 344 334 -63 0
-354 344 334 333 0
-354 -64 -71 -72 0
-354 -64 -71 347 0
-354 -64 348 -72 0
-354 -64 348 347 0
-354 360 -71 -72 0
-354 360 -71 347 0
-354 360 348 -72 0
-354 360 348 347 0
-354 -65 -74 -75 0
-354 -65 -74 350 0
-354 -65 351 -75 0
-354 -65 351 350 0
-354 363 -74 -75 0
-354 363 -74 350 0
-354 363 351 -75 0
-354 363 351 350 0
-354 -66 -76 -77 0
-354 -66 -76 352 0
-354 -66 353 -77 0
-354 -66 353 352 0
-354 364 -76 -77 0
-354 364 -76 352 0
-354 364 353 -77 0
-354 364 353 352 0
-355 -8 -9 -10 0
-355 -8 -9 135 0
-355 -8 136 -10 0
-355 -8 136 135 0
-355 139 -9 -10 0
-355 139 -9 135 0
-355 139 136 -10 0
-355 139 136 135 0
-355 -19 -20 -21 0
-355 -19 -20 190 0
-355 -19 191 -21 0
-355 -19 191 190 0
-355 194 -20 -21 0
-355 194 -20 190 0
-355 194 191 -21 0
-355 194 191 190 0
-355 -29 -30 -31 0
-355 -29 -30 235 0
-355 -29 236 -31 0
-355 -29 236 235 0
-355 239 -30 -31 0
-355 239 -30 235 0
-355 239 236 -31 0
-355 239 236 235 0
-355 -38 -39 -40 0
-355 -38 -39 271 0
-355 -38 272 -40 0
-355 -38 272 271 0
-355 275 -39 -40 0
-355 275 -39 271 0
-355 275 272 -40 0
-355 275 272 271 0
-355 -46 -47 -48 0
-355 -46 -47 299 0
-355 -46 300 -48 0
-355 -46 300 299 0
-355 303 -47 -48 0
-355 303 -47 299 0
-355 303 300 -48 0
-355 303 300 299 0
-355 -53 -54 -55 0
-355 -53 -54 320 0
-355 -53 321 -55 0
-355 -53 321 320 0
-355 324 -54 -55 0
-355 324 -54 320 0
-355 324 321 -55 0
-355 324 321 320 0
-355 -59 -60 -61 0
-355 -59 -60 335 0
-355 -59 336 -61 0
-355 -59 336 335 0
-355 339 -60 -61 0
-355 339 -60 335 0
-355 339 336 -61 0
-355 339 336 335 0
-355 -64 -65 -66 0
-355 -64 -65 345 0
-355 -64 346 -66 0
-355 -64 346 345 0
-355 349 -65 -66 0
-355 349 -65 345 0
-355 349 346 -66 0
-355 349 346 345 0
-355 -71 -74 -76 0
-355 -71 -74 356 0
-355 -71 358 -76 0
-355 -71 358 356 0
-355 361 -74 -76 0
-355 361 -74 356 0
-355 361 358 -76 0
-355 361 358 356 0
-355 -72 -75 -77 0
-355 -72 -75 357 0
-355 -72 359 -77 0
-355 -72 359 357 0
-355 362 -75 -77 0
-355 362 -75 357 0
-355 362 359 -77 0
-355 362 359 357 0
-356 -8 -9 -11 0
-356 -8 -9 135 0
-356 -8 137 -11 0
-356 -8 137 135 0
-356 140 -9 -11 0
-356 140 -9 135 0
-356 140 137 -11 0
-356 140 137 135 0
-356 -19 -20 -22 0
-356 -19 -20 190 0
-356 -19 192 -22 0
-356 -19 192 190 0
-356 195 -20 -22 0
-356 195 -20 190 0
-356 195 192 -22 0
-356 195 192 190 0
-356 -29 -30 -32 0
-356 -29 -30 235 0
-356 -29 237 -32 0
-356 -29 237 235 0
-356 240 -30 -32 0
-356 240 -30 235 0
-356 240 237 -32 0
-356 240 237 235 0
-356 -38 -39 -41 0
-356 -38 -39 271 0
-356 -38 273 -41 0
-356 -38 273 271 0
-356 276 -39 -41 0
-356 276 -39 271 0
-356 276 273 -41 0
-356 276 273 271 0
-356 -46 -47 -49 0
-356 -46 -47 299 0
-356 -46 301 -49 0
-356 -46 301 299 0
-356 304 -47 -49 0
-356 304 -47 299 0
-356 304 301 -49 0
-356 304 301 299 0
-356 -53 -54 -56 0
-356 -53 -54 320 0
-356 -53 322 -56 0
-356 -53 322 320 0
-356 325 -54 -56 0
-356 325 -54 320 0
-356 325 322 -56 0
-356 325 322 320 0
-356 -59 -60 -62 0
-356 -59 -60 335 0
-356 -59 337 -62 0
-356 -59 337 335 0
-356 340 -60 -62 0
-356 340 -60 335 0
-356 340 337 -62 0
-356 340 337 335 0
-356 -64 -65 -67 0
-356 -64 -65 345 0
-356 -64 347 -67 0
-356 -64 347 345 0
-356 350 -65 -67 0
-356 350 -65 345 0
-356 350 347 -67 0
-356 350 347 345 0
-356 -70 -73 -76 0
-356 -70 -73 355 0
-356 -70 358 -76 0
-356 -70 358 355 0
-356 361 -73 -76 0
-356 361 -73 355 0
-356 361 358 -76 0
-356 361 358 355 0
-356 -72 -75 -78 0
-356 -72 -75 357 0
-356 -72 360 -78 0
-356 -72 360 357 0
-356 363 -75 -78 0
-356 363 -75 357 0
-356 363 360 -78 0
-356 363 360 357 0
-357 -8 -9 -12 0
-357 -8 -9 135 0
-357 -8 138 -12 0
-357 -8 138 135 0
-357 141 -9 -12 0
-357 141 -9 135 0
-357 141 138 -12 0
-357 141 138 135 0
-357 -19 -20 -23 0
-357 -19 -20 190 0
-357 -19 193 -23 0
-357 -19 193 190 0
-357 196 -20 -23 0
-357 196 -20 190 0
-357 196 193 -23 0
-357 196 193 190 0
-357 -29 -30 -33 0
-357 -29 -30 235 0
-357 -29 238 -33 0
-357 -29 238 235 0
-357 241 -30 -33 0
-357 241 -30 235 0
-357 241 238 -33 0
-357 241 238 235 0
-357 -38 -39 -42 0
-357 -38 -39 271 0
-357 -38 274 -42 0
-357 -38 274 271 0
-357 277 -39 -42 0
-357 277 -39 271 0
-357 277 274 -42 0
-357 277 274 271 0
-357 -46 -47 -50 0
-357 -46 -47 299 0
-357 -46 302 -50 0
-357 -46 302 299 0
-357 305 -47 -50 0
-357 305 -47 299 0
-357 305 302 -50 0
-357 305 302 299 0
-357 -53 -54 -57 0
-357 -53 -54 320 0
-357 -53 323 -57 0
-357 -53 323 320 0
-357 326 -54 -57 0
-357 326 -54 320 0
-357 326 323 -57 0
-357 326 323 320 0
-357 -59 -60 -63 0
-357 -59 -60 335 0
-357 -59 338 -63 0
-357 -59 338 335 0
-357 341 -60 -63 0
-357 341 -60 335 0
-357 341 338 -63 0
-357 341 338 335 0
-357 -64 -65 -68 0
-357 -64 -65 345 0
-357 -64 348 -68 0
-357 -64 348 345 0
-357 351 -65 -68 0
-357 351 -65 345 0
-357 351 348 -68 0
-357 351 348 345 0
-357 -70 -73 -77 0
-357 -70 -73 355 0
-357 -70 359 -77 0
-357 -70 359 355 0
-357 362 -73 -77 0
-357 362 -73 355 0
-357 362 359 -77 0
-357 362 359 355 0
-357 -71 -74 -78 0
-357 -71 -74 356 0
-357 -71 360 -78 0
-357 -71 360 356 0
-357 363 -74 -78 0
-357 363 -74 356 0
-357 363 360 -78 0
-357 363 360 356 0
-358 -8 -10 -11 0
-358 -8 -10 136 0
-358 -8 137 -11 0
-358 -8 137 136 0
-358 142 -10 -11 0
-358 142 -10 136 0
-358 142 137 -11 0
-358 142 137 136 0
-358 -19 -21 -22 0
-358 -19 -21 191 0
-358 -19 192 -22 0
-358 -19 192 191 0
-358 197 -21 -22 0
-358 197 -21 191 0
-358 197 192 -22 0
-358 197 192 191 0
-358 -29 -31 -32 0
-358 -29 -31 236 0
-358 -29 237 -32 0
-358 -29 237 236 0
-358 242 -31 -32 0
-358 242 -31 236 0
-358 242 237 -32 0
-358 242 237 236 0
-358 -38 -40 -41 0
-358 -38 -40 272 0
-358 -38 273 -41 0
-358 -38 273 272 0
-358 278 -40 -41 0
-358 278 -40 272 0
-358 278 273 -41 0
-358 278 273 272 0
-358 -46 -48 -49 0
-358 -46 -48 300 0
-358 -46 301 -49 0
-358 -46 301 300 0
-358 306 -48 -49 0
-358 306 -48 300 0
-358 306 301 -49 0
-358 306 301 300 0
-358 -53 -55 -56 0
-358 -53 -55 321 0
-358 -53 322 -56 0
-358 -53 322 321 0
-358 327 -55 -56 0
-358 327 -55 321 0
-358 327 322 -56 0
-358 327 322 321 0
-358 -59 -61 -62 0
-358 -59 -61 336 0
-358 -59 337 -62 0
-358 -59 337 336 0
-358 342 -61 -62 0
-358 342 -61 336 0
-358 342 337 -62 0
-358 342 337 336 0
-358 -64 -66 -67 0
-358 -64 -66 346 0
-358 -64 347 -67 0
-358 -64 347 346 0
-358 352 -66 -67 0
-358 352 -66 346 0
-358 352 347 -67 0
-358 352 347 346 0
-358 -69 -73 -74 0
-358 -69 -73 355 0
-358 -69 356 -74 0
-358 -69 356 355 0
-358 361 -73 -74 0
-358 361 -73 355 0
-358 361 356 -74 0
-358 361 356 355 0
-358 -72 -77 -78 0
-358 -72 -77 359 0
-358 -72 360 -78 0
-358 -72 360 359 0
-358 364 -77 -78 0
-358 364 -77 359 0
-358 364 360 -78 0
-358 364 360 359 0
-359 -8 -10 -12 0
-359 -8 -10 136 0
-359 -8 138 -12 0
-359 -8 138 136 0
-359 143 -10 -12 0
-359 143 -10 136 0
-359 143 138 -12 0
-359 143 138 136 0
-359 -19 -21 -23 0
-359 -19 -21 191 0
-359 -19 193 -23 0
-359 -19 193 191 0
-359 198 -21 -23 0
-359 198 -21 191 0
-359 198 193 -23 0
-359 198 193 191 0
-359 -29 -31 -33 0
-359 -29 -31 236 0
-359 -29 238 -33 0
-359 -29 238 236 0
-359 243 -31 -33 0
-359 243 -31 236 0
-359 243 238 -33 0
-359 243 238 236 0
-359 -38 -40 -42 0
-359 -38 -40 272 0
-359 -38 274 -42 0
-359 -38 274 272 0
-359 279 -40 -42 0
-359 279 -40 272 0
-359 279 274 -42 0
-359 279 274 272 0
-359 -46 -48 -50 0
-359 -46 -48 300 0
-359 -46 302 -50 0
-359 -46 302 300 0
-359 307 -48 -50 0
-359 307 -48 300 0
-359 307 302 -50 0
-359 307 302 300 0
-359 -53 -55 -57 0
-359 -53 -55 321 0
-359 -53 323 -57 0
-359 -53 323 321 0
-359 328 -55 -57 0
-359 328 -55 321 0
-359 328 323 -57 0
-359 328 323 321 0
-359 -59 -61 -63 0
-359 -59 -61 336 0
-359 -59 338 -63 0
-359 -59 338 336 0
-359 343 -61 -63 0
-359 343 -61 336 0
-359 343 338 -63 0
-359 343 338 336 0
-359 -64 -66 -68 0
-359 -64 -66 346 0
-359 -64 348 -68 0
-359 -64 348 346 0
-359 353 -66 -68 0
-359 353 -66 346 0
-359 353 348 -68 0
-359 353 348 346 0
-359 -69 -73 -75 0
-359 -69 -73 355 0
-359 -69 357 -75 0
-359 -69 357 355 0
-359 362 -73 -75 0
-359 362 -73 355 0
-359 362 357 -75 0
-359 362 357 355 0
-359 -71 -76 -78 0
-359 -71 -76 358 0
-359 -71 360 -78 0
-359 -71 360 358 0
-359 364 -76 -78 0
-359 364 -76 358 0
-359 364 360 -78 0
-359 364 360 358 0
-360 -8 -11 -12 0
-360 -8 -11 137 0
-360 -8 138 -12 0
-360 -8 138 137 0
-360 144 -11 -12 0
-360 144 -11 137 0
-360 144 138 -12 0
-360 144 138 137 0
-360 -19 -22 -23 0
-360 -19 -22 192 0
-360 -19 193 -23 0
-360 -19 193 192 0
-360 199 -22 -23 0
-360 199 -22 192 0
-360 199 193 -23 0
-360 199 193 192 0
-360 -29 -32 -33 0
-360 -29 -32 237 0
-360 -29 238 -33 0
-360 -29 238 237 0
-360 244 -32 -33 0
-360 244 -32 237 0
-360 244 238 -33 0
-360 244 238 237 0
-360 -38 -41 -42 0
-360 -38 -41 273 0
-360 -38 274 -42 0
-360 -38 274 273 0
-360 280 -41 -42 0
-360 280 -41 273 0
-360 280 274 -42 0
-360 280 274 273 0
-360 -46 -49 -50 0
-360 -46 -49 301 0
-360 -46 302 -50 0
-360 -46 302 301 0
-360 308 -49 -50 0
-360 308 -49 301 0
-360 308 302 -50 0
-360 308 302 301 0
-360 -53 -56 -57 0
-360 -53 -56 322 0
-360 -53 323 -57 0
-360 -53 323 322 0
-360 329 -56 -57 0
-360 329 -56 322 0
-360 329 323 -57 0
-360 329 323 322 0
-360 -59 -62 -63 0
-360 -59 -62 337 0
-360 -59 338 -63 0
-360 -59 338 337 0
-360 344 -62 -63 0
-360 344 -62 337 0
-360 344 338 -63 0
-360 344 338 337 0
-360 -64 -67 -68 0
-360 -64 -67 347 0
-360 -64 348 -68 0
-360 -64 348 347 0
-360 354 -67 -68 0
-360 354 -67 347 0
-360 354 348 -68 0
-360 354 348 347 0
-360 -69 -74 -75 0
-360 -69 -74 356 0
-360 -69 357 -75 0
-360 -69 357 356 0
-360 363 -74 -75 0
-360 363 -74 356 0
-360 363 357 -75 0
-360 363 357 356 0
-360 -70 -76 -77 0
-360 -70 -76 358 0
-360 -70 359 -77 0
-360 -70 359 358 0
-360 364 -76 -77 0
-360 364 -76 358 0
-360 364 359 -77 0
-360 364 359 358 0
-361 -9 -10 -11 0
-361 -9 -10 139 0
-361 -9 140 -11 0
-361 -9 140 139 0
-361 142 -10 -11 0
-361 142 -10 139 0
-361 142 140 -11 0
-361 142 140 139 0
-361 -20 -21 -22 0
-361 -20 -21 194 0
-361 -20 195 -22 0
-361 -20 195 194 0
-361 197 -21 -22 0
-361 197 -21 194 0
-361 197 195 -22 0
-361 197 195 194 0
-361 -30 -31 -32 0
-361 -30 -31 239 0
-361 -30 240 -32 0
-361 -30 240 239 0
-361 242 -31 -32 0
-361 242 -31 239 0
-361 242 240 -32 0
-361 242 240 239 0
-361 -39 -40 -41 0
-361 -39 -40 275 0
-361 -39 276 -41 0
-361 -39 276 275 0
-361 278 -40 -41 0
-361 278 -40 275 0
-361 278 276 -41 0
-361 278 276 275 0
-361 -47 -48 -49 0
-361 -47 -48 303 0
-361 -47 304 -49 0
-361 -47 304 303 0
-361 306 -48 -49 0
-361 306 -48 303 0
-361 306 304 -49 0
-361 306 304 303 0
-361 -54 -55 -56 0
-361 -54 -55 324 0
-361 -54 325 -56 0
-361 -54 325 324 0
-361 327 -55 -56 0
-361 327 -55 324 0
-361 327 325 -56 0
-361 327 325 324 0
-361 -60 -61 -62 0
-361 -60 -61 339 0
-361 -60 340 -62 0
-361 -60 340 339 0
-361 342 -61 -62 0
-361 342 -61 339 0
-361 342 340 -62 0
-361 342 340 339 0
-361 -65 -66 -67 0
-361 -65 -66 349 0
-361 -65 350 -67 0
-361 -65 350 349 0
-361 352 -66 -67 0
-361 352 -66 349 0
-361 352 350 -67 0
-361 352 350 349 0
-361 -69 -70 -71 0
-361 -69 -70 355 0
-361 -69 356 -71 0
-361 -69 356 355 0
-361 358 -70 -71 0
-361 358 -70 355 0
-361 358 356 -71 0
-361 358 356 355 0
-361 -75 -77 -78 0
-361 -75 -77 362 0
-361 -75 363 -78 0
-361 -75 363 362 0
-361 364 -77 -78 0
-361 364 -77 362 0
-361 364 363 -78 0
-361 364 363 362 0
-362 -9 -10 -12 0
-362 -9 -10 139 0
-362 -9 141 -12 0
-362 -9 141 139 0
-362 143 -10 -12 0
-362 143 -10 139 0
-362 143 141 -12 0
-362 143 141 139 0
-362 -20 -21 -23 0
-362 -20 -21 194 0
-362 -20 196 -23 0
-362 -20 196 194 0
-362 198 -21 -23 0
-362 198 -21 194 0
-362 198 196 -23 0
-362 198 196 194 0
-362 -30 -31 -33 0
-362 -30 -31 239 0
-362 -30 241 -33 0
-362 -30 241 239 0
-362 243 -31 -33 0
-362 243 -31 239 0
-362 243 241 -33 0
-362 243 241 239 0
-362 -39 -40 -42 0
-362 -39 -40 275 0
-362 -39 277 -42 0
-362 -39 277 275 0
-362 279 -40 -42 0
-362 279 -40 275 0
-362 279 277 -42 0
-362 279 277 275 0
-362 -47 -48 -50 0
-362 -47 -48 303 0
-362 -47 305 -50 0
-362 -47 305 303 0
-362 307 -48 -50 0
-362 307 -48 303 0
-362 307 305 -50 0
-362 307 305 303 0
-362 -54 -55 -57 0
-362 -54 -55 324 0
-362 -54 326 -57 0
-362 -54 326 324 0
-362 328 -55 -57 0
-362 328 -55 324 0
-362 328 326 -57 0
-362 328 326 324 0
-362 -60 -61 -63 0
-362 -60 -61 339 0
-362 -60 341 -63 0
-362 -60 341 339 0
-362 343 -61 -63 0
-362 343 -61 339 0
-362 343 341 -63 0
-362 343 341 339 0
-362 -65 -66 -68 0
-362 -65 -66 349 0
-362 -65 351 -68 0
-362 -65 351 349 0
-362 353 -66 -68 0
-362 353 -66 349 0
-362 353 351 -68 0
-362 353 351 349 0
-362 -69 -70 -72 0
-362 -69 -70 355 0
-362 -69 357 -72 0
-362 -69 357 355 0
-362 359 -70 -72 0
-362 359 -70 355 0
-362 359 357 -72 0
-362 359 357 355 0
-362 -74 -76 -78 0
-362 -74 -76 361 0
-362 -74 363 -78 0
-362 -74 363 361 0
-362 364 -76 -78 0
-362 364 -76 361 0
-362 364 363 -78 0
-362 364 363 361 0
-363 -9 -11 -12 0
-363 -9 -11 140 0
-363 -9 141 -12 0
-363 -9 141 140 0
-363 144 -11 -12 0
-363 144 -11 140 0
-363 144 141 -12 0
-363 144 141 140 0
-363 -20 -22 -23 0
-363 -20 -22 195 0
-363 -20 196 -23 0
-363 -20 196 195 0
-363 199 -22 -23 0
-363 199 -22 195 0
-363 199 196 -23 0
-363 199 196 195 0
-363 -30 -32 -33 0
-363 -30 -32 240 0
-363 -30 241 -33 0
-363 -30 241 240 0
-363 244 -32 -33 0
-363 244 -32 240 0
-363 244 241 -33 0
-363 244 241 240 0
-363 -39 -41 -42 0
-363 -39 -41 276 0
-363 -39 277 -42 0
-363 -39 277 276 0
-363 280 -41 -42 0
-363 280 -41 276 0
-363 280 277 -42 0
-363 280 277 276 0
-363 -47 -49 -50 0
-363 -47 -49 304 0
-363 -47 305 -50 0
-363 -47 305 304 0
-363 308 -49 -50 0
-363 308 -49 304 0
-363 308 305 -50 0
-363 308 305 304 0
-363 -54 -56 -57 0
-363 -54 -56 325 0
-363 -54 326 -57 0
-363 -54 326 325 0
-363 329 -56 -57 0
-363 329 -56 325 0
-363 329 326 -57 0
-363 329 326 325 0
-363 -60 -62 -63 0
-363 -60 -62 340 0
-363 -60 341 -63 0
-363 -60 341 340 0
-363 344 -62 -63 0
-363 344 -62 340 0
-363 344 341 -63 0
-363 344 341 340 0
-363 -65 -67 -68 0
-363 -65 -67 350 0
-363 -65 351 -68 0
-363 -65 351 350 0
-363 354 -67 -68 0
-363 354 -67 350 0
-363 354 351 -68 0
-363 354 351 350 0
-363 -69 -71 -72 0
-363 -69 -71 356 0
-363 -69 357 -72 0
-363 -69 357 356 0
-363 360 -71 -72 0
-363 360 -71 356 0
-363 360 357 -72 0
-363 360 357 356 0
-363 -73 -76 -77 0
-363 -73 -76 361 0
-363 -73 362 -77 0
-363 -73 362 361 0
-363 364 -76 -77 0
-363 364 -76 361 0
-363 364 362 -77 0
-363 364 362 361 0
-364 -10 -11 -12 0
-364 -10 -11 142 0
-364 -10 143 -12 0
-364 -10 143 142 0
-364 144 -11 -12 0
-364 144 -11 142 0
-364 144 143 -12 0
-364 144 143 142 0
-364 -21 -22 -23 0
-364 -21 -22 197 0
-364 -21 198 -23 0
-364 -21 198 197 0
-364 199 -22 -23 0
-364 199 -22 197 0
-364 199 198 -23 0
-364 199 198 197 0
-364 -31 -32 -33 0
-364 -31 -32 242 0
-364 -31 243 -33 0
-364 -31 243 242 0
-364 244 -32 -33 0
-364 244 -32 242 0
-364 244 243 -33 0
-364 244 243 242 0
-364 -40 -41 -42 0
-364 -40 -41 278 0
-364 -40 279 -42 0
-364 -40 279 278 0
-364 280 -41 -42 0
-364 280 -41 278 0
-364 280 279 -42 0
-364 280 279 278 0
-364 -48 -49 -50 0
-364 -48 -49 306 0
-364 -48 307 -50 0
-364 -48 307 306 0
-364 308 -49 -50 0
-364 308 -49 306 0
-364 308 307 -50 0
-364 308 307 306 0
-364 -55 -56 -57 0
-364 -55 -56 327 0
-364 -55 328 -57 0
-364 -55 328 327 0
-364 329 -56 -57 0
-364 329 -56 327 0
-364 329 328 -57 0
-364 329 328 327 0
-364 -61 -62 -63 0
-364 -61 -62 342 0
-364 -61 343 -63 0
-364 -61 343 342 0
-364 344 -62 -63 0
-364 344 -62 342 0
-364 344 343 -63 0
-364 344 343 342 0
-364 -66 -67 -68 0
-364 -66 -67 352 0
-364 -66 353 -68 0
-364 -66 353 352 0
-364 354 -67 -68 0
-364 354 -67 352 0
-364 354 353 -68 0
-364 354 353 352 0
-364 -70 -71 -72 0
-364 -70 -71 358 0
-364 -70 359 -72 0
-364 -70 359 358 0
-364 360 -71 -72 0
-364 360 -71 358 0
-364 360 359 -72 0
-364 360 359 358 0
-364 -73 -74 -75 0
-364 -73 -74 361 0
-364 -73 362 -75 0
-364 -73 362 361 0
-364 363 -74 -75 0
-364 363 -74 361 0
-364 363 362 -75 0
-364 363 362 361 0
1 0
2 0
13 0
79 0
-8 0
-19 0
-29 0
-9 0
-20 0
-30 0
-10 0
-21 0
-31 0
-11 0
-22 0
-32 0
145 0
80 0
147 0
92 0
