p cnf 476 1155
-22 -3 -8 -12 0
-22 -4 -9 -13 0
-22 -5 -10 -14 0
-22 -6 -11 -15 0
-23 -2 -7 -12 0
-23 -4 -9 -16 0
-23 -5 -10 -17 0
-23 -6 -11 -18 0
-24 -2 -7 -13 0
-24 -3 -8 -16 0
-24 -5 -10 -19 0
-24 -6 -11 -20 0
-25 -2 -7 -14 0
-25 -3 -8 -17 0
-25 -4 -9 -19 0
-25 -6 -11 -21 0
-26 -2 -7 -15 0
-26 -3 -8 -18 0
-26 -4 -9 -20 0
-26 -5 -10 -21 0
-27 -1 -7 -8 0
-27 -4 -13 -16 0
-27 -5 -14 -17 0
-27 -6 -15 -18 0
-28 -1 -7 -9 0
-28 -3 -12 -16 0
-28 -5 -14 -19 0
-28 -6 -15 -20 0
-29 -1 -7 -10 0
-29 -3 -12 -17 0
-29 -4 -13 -19 0
-29 -6 -15 -21 0
-30 -1 -7 -11 0
-30 -3 -12 -18 0
-30 -4 -13 -20 0
-30 -5 -14 -21 0
-31 -1 -8 -9 0
-31 -2 -12 -13 0
-31 -5 -17 -19 0
-31 -6 -18 -20 0
-32 -1 -8 -10 0
-32 -2 -12 -14 0
-32 -4 -16 -19 0
-32 -6 -18 -21 0
-33 -1 -8 -11 0
-33 -2 -12 -15 0
-33 -4 -16 -20 0
-33 -5 -17 -21 0
-34 -1 -9 -10 0
-34 -2 -13 -14 0
-34 -3 -16 -17 0
-34 -6 -20 -21 0
-35 -1 -9 -11 0
-35 -2 -13 -15 0
-35 -3 -16 -18 0
-35 -5 -19 -21 0
-36 -1 -10 -11 0
-36 -2 -14 -15 0
-36 -3 -17 -18 0
-36 -4 -19 -20 0
-37 -1 -2 -3 0
-37 -9 -13 -16 0
-37 -10 -14 -17 0
-37 -11 -15 -18 0
-38 -1 -2 -4 0
-38 -8 -12 -16 0
-38 -10 -14 -19 0
-38 -11 -15 -20 0
-39 -1 -2 -5 0
-39 -8 -12 -17 0
-39 -9 -13 -19 0
-39 -11 -15 -21 0
-40 -1 -2 -6 0
-40 -8 -12 -18 0
-40 -9 -13 -20 0
-40 -10 -14 -21 0
-41 -1 -3 -4 0
-41 -7 -12 -13 0
-41 -10 -17 -19 0
-41 -11 -18 -20 0
-42 -1 -3 -5 0
-42 -7 -12 -14 0
-42 -9 -16 -19 0
-42 -11 -18 -21 0
-43 -1 -3 -6 0
-43 -7 -12 -15 0
-43 -9 -16 -20 0
-43 -10 -17 -21 0
-44 -1 -4 -5 0
-44 -7 -13 -14 0
-44 -8 -16 -17 0
-44 -11 -20 -21 0
-45 -1 -4 -6 0
-45 -7 -13 -15 0
-45 -8 -16 -18 0
-45 -10 -19 -21 0
-46 -1 -5 -6 0
-46 -7 -14 -15 0
-46 -8 -17 -18 0
-46 -9 -19 -20 0
-47 -2 -3 -4 0
-47 -7 -8 -9 0
-47 -14 -17 -19 0
-47 -15 -18 -20 0
-48 -2 -3 -5 0
-48 -7 -8 -10 0
-48 -13 -16 -19 0
-48 -15 -18 -21 0
-49 -2 -3 -6 0
-49 -7 -8 -11 0
-49 -13 -16 -20 0
-49 -14 -17 -21 0
-50 -2 -4 -5 0
-50 -7 -9 -10 0
-50 -12 -16 -17 0
-50 -15 -20 -21 0
-51 -2 -4 -6 0
-51 -7 -9 -11 0
-51 -12 -16 -18 0
-51 -14 -19 -21 0
-52 -2 -5 -6 0
-52 -7 -10 -11 0
-52 -12 -17 -18 0
-52 -13 -19 -20 0
-53 -3 -4 -5 0
-53 -8 -9 -10 0
-53 -12 -13 -14 0
-53 -18 -20 -21 0
-54 -3 -4 -6 0
-54 -8 -9 -11 0
-54 -12 -13 -15 0
-54 -17 -19 -21 0
-55 -3 -5 -6 0
-55 -8 -10 -11 0
-55 -12 -14 -15 0
-55 -16 -19 -20 0
-56 -4 -5 -6 0
-56 -9 -10 -11 0
-56 -13 -14 -15 0
-56 -16 -17 -18 0
-57 -3 0
-57 37 0
-58 -8 0
-58 27 0
-59 -12 0
-59 23 0
-22 57 58 59 0
-60 -4 0
-60 38 0
-61 -9 0
-61 28 0
-62 -13 0
-62 24 0
-22 60 61 62 0
-63 -5 0
-63 39 0
-64 -10 0
-64 29 0
-65 -14 0
-65 25 0
-22 63 64 65 0
-66 -6 0
-66 40 0
-67 -11 0
-67 30 0
-68 -15 0
-68 26 0
-22 66 67 68 0
-69 -2 0
-69 37 0
-70 -7 0
-70 27 0
-71 -12 0
-71 22 0
-23 69 70 71 0
-72 -4 0
-72 41 0
-73 -9 0
-73 31 0
-74 -16 0
-74 24 0
-23 72 73 74 0
-75 -5 0
-75 42 0
-76 -10 0
-76 32 0
-77 -17 0
-77 25 0
-23 75 76 77 0
-78 -6 0
-78 43 0
-79 -11 0
-79 33 0
-80 -18 0
-80 26 0
-23 78 79 80 0
-81 -2 0
-81 38 0
-82 -7 0
-82 28 0
-83 -13 0
-83 22 0
-24 81 82 83 0
-84 -3 0
-84 41 0
-85 -8 0
-85 31 0
-86 -16 0
-86 23 0
-24 84 85 86 0
-87 -5 0
-87 44 0
-88 -10 0
-88 34 0
-89 -19 0
-89 25 0
-24 87 88 89 0
-90 -6 0
-90 45 0
-91 -11 0
-91 35 0
-92 -20 0
-92 26 0
-24 90 91 92 0
-93 -2 0
-93 39 0
-94 -7 0
-94 29 0
-95 -14 0
-95 22 0
-25 93 94 95 0
-96 -3 0
-96 42 0
-97 -8 0
-97 32 0
-98 -17 0
-98 23 0
-25 96 97 98 0
-99 -4 0
-99 44 0
-100 -9 0
-100 34 0
-101 -19 0
-101 24 0
-25 99 100 101 0
-102 -6 0
-102 46 0
-103 -11 0
-103 36 0
-104 -21 0
-104 26 0
-25 102 103 104 0
-105 -2 0
-105 40 0
-106 -7 0
-106 30 0
-107 -15 0
-107 22 0
-26 105 106 107 0
-108 -3 0
-108 43 0
-109 -8 0
-109 33 0
-110 -18 0
-110 23 0
-26 108 109 110 0
-111 -4 0
-111 45 0
-112 -9 0
-112 35 0
-113 -20 0
-113 24 0
-26 111 112 113 0
-114 -5 0
-114 46 0
-115 -10 0
-115 36 0
-116 -21 0
-116 25 0
-26 114 115 116 0
-117 -1 0
-117 37 0
-118 -7 0
-118 23 0
-119 -8 0
-119 22 0
-27 117 118 119 0
-120 -4 0
-120 47 0
-121 -13 0
-121 31 0
-122 -16 0
-122 28 0
-27 120 121 122 0
-123 -5 0
-123 48 0
-124 -14 0
-124 32 0
-125 -17 0
-125 29 0
-27 123 124 125 0
-126 -6 0
-126 49 0
-127 -15 0
-127 33 0
-128 -18 0
-128 30 0
-27 126 127 128 0
-129 -1 0
-129 38 0
-130 -7 0
-130 24 0
-131 -9 0
-131 22 0
-28 129 130 131 0
-132 -3 0
-132 47 0
-133 -12 0
-133 31 0
-134 -16 0
-134 27 0
-28 132 133 134 0
-135 -5 0
-135 50 0
-136 -14 0
-136 34 0
-137 -19 0
-137 29 0
-28 135 136 137 0
-138 -6 0
-138 51 0
-139 -15 0
-139 35 0
-140 -20 0
-140 30 0
-28 138 139 140 0
-141 -1 0
-141 39 0
-142 -7 0
-142 25 0
-143 -10 0
-143 22 0
-29 141 142 143 0
-144 -3 0
-144 48 0
-145 -12 0
-145 32 0
-146 -17 0
-146 27 0
-29 144 145 146 0
-147 -4 0
-147 50 0
-148 -13 0
-148 34 0
-149 -19 0
-149 28 0
-29 147 148 149 0
-150 -6 0
-150 52 0
-151 -15 0
-151 36 0
-152 -21 0
-152 30 0
-29 150 151 152 0
-153 -1 0
-153 40 0
-154 -7 0
-154 26 0
-155 -11 0
-155 22 0
-30 153 154 155 0
-156 -3 0
-156 49 0
-157 -12 0
-157 33 0
-158 -18 0
-158 27 0
-30 156 157 158 0
-159 -4 0
-159 51 0
-160 -13 0
-160 35 0
-161 -20 0
-161 28 0
-30 159 160 161 0
-162 -5 0
-162 52 0
-163 -14 0
-163 36 0
-164 -21 0
-164 29 0
-30 162 163 164 0
-165 -1 0
-165 41 0
-166 -8 0
-166 24 0
-167 -9 0
-167 23 0
-31 165 166 167 0
-168 -2 0
-168 47 0
-169 -12 0
-169 28 0
-170 -13 0
-170 27 0
-31 168 169 170 0
-171 -5 0
-171 53 0
-172 -17 0
-172 34 0
-173 -19 0
-173 32 0
-31 171 172 173 0
-174 -6 0
-174 54 0
-175 -18 0
-175 35 0
-176 -20 0
-176 33 0
-31 174 175 176 0
-177 -1 0
-177 42 0
-178 -8 0
-178 25 0
-179 -10 0
-179 23 0
-32 177 178 179 0
-180 -2 0
-180 48 0
-181 -12 0
-181 29 0
-182 -14 0
-182 27 0
-32 180 181 182 0
-183 -4 0
-183 53 0
-184 -16 0
-184 34 0
-185 -19 0
-185 31 0
-32 183 184 185 0
-186 -6 0
-186 55 0
-187 -18 0
-187 36 0
-188 -21 0
-188 33 0
-32 186 187 188 0
-189 -1 0
-189 43 0
-190 -8 0
-190 26 0
-191 -11 0
-191 23 0
-33 189 190 191 0
-192 -2 0
-192 49 0
-193 -12 0
-193 30 0
-194 -15 0
-194 27 0
-33 192 193 194 0
-195 -4 0
-195 54 0
-196 -16 0
-196 35 0
-197 -20 0
-197 31 0
-33 195 196 197 0
-198 -5 0
-198 55 0
-199 -17 0
-199 36 0
-200 -21 0
-200 32 0
-33 198 199 200 0
-201 -1 0
-201 44 0
-202 -9 0
-202 25 0
-203 -10 0
-203 24 0
-34 201 202 203 0
-204 -2 0
-204 50 0
-205 -13 0
-205 29 0
-206 -14 0
-206 28 0
-34 204 205 206 0
-207 -3 0
-207 53 0
-208 -16 0
-208 32 0
-209 -17 0
-209 31 0
-34 207 208 209 0
-210 -6 0
-210 56 0
-211 -20 0
-211 36 0
-212 -21 0
-212 35 0
-34 210 211 212 0
-213 -1 0
-213 45 0
-214 -9 0
-214 26 0
-215 -11 0
-215 24 0
-35 213 214 215 0
-216 -2 0
-216 51 0
-217 -13 0
-217 30 0
-218 -15 0
-218 28 0
-35 216 217 218 0
-219 -3 0
-219 54 0
-220 -16 0
-220 33 0
-221 -18 0
-221 31 0
-35 219 220 221 0
-222 -5 0
-222 56 0
-223 -19 0
-223 36 0
-224 -21 0
-224 34 0
-35 222 223 224 0
-225 -1 0
-225 46 0
-226 -10 0
-226 26 0
-227 -11 0
-227 25 0
-36 225 226 227 0
-228 -2 0
-228 52 0
-229 -14 0
-229 30 0
-230 -15 0
-230 29 0
-36 228 229 230 0
-231 -3 0
-231 55 0
-232 -17 0
-232 33 0
-233 -18 0
-233 32 0
-36 231 232 233 0
-234 -4 0
-234 56 0
-235 -19 0
-235 35 0
-236 -20 0
-236 34 0
-36 234 235 236 0
-237 -1 0
-237 27 0
-238 -2 0
-238 23 0
-239 -3 0
-239 22 0
-37 237 238 239 0
-240 -9 0
-240 47 0
-241 -13 0
-241 41 0
-242 -16 0
-242 38 0
-37 240 241 242 0
-243 -10 0
-243 48 0
-244 -14 0
-244 42 0
-245 -17 0
-245 39 0
-37 243 244 245 0
-246 -11 0
-246 49 0
-247 -15 0
-247 43 0
-248 -18 0
-248 40 0
-37 246 247 248 0
-249 -1 0
-249 28 0
-250 -2 0
-250 24 0
-251 -4 0
-251 22 0
-38 249 250 251 0
-252 -8 0
-252 47 0
-253 -12 0
-253 41 0
-254 -16 0
-254 37 0
-38 252 253 254 0
-255 -10 0
-255 50 0
-256 -14 0
-256 44 0
-257 -19 0
-257 39 0
-38 255 256 257 0
-258 -11 0
-258 51 0
-259 -15 0
-259 45 0
-260 -20 0
-260 40 0
-38 258 259 260 0
-261 -1 0
-261 29 0
-262 -2 0
-262 25 0
-263 -5 0
-263 22 0
-39 261 262 263 0
-264 -8 0
-264 48 0
-265 -12 0
-265 42 0
-266 -17 0
-266 37 0
-39 264 265 266 0
-267 -9 0
-267 50 0
-268 -13 0
-268 44 0
-269 -19 0
-269 38 0
-39 267 268 269 0
-270 -11 0
-270 52 0
-271 -15 0
-271 46 0
-272 -21 0
-272 40 0
-39 270 271 272 0
-273 -1 0
-273 30 0
-274 -2 0
-274 26 0
-275 -6 0
-275 22 0
-40 273 274 275 0
-276 -8 0
-276 49 0
-277 -12 0
-277 43 0
-278 -18 0
-278 37 0
-40 276 277 278 0
-279 -9 0
-279 51 0
-280 -13 0
-280 45 0
-281 -20 0
-281 38 0
-40 279 280 281 0
-282 -10 0
-282 52 0
-283 -14 0
-283 46 0
-284 -21 0
-284 39 0
-40 282 283 284 0
-285 -1 0
-285 31 0
-286 -3 0
-286 24 0
-287 -4 0
-287 23 0
-41 285 286 287 0
-288 -7 0
-288 47 0
-289 -12 0
-289 38 0
-290 -13 0
-290 37 0
-41 288 289 290 0
-291 -10 0
-291 53 0
-292 -17 0
-292 44 0
-293 -19 0
-293 42 0
-41 291 292 293 0
-294 -11 0
-294 54 0
-295 -18 0
-295 45 0
-296 -20 0
-296 43 0
-41 294 295 296 0
-297 -1 0
-297 32 0
-298 -3 0
-298 25 0
-299 -5 0
-299 23 0
-42 297 298 299 0
-300 -7 0
-300 48 0
-301 -12 0
-301 39 0
-302 -14 0
-302 37 0
-42 300 301 302 0
-303 -9 0
-303 53 0
-304 -16 0
-304 44 0
-305 -19 0
-305 41 0
-42 303 304 305 0
-306 -11 0
-306 55 0
-307 -18 0
-307 46 0
-308 -21 0
-308 43 0
-42 306 307 308 0
-309 -1 0
-309 33 0
-310 -3 0
-310 26 0
-311 -6 0
-311 23 0
-43 309 310 311 0
-312 -7 0
-312 49 0
-313 -12 0
-313 40 0
-314 -15 0
-314 37 0
-43 312 313 314 0
-315 -9 0
-315 54 0
-316 -16 0
-316 45 0
-317 -20 0
-317 41 0
-43 315 316 317 0
-318 -10 0
-318 55 0
-319 -17 0
-319 46 0
-320 -21 0
-320 42 0
-43 318 319 320 0
-321 -1 0
-321 34 0
-322 -4 0
-322 25 0
-323 -5 0
-323 24 0
-44 321 322 323 0
-324 -7 0
-324 50 0
-325 -13 0
-325 39 0
-326 -14 0
-326 38 0
-44 324 325 326 0
-327 -8 0
-327 53 0
-328 -16 0
-328 42 0
-329 -17 0
-329 41 0
-44 327 328 329 0
-330 -11 0
-330 56 0
-331 -20 0
-331 46 0
-332 -21 0
-332 45 0
-44 330 331 332 0
-333 -1 0
-333 35 0
-334 -4 0
-334 26 0
-335 -6 0
-335 24 0
-45 333 334 335 0
-336 -7 0
-336 51 0
-337 -13 0
-337 40 0
-338 -15 0
-338 38 0
-45 336 337 338 0
-339 -8 0
-339 54 0
-340 -16 0
-340 43 0
-341 -18 0
-341 41 0
-45 339 340 341 0
-342 -10 0
-342 56 0
-343 -19 0
-343 46 0
-344 -21 0
-344 44 0
-45 342 343 344 0
-345 -1 0
-345 36 0
-346 -5 0
-346 26 0
-347 -6 0
-347 25 0
-46 345 346 347 0
-348 -7 0
-348 52 0
-349 -14 0
-349 40 0
-350 -15 0
-350 39 0
-46 348 349 350 0
-351 -8 0
-351 55 0
-352 -17 0
-352 43 0
-353 -18 0
-353 42 0
-46 351 352 353 0
-354 -9 0
-354 56 0
-355 -19 0
-355 45 0
-356 -20 0
-356 44 0
-46 354 355 356 0
-357 -2 0
-357 31 0
-358 -3 0
-358 28 0
-359 -4 0
-359 27 0
-47 357 358 359 0
-360 -7 0
-360 41 0
-361 -8 0
-361 38 0
-362 -9 0
-362 37 0
-47 360 361 362 0
-363 -14 0
-363 53 0
-364 -17 0
-364 50 0
-365 -19 0
-365 48 0
-47 363 364 365 0
-366 -15 0
-366 54 0
-367 -18 0
-367 51 0
-368 -20 0
-368 49 0
-47 366 367 368 0
-369 -2 0
-369 32 0
-370 -3 0
-370 29 0
-371 -5 0
-371 27 0
-48 369 370 371 0
-372 -7 0
-372 42 0
-373 -8 0
-373 39 0
-374 -10 0
-374 37 0
-48 372 373 374 0
-375 -13 0
-375 53 0
-376 -16 0
-376 50 0
-377 -19 0
-377 47 0
-48 375 376 377 0
-378 -15 0
-378 55 0
-379 -18 0
-379 52 0
-380 -21 0
-380 49 0
-48 378 379 380 0
-381 -2 0
-381 33 0
-382 -3 0
-382 30 0
-383 -6 0
-383 27 0
-49 381 382 383 0
-384 -7 0
-384 43 0
-385 -8 0
-385 40 0
-386 -11 0
-386 37 0
-49 384 385 386 0
-387 -13 0
-387 54 0
-388 -16 0
-388 51 0
-389 -20 0
-389 47 0
-49 387 388 389 0
-390 -14 0
-390 55 0
-391 -17 0
-391 52 0
-392 -21 0
-392 48 0
-49 390 391 392 0
-393 -2 0
-393 34 0
-394 -4 0
-394 29 0
-395 -5 0
-395 28 0
-50 393 394 395 0
-396 -7 0
-396 44 0
-397 -9 0
-397 39 0
-398 -10 0
-398 38 0
-50 396 397 398 0
-399 -12 0
-399 53 0
-400 -16 0
-400 48 0
-401 -17 0
-401 47 0
-50 399 400 401 0
-402 -15 0
-402 56 0
-403 -20 0
-403 52 0
-404 -21 0
-404 51 0
-50 402 403 404 0
-405 -2 0
-405 35 0
-406 -4 0
-406 30 0
-407 -6 0
-407 28 0
-51 405 406 407 0
-408 -7 0
-408 45 0
-409 -9 0
-409 40 0
-410 -11 0
-410 38 0
-51 408 409 410 0
-411 -12 0
-411 54 0
-412 -16 0
-412 49 0
-413 -18 0
-413 47 0
-51 411 412 413 0
-414 -14 0
-414 56 0
-415 -19 0
-415 52 0
-416 -21 0
-416 50 0
-51 414 415 416 0
-417 -2 0
-417 36 0
-418 -5 0
-418 30 0
-419 -6 0
-419 29 0
-52 417 418 419 0
-420 -7 0
-420 46 0
-421 -10 0
-421 40 0
-422 -11 0
-422 39 0
-52 420 421 422 0
-423 -12 0
-423 55 0
-424 -17 0
-424 49 0
-425 -18 0
-425 48 0
-52 423 424 425 0
-426 -13 0
-426 56 0
-427 -19 0
-427 51 0
-428 -20 0
-428 50 0
-52 426 427 428 0
-429 -3 0
-429 34 0
-430 -4 0
-430 32 0
-431 -5 0
-431 31 0
-53 429 430 431 0
-432 -8 0
-432 44 0
-433 -9 0
-433 42 0
-434 -10 0
-434 41 0
-53 432 433 434 0
-435 -12 0
-435 50 0
-436 -13 0
-436 48 0
-437 -14 0
-437 47 0
-53 435 436 437 0
-438 -18 0
-438 56 0
-439 -20 0
-439 55 0
-440 -21 0
-440 54 0
-53 438 439 440 0
-441 -3 0
-441 35 0
-442 -4 0
-442 33 0
-443 -6 0
-443 31 0
-54 441 442 443 0
-444 -8 0
-444 45 0
-445 -9 0
-445 43 0
-446 -11 0
-446 41 0
-54 444 445 446 0
-447 -12 0
-447 51 0
-448 -13 0
-448 49 0
-449 -15 0
-449 47 0
-54 447 448 449 0
-450 -17 0
-450 56 0
-451 -19 0
-451 55 0
-452 -21 0
-452 53 0
-54 450 451 452 0
-453 -3 0
-453 36 0
-454 -5 0
-454 33 0
-455 -6 0
-455 32 0
-55 453 454 455 0
-456 -8 0
-456 46 0
-457 -10 0
-457 43 0
-458 -11 0
-458 42 0
-55 456 457 458 0
-459 -12 0
-459 52 0
-460 -14 0
-460 49 0
-461 -15 0
-461 48 0
-55 459 460 461 0
-462 -16 0
-462 56 0
-463 -19 0
-463 54 0
-464 -20 0
-464 53 0
-55 462 463 464 0
-465 -4 0
-465 36 0
-466 -5 0
-466 35 0
-467 -6 0
-467 34 0
-56 465 466 467 0
-468 -9 0
-468 46 0
-469 -10 0
-469 45 0
-470 -11 0
-470 44 0
-56 468 469 470 0
-471 -13 0
-471 52 0
-472 -14 0
-472 51 0
-473 -15 0
-473 50 0
-56 471 472 473 0
-474 -16 0
-474 55 0
-475 -17 0
-475 54 0
-476 -18 0
-476 53 0
-56 474 475 476 0
1 0
-2 0
-3 0
4 0
7 0
-8 0
-9 0
12 0
-13 0
16 0
5 0
10 0
25 0
-46 0
-36 0
10 0
14 0
39 0
-52 0
-46 0
14 0
17 0
48 0
-55 0
-52 0
17 0
19 0
53 0
-56 0
-55 0
19 0
5 0
34 0
-36 0
-56 0
