p cnf 924 2275
-29 -3 -9 -14 0
-29 -4 -10 -15 0
-29 -5 -11 -16 0
-29 -6 -12 -17 0
-29 -7 -13 -18 0
-30 -2 -8 -14 0
-30 -4 -10 -19 0
-30 -5 -11 -20 0
-30 -6 -12 -21 0
-30 -7 -13 -22 0
-31 -2 -8 -15 0
-31 -3 -9 -19 0
-31 -5 -11 -23 0
-31 -6 -12 -24 0
-31 -7 -13 -25 0
-32 -2 -8 -16 0
-32 -3 -9 -20 0
-32 -4 -10 -23 0
-32 -6 -12 -26 0
-32 -7 -13 -27 0
-33 -2 -8 -17 0
-33 -3 -9 -21 0
-33 -4 -10 -24 0
-33 -5 -11 -26 0
-33 -7 -13 -28 0
-34 -2 -8 -18 0
-34 -3 -9 -22 0
-34 -4 -10 -25 0
-34 -5 -11 -27 0
-34 -6 -12 -28 0
-35 -1 -8 -9 0
-35 -4 -15 -19 0
-35 -5 -16 -20 0
-35 -6 -17 -21 0
-35 -7 -18 -22 0
-36 -1 -8 -10 0
-36 -3 -14 -19 0
-36 -5 -16 -23 0
-36 -6 -17 -24 0
-36 -7 -18 -25 0
-37 -1 -8 -11 0
-37 -3 -14 -20 0
-37 -4 -15 -23 0
-37 -6 -17 -26 0
-37 -7 -18 -27 0
-38 -1 -8 -12 0
-38 -3 -14 -21 0
-38 -4 -15 -24 0
-38 -5 -16 -26 0
-38 -7 -18 -28 0
-39 -1 -8 -13 0
-39 -3 -14 -22 0
-39 -4 -15 -25 0
-39 -5 -16 -27 0
-39 -6 -17 -28 0
-40 -1 -9 -10 0
-40 -2 -14 -15 0
-40 -5 -20 -23 0
-40 -6 -21 -24 0
-40 -7 -22 -25 0
-41 -1 -9 -11 0
-41 -2 -14 -16 0
-41 -4 -19 -23 0
-41 -6 -21 -26 0
-41 -7 -22 -27 0
-42 -1 -9 -12 0
-42 -2 -14 -17 0
-42 -4 -19 -24 0
-42 -5 -20 -26 0
-42 -7 -22 -28 0
-43 -1 -9 -13 0
-43 -2 -14 -18 0
-43 -4 -19 -25 0
-43 -5 -20 -27 0
-43 -6 -21 -28 0
-44 -1 -10 -11 0
-44 -2 -15 -16 0
-44 -3 -19 -20 0
-44 -6 -24 -26 0
-44 -7 -25 -27 0
-45 -1 -10 -12 0
-45 -2 -15 -17 0
-45 -3 -19 -21 0
-45 -5 -23 -26 0
-45 -7 -25 -28 0
-46 -1 -10 -13 0
-46 -2 -15 -18 0
-46 -3 -19 -22 0
-46 -5 -23 -27 0
-46 -6 -24 -28 0
-47 -1 -11 -12 0
-47 -2 -16 -17 0
-47 -3 -20 -21 0
-47 -4 -23 -24 0
-47 -7 -27 -28 0
-48 -1 -11 -13 0
-48 -2 -16 -18 0
-48 -3 -20 -22 0
-48 -4 -23 -25 0
-48 -6 -26 -28 0
-49 -1 -12 -13 0
-49 -2 -17 -18 0
-49 -3 -21 -22 0
-49 -4 -24 -25 0
-49 -5 -26 -27 0
-50 -1 -2 -3 0
-50 -10 -15 -19 0
-50 -11 -16 -20 0
-50 -12 -17 -21 0
-50 -13 -18 -22 0
-51 -1 -2 -4 0
-51 -9 -14 -19 0
-51 -11 -16 -23 0
-51 -12 -17 -24 0
-51 -13 -18 -25 0
-52 -1 -2 -5 0
-52 -9 -14 -20 0
-52 -10 -15 -23 0
-52 -12 -17 -26 0
-52 -13 -18 -27 0
-53 -1 -2 -6 0
-53 -9 -14 -21 0
-53 -10 -15 -24 0
-53 -11 -16 -26 0
-53 -13 -18 -28 0
-54 -1 -2 -7 0
-54 -9 -14 -22 0
-54 -10 -15 -25 0
-54 -11 -16 -27 0
-54 -12 -17 -28 0
-55 -1 -3 -4 0
-55 -8 -14 -15 0
-55 -11 -20 -23 0
-55 -12 -21 -24 0
-55 -13 -22 -25 0
-56 -1 -3 -5 0
-56 -8 -14 -16 0
-56 -10 -19 -23 0
-56 -12 -21 -26 0
-56 -13 -22 -27 0
-57 -1 -3 -6 0
-57 -8 -14 -17 0
-57 -10 -19 -24 0
-57 -11 -20 -26 0
-57 -13 -22 -28 0
-58 -1 -3 -7 0
-58 -8 -14 -18 0
-58 -10 -19 -25 0
-58 -11 -20 -27 0
-58 -12 -21 -28 0
-59 -1 -4 -5 0
-59 -8 -15 -16 0
-59 -9 -19 -20 0
-59 -12 -24 -26 0
-59 -13 -25 -27 0
-60 -1 -4 -6 0
-60 -8 -15 -17 0
-60 -9 -19 -21 0
-60 -11 -23 -26 0
-60 -13 -25 -28 0
-61 -1 -4 -7 0
-61 -8 -15 -18 0
-61 -9 -19 -22 0
-61 -11 -23 -27 0
-61 -12 -24 -28 0
-62 -1 -5 -6 0
-62 -8 -16 -17 0
-62 -9 -20 -21 0
-62 -10 -23 -24 0
-62 -13 -27 -28 0
-63 -1 -5 -7 0
-63 -8 -16 -18 0
-63 -9 -20 -22 0
-63 -10 -23 -25 0
-63 -12 -26 -28 0
-64 -1 -6 -7 0
-64 -8 -17 -18 0
-64 -9 -21 -22 0
-64 -10 -24 -25 0
-64 -11 -26 -27 0
-65 -2 -3 -4 0
-65 -8 -9 -10 0
-65 -16 -20 -23 0
-65 -17 -21 -24 0
-65 -18 -22 -25 0
-66 -2 -3 -5 0
-66 -8 -9 -11 0
-66 -15 -19 -23 0
-66 -17 -21 -26 0
-66 -18 -22 -27 0
-67 -2 -3 -6 0
-67 -8 -9 -12 0
-67 -15 -19 -24 0
-67 -16 -20 -26 0
-67 -18 -22 -28 0
-68 -2 -3 -7 0
-68 -8 -9 -13 0
-68 -15 -19 -25 0
-68 -16 -20 -27 0
-68 -17 -21 -28 0
-69 -2 -4 -5 0
-69 -8 -10 -11 0
-69 -14 -19 -20 0
-69 -17 -24 -26 0
-69 -18 -25 -27 0
-70 -2 -4 -6 0
-70 -8 -10 -12 0
-70 -14 -19 -21 0
-70 -16 -23 -26 0
-70 -18 -25 -28 0
-71 -2 -4 -7 0
-71 -8 -10 -13 0
-71 -14 -19 -22 0
-71 -16 -23 -27 0
-71 -17 -24 -28 0
-72 -2 -5 -6 0
-72 -8 -11 -12 0
-72 -14 -20 -21 0
-72 -15 -23 -24 0
-72 -18 -27 -28 0
-73 -2 -5 -7 0
-73 -8 -11 -13 0
-73 -14 -20 -22 0
-73 -15 -23 -25 0
-73 -17 -26 -28 0
-74 -2 -6 -7 0
-74 -8 -12 -13 0
-74 -14 -21 -22 0
-74 -15 -24 -25 0
-74 -16 -26 -27 0
-75 -3 -4 -5 0
-75 -9 -10 -11 0
-75 -14 -15 -16 0
-75 -21 -24 -26 0
-75 -22 -25 -27 0
-76 -3 -4 -6 0
-76 -9 -10 -12 0
-76 -14 -15 -17 0
-76 -20 -23 -26 0
-76 -22 -25 -28 0
-77 -3 -4 -7 0
-77 -9 -10 -13 0
-77 -14 -15 -18 0
-77 -20 -23 -27 0
-77 -21 -24 -28 0
-78 -3 -5 -6 0
-78 -9 -11 -12 0
-78 -14 -16 -17 0
-78 -19 -23 -24 0
-78 -22 -27 -28 0
-79 -3 -5 -7 0
-79 -9 -11 -13 0
-79 -14 -16 -18 0
-79 -19 -23 -25 0
-79 -21 -26 -28 0
-80 -3 -6 -7 0
-80 -9 -12 -13 0
-80 -14 -17 -18 0
-80 -19 -24 -25 0
-80 -20 -26 -27 0
-81 -4 -5 -6 0
-81 -10 -11 -12 0
-81 -15 -16 -17 0
-81 -19 -20 -21 0
-81 -25 -27 -28 0
-82 -4 -5 -7 0
-82 -10 -11 -13 0
-82 -15 -16 -18 0
-82 -19 -20 -22 0
-82 -24 -26 -28 0
-83 -4 -6 -7 0
-83 -10 -12 -13 0
-83 -15 -17 -18 0
-83 -19 -21 -22 0
-83 -23 -26 -27 0
-84 -5 -6 -7 0
-84 -11 -12 -13 0
-84 -16 -17 -18 0
-84 -20 -21 -22 0
-84 -23 -24 -25 0
-85 -3 0
-85 50 0
-86 -9 0
-86 35 0
-87 -14 0
-87 30 0
-29 85 86 87 0
-88 -4 0
-88 51 0
-89 -10 0
-89 36 0
-90 -15 0
-90 31 0
-29 88 89 90 0
-91 -5 0
-91 52 0
-92 -11 0
-92 37 0
-93 -16 0
-93 32 0
-29 91 92 93 0
-94 -6 0
-94 53 0
-95 -12 0
-95 38 0
-96 -17 0
-96 33 0
-29 94 95 96 0
-97 -7 0
-97 54 0
-98 -13 0
-98 39 0
-99 -18 0
-99 34 0
-29 97 98 99 0
-100 -2 0
-100 50 0
-101 -8 0
-101 35 0
-102 -14 0
-102 29 0
-30 100 101 102 0
-103 -4 0
-103 55 0
-104 -10 0
-104 40 0
-105 -19 0
-105 31 0
-30 103 104 105 0
-106 -5 0
-106 56 0
-107 -11 0
-107 41 0
-108 -20 0
-108 32 0
-30 106 107 108 0
-109 -6 0
-109 57 0
-110 -12 0
-110 42 0
-111 -21 0
-111 33 0
-30 109 110 111 0
-112 -7 0
-112 58 0
-113 -13 0
-113 43 0
-114 -22 0
-114 34 0
-30 112 113 114 0
-115 -2 0
-115 51 0
-116 -8 0
-116 36 0
-117 -15 0
-117 29 0
-31 115 116 117 0
-118 -3 0
-118 55 0
-119 -9 0
-119 40 0
-120 -19 0
-120 30 0
-31 118 119 120 0
-121 -5 0
-121 59 0
-122 -11 0
-122 44 0
-123 -23 0
-123 32 0
-31 121 122 123 0
-124 -6 0
-124 60 0
-125 -12 0
-125 45 0
-126 -24 0
-126 33 0
-31 124 125 126 0
-127 -7 0
-127 61 0
-128 -13 0
-128 46 0
-129 -25 0
-129 34 0
-31 127 128 129 0
-130 -2 0
-130 52 0
-131 -8 0
-131 37 0
-132 -16 0
-132 29 0
-32 130 131 132 0
-133 -3 0
-133 56 0
-134 -9 0
-134 41 0
-135 -20 0
-135 30 0
-32 133 134 135 0
-136 -4 0
-136 59 0
-137 -10 0
-137 44 0
-138 -23 0
-138 31 0
-32 136 137 138 0
-139 -6 0
-139 62 0
-140 -12 0
-140 47 0
-141 -26 0
-141 33 0
-32 139 140 141 0
-142 -7 0
-142 63 0
-143 -13 0
-143 48 0
-144 -27 0
-144 34 0
-32 142 143 144 0
-145 -2 0
-145 53 0
-146 -8 0
-146 38 0
-147 -17 0
-147 29 0
-33 145 146 147 0
-148 -3 0
-148 57 0
-149 -9 0
-149 42 0
-150 -21 0
-150 30 0
-33 148 149 150 0
-151 -4 0
-151 60 0
-152 -10 0
-152 45 0
-153 -24 0
-153 31 0
-33 151 152 153 0
-154 -5 0
-154 62 0
-155 -11 0
-155 47 0
-156 -26 0
-156 32 0
-33 154 155 156 0
-157 -7 0
-157 64 0
-158 -13 0
-158 49 0
-159 -28 0
-159 34 0
-33 157 158 159 0
-160 -2 0
-160 54 0
-161 -8 0
-161 39 0
-162 -18 0
-162 29 0
-34 160 161 162 0
-163 -3 0
-163 58 0
-164 -9 0
-164 43 0
-165 -22 0
-165 30 0
-34 163 164 165 0
-166 -4 0
-166 61 0
-167 -10 0
-167 46 0
-168 -25 0
-168 31 0
-34 166 167 168 0
-169 -5 0
-169 63 0
-170 -11 0
-170 48 0
-171 -27 0
-171 32 0
-34 169 170 171 0
-172 -6 0
-172 64 0
-173 -12 0
-173 49 0
-174 -28 0
-174 33 0
-34 172 173 174 0
-175 -1 0
-175 50 0
-176 -8 0
-176 30 0
-177 -9 0
-177 29 0
-35 175 176 177 0
-178 -4 0
-178 65 0
-179 -15 0
-179 40 0
-180 -19 0
-180 36 0
-35 178 179 180 0
-181 -5 0
-181 66 0
-182 -16 0
-182 41 0
-183 -20 0
-183 37 0
-35 181 182 183 0
-184 -6 0
-184 67 0
-185 -17 0
-185 42 0
-186 -21 0
-186 38 0
-35 184 185 186 0
-187 -7 0
-187 68 0
-188 -18 0
-188 43 0
-189 -22 0
-189 39 0
-35 187 188 189 0
-190 -1 0
-190 51 0
-191 -8 0
-191 31 0
-192 -10 0
-192 29 0
-36 190 191 192 0
-193 -3 0
-193 65 0
-194 -14 0
-194 40 0
-195 -19 0
-195 35 0
-36 193 194 195 0
-196 -5 0
-196 69 0
-197 -16 0
-197 44 0
-198 -23 0
-198 37 0
-36 196 197 198 0
-199 -6 0
-199 70 0
-200 -17 0
-200 45 0
-201 -24 0
-201 38 0
-36 199 200 201 0
-202 -7 0
-202 71 0
-203 -18 0
-203 46 0
-204 -25 0
-204 39 0
-36 202 203 204 0
-205 -1 0
-205 52 0
-206 -8 0
-206 32 0
-207 -11 0
-207 29 0
-37 205 206 207 0
-208 -3 0
-208 66 0
-209 -14 0
-209 41 0
-210 -20 0
-210 35 0
-37 208 209 210 0
-211 -4 0
-211 69 0
-212 -15 0
-212 44 0
-213 -23 0
-213 36 0
-37 211 212 213 0
-214 -6 0
-214 72 0
-215 -17 0
-215 47 0
-216 -26 0
-216 38 0
-37 214 215 216 0
-217 -7 0
-217 73 0
-218 -18 0
-218 48 0
-219 -27 0
-219 39 0
-37 217 218 219 0
-220 -1 0
-220 53 0
-221 -8 0
-221 33 0
-222 -12 0
-222 29 0
-38 220 221 222 0
-223 -3 0
-223 67 0
-224 -14 0
-224 42 0
-225 -21 0
-225 35 0
-38 223 224 225 0
-226 -4 0
-226 70 0
-227 -15 0
-227 45 0
-228 -24 0
-228 36 0
-38 226 227 228 0
-229 -5 0
-229 72 0
-230 -16 0
-230 47 0
-231 -26 0
-231 37 0
-38 229 230 231 0
-232 -7 0
-232 74 0
-233 -18 0
-233 49 0
-234 -28 0
-234 39 0
-38 232 233 234 0
-235 -1 0
-235 54 0
-236 -8 0
-236 34 0
-237 -13 0
-237 29 0
-39 235 236 237 0
-238 -3 0
-238 68 0
-239 -14 0
-239 43 0
-240 -22 0
-240 35 0
-39 238 239 240 0
-241 -4 0
-241 71 0
-242 -15 0
-242 46 0
-243 -25 0
-243 36 0
-39 241 242 243 0
-244 -5 0
-244 73 0
-245 -16 0
-245 48 0
-246 -27 0
-246 37 0
-39 244 245 246 0
-247 -6 0
-247 74 0
-248 -17 0
-248 49 0
-249 -28 0
-249 38 0
-39 247 248 249 0
-250 -1 0
-250 55 0
-251 -9 0
-251 31 0
-252 -10 0
-252 30 0
-40 250 251 252 0
-253 -2 0
-253 65 0
-254 -14 0
-254 36 0
-255 -15 0
-255 35 0
-40 253 254 255 0
-256 -5 0
-256 75 0
-257 -20 0
-257 44 0
-258 -23 0
-258 41 0
-40 256 257 258 0
-259 -6 0
-259 76 0
-260 -21 0
-260 45 0
-261 -24 0
-261 42 0
-40 259 260 261 0
-262 -7 0
-262 77 0
-263 -22 0
-263 46 0
-264 -25 0
-264 43 0
-40 262 263 264 0
-265 -1 0
-265 56 0
-266 -9 0
-266 32 0
-267 -11 0
-267 30 0
-41 265 266 267 0
-268 -2 0
-268 66 0
-269 -14 0
-269 37 0
-270 -16 0
-270 35 0
-41 268 269 270 0
-271 -4 0
-271 75 0
-272 -19 0
-272 44 0
-273 -23 0
-273 40 0
-41 271 272 273 0
-274 -6 0
-274 78 0
-275 -21 0
-275 47 0
-276 -26 0
-276 42 0
-41 274 275 276 0
-277 -7 0
-277 79 0
-278 -22 0
-278 48 0
-279 -27 0
-279 43 0
-41 277 278 279 0
-280 -1 0
-280 57 0
-281 -9 0
-281 33 0
-282 -12 0
-282 30 0
-42 280 281 282 0
-283 -2 0
-283 67 0
-284 -14 0
-284 38 0
-285 -17 0
-285 35 0
-42 283 284 285 0
-286 -4 0
-286 76 0
-287 -19 0
-287 45 0
-288 -24 0
-288 40 0
-42 286 287 288 0
-289 -5 0
-289 78 0
-290 -20 0
-290 47 0
-291 -26 0
-291 41 0
-42 289 290 291 0
-292 -7 0
-292 80 0
-293 -22 0
-293 49 0
-294 -28 0
-294 43 0
-42 292 293 294 0
-295 -1 0
-295 58 0
-296 -9 0
-296 34 0
-297 -13 0
-297 30 0
-43 295 296 297 0
-298 -2 0
-298 68 0
-299 -14 0
-299 39 0
-300 -18 0
-300 35 0
-43 298 299 300 0
-301 -4 0
-301 77 0
-302 -19 0
-302 46 0
-303 -25 0
-303 40 0
-43 301 302 303 0
-304 -5 0
-304 79 0
-305 -20 0
-305 48 0
-306 -27 0
-306 41 0
-43 304 305 306 0
-307 -6 0
-307 80 0
-308 -21 0
-308 49 0
-309 -28 0
-309 42 0
-43 307 308 309 0
-310 -1 0
-310 59 0
-311 -10 0
-311 32 0
-312 -11 0
-312 31 0
-44 310 311 312 0
-313 -2 0
-313 69 0
-314 -15 0
-314 37 0
-315 -16 0
-315 36 0
-44 313 314 315 0
-316 -3 0
-316 75 0
-317 -19 0
-317 41 0
-318 -20 0
-318 40 0
-44 316 317 318 0
-319 -6 0
-319 81 0
-320 -24 0
-320 47 0
-321 -26 0
-321 45 0
-44 319 320 321 0
-322 -7 0
-322 82 0
-323 -25 0
-323 48 0
-324 -27 0
-324 46 0
-44 322 323 324 0
-325 -1 0
-325 60 0
-326 -10 0
-326 33 0
-327 -12 0
-327 31 0
-45 325 326 327 0
-328 -2 0
-328 70 0
-329 -15 0
-329 38 0
-330 -17 0
-330 36 0
-45 328 329 330 0
-331 -3 0
-331 76 0
-332 -19 0
-332 42 0
-333 -21 0
-333 40 0
-45 331 332 333 0
-334 -5 0
-334 81 0
-335 -23 0
-335 47 0
-336 -26 0
-336 44 0
-45 334 335 336 0
-337 -7 0
-337 83 0
-338 -25 0
-338 49 0
-339 -28 0
-339 46 0
-45 337 338 339 0
-340 -1 0
-340 61 0
-341 -10 0
-341 34 0
-342 -13 0
-342 31 0
-46 340 341 342 0
-343 -2 0
-343 71 0
-344 -15 0
-344 39 0
-345 -18 0
-345 36 0
-46 343 344 345 0
-346 -3 0
-346 77 0
-347 -19 0
-347 43 0
-348 -22 0
-348 40 0
-46 346 347 348 0
-349 -5 0
-349 82 0
-350 -23 0
-350 48 0
-351 -27 0
-351 44 0
-46 349 350 351 0
-352 -6 0
-352 83 0
-353 -24 0
-353 49 0
-354 -28 0
-354 45 0
-46 352 353 354 0
-355 -1 0
-355 62 0
-356 -11 0
-356 33 0
-357 -12 0
-357 32 0
-47 355 356 357 0
-358 -2 0
-358 72 0
-359 -16 0
-359 38 0
-360 -17 0
-360 37 0
-47 358 359 360 0
-361 -3 0
-361 78 0
-362 -20 0
-362 42 0
-363 -21 0
-363 41 0
-47 361 362 363 0
-364 -4 0
-364 81 0
-365 -23 0
-365 45 0
-366 -24 0
-366 44 0
-47 364 365 366 0
-367 -7 0
-367 84 0
-368 -27 0
-368 49 0
-369 -28 0
-369 48 0
-47 367 368 369 0
-370 -1 0
-370 63 0
-371 -11 0
-371 34 0
-372 -13 0
-372 32 0
-48 370 371 372 0
-373 -2 0
-373 73 0
-374 -16 0
-374 39 0
-375 -18 0
-375 37 0
-48 373 374 375 0
-376 -3 0
-376 79 0
-377 -20 0
-377 43 0
-378 -22 0
-378 41 0
-48 376 377 378 0
-379 -4 0
-379 82 0
-380 -23 0
-380 46 0
-381 -25 0
-381 44 0
-48 379 380 381 0
-382 -6 0
-382 84 0
-383 -26 0
-383 49 0
-384 -28 0
-384 47 0
-48 382 383 384 0
-385 -1 0
-385 64 0
-386 -12 0
-386 34 0
-387 -13 0
-387 33 0
-49 385 386 387 0
-388 -2 0
-388 74 0
-389 -17 0
-389 39 0
-390 -18 0
-390 38 0
-49 388 389 390 0
-391 -3 0
-391 80 0
-392 -21 0
-392 43 0
-393 -22 0
-393 42 0
-49 391 392 393 0
-394 -4 0
-394 83 0
-395 -24 0
-395 46 0
-396 -25 0
-396 45 0
-49 394 395 396 0
-397 -5 0
-397 84 0
-398 -26 0
-398 48 0
-399 -27 0
-399 47 0
-49 397 398 399 0
-400 -1 0
-400 35 0
-401 -2 0
-401 30 0
-402 -3 0
-402 29 0
-50 400 401 402 0
-403 -10 0
-403 65 0
-404 -15 0
-404 55 0
-405 -19 0
-405 51 0
-50 403 404 405 0
-406 -11 0
-406 66 0
-407 -16 0
-407 56 0
-408 -20 0
-408 52 0
-50 406 407 408 0
-409 -12 0
-409 67 0
-410 -17 0
-410 57 0
-411 -21 0
-411 53 0
-50 409 410 411 0
-412 -13 0
-412 68 0
-413 -18 0
-413 58 0
-414 -22 0
-414 54 0
-50 412 413 414 0
-415 -1 0
-415 36 0
-416 -2 0
-416 31 0
-417 -4 0
-417 29 0
-51 415 416 417 0
-418 -9 0
-418 65 0
-419 -14 0
-419 55 0
-420 -19 0
-420 50 0
-51 418 419 420 0
-421 -11 0
-421 69 0
-422 -16 0
-422 59 0
-423 -23 0
-423 52 0
-51 421 422 423 0
-424 -12 0
-424 70 0
-425 -17 0
-425 60 0
-426 -24 0
-426 53 0
-51 424 425 426 0
-427 -13 0
-427 71 0
-428 -18 0
-428 61 0
-429 -25 0
-429 54 0
-51 427 428 429 0
-430 -1 0
-430 37 0
-431 -2 0
-431 32 0
-432 -5 0
-432 29 0
-52 430 431 432 0
-433 -9 0
-433 66 0
-434 -14 0
-434 56 0
-435 -20 0
-435 50 0
-52 433 434 435 0
-436 -10 0
-436 69 0
-437 -15 0
-437 59 0
-438 -23 0
-438 51 0
-52 436 437 438 0
-439 -12 0
-439 72 0
-440 -17 0
-440 62 0
-441 -26 0
-441 53 0
-52 439 440 441 0
-442 -13 0
-442 73 0
-443 -18 0
-443 63 0
-444 -27 0
-444 54 0
-52 442 443 444 0
-445 -1 0
-445 38 0
-446 -2 0
-446 33 0
-447 -6 0
-447 29 0
-53 445 446 447 0
-448 -9 0
-448 67 0
-449 -14 0
-449 57 0
-450 -21 0
-450 50 0
-53 448 449 450 0
-451 -10 0
-451 70 0
-452 -15 0
-452 60 0
-453 -24 0
-453 51 0
-53 451 452 453 0
-454 -11 0
-454 72 0
-455 -16 0
-455 62 0
-456 -26 0
-456 52 0
-53 454 455 456 0
-457 -13 0
-457 74 0
-458 -18 0
-458 64 0
-459 -28 0
-459 54 0
-53 457 458 459 0
-460 -1 0
-460 39 0
-461 -2 0
-461 34 0
-462 -7 0
-462 29 0
-54 460 461 462 0
-463 -9 0
-463 68 0
-464 -14 0
-464 58 0
-465 -22 0
-465 50 0
-54 463 464 465 0
-466 -10 0
-466 71 0
-467 -15 0
-467 61 0
-468 -25 0
-468 51 0
-54 466 467 468 0
-469 -11 0
-469 73 0
-470 -16 0
-470 63 0
-471 -27 0
-471 52 0
-54 469 470 471 0
-472 -12 0
-472 74 0
-473 -17 0
-473 64 0
-474 -28 0
-474 53 0
-54 472 473 474 0
-475 -1 0
-475 40 0
-476 -3 0
-476 31 0
-477 -4 0
-477 30 0
-55 475 476 477 0
-478 -8 0
-478 65 0
-479 -14 0
-479 51 0
-480 -15 0
-480 50 0
-55 478 479 480 0
-481 -11 0
-481 75 0
-482 -20 0
-482 59 0
-483 -23 0
-483 56 0
-55 481 482 483 0
-484 -12 0
-484 76 0
-485 -21 0
-485 60 0
-486 -24 0
-486 57 0
-55 484 485 486 0
-487 -13 0
-487 77 0
-488 -22 0
-488 61 0
-489 -25 0
-489 58 0
-55 487 488 489 0
-490 -1 0
-490 41 0
-491 -3 0
-491 32 0
-492 -5 0
-492 30 0
-56 490 491 492 0
-493 -8 0
-493 66 0
-494 -14 0
-494 52 0
-495 -16 0
-495 50 0
-56 493 494 495 0
-496 -10 0
-496 75 0
-497 -19 0
-497 59 0
-498 -23 0
-498 55 0
-56 496 497 498 0
-499 -12 0
-499 78 0
-500 -21 0
-500 62 0
-501 -26 0
-501 57 0
-56 499 500 501 0
-502 -13 0
-502 79 0
-503 -22 0
-503 63 0
-504 -27 0
-504 58 0
-56 502 503 504 0
-505 -1 0
-505 42 0
-506 -3 0
-506 33 0
-507 -6 0
-507 30 0
-57 505 506 507 0
-508 -8 0
-508 67 0
-509 -14 0
-509 53 0
-510 -17 0
-510 50 0
-57 508 509 510 0
-511 -10 0
-511 76 0
-512 -19 0
-512 60 0
-513 -24 0
-513 55 0
-57 511 512 513 0
-514 -11 0
-514 78 0
-515 -20 0
-515 62 0
-516 -26 0
-516 56 0
-57 514 515 516 0
-517 -13 0
-517 80 0
-518 -22 0
-518 64 0
-519 -28 0
-519 58 0
-57 517 518 519 0
-520 -1 0
-520 43 0
-521 -3 0
-521 34 0
-522 -7 0
-522 30 0
-58 520 521 522 0
-523 -8 0
-523 68 0
-524 -14 0
-524 54 0
-525 -18 0
-525 50 0
-58 523 524 525 0
-526 -10 0
-526 77 0
-527 -19 0
-527 61 0
-528 -25 0
-528 55 0
-58 526 527 528 0
-529 -11 0
-529 79 0
-530 -20 0
-530 63 0
-531 -27 0
-531 56 0
-58 529 530 531 0
-532 -12 0
-532 80 0
-533 -21 0
-533 64 0
-534 -28 0
-534 57 0
-58 532 533 534 0
-535 -1 0
-535 44 0
-536 -4 0
-536 32 0
-537 -5 0
-537 31 0
-59 535 536 537 0
-538 -8 0
-538 69 0
-539 -15 0
-539 52 0
-540 -16 0
-540 51 0
-59 538 539 540 0
-541 -9 0
-541 75 0
-542 -19 0
-542 56 0
-543 -20 0
-543 55 0
-59 541 542 543 0
-544 -12 0
-544 81 0
-545 -24 0
-545 62 0
-546 -26 0
-546 60 0
-59 544 545 546 0
-547 -13 0
-547 82 0
-548 -25 0
-548 63 0
-549 -27 0
-549 61 0
-59 547 548 549 0
-550 -1 0
-550 45 0
-551 -4 0
-551 33 0
-552 -6 0
-552 31 0
-60 550 551 552 0
-553 -8 0
-553 70 0
-554 -15 0
-554 53 0
-555 -17 0
-555 51 0
-60 553 554 555 0
-556 -9 0
-556 76 0
-557 -19 0
-557 57 0
-558 -21 0
-558 55 0
-60 556 557 558 0
-559 -11 0
-559 81 0
-560 -23 0
-560 62 0
-561 -26 0
-561 59 0
-60 559 560 561 0
-562 -13 0
-562 83 0
-563 -25 0
-563 64 0
-564 -28 0
-564 61 0
-60 562 563 564 0
-565 -1 0
-565 46 0
-566 -4 0
-566 34 0
-567 -7 0
-567 31 0
-61 565 566 567 0
-568 -8 0
-568 71 0
-569 -15 0
-569 54 0
-570 -18 0
-570 51 0
-61 568 569 570 0
-571 -9 0
-571 77 0
-572 -19 0
-572 58 0
-573 -22 0
-573 55 0
-61 571 572 573 0
-574 -11 0
-574 82 0
-575 -23 0
-575 63 0
-576 -27 0
-576 59 0
-61 574 575 576 0
-577 -12 0
-577 83 0
-578 -24 0
-578 64 0
-579 -28 0
-579 60 0
-61 577 578 579 0
-580 -1 0
-580 47 0
-581 -5 0
-581 33 0
-582 -6 0
-582 32 0
-62 580 581 582 0
-583 -8 0
-583 72 0
-584 -16 0
-584 53 0
-585 -17 0
-585 52 0
-62 583 584 585 0
-586 -9 0
-586 78 0
-587 -20 0
-587 57 0
-588 -21 0
-588 56 0
-62 586 587 588 0
-589 -10 0
-589 81 0
-590 -23 0
-590 60 0
-591 -24 0
-591 59 0
-62 589 590 591 0
-592 -13 0
-592 84 0
-593 -27 0
-593 64 0
-594 -28 0
-594 63 0
-62 592 593 594 0
-595 -1 0
-595 48 0
-596 -5 0
-596 34 0
-597 -7 0
-597 32 0
-63 595 596 597 0
-598 -8 0
-598 73 0
-599 -16 0
-599 54 0
-600 -18 0
-600 52 0
-63 598 599 600 0
-601 -9 0
-601 79 0
-602 -20 0
-602 58 0
-603 -22 0
-603 56 0
-63 601 602 603 0
-604 -10 0
-604 82 0
-605 -23 0
-605 61 0
-606 -25 0
-606 59 0
-63 604 605 606 0
-607 -12 0
-607 84 0
-608 -26 0
-608 64 0
-609 -28 0
-609 62 0
-63 607 608 609 0
-610 -1 0
-610 49 0
-611 -6 0
-611 34 0
-612 -7 0
-612 33 0
-64 610 611 612 0
-613 -8 0
-613 74 0
-614 -17 0
-614 54 0
-615 -18 0
-615 53 0
-64 613 614 615 0
-616 -9 0
-616 80 0
-617 -21 0
-617 58 0
-618 -22 0
-618 57 0
-64 616 617 618 0
-619 -10 0
-619 83 0
-620 -24 0
-620 61 0
-621 -25 0
-621 60 0
-64 619 620 621 0
-622 -11 0
-622 84 0
-623 -26 0
-623 63 0
-624 -27 0
-624 62 0
-64 622 623 624 0
-625 -2 0
-625 40 0
-626 -3 0
-626 36 0
-627 -4 0
-627 35 0
-65 625 626 627 0
-628 -8 0
-628 55 0
-629 -9 0
-629 51 0
-630 -10 0
-630 50 0
-65 628 629 630 0
-631 -16 0
-631 75 0
-632 -20 0
-632 69 0
-633 -23 0
-633 66 0
-65 631 632 633 0
-634 -17 0
-634 76 0
-635 -21 0
-635 70 0
-636 -24 0
-636 67 0
-65 634 635 636 0
-637 -18 0
-637 77 0
-638 -22 0
-638 71 0
-639 -25 0
-639 68 0
-65 637 638 639 0
-640 -2 0
-640 41 0
-641 -3 0
-641 37 0
-642 -5 0
-642 35 0
-66 640 641 642 0
-643 -8 0
-643 56 0
-644 -9 0
-644 52 0
-645 -11 0
-645 50 0
-66 643 644 645 0
-646 -15 0
-646 75 0
-647 -19 0
-647 69 0
-648 -23 0
-648 65 0
-66 646 647 648 0
-649 -17 0
-649 78 0
-650 -21 0
-650 72 0
-651 -26 0
-651 67 0
-66 649 650 651 0
-652 -18 0
-652 79 0
-653 -22 0
-653 73 0
-654 -27 0
-654 68 0
-66 652 653 654 0
-655 -2 0
-655 42 0
-656 -3 0
-656 38 0
-657 -6 0
-657 35 0
-67 655 656 657 0
-658 -8 0
-658 57 0
-659 -9 0
-659 53 0
-660 -12 0
-660 50 0
-67 658 659 660 0
-661 -15 0
-661 76 0
-662 -19 0
-662 70 0
-663 -24 0
-663 65 0
-67 661 662 663 0
-664 -16 0
-664 78 0
-665 -20 0
-665 72 0
-666 -26 0
-666 66 0
-67 664 665 666 0
-667 -18 0
-667 80 0
-668 -22 0
-668 74 0
-669 -28 0
-669 68 0
-67 667 668 669 0
-670 -2 0
-670 43 0
-671 -3 0
-671 39 0
-672 -7 0
-672 35 0
-68 670 671 672 0
-673 -8 0
-673 58 0
-674 -9 0
-674 54 0
-675 -13 0
-675 50 0
-68 673 674 675 0
-676 -15 0
-676 77 0
-677 -19 0
-677 71 0
-678 -25 0
-678 65 0
-68 676 677 678 0
-679 -16 0
-679 79 0
-680 -20 0
-680 73 0
-681 -27 0
-681 66 0
-68 679 680 681 0
-682 -17 0
-682 80 0
-683 -21 0
-683 74 0
-684 -28 0
-684 67 0
-68 682 683 684 0
-685 -2 0
-685 44 0
-686 -4 0
-686 37 0
-687 -5 0
-687 36 0
-69 685 686 687 0
-688 -8 0
-688 59 0
-689 -10 0
-689 52 0
-690 -11 0
-690 51 0
-69 688 689 690 0
-691 -14 0
-691 75 0
-692 -19 0
-692 66 0
-693 -20 0
-693 65 0
-69 691 692 693 0
-694 -17 0
-694 81 0
-695 -24 0
-695 72 0
-696 -26 0
-696 70 0
-69 694 695 696 0
-697 -18 0
-697 82 0
-698 -25 0
-698 73 0
-699 -27 0
-699 71 0
-69 697 698 699 0
-700 -2 0
-700 45 0
-701 -4 0
-701 38 0
-702 -6 0
-702 36 0
-70 700 701 702 0
-703 -8 0
-703 60 0
-704 -10 0
-704 53 0
-705 -12 0
-705 51 0
-70 703 704 705 0
-706 -14 0
-706 76 0
-707 -19 0
-707 67 0
-708 -21 0
-708 65 0
-70 706 707 708 0
-709 -16 0
-709 81 0
-710 -23 0
-710 72 0
-711 -26 0
-711 69 0
-70 709 710 711 0
-712 -18 0
-712 83 0
-713 -25 0
-713 74 0
-714 -28 0
-714 71 0
-70 712 713 714 0
-715 -2 0
-715 46 0
-716 -4 0
-716 39 0
-717 -7 0
-717 36 0
-71 715 716 717 0
-718 -8 0
-718 61 0
-719 -10 0
-719 54 0
-720 -13 0
-720 51 0
-71 718 719 720 0
-721 -14 0
-721 77 0
-722 -19 0
-722 68 0
-723 -22 0
-723 65 0
-71 721 722 723 0
-724 -16 0
-724 82 0
-725 -23 0
-725 73 0
-726 -27 0
-726 69 0
-71 724 725 726 0
-727 -17 0
-727 83 0
-728 -24 0
-728 74 0
-729 -28 0
-729 70 0
-71 727 728 729 0
-730 -2 0
-730 47 0
-731 -5 0
-731 38 0
-732 -6 0
-732 37 0
-72 730 731 732 0
-733 -8 0
-733 62 0
-734 -11 0
-734 53 0
-735 -12 0
-735 52 0
-72 733 734 735 0
-736 -14 0
-736 78 0
-737 -20 0
-737 67 0
-738 -21 0
-738 66 0
-72 736 737 738 0
-739 -15 0
-739 81 0
-740 -23 0
-740 70 0
-741 -24 0
-741 69 0
-72 739 740 741 0
-742 -18 0
-742 84 0
-743 -27 0
-743 74 0
-744 -28 0
-744 73 0
-72 742 743 744 0
-745 -2 0
-745 48 0
-746 -5 0
-746 39 0
-747 -7 0
-747 37 0
-73 745 746 747 0
-748 -8 0
-748 63 0
-749 -11 0
-749 54 0
-750 -13 0
-750 52 0
-73 748 749 750 0
-751 -14 0
-751 79 0
-752 -20 0
-752 68 0
-753 -22 0
-753 66 0
-73 751 752 753 0
-754 -15 0
-754 82 0
-755 -23 0
-755 71 0
-756 -25 0
-756 69 0
-73 754 755 756 0
-757 -17 0
-757 84 0
-758 -26 0
-758 74 0
-759 -28 0
-759 72 0
-73 757 758 759 0
-760 -2 0
-760 49 0
-761 -6 0
-761 39 0
-762 -7 0
-762 38 0
-74 760 761 762 0
-763 -8 0
-763 64 0
-764 -12 0
-764 54 0
-765 -13 0
-765 53 0
-74 763 764 765 0
-766 -14 0
-766 80 0
-767 -21 0
-767 68 0
-768 -22 0
-768 67 0
-74 766 767 768 0
-769 -15 0
-769 83 0
-770 -24 0
-770 71 0
-771 -25 0
-771 70 0
-74 769 770 771 0
-772 -16 0
-772 84 0
-773 -26 0
-773 73 0
-774 -27 0
-774 72 0
-74 772 773 774 0
-775 -3 0
-775 44 0
-776 -4 0
-776 41 0
-777 -5 0
-777 40 0
-75 775 776 777 0
-778 -9 0
-778 59 0
-779 -10 0
-779 56 0
-780 -11 0
-780 55 0
-75 778 779 780 0
-781 -14 0
-781 69 0
-782 -15 0
-782 66 0
-783 -16 0
-783 65 0
-75 781 782 783 0
-784 -21 0
-784 81 0
-785 -24 0
-785 78 0
-786 -26 0
-786 76 0
-75 784 785 786 0
-787 -22 0
-787 82 0
-788 -25 0
-788 79 0
-789 -27 0
-789 77 0
-75 787 788 789 0
-790 -3 0
-790 45 0
-791 -4 0
-791 42 0
-792 -6 0
-792 40 0
-76 790 791 792 0
-793 -9 0
-793 60 0
-794 -10 0
-794 57 0
-795 -12 0
-795 55 0
-76 793 794 795 0
-796 -14 0
-796 70 0
-797 -15 0
-797 67 0
-798 -17 0
-798 65 0
-76 796 797 798 0
-799 -20 0
-799 81 0
-800 -23 0
-800 78 0
-801 -26 0
-801 75 0
-76 799 800 801 0
-802 -22 0
-802 83 0
-803 -25 0
-803 80 0
-804 -28 0
-804 77 0
-76 802 803 804 0
-805 -3 0
-805 46 0
-806 -4 0
-806 43 0
-807 -7 0
-807 40 0
-77 805 806 807 0
-808 -9 0
-808 61 0
-809 -10 0
-809 58 0
-810 -13 0
-810 55 0
-77 808 809 810 0
-811 -14 0
-811 71 0
-812 -15 0
-812 68 0
-813 -18 0
-813 65 0
-77 811 812 813 0
-814 -20 0
-814 82 0
-815 -23 0
-815 79 0
-816 -27 0
-816 75 0
-77 814 815 816 0
-817 -21 0
-817 83 0
-818 -24 0
-818 80 0
-819 -28 0
-819 76 0
-77 817 818 819 0
-820 -3 0
-820 47 0
-821 -5 0
-821 42 0
-822 -6 0
-822 41 0
-78 820 821 822 0
-823 -9 0
-823 62 0
-824 -11 0
-824 57 0
-825 -12 0
-825 56 0
-78 823 824 825 0
-826 -14 0
-826 72 0
-827 -16 0
-827 67 0
-828 -17 0
-828 66 0
-78 826 827 828 0
-829 -19 0
-829 81 0
-830 -23 0
-830 76 0
-831 -24 0
-831 75 0
-78 829 830 831 0
-832 -22 0
-832 84 0
-833 -27 0
-833 80 0
-834 -28 0
-834 79 0
-78 832 833 834 0
-835 -3 0
-835 48 0
-836 -5 0
-836 43 0
-837 -7 0
-837 41 0
-79 835 836 837 0
-838 -9 0
-838 63 0
-839 -11 0
-839 58 0
-840 -13 0
-840 56 0
-79 838 839 840 0
-841 -14 0
-841 73 0
-842 -16 0
-842 68 0
-843 -18 0
-843 66 0
-79 841 842 843 0
-844 -19 0
-844 82 0
-845 -23 0
-845 77 0
-846 -25 0
-846 75 0
-79 844 845 846 0
-847 -21 0
-847 84 0
-848 -26 0
-848 80 0
-849 -28 0
-849 78 0
-79 847 848 849 0
-850 -3 0
-850 49 0
-851 -6 0
-851 43 0
-852 -7 0
-852 42 0
-80 850 851 852 0
-853 -9 0
-853 64 0
-854 -12 0
-854 58 0
-855 -13 0
-855 57 0
-80 853 854 855 0
-856 -14 0
-856 74 0
-857 -17 0
-857 68 0
-858 -18 0
-858 67 0
-80 856 857 858 0
-859 -19 0
-859 83 0
-860 -24 0
-860 77 0
-861 -25 0
-861 76 0
-80 859 860 861 0
-862 -20 0
-862 84 0
-863 -26 0
-863 79 0
-864 -27 0
-864 78 0
-80 862 863 864 0
-865 -4 0
-865 47 0
-866 -5 0
-866 45 0
-867 -6 0
-867 44 0
-81 865 866 867 0
-868 -10 0
-868 62 0
-869 -11 0
-869 60 0
-870 -12 0
-870 59 0
-81 868 869 870 0
-871 -15 0
-871 72 0
-872 -16 0
-872 70 0
-873 -17 0
-873 69 0
-81 871 872 873 0
-874 -19 0
-874 78 0
-875 -20 0
-875 76 0
-876 -21 0
-876 75 0
-81 874 875 876 0
-877 -25 0
-877 84 0
-878 -27 0
-878 83 0
-879 -28 0
-879 82 0
-81 877 878 879 0
-880 -4 0
-880 48 0
-881 -5 0
-881 46 0
-882 -7 0
-882 44 0
-82 880 881 882 0
-883 -10 0
-883 63 0
-884 -11 0
-884 61 0
-885 -13 0
-885 59 0
-82 883 884 885 0
-886 -15 0
-886 73 0
-887 -16 0
-887 71 0
-888 -18 0
-888 69 0
-82 886 887 888 0
-889 -19 0
-889 79 0
-890 -20 0
-890 77 0
-891 -22 0
-891 75 0
-82 889 890 891 0
-892 -24 0
-892 84 0
-893 -26 0
-893 83 0
-894 -28 0
-894 81 0
-82 892 893 894 0
-895 -4 0
-895 49 0
-896 -6 0
-896 46 0
-897 -7 0
-897 45 0
-83 895 896 897 0
-898 -10 0
-898 64 0
-899 -12 0
-899 61 0
-900 -13 0
-900 60 0
-83 898 899 900 0
-901 -15 0
-901 74 0
-902 -17 0
-902 71 0
-903 -18 0
-903 70 0
-83 901 902 903 0
-904 -19 0
-904 80 0
-905 -21 0
-905 77 0
-906 -22 0
-906 76 0
-83 904 905 906 0
-907 -23 0
-907 84 0
-908 -26 0
-908 82 0
-909 -27 0
-909 81 0
-83 907 908 909 0
-910 -5 0
-910 49 0
-911 -6 0
-911 48 0
-912 -7 0
-912 47 0
-84 910 911 912 0
-913 -11 0
-913 64 0
-914 -12 0
-914 63 0
-915 -13 0
-915 62 0
-84 913 914 915 0
-916 -16 0
-916 74 0
-917 -17 0
-917 73 0
-918 -18 0
-918 72 0
-84 916 917 918 0
-919 -20 0
-919 80 0
-920 -21 0
-920 79 0
-921 -22 0
-921 78 0
-84 919 920 921 0
-922 -23 0
-922 83 0
-923 -24 0
-923 82 0
-924 -25 0
-924 81 0
-84 922 923 924 0
1 0
-2 0
-3 0
4 0
8 0
-9 0
-10 0
14 0
-15 0
19 0
5 0
11 0
32 0
-63 0
-48 0
11 0
16 0
52 0
-73 0
-63 0
17 0
21 0
67 0
-80 0
-74 0
20 0
23 0
75 0
-82 0
-79 0
24 0
6 0
45 0
-49 0
-83 0
