p cnf 2685 6755
-46 -3 -11 -18 0
-46 -4 -12 -19 0
-46 -5 -13 -20 0
-46 -6 -14 -21 0
-46 -7 -15 -22 0
-46 -8 -16 -23 0
-46 -9 -17 -24 0
-47 -2 -10 -18 0
-47 -4 -12 -25 0
-47 -5 -13 -26 0
-47 -6 -14 -27 0
-47 -7 -15 -28 0
-47 -8 -16 -29 0
-47 -9 -17 -30 0
-48 -2 -10 -19 0
-48 -3 -11 -25 0
-48 -5 -13 -31 0
-48 -6 -14 -32 0
-48 -7 -15 -33 0
-48 -8 -16 -34 0
-48 -9 -17 -35 0
-49 -2 -10 -20 0
-49 -3 -11 -26 0
-49 -4 -12 -31 0
-49 -6 -14 -36 0
-49 -7 -15 -37 0
-49 -8 -16 -38 0
-49 -9 -17 -39 0
-50 -2 -10 -21 0
-50 -3 -11 -27 0
-50 -4 -12 -32 0
-50 -5 -13 -36 0
-50 -7 -15 -40 0
-50 -8 -16 -41 0
-50 -9 -17 -42 0
-51 -2 -10 -22 0
-51 -3 -11 -28 0
-51 -4 -12 -33 0
-51 -5 -13 -37 0
-51 -6 -14 -40 0
-51 -8 -16 -43 0
-51 -9 -17 -44 0
-52 -2 -10 -23 0
-52 -3 -11 -29 0
-52 -4 -12 -34 0
-52 -5 -13 -38 0
-52 -6 -14 -41 0
-52 -7 -15 -43 0
-52 -9 -17 -45 0
-53 -2 -10 -24 0
-53 -3 -11 -30 0
-53 -4 -12 -35 0
-53 -5 -13 -39 0
-53 -6 -14 -42 0
-53 -7 -15 -44 0
-53 -8 -16 -45 0
-54 -1 -10 -11 0
-54 -4 -19 -25 0
-54 -5 -20 -26 0
-54 -6 -21 -27 0
-54 -7 -22 -28 0
-54 -8 -23 -29 0
-54 -9 -24 -30 0
-55 -1 -10 -12 0
-55 -3 -18 -25 0
-55 -5 -20 -31 0
-55 -6 -21 -32 0
-55 -7 -22 -33 0
-55 -8 -23 -34 0
-55 -9 -24 -35 0
-56 -1 -10 -13 0
-56 -3 -18 -26 0
-56 -4 -19 -31 0
-56 -6 -21 -36 0
-56 -7 -22 -37 0
-56 -8 -23 -38 0
-56 -9 -24 -39 0
-57 -1 -10 -14 0
-57 -3 -18 -27 0
-57 -4 -19 -32 0
-57 -5 -20 -36 0
-57 -7 -22 -40 0
-57 -8 -23 -41 0
-57 -9 -24 -42 0
-58 -1 -10 -15 0
-58 -3 -18 -28 0
-58 -4 -19 -33 0
-58 -5 -20 -37 0
-58 -6 -21 -40 0
-58 -8 -23 -43 0
-58 -9 -24 -44 0
-59 -1 -10 -16 0
-59 -3 -18 -29 0
-59 -4 -19 -34 0
-59 -5 -20 -38 0
-59 -6 -21 -41 0
-59 -7 -22 -43 0
-59 -9 -24 -45 0
-60 -1 -10 -17 0
-60 -3 -18 -30 0
-60 -4 -19 -35 0
-60 -5 -20 -39 0
-60 -6 -21 -42 0
-60 -7 -22 -44 0
-60 -8 -23 -45 0
-61 -1 -11 -12 0
-61 -2 -18 -19 0
-61 -5 -26 -31 0
-61 -6 -27 -32 0
-61 -7 -28 -33 0
-61 -8 -29 -34 0
-61 -9 -30 -35 0
-62 -1 -11 -13 0
-62 -2 -18 -20 0
-62 -4 -25 -31 0
-62 -6 -27 -36 0
-62 -7 -28 -37 0
-62 -8 -29 -38 0
-62 -9 -30 -39 0
-63 -1 -11 -14 0
-63 -2 -18 -21 0
-63 -4 -25 -32 0
-63 -5 -26 -36 0
-63 -7 -28 -40 0
-63 -8 -29 -41 0
-63 -9 -30 -42 0
-64 -1 -11 -15 0
-64 -2 -18 -22 0
-64 -4 -25 -33 0
-64 -5 -26 -37 0
-64 -6 -27 -40 0
-64 -8 -29 -43 0
-64 -9 -30 -44 0
-65 -1 -11 -16 0
-65 -2 -18 -23 0
-65 -4 -25 -34 0
-65 -5 -26 -38 0
-65 -6 -27 -41 0
-65 -7 -28 -43 0
-65 -9 -30 -45 0
-66 -1 -11 -17 0
-66 -2 -18 -24 0
-66 -4 -25 -35 0
-66 -5 -26 -39 0
-66 -6 -27 -42 0
-66 -7 -28 -44 0
-66 -8 -29 -45 0
-67 -1 -12 -13 0
-67 -2 -19 -20 0
-67 -3 -25 -26 0
-67 -6 -32 -36 0
-67 -7 -33 -37 0
-67 -8 -34 -38 0
-67 -9 -35 -39 0
-68 -1 -12 -14 0
-68 -2 -19 -21 0
-68 -3 -25 -27 0
-68 -5 -31 -36 0
-68 -7 -33 -40 0
-68 -8 -34 -41 0
-68 -9 -35 -42 0
-69 -1 -12 -15 0
-69 -2 -19 -22 0
-69 -3 -25 -28 0
-69 -5 -31 -37 0
-69 -6 -32 -40 0
-69 -8 -34 -43 0
-69 -9 -35 -44 0
-70 -1 -12 -16 0
-70 -2 -19 -23 0
-70 -3 -25 -29 0
-70 -5 -31 -38 0
-70 -6 -32 -41 0
-70 -7 -33 -43 0
-70 -9 -35 -45 0
-71 -1 -12 -17 0
-71 -2 -19 -24 0
-71 -3 -25 -30 0
-71 -5 -31 -39 0
-71 -6 -32 -42 0
-71 -7 -33 -44 0
-71 -8 -34 -45 0
-72 -1 -13 -14 0
-72 -2 -20 -21 0
-72 -3 -26 -27 0
-72 -4 -31 -32 0
-72 -7 -37 -40 0
-72 -8 -38 -41 0
-72 -9 -39 -42 0
-73 -1 -13 -15 0
-73 -2 -20 -22 0
-73 -3 -26 -28 0
-73 -4 -31 -33 0
-73 -6 -36 -40 0
-73 -8 -38 -43 0
-73 -9 -39 -44 0
-74 -1 -13 -16 0
-74 -2 -20 -23 0
-74 -3 -26 -29 0
-74 -4 -31 -34 0
-74 -6 -36 -41 0
-74 -7 -37 -43 0
-74 -9 -39 -45 0
-75 -1 -13 -17 0
-75 -2 -20 -24 0
-75 -3 -26 -30 0
-75 -4 -31 -35 0
-75 -6 -36 -42 0
-75 -7 -37 -44 0
-75 -8 -38 -45 0
-76 -1 -14 -15 0
-76 -2 -21 -22 0
-76 -3 -27 -28 0
-76 -4 -32 -33 0
-76 -5 -36 -37 0
-76 -8 -41 -43 0
-76 -9 -42 -44 0
-77 -1 -14 -16 0
-77 -2 -21 -23 0
-77 -3 -27 -29 0
-77 -4 -32 -34 0
-77 -5 -36 -38 0
-77 -7 -40 -43 0
-77 -9 -42 -45 0
-78 -1 -14 -17 0
-78 -2 -21 -24 0
-78 -3 -27 -30 0
-78 -4 -32 -35 0
-78 -5 -36 -39 0
-78 -7 -40 -44 0
-78 -8 -41 -45 0
-79 -1 -15 -16 0
-79 -2 -22 -23 0
-79 -3 -28 -29 0
-79 -4 -33 -34 0
-79 -5 -37 -38 0
-79 -6 -40 -41 0
-79 -9 -44 -45 0
-80 -1 -15 -17 0
-80 -2 -22 -24 0
-80 -3 -28 -30 0
-80 -4 -33 -35 0
-80 -5 -37 -39 0
-80 -6 -40 -42 0
-80 -8 -43 -45 0
-81 -1 -16 -17 0
-81 -2 -23 -24 0
-81 -3 -29 -30 0
-81 -4 -34 -35 0
-81 -5 -38 -39 0
-81 -6 -41 -42 0
-81 -7 -43 -44 0
-82 -1 -2 -3 0
-82 -12 -19 -25 0
-82 -13 -20 -26 0
-82 -14 -21 -27 0
-82 -15 -22 -28 0
-82 -16 -23 -29 0
-82 -17 -24 -30 0
-83 -1 -2 -4 0
-83 -11 -18 -25 0
-83 -13 -20 -31 0
-83 -14 -21 -32 0
-83 -15 -22 -33 0
-83 -16 -23 -34 0
-83 -17 -24 -35 0
-84 -1 -2 -5 0
-84 -11 -18 -26 0
-84 -12 -19 -31 0
-84 -14 -21 -36 0
-84 -15 -22 -37 0
-84 -16 -23 -38 0
-84 -17 -24 -39 0
-85 -1 -2 -6 0
-85 -11 -18 -27 0
-85 -12 -19 -32 0
-85 -13 -20 -36 0
-85 -15 -22 -40 0
-85 -16 -23 -41 0
-85 -17 -24 -42 0
-86 -1 -2 -7 0
-86 -11 -18 -28 0
-86 -12 -19 -33 0
-86 -13 -20 -37 0
-86 -14 -21 -40 0
-86 -16 -23 -43 0
-86 -17 -24 -44 0
-87 -1 -2 -8 0
-87 -11 -18 -29 0
-87 -12 -19 -34 0
-87 -13 -20 -38 0
-87 -14 -21 -41 0
-87 -15 -22 -43 0
-87 -17 -24 -45 0
-88 -1 -2 -9 0
-88 -11 -18 -30 0
-88 -12 -19 -35 0
-88 -13 -20 -39 0
-88 -14 -21 -42 0
-88 -15 -22 -44 0
-88 -16 -23 -45 0
-89 -1 -3 -4 0
-89 -10 -18 -19 0
-89 -13 -26 -31 0
-89 -14 -27 -32 0
-89 -15 -28 -33 0
-89 -16 -29 -34 0
-89 -17 -30 -35 0
-90 -1 -3 -5 0
-90 -10 -18 -20 0
-90 -12 -25 -31 0
-90 -14 -27 -36 0
-90 -15 -28 -37 0
-90 -16 -29 -38 0
-90 -17 -30 -39 0
-91 -1 -3 -6 0
-91 -10 -18 -21 0
-91 -12 -25 -32 0
-91 -13 -26 -36 0
-91 -15 -28 -40 0
-91 -16 -29 -41 0
-91 -17 -30 -42 0
-92 -1 -3 -7 0
-92 -10 -18 -22 0
-92 -12 -25 -33 0
-92 -13 -26 -37 0
-92 -14 -27 -40 0
-92 -16 -29 -43 0
-92 -17 -30 -44 0
-93 -1 -3 -8 0
-93 -10 -18 -23 0
-93 -12 -25 -34 0
-93 -13 -26 -38 0
-93 -14 -27 -41 0
-93 -15 -28 -43 0
-93 -17 -30 -45 0
-94 -1 -3 -9 0
-94 -10 -18 -24 0
-94 -12 -25 -35 0
-94 -13 -26 -39 0
-94 -14 -27 -42 0
-94 -15 -28 -44 0
-94 -16 -29 -45 0
-95 -1 -4 -5 0
-95 -10 -19 -20 0
-95 -11 -25 -26 0
-95 -14 -32 -36 0
-95 -15 -33 -37 0
-95 -16 -34 -38 0
-95 -17 -35 -39 0
-96 -1 -4 -6 0
-96 -10 -19 -21 0
-96 -11 -25 -27 0
-96 -13 -31 -36 0
-96 -15 -33 -40 0
-96 -16 -34 -41 0
-96 -17 -35 -42 0
-97 -1 -4 -7 0
-97 -10 -19 -22 0
-97 -11 -25 -28 0
-97 -13 -31 -37 0
-97 -14 -32 -40 0
-97 -16 -34 -43 0
-97 -17 -35 -44 0
-98 -1 -4 -8 0
-98 -10 -19 -23 0
-98 -11 -25 -29 0
-98 -13 -31 -38 0
-98 -14 -32 -41 0
-98 -15 -33 -43 0
-98 -17 -35 -45 0
-99 -1 -4 -9 0
-99 -10 -19 -24 0
-99 -11 -25 -30 0
-99 -13 -31 -39 0
-99 -14 -32 -42 0
-99 -15 -33 -44 0
-99 -16 -34 -45 0
-100 -1 -5 -6 0
-100 -10 -20 -21 0
-100 -11 -26 -27 0
-100 -12 -31 -32 0
-100 -15 -37 -40 0
-100 -16 -38 -41 0
-100 -17 -39 -42 0
-101 -1 -5 -7 0
-101 -10 -20 -22 0
-101 -11 -26 -28 0
-101 -12 -31 -33 0
-101 -14 -36 -40 0
-101 -16 -38 -43 0
-101 -17 -39 -44 0
-102 -1 -5 -8 0
-102 -10 -20 -23 0
-102 -11 -26 -29 0
-102 -12 -31 -34 0
-102 -14 -36 -41 0
-102 -15 -37 -43 0
-102 -17 -39 -45 0
-103 -1 -5 -9 0
-103 -10 -20 -24 0
-103 -11 -26 -30 0
-103 -12 -31 -35 0
-103 -14 -36 -42 0
-103 -15 -37 -44 0
-103 -16 -38 -45 0
-104 -1 -6 -7 0
-104 -10 -21 -22 0
-104 -11 -27 -28 0
-104 -12 -32 -33 0
-104 -13 -36 -37 0
-104 -16 -41 -43 0
-104 -17 -42 -44 0
-105 -1 -6 -8 0
-105 -10 -21 -23 0
-105 -11 -27 -29 0
-105 -12 -32 -34 0
-105 -13 -36 -38 0
-105 -15 -40 -43 0
-105 -17 -42 -45 0
-106 -1 -6 -9 0
-106 -10 -21 -24 0
-106 -11 -27 -30 0
-106 -12 -32 -35 0
-106 -13 -36 -39 0
-106 -15 -40 -44 0
-106 -16 -41 -45 0
-107 -1 -7 -8 0
-107 -10 -22 -23 0
-107 -11 -28 -29 0
-107 -12 -33 -34 0
-107 -13 -37 -38 0
-107 -14 -40 -41 0
-107 -17 -44 -45 0
-108 -1 -7 -9 0
-108 -10 -22 -24 0
-108 -11 -28 -30 0
-108 -12 -33 -35 0
-108 -13 -37 -39 0
-108 -14 -40 -42 0
-108 -16 -43 -45 0
-109 -1 -8 -9 0
-109 -10 -23 -24 0
-109 -11 -29 -30 0
-109 -12 -34 -35 0
-109 -13 -38 -39 0
-109 -14 -41 -42 0
-109 -15 -43 -44 0
-110 -2 -3 -4 0
-110 -10 -11 -12 0
-110 -20 -26 -31 0
-110 -21 -27 -32 0
-110 -22 -28 -33 0
-110 -23 -29 -34 0
-110 -24 -30 -35 0
-111 -2 -3 -5 0
-111 -10 -11 -13 0
-111 -19 -25 -31 0
-111 -21 -27 -36 0
-111 -22 -28 -37 0
-111 -23 -29 -38 0
-111 -24 -30 -39 0
-112 -2 -3 -6 0
-112 -10 -11 -14 0
-112 -19 -25 -32 0
-112 -20 -26 -36 0
-112 -22 -28 -40 0
-112 -23 -29 -41 0
-112 -24 -30 -42 0
-113 -2 -3 -7 0
-113 -10 -11 -15 0
-113 -19 -25 -33 0
-113 -20 -26 -37 0
-113 -21 -27 -40 0
-113 -23 -29 -43 0
-113 -24 -30 -44 0
-114 -2 -3 -8 0
-114 -10 -11 -16 0
-114 -19 -25 -34 0
-114 -20 -26 -38 0
-114 -21 -27 -41 0
-114 -22 -28 -43 0
-114 -24 -30 -45 0
-115 -2 -3 -9 0
-115 -10 -11 -17 0
-115 -19 -25 -35 0
-115 -20 -26 -39 0
-115 -21 -27 -42 0
-115 -22 -28 -44 0
-115 -23 -29 -45 0
-116 -2 -4 -5 0
-116 -10 -12 -13 0
-116 -18 -25 -26 0
-116 -21 -32 -36 0
-116 -22 -33 -37 0
-116 -23 -34 -38 0
-116 -24 -35 -39 0
-117 -2 -4 -6 0
-117 -10 -12 -14 0
-117 -18 -25 -27 0
-117 -20 -31 -36 0
-117 -22 -33 -40 0
-117 -23 -34 -41 0
-117 -24 -35 -42 0
-118 -2 -4 -7 0
-118 -10 -12 -15 0
-118 -18 -25 -28 0
-118 -20 -31 -37 0
-118 -21 -32 -40 0
-118 -23 -34 -43 0
-118 -24 -35 -44 0
-119 -2 -4 -8 0
-119 -10 -12 -16 0
-119 -18 -25 -29 0
-119 -20 -31 -38 0
-119 -21 -32 -41 0
-119 -22 -33 -43 0
-119 -24 -35 -45 0
-120 -2 -4 -9 0
-120 -10 -12 -17 0
-120 -18 -25 -30 0
-120 -20 -31 -39 0
-120 -21 -32 -42 0
-120 -22 -33 -44 0
-120 -23 -34 -45 0
-121 -2 -5 -6 0
-121 -10 -13 -14 0
-121 -18 -26 -27 0
-121 -19 -31 -32 0
-121 -22 -37 -40 0
-121 -23 -38 -41 0
-121 -24 -39 -42 0
-122 -2 -5 -7 0
-122 -10 -13 -15 0
-122 -18 -26 -28 0
-122 -19 -31 -33 0
-122 -21 -36 -40 0
-122 -23 -38 -43 0
-122 -24 -39 -44 0
-123 -2 -5 -8 0
-123 -10 -13 -16 0
-123 -18 -26 -29 0
-123 -19 -31 -34 0
-123 -21 -36 -41 0
-123 -22 -37 -43 0
-123 -24 -39 -45 0
-124 -2 -5 -9 0
-124 -10 -13 -17 0
-124 -18 -26 -30 0
-124 -19 -31 -35 0
-124 -21 -36 -42 0
-124 -22 -37 -44 0
-124 -23 -38 -45 0
-125 -2 -6 -7 0
-125 -10 -14 -15 0
-125 -18 -27 -28 0
-125 -19 -32 -33 0
-125 -20 -36 -37 0
-125 -23 -41 -43 0
-125 -24 -42 -44 0
-126 -2 -6 -8 0
-126 -10 -14 -16 0
-126 -18 -27 -29 0
-126 -19 -32 -34 0
-126 -20 -36 -38 0
-126 -22 -40 -43 0
-126 -24 -42 -45 0
-127 -2 -6 -9 0
-127 -10 -14 -17 0
-127 -18 -27 -30 0
-127 -19 -32 -35 0
-127 -20 -36 -39 0
-127 -22 -40 -44 0
-127 -23 -41 -45 0
-128 -2 -7 -8 0
-128 -10 -15 -16 0
-128 -18 -28 -29 0
-128 -19 -33 -34 0
-128 -20 -37 -38 0
-128 -21 -40 -41 0
-128 -24 -44 -45 0
-129 -2 -7 -9 0
-129 -10 -15 -17 0
-129 -18 -28 -30 0
-129 -19 -33 -35 0
-129 -20 -37 -39 0
-129 -21 -40 -42 0
-129 -23 -43 -45 0
-130 -2 -8 -9 0
-130 -10 -16 -17 0
-130 -18 -29 -30 0
-130 -19 -34 -35 0
-130 -20 -38 -39 0
-130 -21 -41 -42 0
-130 -22 -43 -44 0
-131 -3 -4 -5 0
-131 -11 -12 -13 0
-131 -18 -19 -20 0
-131 -27 -32 -36 0
-131 -28 -33 -37 0
-131 -29 -34 -38 0
-131 -30 -35 -39 0
-132 -3 -4 -6 0
-132 -11 -12 -14 0
-132 -18 -19 -21 0
-132 -26 -31 -36 0
-132 -28 -33 -40 0
-132 -29 -34 -41 0
-132 -30 -35 -42 0
-133 -3 -4 -7 0
-133 -11 -12 -15 0
-133 -18 -19 -22 0
-133 -26 -31 -37 0
-133 -27 -32 -40 0
-133 -29 -34 -43 0
-133 -30 -35 -44 0
-134 -3 -4 -8 0
-134 -11 -12 -16 0
-134 -18 -19 -23 0
-134 -26 -31 -38 0
-134 -27 -32 -41 0
-134 -28 -33 -43 0
-134 -30 -35 -45 0
-135 -3 -4 -9 0
-135 -11 -12 -17 0
-135 -18 -19 -24 0
-135 -26 -31 -39 0
-135 -27 -32 -42 0
-135 -28 -33 -44 0
-135 -29 -34 -45 0
-136 -3 -5 -6 0
-136 -11 -13 -14 0
-136 -18 -20 -21 0
-136 -25 -31 -32 0
-136 -28 -37 -40 0
-136 -29 -38 -41 0
-136 -30 -39 -42 0
-137 -3 -5 -7 0
-137 -11 -13 -15 0
-137 -18 -20 -22 0
-137 -25 -31 -33 0
-137 -27 -36 -40 0
-137 -29 -38 -43 0
-137 -30 -39 -44 0
-138 -3 -5 -8 0
-138 -11 -13 -16 0
-138 -18 -20 -23 0
-138 -25 -31 -34 0
-138 -27 -36 -41 0
-138 -28 -37 -43 0
-138 -30 -39 -45 0
-139 -3 -5 -9 0
-139 -11 -13 -17 0
-139 -18 -20 -24 0
-139 -25 -31 -35 0
-139 -27 -36 -42 0
-139 -28 -37 -44 0
-139 -29 -38 -45 0
-140 -3 -6 -7 0
-140 -11 -14 -15 0
-140 -18 -21 -22 0
-140 -25 -32 -33 0
-140 -26 -36 -37 0
-140 -29 -41 -43 0
-140 -30 -42 -44 0
-141 -3 -6 -8 0
-141 -11 -14 -16 0
-141 -18 -21 -23 0
-141 -25 -32 -34 0
-141 -26 -36 -38 0
-141 -28 -40 -43 0
-141 -30 -42 -45 0
-142 -3 -6 -9 0
-142 -11 -14 -17 0
-142 -18 -21 -24 0
-142 -25 -32 -35 0
-142 -26 -36 -39 0
-142 -28 -40 -44 0
-142 -29 -41 -45 0
-143 -3 -7 -8 0
-143 -11 -15 -16 0
-143 -18 -22 -23 0
-143 -25 -33 -34 0
-143 -26 -37 -38 0
-143 -27 -40 -41 0
-143 -30 -44 -45 0
-144 -3 -7 -9 0
-144 -11 -15 -17 0
-144 -18 -22 -24 0
-144 -25 -33 -35 0
-144 -26 -37 -39 0
-144 -27 -40 -42 0
-144 -29 -43 -45 0
-145 -3 -8 -9 0
-145 -11 -16 -17 0
-145 -18 -23 -24 0
-145 -25 -34 -35 0
-145 -26 -38 -39 0
-145 -27 -41 -42 0
-145 -28 -43 -44 0
-146 -4 -5 -6 0
-146 -12 -13 -14 0
-146 -19 -20 -21 0
-146 -25 -26 -27 0
-146 -33 -37 -40 0
-146 -34 -38 -41 0
-146 -35 -39 -42 0
-147 -4 -5 -7 0
-147 -12 -13 -15 0
-147 -19 -20 -22 0
-147 -25 -26 -28 0
-147 -32 -36 -40 0
-147 -34 -38 -43 0
-147 -35 -39 -44 0
-148 -4 -5 -8 0
-148 -12 -13 -16 0
-148 -19 -20 -23 0
-148 -25 -26 -29 0
-148 -32 -36 -41 0
-148 -33 -37 -43 0
-148 -35 -39 -45 0
-149 -4 -5 -9 0
-149 -12 -13 -17 0
-149 -19 -20 -24 0
-149 -25 -26 -30 0
-149 -32 -36 -42 0
-149 -33 -37 -44 0
-149 -34 -38 -45 0
-150 -4 -6 -7 0
-150 -12 -14 -15 0
-150 -19 -21 -22 0
-150 -25 -27 -28 0
-150 -31 -36 -37 0
-150 -34 -41 -43 0
-150 -35 -42 -44 0
-151 -4 -6 -8 0
-151 -12 -14 -16 0
-151 -19 -21 -23 0
-151 -25 -27 -29 0
-151 -31 -36 -38 0
-151 -33 -40 -43 0
-151 -35 -42 -45 0
-152 -4 -6 -9 0
-152 -12 -14 -17 0
-152 -19 -21 -24 0
-152 -25 -27 -30 0
-152 -31 -36 -39 0
-152 -33 -40 -44 0
-152 -34 -41 -45 0
-153 -4 -7 -8 0
-153 -12 -15 -16 0
-153 -19 -22 -23 0
-153 -25 -28 -29 0
-153 -31 -37 -38 0
-153 -32 -40 -41 0
-153 -35 -44 -45 0
-154 -4 -7 -9 0
-154 -12 -15 -17 0
-154 -19 -22 -24 0
-154 -25 -28 -30 0
-154 -31 -37 -39 0
-154 -32 -40 -42 0
-154 -34 -43 -45 0
-155 -4 -8 -9 0
-155 -12 -16 -17 0
-155 -19 -23 -24 0
-155 -25 -29 -30 0
-155 -31 -38 -39 0
-155 -32 -41 -42 0
-155 -33 -43 -44 0
-156 -5 -6 -7 0
-156 -13 -14 -15 0
-156 -20 -21 -22 0
-156 -26 -27 -28 0
-156 -31 -32 -33 0
-156 -38 -41 -43 0
-156 -39 -42 -44 0
-157 -5 -6 -8 0
-157 -13 -14 -16 0
-157 -20 -21 -23 0
-157 -26 -27 -29 0
-157 -31 -32 -34 0
-157 -37 -40 -43 0
-157 -39 -42 -45 0
-158 -5 -6 -9 0
-158 -13 -14 -17 0
-158 -20 -21 -24 0
-158 -26 -27 -30 0
-158 -31 -32 -35 0
-158 -37 -40 -44 0
-158 -38 -41 -45 0
-159 -5 -7 -8 0
-159 -13 -15 -16 0
-159 -20 -22 -23 0
-159 -26 -28 -29 0
-159 -31 -33 -34 0
-159 -36 -40 -41 0
-159 -39 -44 -45 0
-160 -5 -7 -9 0
-160 -13 -15 -17 0
-160 -20 -22 -24 0
-160 -26 -28 -30 0
-160 -31 -33 -35 0
-160 -36 -40 -42 0
-160 -38 -43 -45 0
-161 -5 -8 -9 0
-161 -13 -16 -17 0
-161 -20 -23 -24 0
-161 -26 -29 -30 0
-161 -31 -34 -35 0
-161 -36 -41 -42 0
-161 -37 -43 -44 0
-162 -6 -7 -8 0
-162 -14 -15 -16 0
-162 -21 -22 -23 0
-162 -27 -28 -29 0
-162 -32 -33 -34 0
-162 -36 -37 -38 0
-162 -42 -44 -45 0
-163 -6 -7 -9 0
-163 -14 -15 -17 0
-163 -21 -22 -24 0
-163 -27 -28 -30 0
-163 -32 -33 -35 0
-163 -36 -37 -39 0
-163 -41 -43 -45 0
-164 -6 -8 -9 0
-164 -14 -16 -17 0
-164 -21 -23 -24 0
-164 -27 -29 -30 0
-164 -32 -34 -35 0
-164 -36 -38 -39 0
-164 -40 -43 -44 0
-165 -7 -8 -9 0
-165 -15 -16 -17 0
-165 -22 -23 -24 0
-165 -28 -29 -30 0
-165 -33 -34 -35 0
-165 -37 -38 -39 0
-165 -40 -41 -42 0
-166 -3 0
-166 82 0
-167 -11 0
-167 54 0
-168 -18 0
-168 47 0
-46 166 167 168 0
-169 -4 0
-169 83 0
-170 -12 0
-170 55 0
-171 -19 0
-171 48 0
-46 169 170 171 0
-172 -5 0
-172 84 0
-173 -13 0
-173 56 0
-174 -20 0
-174 49 0
-46 172 173 174 0
-175 -6 0
-175 85 0
-176 -14 0
-176 57 0
-177 -21 0
-177 50 0
-46 175 176 177 0
-178 -7 0
-178 86 0
-179 -15 0
-179 58 0
-180 -22 0
-180 51 0
-46 178 179 180 0
-181 -8 0
-181 87 0
-182 -16 0
-182 59 0
-183 -23 0
-183 52 0
-46 181 182 183 0
-184 -9 0
-184 88 0
-185 -17 0
-185 60 0
-186 -24 0
-186 53 0
-46 184 185 186 0
-187 -2 0
-187 82 0
-188 -10 0
-188 54 0
-189 -18 0
-189 46 0
-47 187 188 189 0
-190 -4 0
-190 89 0
-191 -12 0
-191 61 0
-192 -25 0
-192 48 0
-47 190 191 192 0
-193 -5 0
-193 90 0
-194 -13 0
-194 62 0
-195 -26 0
-195 49 0
-47 193 194 195 0
-196 -6 0
-196 91 0
-197 -14 0
-197 63 0
-198 -27 0
-198 50 0
-47 196 197 198 0
-199 -7 0
-199 92 0
-200 -15 0
-200 64 0
-201 -28 0
-201 51 0
-47 199 200 201 0
-202 -8 0
-202 93 0
-203 -16 0
-203 65 0
-204 -29 0
-204 52 0
-47 202 203 204 0
-205 -9 0
-205 94 0
-206 -17 0
-206 66 0
-207 -30 0
-207 53 0
-47 205 206 207 0
-208 -2 0
-208 83 0
-209 -10 0
-209 55 0
-210 -19 0
-210 46 0
-48 208 209 210 0
-211 -3 0
-211 89 0
-212 -11 0
-212 61 0
-213 -25 0
-213 47 0
-48 211 212 213 0
-214 -5 0
-214 95 0
-215 -13 0
-215 67 0
-216 -31 0
-216 49 0
-48 214 215 216 0
-217 -6 0
-217 96 0
-218 -14 0
-218 68 0
-219 -32 0
-219 50 0
-48 217 218 219 0
-220 -7 0
-220 97 0
-221 -15 0
-221 69 0
-222 -33 0
-222 51 0
-48 220 221 222 0
-223 -8 0
-223 98 0
-224 -16 0
-224 70 0
-225 -34 0
-225 52 0
-48 223 224 225 0
-226 -9 0
-226 99 0
-227 -17 0
-227 71 0
-228 -35 0
-228 53 0
-48 226 227 228 0
-229 -2 0
-229 84 0
-230 -10 0
-230 56 0
-231 -20 0
-231 46 0
-49 229 230 231 0
-232 -3 0
-232 90 0
-233 -11 0
-233 62 0
-234 -26 0
-234 47 0
-49 232 233 234 0
-235 -4 0
-235 95 0
-236 -12 0
-236 67 0
-237 -31 0
-237 48 0
-49 235 236 237 0
-238 -6 0
-238 100 0
-239 -14 0
-239 72 0
-240 -36 0
-240 50 0
-49 238 239 240 0
-241 -7 0
-241 101 0
-242 -15 0
-242 73 0
-243 -37 0
-243 51 0
-49 241 242 243 0
-244 -8 0
-244 102 0
-245 -16 0
-245 74 0
-246 -38 0
-246 52 0
-49 244 245 246 0
-247 -9 0
-247 103 0
-248 -17 0
-248 75 0
-249 -39 0
-249 53 0
-49 247 248 249 0
-250 -2 0
-250 85 0
-251 -10 0
-251 57 0
-252 -21 0
-252 46 0
-50 250 251 252 0
-253 -3 0
-253 91 0
-254 -11 0
-254 63 0
-255 -27 0
-255 47 0
-50 253 254 255 0
-256 -4 0
-256 96 0
-257 -12 0
-257 68 0
-258 -32 0
-258 48 0
-50 256 257 258 0
-259 -5 0
-259 100 0
-260 -13 0
-260 72 0
-261 -36 0
-261 49 0
-50 259 260 261 0
-262 -7 0
-262 104 0
-263 -15 0
-263 76 0
-264 -40 0
-264 51 0
-50 262 263 264 0
-265 -8 0
-265 105 0
-266 -16 0
-266 77 0
-267 -41 0
-267 52 0
-50 265 266 267 0
-268 -9 0
-268 106 0
-269 -17 0
-269 78 0
-270 -42 0
-270 53 0
-50 268 269 270 0
-271 -2 0
-271 86 0
-272 -10 0
-272 58 0
-273 -22 0
-273 46 0
-51 271 272 273 0
-274 -3 0
-274 92 0
-275 -11 0
-275 64 0
-276 -28 0
-276 47 0
-51 274 275 276 0
-277 -4 0
-277 97 0
-278 -12 0
-278 69 0
-279 -33 0
-279 48 0
-51 277 278 279 0
-280 -5 0
-280 101 0
-281 -13 0
-281 73 0
-282 -37 0
-282 49 0
-51 280 281 282 0
-283 -6 0
-283 104 0
-284 -14 0
-284 76 0
-285 -40 0
-285 50 0
-51 283 284 285 0
-286 -8 0
-286 107 0
-287 -16 0
-287 79 0
-288 -43 0
-288 52 0
-51 286 287 288 0
-289 -9 0
-289 108 0
-290 -17 0
-290 80 0
-291 -44 0
-291 53 0
-51 289 290 291 0
-292 -2 0
-292 87 0
-293 -10 0
-293 59 0
-294 -23 0
-294 46 0
-52 292 293 294 0
-295 -3 0
-295 93 0
-296 -11 0
-296 65 0
-297 -29 0
-297 47 0
-52 295 296 297 0
-298 -4 0
-298 98 0
-299 -12 0
-299 70 0
-300 -34 0
-300 48 0
-52 298 299 300 0
-301 -5 0
-301 102 0
-302 -13 0
-302 74 0
-303 -38 0
-303 49 0
-52 301 302 303 0
-304 -6 0
-304 105 0
-305 -14 0
-305 77 0
-306 -41 0
-306 50 0
-52 304 305 306 0
-307 -7 0
-307 107 0
-308 -15 0
-308 79 0
-309 -43 0
-309 51 0
-52 307 308 309 0
-310 -9 0
-310 109 0
-311 -17 0
-311 81 0
-312 -45 0
-312 53 0
-52 310 311 312 0
-313 -2 0
-313 88 0
-314 -10 0
-314 60 0
-315 -24 0
-315 46 0
-53 313 314 315 0
-316 -3 0
-316 94 0
-317 -11 0
-317 66 0
-318 -30 0
-318 47 0
-53 316 317 318 0
-319 -4 0
-319 99 0
-320 -12 0
-320 71 0
-321 -35 0
-321 48 0
-53 319 320 321 0
-322 -5 0
-322 103 0
-323 -13 0
-323 75 0
-324 -39 0
-324 49 0
-53 322 323 324 0
-325 -6 0
-325 106 0
-326 -14 0
-326 78 0
-327 -42 0
-327 50 0
-53 325 326 327 0
-328 -7 0
-328 108 0
-329 -15 0
-329 80 0
-330 -44 0
-330 51 0
-53 328 329 330 0
-331 -8 0
-331 109 0
-332 -16 0
-332 81 0
-333 -45 0
-333 52 0
-53 331 332 333 0
-334 -1 0
-334 82 0
-335 -10 0
-335 47 0
-336 -11 0
-336 46 0
-54 334 335 336 0
-337 -4 0
-337 110 0
-338 -19 0
-338 61 0
-339 -25 0
-339 55 0
-54 337 338 339 0
-340 -5 0
-340 111 0
-341 -20 0
-341 62 0
-342 -26 0
-342 56 0
-54 340 341 342 0
-343 -6 0
-343 112 0
-344 -21 0
-344 63 0
-345 -27 0
-345 57 0
-54 343 344 345 0
-346 -7 0
-346 113 0
-347 -22 0
-347 64 0
-348 -28 0
-348 58 0
-54 346 347 348 0
-349 -8 0
-349 114 0
-350 -23 0
-350 65 0
-351 -29 0
-351 59 0
-54 349 350 351 0
-352 -9 0
-352 115 0
-353 -24 0
-353 66 0
-354 -30 0
-354 60 0
-54 352 353 354 0
-355 -1 0
-355 83 0
-356 -10 0
-356 48 0
-357 -12 0
-357 46 0
-55 355 356 357 0
-358 -3 0
-358 110 0
-359 -18 0
-359 61 0
-360 -25 0
-360 54 0
-55 358 359 360 0
-361 -5 0
-361 116 0
-362 -20 0
-362 67 0
-363 -31 0
-363 56 0
-55 361 362 363 0
-364 -6 0
-364 117 0
-365 -21 0
-365 68 0
-366 -32 0
-366 57 0
-55 364 365 366 0
-367 -7 0
-367 118 0
-368 -22 0
-368 69 0
-369 -33 0
-369 58 0
-55 367 368 369 0
-370 -8 0
-370 119 0
-371 -23 0
-371 70 0
-372 -34 0
-372 59 0
-55 370 371 372 0
-373 -9 0
-373 120 0
-374 -24 0
-374 71 0
-375 -35 0
-375 60 0
-55 373 374 375 0
-376 -1 0
-376 84 0
-377 -10 0
-377 49 0
-378 -13 0
-378 46 0
-56 376 377 378 0
-379 -3 0
-379 111 0
-380 -18 0
-380 62 0
-381 -26 0
-381 54 0
-56 379 380 381 0
-382 -4 0
-382 116 0
-383 -19 0
-383 67 0
-384 -31 0
-384 55 0
-56 382 383 384 0
-385 -6 0
-385 121 0
-386 -21 0
-386 72 0
-387 -36 0
-387 57 0
-56 385 386 387 0
-388 -7 0
-388 122 0
-389 -22 0
-389 73 0
-390 -37 0
-390 58 0
-56 388 389 390 0
-391 -8 0
-391 123 0
-392 -23 0
-392 74 0
-393 -38 0
-393 59 0
-56 391 392 393 0
-394 -9 0
-394 124 0
-395 -24 0
-395 75 0
-396 -39 0
-396 60 0
-56 394 395 396 0
-397 -1 0
-397 85 0
-398 -10 0
-398 50 0
-399 -14 0
-399 46 0
-57 397 398 399 0
-400 -3 0
-400 112 0
-401 -18 0
-401 63 0
-402 -27 0
-402 54 0
-57 400 401 402 0
-403 -4 0
-403 117 0
-404 -19 0
-404 68 0
-405 -32 0
-405 55 0
-57 403 404 405 0
-406 -5 0
-406 121 0
-407 -20 0
-407 72 0
-408 -36 0
-408 56 0
-57 406 407 408 0
-409 -7 0
-409 125 0
-410 -22 0
-410 76 0
-411 -40 0
-411 58 0
-57 409 410 411 0
-412 -8 0
-412 126 0
-413 -23 0
-413 77 0
-414 -41 0
-414 59 0
-57 412 413 414 0
-415 -9 0
-415 127 0
-416 -24 0
-416 78 0
-417 -42 0
-417 60 0
-57 415 416 417 0
-418 -1 0
-418 86 0
-419 -10 0
-419 51 0
-420 -15 0
-420 46 0
-58 418 419 420 0
-421 -3 0
-421 113 0
-422 -18 0
-422 64 0
-423 -28 0
-423 54 0
-58 421 422 423 0
-424 -4 0
-424 118 0
-425 -19 0
-425 69 0
-426 -33 0
-426 55 0
-58 424 425 426 0
-427 -5 0
-427 122 0
-428 -20 0
-428 73 0
-429 -37 0
-429 56 0
-58 427 428 429 0
-430 -6 0
-430 125 0
-431 -21 0
-431 76 0
-432 -40 0
-432 57 0
-58 430 431 432 0
-433 -8 0
-433 128 0
-434 -23 0
-434 79 0
-435 -43 0
-435 59 0
-58 433 434 435 0
-436 -9 0
-436 129 0
-437 -24 0
-437 80 0
-438 -44 0
-438 60 0
-58 436 437 438 0
-439 -1 0
-439 87 0
-440 -10 0
-440 52 0
-441 -16 0
-441 46 0
-59 439 440 441 0
-442 -3 0
-442 114 0
-443 -18 0
-443 65 0
-444 -29 0
-444 54 0
-59 442 443 444 0
-445 -4 0
-445 119 0
-446 -19 0
-446 70 0
-447 -34 0
-447 55 0
-59 445 446 447 0
-448 -5 0
-448 123 0
-449 -20 0
-449 74 0
-450 -38 0
-450 56 0
-59 448 449 450 0
-451 -6 0
-451 126 0
-452 -21 0
-452 77 0
-453 -41 0
-453 57 0
-59 451 452 453 0
-454 -7 0
-454 128 0
-455 -22 0
-455 79 0
-456 -43 0
-456 58 0
-59 454 455 456 0
-457 -9 0
-457 130 0
-458 -24 0
-458 81 0
-459 -45 0
-459 60 0
-59 457 458 459 0
-460 -1 0
-460 88 0
-461 -10 0
-461 53 0
-462 -17 0
-462 46 0
-60 460 461 462 0
-463 -3 0
-463 115 0
-464 -18 0
-464 66 0
-465 -30 0
-465 54 0
-60 463 464 465 0
-466 -4 0
-466 120 0
-467 -19 0
-467 71 0
-468 -35 0
-468 55 0
-60 466 467 468 0
-469 -5 0
-469 124 0
-470 -20 0
-470 75 0
-471 -39 0
-471 56 0
-60 469 470 471 0
-472 -6 0
-472 127 0
-473 -21 0
-473 78 0
-474 -42 0
-474 57 0
-60 472 473 474 0
-475 -7 0
-475 129 0
-476 -22 0
-476 80 0
-477 -44 0
-477 58 0
-60 475 476 477 0
-478 -8 0
-478 130 0
-479 -23 0
-479 81 0
-480 -45 0
-480 59 0
-60 478 479 480 0
-481 -1 0
-481 89 0
-482 -11 0
-482 48 0
-483 -12 0
-483 47 0
-61 481 482 483 0
-484 -2 0
-484 110 0
-485 -18 0
-485 55 0
-486 -19 0
-486 54 0
-61 484 485 486 0
-487 -5 0
-487 131 0
-488 -26 0
-488 67 0
-489 -31 0
-489 62 0
-61 487 488 489 0
-490 -6 0
-490 132 0
-491 -27 0
-491 68 0
-492 -32 0
-492 63 0
-61 490 491 492 0
-493 -7 0
-493 133 0
-494 -28 0
-494 69 0
-495 -33 0
-495 64 0
-61 493 494 495 0
-496 -8 0
-496 134 0
-497 -29 0
-497 70 0
-498 -34 0
-498 65 0
-61 496 497 498 0
-499 -9 0
-499 135 0
-500 -30 0
-500 71 0
-501 -35 0
-501 66 0
-61 499 500 501 0
-502 -1 0
-502 90 0
-503 -11 0
-503 49 0
-504 -13 0
-504 47 0
-62 502 503 504 0
-505 -2 0
-505 111 0
-506 -18 0
-506 56 0
-507 -20 0
-507 54 0
-62 505 506 507 0
-508 -4 0
-508 131 0
-509 -25 0
-509 67 0
-510 -31 0
-510 61 0
-62 508 509 510 0
-511 -6 0
-511 136 0
-512 -27 0
-512 72 0
-513 -36 0
-513 63 0
-62 511 512 513 0
-514 -7 0
-514 137 0
-515 -28 0
-515 73 0
-516 -37 0
-516 64 0
-62 514 515 516 0
-517 -8 0
-517 138 0
-518 -29 0
-518 74 0
-519 -38 0
-519 65 0
-62 517 518 519 0
-520 -9 0
-520 139 0
-521 -30 0
-521 75 0
-522 -39 0
-522 66 0
-62 520 521 522 0
-523 -1 0
-523 91 0
-524 -11 0
-524 50 0
-525 -14 0
-525 47 0
-63 523 524 525 0
-526 -2 0
-526 112 0
-527 -18 0
-527 57 0
-528 -21 0
-528 54 0
-63 526 527 528 0
-529 -4 0
-529 132 0
-530 -25 0
-530 68 0
-531 -32 0
-531 61 0
-63 529 530 531 0
-532 -5 0
-532 136 0
-533 -26 0
-533 72 0
-534 -36 0
-534 62 0
-63 532 533 534 0
-535 -7 0
-535 140 0
-536 -28 0
-536 76 0
-537 -40 0
-537 64 0
-63 535 536 537 0
-538 -8 0
-538 141 0
-539 -29 0
-539 77 0
-540 -41 0
-540 65 0
-63 538 539 540 0
-541 -9 0
-541 142 0
-542 -30 0
-542 78 0
-543 -42 0
-543 66 0
-63 541 542 543 0
-544 -1 0
-544 92 0
-545 -11 0
-545 51 0
-546 -15 0
-546 47 0
-64 544 545 546 0
-547 -2 0
-547 113 0
-548 -18 0
-548 58 0
-549 -22 0
-549 54 0
-64 547 548 549 0
-550 -4 0
-550 133 0
-551 -25 0
-551 69 0
-552 -33 0
-552 61 0
-64 550 551 552 0
-553 -5 0
-553 137 0
-554 -26 0
-554 73 0
-555 -37 0
-555 62 0
-64 553 554 555 0
-556 -6 0
-556 140 0
-557 -27 0
-557 76 0
-558 -40 0
-558 63 0
-64 556 557 558 0
-559 -8 0
-559 143 0
-560 -29 0
-560 79 0
-561 -43 0
-561 65 0
-64 559 560 561 0
-562 -9 0
-562 144 0
-563 -30 0
-563 80 0
-564 -44 0
-564 66 0
-64 562 563 564 0
-565 -1 0
-565 93 0
-566 -11 0
-566 52 0
-567 -16 0
-567 47 0
-65 565 566 567 0
-568 -2 0
-568 114 0
-569 -18 0
-569 59 0
-570 -23 0
-570 54 0
-65 568 569 570 0
-571 -4 0
-571 134 0
-572 -25 0
-572 70 0
-573 -34 0
-573 61 0
-65 571 572 573 0
-574 -5 0
-574 138 0
-575 -26 0
-575 74 0
-576 -38 0
-576 62 0
-65 574 575 576 0
-577 -6 0
-577 141 0
-578 -27 0
-578 77 0
-579 -41 0
-579 63 0
-65 577 578 579 0
-580 -7 0
-580 143 0
-581 -28 0
-581 79 0
-582 -43 0
-582 64 0
-65 580 581 582 0
-583 -9 0
-583 145 0
-584 -30 0
-584 81 0
-585 -45 0
-585 66 0
-65 583 584 585 0
-586 -1 0
-586 94 0
-587 -11 0
-587 53 0
-588 -17 0
-588 47 0
-66 586 587 588 0
-589 -2 0
-589 115 0
-590 -18 0
-590 60 0
-591 -24 0
-591 54 0
-66 589 590 591 0
-592 -4 0
-592 135 0
-593 -25 0
-593 71 0
-594 -35 0
-594 61 0
-66 592 593 594 0
-595 -5 0
-595 139 0
-596 -26 0
-596 75 0
-597 -39 0
-597 62 0
-66 595 596 597 0
-598 -6 0
-598 142 0
-599 -27 0
-599 78 0
-600 -42 0
-600 63 0
-66 598 599 600 0
-601 -7 0
-601 144 0
-602 -28 0
-602 80 0
-603 -44 0
-603 64 0
-66 601 602 603 0
-604 -8 0
-604 145 0
-605 -29 0
-605 81 0
-606 -45 0
-606 65 0
-66 604 605 606 0
-607 -1 0
-607 95 0
-608 -12 0
-608 49 0
-609 -13 0
-609 48 0
-67 607 608 609 0
-610 -2 0
-610 116 0
-611 -19 0
-611 56 0
-612 -20 0
-612 55 0
-67 610 611 612 0
-613 -3 0
-613 131 0
-614 -25 0
-614 62 0
-615 -26 0
-615 61 0
-67 613 614 615 0
-616 -6 0
-616 146 0
-617 -32 0
-617 72 0
-618 -36 0
-618 68 0
-67 616 617 618 0
-619 -7 0
-619 147 0
-620 -33 0
-620 73 0
-621 -37 0
-621 69 0
-67 619 620 621 0
-622 -8 0
-622 148 0
-623 -34 0
-623 74 0
-624 -38 0
-624 70 0
-67 622 623 624 0
-625 -9 0
-625 149 0
-626 -35 0
-626 75 0
-627 -39 0
-627 71 0
-67 625 626 627 0
-628 -1 0
-628 96 0
-629 -12 0
-629 50 0
-630 -14 0
-630 48 0
-68 628 629 630 0
-631 -2 0
-631 117 0
-632 -19 0
-632 57 0
-633 -21 0
-633 55 0
-68 631 632 633 0
-634 -3 0
-634 132 0
-635 -25 0
-635 63 0
-636 -27 0
-636 61 0
-68 634 635 636 0
-637 -5 0
-637 146 0
-638 -31 0
-638 72 0
-639 -36 0
-639 67 0
-68 637 638 639 0
-640 -7 0
-640 150 0
-641 -33 0
-641 76 0
-642 -40 0
-642 69 0
-68 640 641 642 0
-643 -8 0
-643 151 0
-644 -34 0
-644 77 0
-645 -41 0
-645 70 0
-68 643 644 645 0
-646 -9 0
-646 152 0
-647 -35 0
-647 78 0
-648 -42 0
-648 71 0
-68 646 647 648 0
-649 -1 0
-649 97 0
-650 -12 0
-650 51 0
-651 -15 0
-651 48 0
-69 649 650 651 0
-652 -2 0
-652 118 0
-653 -19 0
-653 58 0
-654 -22 0
-654 55 0
-69 652 653 654 0
-655 -3 0
-655 133 0
-656 -25 0
-656 64 0
-657 -28 0
-657 61 0
-69 655 656 657 0
-658 -5 0
-658 147 0
-659 -31 0
-659 73 0
-660 -37 0
-660 67 0
-69 658 659 660 0
-661 -6 0
-661 150 0
-662 -32 0
-662 76 0
-663 -40 0
-663 68 0
-69 661 662 663 0
-664 -8 0
-664 153 0
-665 -34 0
-665 79 0
-666 -43 0
-666 70 0
-69 664 665 666 0
-667 -9 0
-667 154 0
-668 -35 0
-668 80 0
-669 -44 0
-669 71 0
-69 667 668 669 0
-670 -1 0
-670 98 0
-671 -12 0
-671 52 0
-672 -16 0
-672 48 0
-70 670 671 672 0
-673 -2 0
-673 119 0
-674 -19 0
-674 59 0
-675 -23 0
-675 55 0
-70 673 674 675 0
-676 -3 0
-676 134 0
-677 -25 0
-677 65 0
-678 -29 0
-678 61 0
-70 676 677 678 0
-679 -5 0
-679 148 0
-680 -31 0
-680 74 0
-681 -38 0
-681 67 0
-70 679 680 681 0
-682 -6 0
-682 151 0
-683 -32 0
-683 77 0
-684 -41 0
-684 68 0
-70 682 683 684 0
-685 -7 0
-685 153 0
-686 -33 0
-686 79 0
-687 -43 0
-687 69 0
-70 685 686 687 0
-688 -9 0
-688 155 0
-689 -35 0
-689 81 0
-690 -45 0
-690 71 0
-70 688 689 690 0
-691 -1 0
-691 99 0
-692 -12 0
-692 53 0
-693 -17 0
-693 48 0
-71 691 692 693 0
-694 -2 0
-694 120 0
-695 -19 0
-695 60 0
-696 -24 0
-696 55 0
-71 694 695 696 0
-697 -3 0
-697 135 0
-698 -25 0
-698 66 0
-699 -30 0
-699 61 0
-71 697 698 699 0
-700 -5 0
-700 149 0
-701 -31 0
-701 75 0
-702 -39 0
-702 67 0
-71 700 701 702 0
-703 -6 0
-703 152 0
-704 -32 0
-704 78 0
-705 -42 0
-705 68 0
-71 703 704 705 0
-706 -7 0
-706 154 0
-707 -33 0
-707 80 0
-708 -44 0
-708 69 0
-71 706 707 708 0
-709 -8 0
-709 155 0
-710 -34 0
-710 81 0
-711 -45 0
-711 70 0
-71 709 710 711 0
-712 -1 0
-712 100 0
-713 -13 0
-713 50 0
-714 -14 0
-714 49 0
-72 712 713 714 0
-715 -2 0
-715 121 0
-716 -20 0
-716 57 0
-717 -21 0
-717 56 0
-72 715 716 717 0
-718 -3 0
-718 136 0
-719 -26 0
-719 63 0
-720 -27 0
-720 62 0
-72 718 719 720 0
-721 -4 0
-721 146 0
-722 -31 0
-722 68 0
-723 -32 0
-723 67 0
-72 721 722 723 0
-724 -7 0
-724 156 0
-725 -37 0
-725 76 0
-726 -40 0
-726 73 0
-72 724 725 726 0
-727 -8 0
-727 157 0
-728 -38 0
-728 77 0
-729 -41 0
-729 74 0
-72 727 728 729 0
-730 -9 0
-730 158 0
-731 -39 0
-731 78 0
-732 -42 0
-732 75 0
-72 730 731 732 0
-733 -1 0
-733 101 0
-734 -13 0
-734 51 0
-735 -15 0
-735 49 0
-73 733 734 735 0
-736 -2 0
-736 122 0
-737 -20 0
-737 58 0
-738 -22 0
-738 56 0
-73 736 737 738 0
-739 -3 0
-739 137 0
-740 -26 0
-740 64 0
-741 -28 0
-741 62 0
-73 739 740 741 0
-742 -4 0
-742 147 0
-743 -31 0
-743 69 0
-744 -33 0
-744 67 0
-73 742 743 744 0
-745 -6 0
-745 156 0
-746 -36 0
-746 76 0
-747 -40 0
-747 72 0
-73 745 746 747 0
-748 -8 0
-748 159 0
-749 -38 0
-749 79 0
-750 -43 0
-750 74 0
-73 748 749 750 0
-751 -9 0
-751 160 0
-752 -39 0
-752 80 0
-753 -44 0
-753 75 0
-73 751 752 753 0
-754 -1 0
-754 102 0
-755 -13 0
-755 52 0
-756 -16 0
-756 49 0
-74 754 755 756 0
-757 -2 0
-757 123 0
-758 -20 0
-758 59 0
-759 -23 0
-759 56 0
-74 757 758 759 0
-760 -3 0
-760 138 0
-761 -26 0
-761 65 0
-762 -29 0
-762 62 0
-74 760 761 762 0
-763 -4 0
-763 148 0
-764 -31 0
-764 70 0
-765 -34 0
-765 67 0
-74 763 764 765 0
-766 -6 0
-766 157 0
-767 -36 0
-767 77 0
-768 -41 0
-768 72 0
-74 766 767 768 0
-769 -7 0
-769 159 0
-770 -37 0
-770 79 0
-771 -43 0
-771 73 0
-74 769 770 771 0
-772 -9 0
-772 161 0
-773 -39 0
-773 81 0
-774 -45 0
-774 75 0
-74 772 773 774 0
-775 -1 0
-775 103 0
-776 -13 0
-776 53 0
-777 -17 0
-777 49 0
-75 775 776 777 0
-778 -2 0
-778 124 0
-779 -20 0
-779 60 0
-780 -24 0
-780 56 0
-75 778 779 780 0
-781 -3 0
-781 139 0
-782 -26 0
-782 66 0
-783 -30 0
-783 62 0
-75 781 782 783 0
-784 -4 0
-784 149 0
-785 -31 0
-785 71 0
-786 -35 0
-786 67 0
-75 784 785 786 0
-787 -6 0
-787 158 0
-788 -36 0
-788 78 0
-789 -42 0
-789 72 0
-75 787 788 789 0
-790 -7 0
-790 160 0
-791 -37 0
-791 80 0
-792 -44 0
-792 73 0
-75 790 791 792 0
-793 -8 0
-793 161 0
-794 -38 0
-794 81 0
-795 -45 0
-795 74 0
-75 793 794 795 0
-796 -1 0
-796 104 0
-797 -14 0
-797 51 0
-798 -15 0
-798 50 0
-76 796 797 798 0
-799 -2 0
-799 125 0
-800 -21 0
-800 58 0
-801 -22 0
-801 57 0
-76 799 800 801 0
-802 -3 0
-802 140 0
-803 -27 0
-803 64 0
-804 -28 0
-804 63 0
-76 802 803 804 0
-805 -4 0
-805 150 0
-806 -32 0
-806 69 0
-807 -33 0
-807 68 0
-76 805 806 807 0
-808 -5 0
-808 156 0
-809 -36 0
-809 73 0
-810 -37 0
-810 72 0
-76 808 809 810 0
-811 -8 0
-811 162 0
-812 -41 0
-812 79 0
-813 -43 0
-813 77 0
-76 811 812 813 0
-814 -9 0
-814 163 0
-815 -42 0
-815 80 0
-816 -44 0
-816 78 0
-76 814 815 816 0
-817 -1 0
-817 105 0
-818 -14 0
-818 52 0
-819 -16 0
-819 50 0
-77 817 818 819 0
-820 -2 0
-820 126 0
-821 -21 0
-821 59 0
-822 -23 0
-822 57 0
-77 820 821 822 0
-823 -3 0
-823 141 0
-824 -27 0
-824 65 0
-825 -29 0
-825 63 0
-77 823 824 825 0
-826 -4 0
-826 151 0
-827 -32 0
-827 70 0
-828 -34 0
-828 68 0
-77 826 827 828 0
-829 -5 0
-829 157 0
-830 -36 0
-830 74 0
-831 -38 0
-831 72 0
-77 829 830 831 0
-832 -7 0
-832 162 0
-833 -40 0
-833 79 0
-834 -43 0
-834 76 0
-77 832 833 834 0
-835 -9 0
-835 164 0
-836 -42 0
-836 81 0
-837 -45 0
-837 78 0
-77 835 836 837 0
-838 -1 0
-838 106 0
-839 -14 0
-839 53 0
-840 -17 0
-840 50 0
-78 838 839 840 0
-841 -2 0
-841 127 0
-842 -21 0
-842 60 0
-843 -24 0
-843 57 0
-78 841 842 843 0
-844 -3 0
-844 142 0
-845 -27 0
-845 66 0
-846 -30 0
-846 63 0
-78 844 845 846 0
-847 -4 0
-847 152 0
-848 -32 0
-848 71 0
-849 -35 0
-849 68 0
-78 847 848 849 0
-850 -5 0
-850 158 0
-851 -36 0
-851 75 0
-852 -39 0
-852 72 0
-78 850 851 852 0
-853 -7 0
-853 163 0
-854 -40 0
-854 80 0
-855 -44 0
-855 76 0
-78 853 854 855 0
-856 -8 0
-856 164 0
-857 -41 0
-857 81 0
-858 -45 0
-858 77 0
-78 856 857 858 0
-859 -1 0
-859 107 0
-860 -15 0
-860 52 0
-861 -16 0
-861 51 0
-79 859 860 861 0
-862 -2 0
-862 128 0
-863 -22 0
-863 59 0
-864 -23 0
-864 58 0
-79 862 863 864 0
-865 -3 0
-865 143 0
-866 -28 0
-866 65 0
-867 -29 0
-867 64 0
-79 865 866 867 0
-868 -4 0
-868 153 0
-869 -33 0
-869 70 0
-870 -34 0
-870 69 0
-79 868 869 870 0
-871 -5 0
-871 159 0
-872 -37 0
-872 74 0
-873 -38 0
-873 73 0
-79 871 872 873 0
-874 -6 0
-874 162 0
-875 -40 0
-875 77 0
-876 -41 0
-876 76 0
-79 874 875 876 0
-877 -9 0
-877 165 0
-878 -44 0
-878 81 0
-879 -45 0
-879 80 0
-79 877 878 879 0
-880 -1 0
-880 108 0
-881 -15 0
-881 53 0
-882 -17 0
-882 51 0
-80 880 881 882 0
-883 -2 0
-883 129 0
-884 -22 0
-884 60 0
-885 -24 0
-885 58 0
-80 883 884 885 0
-886 -3 0
-886 144 0
-887 -28 0
-887 66 0
-888 -30 0
-888 64 0
-80 886 887 888 0
-889 -4 0
-889 154 0
-890 -33 0
-890 71 0
-891 -35 0
-891 69 0
-80 889 890 891 0
-892 -5 0
-892 160 0
-893 -37 0
-893 75 0
-894 -39 0
-894 73 0
-80 892 893 894 0
-895 -6 0
-895 163 0
-896 -40 0
-896 78 0
-897 -42 0
-897 76 0
-80 895 896 897 0
-898 -8 0
-898 165 0
-899 -43 0
-899 81 0
-900 -45 0
-900 79 0
-80 898 899 900 0
-901 -1 0
-901 109 0
-902 -16 0
-902 53 0
-903 -17 0
-903 52 0
-81 901 902 903 0
-904 -2 0
-904 130 0
-905 -23 0
-905 60 0
-906 -24 0
-906 59 0
-81 904 905 906 0
-907 -3 0
-907 145 0
-908 -29 0
-908 66 0
-909 -30 0
-909 65 0
-81 907 908 909 0
-910 -4 0
-910 155 0
-911 -34 0
-911 71 0
-912 -35 0
-912 70 0
-81 910 911 912 0
-913 -5 0
-913 161 0
-914 -38 0
-914 75 0
-915 -39 0
-915 74 0
-81 913 914 915 0
-916 -6 0
-916 164 0
-917 -41 0
-917 78 0
-918 -42 0
-918 77 0
-81 916 917 918 0
-919 -7 0
-919 165 0
-920 -43 0
-920 80 0
-921 -44 0
-921 79 0
-81 919 920 921 0
-922 -1 0
-922 54 0
-923 -2 0
-923 47 0
-924 -3 0
-924 46 0
-82 922 923 924 0
-925 -12 0
-925 110 0
-926 -19 0
-926 89 0
-927 -25 0
-927 83 0
-82 925 926 927 0
-928 -13 0
-928 111 0
-929 -20 0
-929 90 0
-930 -26 0
-930 84 0
-82 928 929 930 0
-931 -14 0
-931 112 0
-932 -21 0
-932 91 0
-933 -27 0
-933 85 0
-82 931 932 933 0
-934 -15 0
-934 113 0
-935 -22 0
-935 92 0
-936 -28 0
-936 86 0
-82 934 935 936 0
-937 -16 0
-937 114 0
-938 -23 0
-938 93 0
-939 -29 0
-939 87 0
-82 937 938 939 0
-940 -17 0
-940 115 0
-941 -24 0
-941 94 0
-942 -30 0
-942 88 0
-82 940 941 942 0
-943 -1 0
-943 55 0
-944 -2 0
-944 48 0
-945 -4 0
-945 46 0
-83 943 944 945 0
-946 -11 0
-946 110 0
-947 -18 0
-947 89 0
-948 -25 0
-948 82 0
-83 946 947 948 0
-949 -13 0
-949 116 0
-950 -20 0
-950 95 0
-951 -31 0
-951 84 0
-83 949 950 951 0
-952 -14 0
-952 117 0
-953 -21 0
-953 96 0
-954 -32 0
-954 85 0
-83 952 953 954 0
-955 -15 0
-955 118 0
-956 -22 0
-956 97 0
-957 -33 0
-957 86 0
-83 955 956 957 0
-958 -16 0
-958 119 0
-959 -23 0
-959 98 0
-960 -34 0
-960 87 0
-83 958 959 960 0
-961 -17 0
-961 120 0
-962 -24 0
-962 99 0
-963 -35 0
-963 88 0
-83 961 962 963 0
-964 -1 0
-964 56 0
-965 -2 0
-965 49 0
-966 -5 0
-966 46 0
-84 964 965 966 0
-967 -11 0
-967 111 0
-968 -18 0
-968 90 0
-969 -26 0
-969 82 0
-84 967 968 969 0
-970 -12 0
-970 116 0
-971 -19 0
-971 95 0
-972 -31 0
-972 83 0
-84 970 971 972 0
-973 -14 0
-973 121 0
-974 -21 0
-974 100 0
-975 -36 0
-975 85 0
-84 973 974 975 0
-976 -15 0
-976 122 0
-977 -22 0
-977 101 0
-978 -37 0
-978 86 0
-84 976 977 978 0
-979 -16 0
-979 123 0
-980 -23 0
-980 102 0
-981 -38 0
-981 87 0
-84 979 980 981 0
-982 -17 0
-982 124 0
-983 -24 0
-983 103 0
-984 -39 0
-984 88 0
-84 982 983 984 0
-985 -1 0
-985 57 0
-986 -2 0
-986 50 0
-987 -6 0
-987 46 0
-85 985 986 987 0
-988 -11 0
-988 112 0
-989 -18 0
-989 91 0
-990 -27 0
-990 82 0
-85 988 989 990 0
-991 -12 0
-991 117 0
-992 -19 0
-992 96 0
-993 -32 0
-993 83 0
-85 991 992 993 0
-994 -13 0
-994 121 0
-995 -20 0
-995 100 0
-996 -36 0
-996 84 0
-85 994 995 996 0
-997 -15 0
-997 125 0
-998 -22 0
-998 104 0
-999 -40 0
-999 86 0
-85 997 998 999 0
-1000 -16 0
-1000 126 0
-1001 -23 0
-1001 105 0
-1002 -41 0
-1002 87 0
-85 1000 1001 1002 0
-1003 -17 0
-1003 127 0
-1004 -24 0
-1004 106 0
-1005 -42 0
-1005 88 0
-85 1003 1004 1005 0
-1006 -1 0
-1006 58 0
-1007 -2 0
-1007 51 0
-1008 -7 0
-1008 46 0
-86 1006 1007 1008 0
-1009 -11 0
-1009 113 0
-1010 -18 0
-1010 92 0
-1011 -28 0
-1011 82 0
-86 1009 1010 1011 0
-1012 -12 0
-1012 118 0
-1013 -19 0
-1013 97 0
-1014 -33 0
-1014 83 0
-86 1012 1013 1014 0
-1015 -13 0
-1015 122 0
-1016 -20 0
-1016 101 0
-1017 -37 0
-1017 84 0
-86 1015 1016 1017 0
-1018 -14 0
-1018 125 0
-1019 -21 0
-1019 104 0
-1020 -40 0
-1020 85 0
-86 1018 1019 1020 0
-1021 -16 0
-1021 128 0
-1022 -23 0
-1022 107 0
-1023 -43 0
-1023 87 0
-86 1021 1022 1023 0
-1024 -17 0
-1024 129 0
-1025 -24 0
-1025 108 0
-1026 -44 0
-1026 88 0
-86 1024 1025 1026 0
-1027 -1 0
-1027 59 0
-1028 -2 0
-1028 52 0
-1029 -8 0
-1029 46 0
-87 1027 1028 1029 0
-1030 -11 0
-1030 114 0
-1031 -18 0
-1031 93 0
-1032 -29 0
-1032 82 0
-87 1030 1031 1032 0
-1033 -12 0
-1033 119 0
-1034 -19 0
-1034 98 0
-1035 -34 0
-1035 83 0
-87 1033 1034 1035 0
-1036 -13 0
-1036 123 0
-1037 -20 0
-1037 102 0
-1038 -38 0
-1038 84 0
-87 1036 1037 1038 0
-1039 -14 0
-1039 126 0
-1040 -21 0
-1040 105 0
-1041 -41 0
-1041 85 0
-87 1039 1040 1041 0
-1042 -15 0
-1042 128 0
-1043 -22 0
-1043 107 0
-1044 -43 0
-1044 86 0
-87 1042 1043 1044 0
-1045 -17 0
-1045 130 0
-1046 -24 0
-1046 109 0
-1047 -45 0
-1047 88 0
-87 1045 1046 1047 0
-1048 -1 0
-1048 60 0
-1049 -2 0
-1049 53 0
-1050 -9 0
-1050 46 0
-88 1048 1049 1050 0
-1051 -11 0
-1051 115 0
-1052 -18 0
-1052 94 0
-1053 -30 0
-1053 82 0
-88 1051 1052 1053 0
-1054 -12 0
-1054 120 0
-1055 -19 0
-1055 99 0
-1056 -35 0
-1056 83 0
-88 1054 1055 1056 0
-1057 -13 0
-1057 124 0
-1058 -20 0
-1058 103 0
-1059 -39 0
-1059 84 0
-88 1057 1058 1059 0
-1060 -14 0
-1060 127 0
-1061 -21 0
-1061 106 0
-1062 -42 0
-1062 85 0
-88 1060 1061 1062 0
-1063 -15 0
-1063 129 0
-1064 -22 0
-1064 108 0
-1065 -44 0
-1065 86 0
-88 1063 1064 1065 0
-1066 -16 0
-1066 130 0
-1067 -23 0
-1067 109 0
-1068 -45 0
-1068 87 0
-88 1066 1067 1068 0
-1069 -1 0
-1069 61 0
-1070 -3 0
-1070 48 0
-1071 -4 0
-1071 47 0
-89 1069 1070 1071 0
-1072 -10 0
-1072 110 0
-1073 -18 0
-1073 83 0
-1074 -19 0
-1074 82 0
-89 1072 1073 1074 0
-1075 -13 0
-1075 131 0
-1076 -26 0
-1076 95 0
-1077 -31 0
-1077 90 0
-89 1075 1076 1077 0
-1078 -14 0
-1078 132 0
-1079 -27 0
-1079 96 0
-1080 -32 0
-1080 91 0
-89 1078 1079 1080 0
-1081 -15 0
-1081 133 0
-1082 -28 0
-1082 97 0
-1083 -33 0
-1083 92 0
-89 1081 1082 1083 0
-1084 -16 0
-1084 134 0
-1085 -29 0
-1085 98 0
-1086 -34 0
-1086 93 0
-89 1084 1085 1086 0
-1087 -17 0
-1087 135 0
-1088 -30 0
-1088 99 0
-1089 -35 0
-1089 94 0
-89 1087 1088 1089 0
-1090 -1 0
-1090 62 0
-1091 -3 0
-1091 49 0
-1092 -5 0
-1092 47 0
-90 1090 1091 1092 0
-1093 -10 0
-1093 111 0
-1094 -18 0
-1094 84 0
-1095 -20 0
-1095 82 0
-90 1093 1094 1095 0
-1096 -12 0
-1096 131 0
-1097 -25 0
-1097 95 0
-1098 -31 0
-1098 89 0
-90 1096 1097 1098 0
-1099 -14 0
-1099 136 0
-1100 -27 0
-1100 100 0
-1101 -36 0
-1101 91 0
-90 1099 1100 1101 0
-1102 -15 0
-1102 137 0
-1103 -28 0
-1103 101 0
-1104 -37 0
-1104 92 0
-90 1102 1103 1104 0
-1105 -16 0
-1105 138 0
-1106 -29 0
-1106 102 0
-1107 -38 0
-1107 93 0
-90 1105 1106 1107 0
-1108 -17 0
-1108 139 0
-1109 -30 0
-1109 103 0
-1110 -39 0
-1110 94 0
-90 1108 1109 1110 0
-1111 -1 0
-1111 63 0
-1112 -3 0
-1112 50 0
-1113 -6 0
-1113 47 0
-91 1111 1112 1113 0
-1114 -10 0
-1114 112 0
-1115 -18 0
-1115 85 0
-1116 -21 0
-1116 82 0
-91 1114 1115 1116 0
-1117 -12 0
-1117 132 0
-1118 -25 0
-1118 96 0
-1119 -32 0
-1119 89 0
-91 1117 1118 1119 0
-1120 -13 0
-1120 136 0
-1121 -26 0
-1121 100 0
-1122 -36 0
-1122 90 0
-91 1120 1121 1122 0
-1123 -15 0
-1123 140 0
-1124 -28 0
-1124 104 0
-1125 -40 0
-1125 92 0
-91 1123 1124 1125 0
-1126 -16 0
-1126 141 0
-1127 -29 0
-1127 105 0
-1128 -41 0
-1128 93 0
-91 1126 1127 1128 0
-1129 -17 0
-1129 142 0
-1130 -30 0
-1130 106 0
-1131 -42 0
-1131 94 0
-91 1129 1130 1131 0
-1132 -1 0
-1132 64 0
-1133 -3 0
-1133 51 0
-1134 -7 0
-1134 47 0
-92 1132 1133 1134 0
-1135 -10 0
-1135 113 0
-1136 -18 0
-1136 86 0
-1137 -22 0
-1137 82 0
-92 1135 1136 1137 0
-1138 -12 0
-1138 133 0
-1139 -25 0
-1139 97 0
-1140 -33 0
-1140 89 0
-92 1138 1139 1140 0
-1141 -13 0
-1141 137 0
-1142 -26 0
-1142 101 0
-1143 -37 0
-1143 90 0
-92 1141 1142 1143 0
-1144 -14 0
-1144 140 0
-1145 -27 0
-1145 104 0
-1146 -40 0
-1146 91 0
-92 1144 1145 1146 0
-1147 -16 0
-1147 143 0
-1148 -29 0
-1148 107 0
-1149 -43 0
-1149 93 0
-92 1147 1148 1149 0
-1150 -17 0
-1150 144 0
-1151 -30 0
-1151 108 0
-1152 -44 0
-1152 94 0
-92 1150 1151 1152 0
-1153 -1 0
-1153 65 0
-1154 -3 0
-1154 52 0
-1155 -8 0
-1155 47 0
-93 1153 1154 1155 0
-1156 -10 0
-1156 114 0
-1157 -18 0
-1157 87 0
-1158 -23 0
-1158 82 0
-93 1156 1157 1158 0
-1159 -12 0
-1159 134 0
-1160 -25 0
-1160 98 0
-1161 -34 0
-1161 89 0
-93 1159 1160 1161 0
-1162 -13 0
-1162 138 0
-1163 -26 0
-1163 102 0
-1164 -38 0
-1164 90 0
-93 1162 1163 1164 0
-1165 -14 0
-1165 141 0
-1166 -27 0
-1166 105 0
-1167 -41 0
-1167 91 0
-93 1165 1166 1167 0
-1168 -15 0
-1168 143 0
-1169 -28 0
-1169 107 0
-1170 -43 0
-1170 92 0
-93 1168 1169 1170 0
-1171 -17 0
-1171 145 0
-1172 -30 0
-1172 109 0
-1173 -45 0
-1173 94 0
-93 1171 1172 1173 0
-1174 -1 0
-1174 66 0
-1175 -3 0
-1175 53 0
-1176 -9 0
-1176 47 0
-94 1174 1175 1176 0
-1177 -10 0
-1177 115 0
-1178 -18 0
-1178 88 0
-1179 -24 0
-1179 82 0
-94 1177 1178 1179 0
-1180 -12 0
-1180 135 0
-1181 -25 0
-1181 99 0
-1182 -35 0
-1182 89 0
-94 1180 1181 1182 0
-1183 -13 0
-1183 139 0
-1184 -26 0
-1184 103 0
-1185 -39 0
-1185 90 0
-94 1183 1184 1185 0
-1186 -14 0
-1186 142 0
-1187 -27 0
-1187 106 0
-1188 -42 0
-1188 91 0
-94 1186 1187 1188 0
-1189 -15 0
-1189 144 0
-1190 -28 0
-1190 108 0
-1191 -44 0
-1191 92 0
-94 1189 1190 1191 0
-1192 -16 0
-1192 145 0
-1193 -29 0
-1193 109 0
-1194 -45 0
-1194 93 0
-94 1192 1193 1194 0
-1195 -1 0
-1195 67 0
-1196 -4 0
-1196 49 0
-1197 -5 0
-1197 48 0
-95 1195 1196 1197 0
-1198 -10 0
-1198 116 0
-1199 -19 0
-1199 84 0
-1200 -20 0
-1200 83 0
-95 1198 1199 1200 0
-1201 -11 0
-1201 131 0
-1202 -25 0
-1202 90 0
-1203 -26 0
-1203 89 0
-95 1201 1202 1203 0
-1204 -14 0
-1204 146 0
-1205 -32 0
-1205 100 0
-1206 -36 0
-1206 96 0
-95 1204 1205 1206 0
-1207 -15 0
-1207 147 0
-1208 -33 0
-1208 101 0
-1209 -37 0
-1209 97 0
-95 1207 1208 1209 0
-1210 -16 0
-1210 148 0
-1211 -34 0
-1211 102 0
-1212 -38 0
-1212 98 0
-95 1210 1211 1212 0
-1213 -17 0
-1213 149 0
-1214 -35 0
-1214 103 0
-1215 -39 0
-1215 99 0
-95 1213 1214 1215 0
-1216 -1 0
-1216 68 0
-1217 -4 0
-1217 50 0
-1218 -6 0
-1218 48 0
-96 1216 1217 1218 0
-1219 -10 0
-1219 117 0
-1220 -19 0
-1220 85 0
-1221 -21 0
-1221 83 0
-96 1219 1220 1221 0
-1222 -11 0
-1222 132 0
-1223 -25 0
-1223 91 0
-1224 -27 0
-1224 89 0
-96 1222 1223 1224 0
-1225 -13 0
-1225 146 0
-1226 -31 0
-1226 100 0
-1227 -36 0
-1227 95 0
-96 1225 1226 1227 0
-1228 -15 0
-1228 150 0
-1229 -33 0
-1229 104 0
-1230 -40 0
-1230 97 0
-96 1228 1229 1230 0
-1231 -16 0
-1231 151 0
-1232 -34 0
-1232 105 0
-1233 -41 0
-1233 98 0
-96 1231 1232 1233 0
-1234 -17 0
-1234 152 0
-1235 -35 0
-1235 106 0
-1236 -42 0
-1236 99 0
-96 1234 1235 1236 0
-1237 -1 0
-1237 69 0
-1238 -4 0
-1238 51 0
-1239 -7 0
-1239 48 0
-97 1237 1238 1239 0
-1240 -10 0
-1240 118 0
-1241 -19 0
-1241 86 0
-1242 -22 0
-1242 83 0
-97 1240 1241 1242 0
-1243 -11 0
-1243 133 0
-1244 -25 0
-1244 92 0
-1245 -28 0
-1245 89 0
-97 1243 1244 1245 0
-1246 -13 0
-1246 147 0
-1247 -31 0
-1247 101 0
-1248 -37 0
-1248 95 0
-97 1246 1247 1248 0
-1249 -14 0
-1249 150 0
-1250 -32 0
-1250 104 0
-1251 -40 0
-1251 96 0
-97 1249 1250 1251 0
-1252 -16 0
-1252 153 0
-1253 -34 0
-1253 107 0
-1254 -43 0
-1254 98 0
-97 1252 1253 1254 0
-1255 -17 0
-1255 154 0
-1256 -35 0
-1256 108 0
-1257 -44 0
-1257 99 0
-97 1255 1256 1257 0
-1258 -1 0
-1258 70 0
-1259 -4 0
-1259 52 0
-1260 -8 0
-1260 48 0
-98 1258 1259 1260 0
-1261 -10 0
-1261 119 0
-1262 -19 0
-1262 87 0
-1263 -23 0
-1263 83 0
-98 1261 1262 1263 0
-1264 -11 0
-1264 134 0
-1265 -25 0
-1265 93 0
-1266 -29 0
-1266 89 0
-98 1264 1265 1266 0
-1267 -13 0
-1267 148 0
-1268 -31 0
-1268 102 0
-1269 -38 0
-1269 95 0
-98 1267 1268 1269 0
-1270 -14 0
-1270 151 0
-1271 -32 0
-1271 105 0
-1272 -41 0
-1272 96 0
-98 1270 1271 1272 0
-1273 -15 0
-1273 153 0
-1274 -33 0
-1274 107 0
-1275 -43 0
-1275 97 0
-98 1273 1274 1275 0
-1276 -17 0
-1276 155 0
-1277 -35 0
-1277 109 0
-1278 -45 0
-1278 99 0
-98 1276 1277 1278 0
-1279 -1 0
-1279 71 0
-1280 -4 0
-1280 53 0
-1281 -9 0
-1281 48 0
-99 1279 1280 1281 0
-1282 -10 0
-1282 120 0
-1283 -19 0
-1283 88 0
-1284 -24 0
-1284 83 0
-99 1282 1283 1284 0
-1285 -11 0
-1285 135 0
-1286 -25 0
-1286 94 0
-1287 -30 0
-1287 89 0
-99 1285 1286 1287 0
-1288 -13 0
-1288 149 0
-1289 -31 0
-1289 103 0
-1290 -39 0
-1290 95 0
-99 1288 1289 1290 0
-1291 -14 0
-1291 152 0
-1292 -32 0
-1292 106 0
-1293 -42 0
-1293 96 0
-99 1291 1292 1293 0
-1294 -15 0
-1294 154 0
-1295 -33 0
-1295 108 0
-1296 -44 0
-1296 97 0
-99 1294 1295 1296 0
-1297 -16 0
-1297 155 0
-1298 -34 0
-1298 109 0
-1299 -45 0
-1299 98 0
-99 1297 1298 1299 0
-1300 -1 0
-1300 72 0
-1301 -5 0
-1301 50 0
-1302 -6 0
-1302 49 0
-100 1300 1301 1302 0
-1303 -10 0
-1303 121 0
-1304 -20 0
-1304 85 0
-1305 -21 0
-1305 84 0
-100 1303 1304 1305 0
-1306 -11 0
-1306 136 0
-1307 -26 0
-1307 91 0
-1308 -27 0
-1308 90 0
-100 1306 1307 1308 0
-1309 -12 0
-1309 146 0
-1310 -31 0
-1310 96 0
-1311 -32 0
-1311 95 0
-100 1309 1310 1311 0
-1312 -15 0
-1312 156 0
-1313 -37 0
-1313 104 0
-1314 -40 0
-1314 101 0
-100 1312 1313 1314 0
-1315 -16 0
-1315 157 0
-1316 -38 0
-1316 105 0
-1317 -41 0
-1317 102 0
-100 1315 1316 1317 0
-1318 -17 0
-1318 158 0
-1319 -39 0
-1319 106 0
-1320 -42 0
-1320 103 0
-100 1318 1319 1320 0
-1321 -1 0
-1321 73 0
-1322 -5 0
-1322 51 0
-1323 -7 0
-1323 49 0
-101 1321 1322 1323 0
-1324 -10 0
-1324 122 0
-1325 -20 0
-1325 86 0
-1326 -22 0
-1326 84 0
-101 1324 1325 1326 0
-1327 -11 0
-1327 137 0
-1328 -26 0
-1328 92 0
-1329 -28 0
-1329 90 0
-101 1327 1328 1329 0
-1330 -12 0
-1330 147 0
-1331 -31 0
-1331 97 0
-1332 -33 0
-1332 95 0
-101 1330 1331 1332 0
-1333 -14 0
-1333 156 0
-1334 -36 0
-1334 104 0
-1335 -40 0
-1335 100 0
-101 1333 1334 1335 0
-1336 -16 0
-1336 159 0
-1337 -38 0
-1337 107 0
-1338 -43 0
-1338 102 0
-101 1336 1337 1338 0
-1339 -17 0
-1339 160 0
-1340 -39 0
-1340 108 0
-1341 -44 0
-1341 103 0
-101 1339 1340 1341 0
-1342 -1 0
-1342 74 0
-1343 -5 0
-1343 52 0
-1344 -8 0
-1344 49 0
-102 1342 1343 1344 0
-1345 -10 0
-1345 123 0
-1346 -20 0
-1346 87 0
-1347 -23 0
-1347 84 0
-102 1345 1346 1347 0
-1348 -11 0
-1348 138 0
-1349 -26 0
-1349 93 0
-1350 -29 0
-1350 90 0
-102 1348 1349 1350 0
-1351 -12 0
-1351 148 0
-1352 -31 0
-1352 98 0
-1353 -34 0
-1353 95 0
-102 1351 1352 1353 0
-1354 -14 0
-1354 157 0
-1355 -36 0
-1355 105 0
-1356 -41 0
-1356 100 0
-102 1354 1355 1356 0
-1357 -15 0
-1357 159 0
-1358 -37 0
-1358 107 0
-1359 -43 0
-1359 101 0
-102 1357 1358 1359 0
-1360 -17 0
-1360 161 0
-1361 -39 0
-1361 109 0
-1362 -45 0
-1362 103 0
-102 1360 1361 1362 0
-1363 -1 0
-1363 75 0
-1364 -5 0
-1364 53 0
-1365 -9 0
-1365 49 0
-103 1363 1364 1365 0
-1366 -10 0
-1366 124 0
-1367 -20 0
-1367 88 0
-1368 -24 0
-1368 84 0
-103 1366 1367 1368 0
-1369 -11 0
-1369 139 0
-1370 -26 0
-1370 94 0
-1371 -30 0
-1371 90 0
-103 1369 1370 1371 0
-1372 -12 0
-1372 149 0
-1373 -31 0
-1373 99 0
-1374 -35 0
-1374 95 0
-103 1372 1373 1374 0
-1375 -14 0
-1375 158 0
-1376 -36 0
-1376 106 0
-1377 -42 0
-1377 100 0
-103 1375 1376 1377 0
-1378 -15 0
-1378 160 0
-1379 -37 0
-1379 108 0
-1380 -44 0
-1380 101 0
-103 1378 1379 1380 0
-1381 -16 0
-1381 161 0
-1382 -38 0
-1382 109 0
-1383 -45 0
-1383 102 0
-103 1381 1382 1383 0
-1384 -1 0
-1384 76 0
-1385 -6 0
-1385 51 0
-1386 -7 0
-1386 50 0
-104 1384 1385 1386 0
-1387 -10 0
-1387 125 0
-1388 -21 0
-1388 86 0
-1389 -22 0
-1389 85 0
-104 1387 1388 1389 0
-1390 -11 0
-1390 140 0
-1391 -27 0
-1391 92 0
-1392 -28 0
-1392 91 0
-104 1390 1391 1392 0
-1393 -12 0
-1393 150 0
-1394 -32 0
-1394 97 0
-1395 -33 0
-1395 96 0
-104 1393 1394 1395 0
-1396 -13 0
-1396 156 0
-1397 -36 0
-1397 101 0
-1398 -37 0
-1398 100 0
-104 1396 1397 1398 0
-1399 -16 0
-1399 162 0
-1400 -41 0
-1400 107 0
-1401 -43 0
-1401 105 0
-104 1399 1400 1401 0
-1402 -17 0
-1402 163 0
-1403 -42 0
-1403 108 0
-1404 -44 0
-1404 106 0
-104 1402 1403 1404 0
-1405 -1 0
-1405 77 0
-1406 -6 0
-1406 52 0
-1407 -8 0
-1407 50 0
-105 1405 1406 1407 0
-1408 -10 0
-1408 126 0
-1409 -21 0
-1409 87 0
-1410 -23 0
-1410 85 0
-105 1408 1409 1410 0
-1411 -11 0
-1411 141 0
-1412 -27 0
-1412 93 0
-1413 -29 0
-1413 91 0
-105 1411 1412 1413 0
-1414 -12 0
-1414 151 0
-1415 -32 0
-1415 98 0
-1416 -34 0
-1416 96 0
-105 1414 1415 1416 0
-1417 -13 0
-1417 157 0
-1418 -36 0
-1418 102 0
-1419 -38 0
-1419 100 0
-105 1417 1418 1419 0
-1420 -15 0
-1420 162 0
-1421 -40 0
-1421 107 0
-1422 -43 0
-1422 104 0
-105 1420 1421 1422 0
-1423 -17 0
-1423 164 0
-1424 -42 0
-1424 109 0
-1425 -45 0
-1425 106 0
-105 1423 1424 1425 0
-1426 -1 0
-1426 78 0
-1427 -6 0
-1427 53 0
-1428 -9 0
-1428 50 0
-106 1426 1427 1428 0
-1429 -10 0
-1429 127 0
-1430 -21 0
-1430 88 0
-1431 -24 0
-1431 85 0
-106 1429 1430 1431 0
-1432 -11 0
-1432 142 0
-1433 -27 0
-1433 94 0
-1434 -30 0
-1434 91 0
-106 1432 1433 1434 0
-1435 -12 0
-1435 152 0
-1436 -32 0
-1436 99 0
-1437 -35 0
-1437 96 0
-106 1435 1436 1437 0
-1438 -13 0
-1438 158 0
-1439 -36 0
-1439 103 0
-1440 -39 0
-1440 100 0
-106 1438 1439 1440 0
-1441 -15 0
-1441 163 0
-1442 -40 0
-1442 108 0
-1443 -44 0
-1443 104 0
-106 1441 1442 1443 0
-1444 -16 0
-1444 164 0
-1445 -41 0
-1445 109 0
-1446 -45 0
-1446 105 0
-106 1444 1445 1446 0
-1447 -1 0
-1447 79 0
-1448 -7 0
-1448 52 0
-1449 -8 0
-1449 51 0
-107 1447 1448 1449 0
-1450 -10 0
-1450 128 0
-1451 -22 0
-1451 87 0
-1452 -23 0
-1452 86 0
-107 1450 1451 1452 0
-1453 -11 0
-1453 143 0
-1454 -28 0
-1454 93 0
-1455 -29 0
-1455 92 0
-107 1453 1454 1455 0
-1456 -12 0
-1456 153 0
-1457 -33 0
-1457 98 0
-1458 -34 0
-1458 97 0
-107 1456 1457 1458 0
-1459 -13 0
-1459 159 0
-1460 -37 0
-1460 102 0
-1461 -38 0
-1461 101 0
-107 1459 1460 1461 0
-1462 -14 0
-1462 162 0
-1463 -40 0
-1463 105 0
-1464 -41 0
-1464 104 0
-107 1462 1463 1464 0
-1465 -17 0
-1465 165 0
-1466 -44 0
-1466 109 0
-1467 -45 0
-1467 108 0
-107 1465 1466 1467 0
-1468 -1 0
-1468 80 0
-1469 -7 0
-1469 53 0
-1470 -9 0
-1470 51 0
-108 1468 1469 1470 0
-1471 -10 0
-1471 129 0
-1472 -22 0
-1472 88 0
-1473 -24 0
-1473 86 0
-108 1471 1472 1473 0
-1474 -11 0
-1474 144 0
-1475 -28 0
-1475 94 0
-1476 -30 0
-1476 92 0
-108 1474 1475 1476 0
-1477 -12 0
-1477 154 0
-1478 -33 0
-1478 99 0
-1479 -35 0
-1479 97 0
-108 1477 1478 1479 0
-1480 -13 0
-1480 160 0
-1481 -37 0
-1481 103 0
-1482 -39 0
-1482 101 0
-108 1480 1481 1482 0
-1483 -14 0
-1483 163 0
-1484 -40 0
-1484 106 0
-1485 -42 0
-1485 104 0
-108 1483 1484 1485 0
-1486 -16 0
-1486 165 0
-1487 -43 0
-1487 109 0
-1488 -45 0
-1488 107 0
-108 1486 1487 1488 0
-1489 -1 0
-1489 81 0
-1490 -8 0
-1490 53 0
-1491 -9 0
-1491 52 0
-109 1489 1490 1491 0
-1492 -10 0
-1492 130 0
-1493 -23 0
-1493 88 0
-1494 -24 0
-1494 87 0
-109 1492 1493 1494 0
-1495 -11 0
-1495 145 0
-1496 -29 0
-1496 94 0
-1497 -30 0
-1497 93 0
-109 1495 1496 1497 0
-1498 -12 0
-1498 155 0
-1499 -34 0
-1499 99 0
-1500 -35 0
-1500 98 0
-109 1498 1499 1500 0
-1501 -13 0
-1501 161 0
-1502 -38 0
-1502 103 0
-1503 -39 0
-1503 102 0
-109 1501 1502 1503 0
-1504 -14 0
-1504 164 0
-1505 -41 0
-1505 106 0
-1506 -42 0
-1506 105 0
-109 1504 1505 1506 0
-1507 -15 0
-1507 165 0
-1508 -43 0
-1508 108 0
-1509 -44 0
-1509 107 0
-109 1507 1508 1509 0
-1510 -2 0
-1510 61 0
-1511 -3 0
-1511 55 0
-1512 -4 0
-1512 54 0
-110 1510 1511 1512 0
-1513 -10 0
-1513 89 0
-1514 -11 0
-1514 83 0
-1515 -12 0
-1515 82 0
-110 1513 1514 1515 0
-1516 -20 0
-1516 131 0
-1517 -26 0
-1517 116 0
-1518 -31 0
-1518 111 0
-110 1516 1517 1518 0
-1519 -21 0
-1519 132 0
-1520 -27 0
-1520 117 0
-1521 -32 0
-1521 112 0
-110 1519 1520 1521 0
-1522 -22 0
-1522 133 0
-1523 -28 0
-1523 118 0
-1524 -33 0
-1524 113 0
-110 1522 1523 1524 0
-1525 -23 0
-1525 134 0
-1526 -29 0
-1526 119 0
-1527 -34 0
-1527 114 0
-110 1525 1526 1527 0
-1528 -24 0
-1528 135 0
-1529 -30 0
-1529 120 0
-1530 -35 0
-1530 115 0
-110 1528 1529 1530 0
-1531 -2 0
-1531 62 0
-1532 -3 0
-1532 56 0
-1533 -5 0
-1533 54 0
-111 1531 1532 1533 0
-1534 -10 0
-1534 90 0
-1535 -11 0
-1535 84 0
-1536 -13 0
-1536 82 0
-111 1534 1535 1536 0
-1537 -19 0
-1537 131 0
-1538 -25 0
-1538 116 0
-1539 -31 0
-1539 110 0
-111 1537 1538 1539 0
-1540 -21 0
-1540 136 0
-1541 -27 0
-1541 121 0
-1542 -36 0
-1542 112 0
-111 1540 1541 1542 0
-1543 -22 0
-1543 137 0
-1544 -28 0
-1544 122 0
-1545 -37 0
-1545 113 0
-111 1543 1544 1545 0
-1546 -23 0
-1546 138 0
-1547 -29 0
-1547 123 0
-1548 -38 0
-1548 114 0
-111 1546 1547 1548 0
-1549 -24 0
-1549 139 0
-1550 -30 0
-1550 124 0
-1551 -39 0
-1551 115 0
-111 1549 1550 1551 0
-1552 -2 0
-1552 63 0
-1553 -3 0
-1553 57 0
-1554 -6 0
-1554 54 0
-112 1552 1553 1554 0
-1555 -10 0
-1555 91 0
-1556 -11 0
-1556 85 0
-1557 -14 0
-1557 82 0
-112 1555 1556 1557 0
-1558 -19 0
-1558 132 0
-1559 -25 0
-1559 117 0
-1560 -32 0
-1560 110 0
-112 1558 1559 1560 0
-1561 -20 0
-1561 136 0
-1562 -26 0
-1562 121 0
-1563 -36 0
-1563 111 0
-112 1561 1562 1563 0
-1564 -22 0
-1564 140 0
-1565 -28 0
-1565 125 0
-1566 -40 0
-1566 113 0
-112 1564 1565 1566 0
-1567 -23 0
-1567 141 0
-1568 -29 0
-1568 126 0
-1569 -41 0
-1569 114 0
-112 1567 1568 1569 0
-1570 -24 0
-1570 142 0
-1571 -30 0
-1571 127 0
-1572 -42 0
-1572 115 0
-112 1570 1571 1572 0
-1573 -2 0
-1573 64 0
-1574 -3 0
-1574 58 0
-1575 -7 0
-1575 54 0
-113 1573 1574 1575 0
-1576 -10 0
-1576 92 0
-1577 -11 0
-1577 86 0
-1578 -15 0
-1578 82 0
-113 1576 1577 1578 0
-1579 -19 0
-1579 133 0
-1580 -25 0
-1580 118 0
-1581 -33 0
-1581 110 0
-113 1579 1580 1581 0
-1582 -20 0
-1582 137 0
-1583 -26 0
-1583 122 0
-1584 -37 0
-1584 111 0
-113 1582 1583 1584 0
-1585 -21 0
-1585 140 0
-1586 -27 0
-1586 125 0
-1587 -40 0
-1587 112 0
-113 1585 1586 1587 0
-1588 -23 0
-1588 143 0
-1589 -29 0
-1589 128 0
-1590 -43 0
-1590 114 0
-113 1588 1589 1590 0
-1591 -24 0
-1591 144 0
-1592 -30 0
-1592 129 0
-1593 -44 0
-1593 115 0
-113 1591 1592 1593 0
-1594 -2 0
-1594 65 0
-1595 -3 0
-1595 59 0
-1596 -8 0
-1596 54 0
-114 1594 1595 1596 0
-1597 -10 0
-1597 93 0
-1598 -11 0
-1598 87 0
-1599 -16 0
-1599 82 0
-114 1597 1598 1599 0
-1600 -19 0
-1600 134 0
-1601 -25 0
-1601 119 0
-1602 -34 0
-1602 110 0
-114 1600 1601 1602 0
-1603 -20 0
-1603 138 0
-1604 -26 0
-1604 123 0
-1605 -38 0
-1605 111 0
-114 1603 1604 1605 0
-1606 -21 0
-1606 141 0
-1607 -27 0
-1607 126 0
-1608 -41 0
-1608 112 0
-114 1606 1607 1608 0
-1609 -22 0
-1609 143 0
-1610 -28 0
-1610 128 0
-1611 -43 0
-1611 113 0
-114 1609 1610 1611 0
-1612 -24 0
-1612 145 0
-1613 -30 0
-1613 130 0
-1614 -45 0
-1614 115 0
-114 1612 1613 1614 0
-1615 -2 0
-1615 66 0
-1616 -3 0
-1616 60 0
-1617 -9 0
-1617 54 0
-115 1615 1616 1617 0
-1618 -10 0
-1618 94 0
-1619 -11 0
-1619 88 0
-1620 -17 0
-1620 82 0
-115 1618 1619 1620 0
-1621 -19 0
-1621 135 0
-1622 -25 0
-1622 120 0
-1623 -35 0
-1623 110 0
-115 1621 1622 1623 0
-1624 -20 0
-1624 139 0
-1625 -26 0
-1625 124 0
-1626 -39 0
-1626 111 0
-115 1624 1625 1626 0
-1627 -21 0
-1627 142 0
-1628 -27 0
-1628 127 0
-1629 -42 0
-1629 112 0
-115 1627 1628 1629 0
-1630 -22 0
-1630 144 0
-1631 -28 0
-1631 129 0
-1632 -44 0
-1632 113 0
-115 1630 1631 1632 0
-1633 -23 0
-1633 145 0
-1634 -29 0
-1634 130 0
-1635 -45 0
-1635 114 0
-115 1633 1634 1635 0
-1636 -2 0
-1636 67 0
-1637 -4 0
-1637 56 0
-1638 -5 0
-1638 55 0
-116 1636 1637 1638 0
-1639 -10 0
-1639 95 0
-1640 -12 0
-1640 84 0
-1641 -13 0
-1641 83 0
-116 1639 1640 1641 0
-1642 -18 0
-1642 131 0
-1643 -25 0
-1643 111 0
-1644 -26 0
-1644 110 0
-116 1642 1643 1644 0
-1645 -21 0
-1645 146 0
-1646 -32 0
-1646 121 0
-1647 -36 0
-1647 117 0
-116 1645 1646 1647 0
-1648 -22 0
-1648 147 0
-1649 -33 0
-1649 122 0
-1650 -37 0
-1650 118 0
-116 1648 1649 1650 0
-1651 -23 0
-1651 148 0
-1652 -34 0
-1652 123 0
-1653 -38 0
-1653 119 0
-116 1651 1652 1653 0
-1654 -24 0
-1654 149 0
-1655 -35 0
-1655 124 0
-1656 -39 0
-1656 120 0
-116 1654 1655 1656 0
-1657 -2 0
-1657 68 0
-1658 -4 0
-1658 57 0
-1659 -6 0
-1659 55 0
-117 1657 1658 1659 0
-1660 -10 0
-1660 96 0
-1661 -12 0
-1661 85 0
-1662 -14 0
-1662 83 0
-117 1660 1661 1662 0
-1663 -18 0
-1663 132 0
-1664 -25 0
-1664 112 0
-1665 -27 0
-1665 110 0
-117 1663 1664 1665 0
-1666 -20 0
-1666 146 0
-1667 -31 0
-1667 121 0
-1668 -36 0
-1668 116 0
-117 1666 1667 1668 0
-1669 -22 0
-1669 150 0
-1670 -33 0
-1670 125 0
-1671 -40 0
-1671 118 0
-117 1669 1670 1671 0
-1672 -23 0
-1672 151 0
-1673 -34 0
-1673 126 0
-1674 -41 0
-1674 119 0
-117 1672 1673 1674 0
-1675 -24 0
-1675 152 0
-1676 -35 0
-1676 127 0
-1677 -42 0
-1677 120 0
-117 1675 1676 1677 0
-1678 -2 0
-1678 69 0
-1679 -4 0
-1679 58 0
-1680 -7 0
-1680 55 0
-118 1678 1679 1680 0
-1681 -10 0
-1681 97 0
-1682 -12 0
-1682 86 0
-1683 -15 0
-1683 83 0
-118 1681 1682 1683 0
-1684 -18 0
-1684 133 0
-1685 -25 0
-1685 113 0
-1686 -28 0
-1686 110 0
-118 1684 1685 1686 0
-1687 -20 0
-1687 147 0
-1688 -31 0
-1688 122 0
-1689 -37 0
-1689 116 0
-118 1687 1688 1689 0
-1690 -21 0
-1690 150 0
-1691 -32 0
-1691 125 0
-1692 -40 0
-1692 117 0
-118 1690 1691 1692 0
-1693 -23 0
-1693 153 0
-1694 -34 0
-1694 128 0
-1695 -43 0
-1695 119 0
-118 1693 1694 1695 0
-1696 -24 0
-1696 154 0
-1697 -35 0
-1697 129 0
-1698 -44 0
-1698 120 0
-118 1696 1697 1698 0
-1699 -2 0
-1699 70 0
-1700 -4 0
-1700 59 0
-1701 -8 0
-1701 55 0
-119 1699 1700 1701 0
-1702 -10 0
-1702 98 0
-1703 -12 0
-1703 87 0
-1704 -16 0
-1704 83 0
-119 1702 1703 1704 0
-1705 -18 0
-1705 134 0
-1706 -25 0
-1706 114 0
-1707 -29 0
-1707 110 0
-119 1705 1706 1707 0
-1708 -20 0
-1708 148 0
-1709 -31 0
-1709 123 0
-1710 -38 0
-1710 116 0
-119 1708 1709 1710 0
-1711 -21 0
-1711 151 0
-1712 -32 0
-1712 126 0
-1713 -41 0
-1713 117 0
-119 1711 1712 1713 0
-1714 -22 0
-1714 153 0
-1715 -33 0
-1715 128 0
-1716 -43 0
-1716 118 0
-119 1714 1715 1716 0
-1717 -24 0
-1717 155 0
-1718 -35 0
-1718 130 0
-1719 -45 0
-1719 120 0
-119 1717 1718 1719 0
-1720 -2 0
-1720 71 0
-1721 -4 0
-1721 60 0
-1722 -9 0
-1722 55 0
-120 1720 1721 1722 0
-1723 -10 0
-1723 99 0
-1724 -12 0
-1724 88 0
-1725 -17 0
-1725 83 0
-120 1723 1724 1725 0
-1726 -18 0
-1726 135 0
-1727 -25 0
-1727 115 0
-1728 -30 0
-1728 110 0
-120 1726 1727 1728 0
-1729 -20 0
-1729 149 0
-1730 -31 0
-1730 124 0
-1731 -39 0
-1731 116 0
-120 1729 1730 1731 0
-1732 -21 0
-1732 152 0
-1733 -32 0
-1733 127 0
-1734 -42 0
-1734 117 0
-120 1732 1733 1734 0
-1735 -22 0
-1735 154 0
-1736 -33 0
-1736 129 0
-1737 -44 0
-1737 118 0
-120 1735 1736 1737 0
-1738 -23 0
-1738 155 0
-1739 -34 0
-1739 130 0
-1740 -45 0
-1740 119 0
-120 1738 1739 1740 0
-1741 -2 0
-1741 72 0
-1742 -5 0
-1742 57 0
-1743 -6 0
-1743 56 0
-121 1741 1742 1743 0
-1744 -10 0
-1744 100 0
-1745 -13 0
-1745 85 0
-1746 -14 0
-1746 84 0
-121 1744 1745 1746 0
-1747 -18 0
-1747 136 0
-1748 -26 0
-1748 112 0
-1749 -27 0
-1749 111 0
-121 1747 1748 1749 0
-1750 -19 0
-1750 146 0
-1751 -31 0
-1751 117 0
-1752 -32 0
-1752 116 0
-121 1750 1751 1752 0
-1753 -22 0
-1753 156 0
-1754 -37 0
-1754 125 0
-1755 -40 0
-1755 122 0
-121 1753 1754 1755 0
-1756 -23 0
-1756 157 0
-1757 -38 0
-1757 126 0
-1758 -41 0
-1758 123 0
-121 1756 1757 1758 0
-1759 -24 0
-1759 158 0
-1760 -39 0
-1760 127 0
-1761 -42 0
-1761 124 0
-121 1759 1760 1761 0
-1762 -2 0
-1762 73 0
-1763 -5 0
-1763 58 0
-1764 -7 0
-1764 56 0
-122 1762 1763 1764 0
-1765 -10 0
-1765 101 0
-1766 -13 0
-1766 86 0
-1767 -15 0
-1767 84 0
-122 1765 1766 1767 0
-1768 -18 0
-1768 137 0
-1769 -26 0
-1769 113 0
-1770 -28 0
-1770 111 0
-122 1768 1769 1770 0
-1771 -19 0
-1771 147 0
-1772 -31 0
-1772 118 0
-1773 -33 0
-1773 116 0
-122 1771 1772 1773 0
-1774 -21 0
-1774 156 0
-1775 -36 0
-1775 125 0
-1776 -40 0
-1776 121 0
-122 1774 1775 1776 0
-1777 -23 0
-1777 159 0
-1778 -38 0
-1778 128 0
-1779 -43 0
-1779 123 0
-122 1777 1778 1779 0
-1780 -24 0
-1780 160 0
-1781 -39 0
-1781 129 0
-1782 -44 0
-1782 124 0
-122 1780 1781 1782 0
-1783 -2 0
-1783 74 0
-1784 -5 0
-1784 59 0
-1785 -8 0
-1785 56 0
-123 1783 1784 1785 0
-1786 -10 0
-1786 102 0
-1787 -13 0
-1787 87 0
-1788 -16 0
-1788 84 0
-123 1786 1787 1788 0
-1789 -18 0
-1789 138 0
-1790 -26 0
-1790 114 0
-1791 -29 0
-1791 111 0
-123 1789 1790 1791 0
-1792 -19 0
-1792 148 0
-1793 -31 0
-1793 119 0
-1794 -34 0
-1794 116 0
-123 1792 1793 1794 0
-1795 -21 0
-1795 157 0
-1796 -36 0
-1796 126 0
-1797 -41 0
-1797 121 0
-123 1795 1796 1797 0
-1798 -22 0
-1798 159 0
-1799 -37 0
-1799 128 0
-1800 -43 0
-1800 122 0
-123 1798 1799 1800 0
-1801 -24 0
-1801 161 0
-1802 -39 0
-1802 130 0
-1803 -45 0
-1803 124 0
-123 1801 1802 1803 0
-1804 -2 0
-1804 75 0
-1805 -5 0
-1805 60 0
-1806 -9 0
-1806 56 0
-124 1804 1805 1806 0
-1807 -10 0
-1807 103 0
-1808 -13 0
-1808 88 0
-1809 -17 0
-1809 84 0
-124 1807 1808 1809 0
-1810 -18 0
-1810 139 0
-1811 -26 0
-1811 115 0
-1812 -30 0
-1812 111 0
-124 1810 1811 1812 0
-1813 -19 0
-1813 149 0
-1814 -31 0
-1814 120 0
-1815 -35 0
-1815 116 0
-124 1813 1814 1815 0
-1816 -21 0
-1816 158 0
-1817 -36 0
-1817 127 0
-1818 -42 0
-1818 121 0
-124 1816 1817 1818 0
-1819 -22 0
-1819 160 0
-1820 -37 0
-1820 129 0
-1821 -44 0
-1821 122 0
-124 1819 1820 1821 0
-1822 -23 0
-1822 161 0
-1823 -38 0
-1823 130 0
-1824 -45 0
-1824 123 0
-124 1822 1823 1824 0
-1825 -2 0
-1825 76 0
-1826 -6 0
-1826 58 0
-1827 -7 0
-1827 57 0
-125 1825 1826 1827 0
-1828 -10 0
-1828 104 0
-1829 -14 0
-1829 86 0
-1830 -15 0
-1830 85 0
-125 1828 1829 1830 0
-1831 -18 0
-1831 140 0
-1832 -27 0
-1832 113 0
-1833 -28 0
-1833 112 0
-125 1831 1832 1833 0
-1834 -19 0
-1834 150 0
-1835 -32 0
-1835 118 0
-1836 -33 0
-1836 117 0
-125 1834 1835 1836 0
-1837 -20 0
-1837 156 0
-1838 -36 0
-1838 122 0
-1839 -37 0
-1839 121 0
-125 1837 1838 1839 0
-1840 -23 0
-1840 162 0
-1841 -41 0
-1841 128 0
-1842 -43 0
-1842 126 0
-125 1840 1841 1842 0
-1843 -24 0
-1843 163 0
-1844 -42 0
-1844 129 0
-1845 -44 0
-1845 127 0
-125 1843 1844 1845 0
-1846 -2 0
-1846 77 0
-1847 -6 0
-1847 59 0
-1848 -8 0
-1848 57 0
-126 1846 1847 1848 0
-1849 -10 0
-1849 105 0
-1850 -14 0
-1850 87 0
-1851 -16 0
-1851 85 0
-126 1849 1850 1851 0
-1852 -18 0
-1852 141 0
-1853 -27 0
-1853 114 0
-1854 -29 0
-1854 112 0
-126 1852 1853 1854 0
-1855 -19 0
-1855 151 0
-1856 -32 0
-1856 119 0
-1857 -34 0
-1857 117 0
-126 1855 1856 1857 0
-1858 -20 0
-1858 157 0
-1859 -36 0
-1859 123 0
-1860 -38 0
-1860 121 0
-126 1858 1859 1860 0
-1861 -22 0
-1861 162 0
-1862 -40 0
-1862 128 0
-1863 -43 0
-1863 125 0
-126 1861 1862 1863 0
-1864 -24 0
-1864 164 0
-1865 -42 0
-1865 130 0
-1866 -45 0
-1866 127 0
-126 1864 1865 1866 0
-1867 -2 0
-1867 78 0
-1868 -6 0
-1868 60 0
-1869 -9 0
-1869 57 0
-127 1867 1868 1869 0
-1870 -10 0
-1870 106 0
-1871 -14 0
-1871 88 0
-1872 -17 0
-1872 85 0
-127 1870 1871 1872 0
-1873 -18 0
-1873 142 0
-1874 -27 0
-1874 115 0
-1875 -30 0
-1875 112 0
-127 1873 1874 1875 0
-1876 -19 0
-1876 152 0
-1877 -32 0
-1877 120 0
-1878 -35 0
-1878 117 0
-127 1876 1877 1878 0
-1879 -20 0
-1879 158 0
-1880 -36 0
-1880 124 0
-1881 -39 0
-1881 121 0
-127 1879 1880 1881 0
-1882 -22 0
-1882 163 0
-1883 -40 0
-1883 129 0
-1884 -44 0
-1884 125 0
-127 1882 1883 1884 0
-1885 -23 0
-1885 164 0
-1886 -41 0
-1886 130 0
-1887 -45 0
-1887 126 0
-127 1885 1886 1887 0
-1888 -2 0
-1888 79 0
-1889 -7 0
-1889 59 0
-1890 -8 0
-1890 58 0
-128 1888 1889 1890 0
-1891 -10 0
-1891 107 0
-1892 -15 0
-1892 87 0
-1893 -16 0
-1893 86 0
-128 1891 1892 1893 0
-1894 -18 0
-1894 143 0
-1895 -28 0
-1895 114 0
-1896 -29 0
-1896 113 0
-128 1894 1895 1896 0
-1897 -19 0
-1897 153 0
-1898 -33 0
-1898 119 0
-1899 -34 0
-1899 118 0
-128 1897 1898 1899 0
-1900 -20 0
-1900 159 0
-1901 -37 0
-1901 123 0
-1902 -38 0
-1902 122 0
-128 1900 1901 1902 0
-1903 -21 0
-1903 162 0
-1904 -40 0
-1904 126 0
-1905 -41 0
-1905 125 0
-128 1903 1904 1905 0
-1906 -24 0
-1906 165 0
-1907 -44 0
-1907 130 0
-1908 -45 0
-1908 129 0
-128 1906 1907 1908 0
-1909 -2 0
-1909 80 0
-1910 -7 0
-1910 60 0
-1911 -9 0
-1911 58 0
-129 1909 1910 1911 0
-1912 -10 0
-1912 108 0
-1913 -15 0
-1913 88 0
-1914 -17 0
-1914 86 0
-129 1912 1913 1914 0
-1915 -18 0
-1915 144 0
-1916 -28 0
-1916 115 0
-1917 -30 0
-1917 113 0
-129 1915 1916 1917 0
-1918 -19 0
-1918 154 0
-1919 -33 0
-1919 120 0
-1920 -35 0
-1920 118 0
-129 1918 1919 1920 0
-1921 -20 0
-1921 160 0
-1922 -37 0
-1922 124 0
-1923 -39 0
-1923 122 0
-129 1921 1922 1923 0
-1924 -21 0
-1924 163 0
-1925 -40 0
-1925 127 0
-1926 -42 0
-1926 125 0
-129 1924 1925 1926 0
-1927 -23 0
-1927 165 0
-1928 -43 0
-1928 130 0
-1929 -45 0
-1929 128 0
-129 1927 1928 1929 0
-1930 -2 0
-1930 81 0
-1931 -8 0
-1931 60 0
-1932 -9 0
-1932 59 0
-130 1930 1931 1932 0
-1933 -10 0
-1933 109 0
-1934 -16 0
-1934 88 0
-1935 -17 0
-1935 87 0
-130 1933 1934 1935 0
-1936 -18 0
-1936 145 0
-1937 -29 0
-1937 115 0
-1938 -30 0
-1938 114 0
-130 1936 1937 1938 0
-1939 -19 0
-1939 155 0
-1940 -34 0
-1940 120 0
-1941 -35 0
-1941 119 0
-130 1939 1940 1941 0
-1942 -20 0
-1942 161 0
-1943 -38 0
-1943 124 0
-1944 -39 0
-1944 123 0
-130 1942 1943 1944 0
-1945 -21 0
-1945 164 0
-1946 -41 0
-1946 127 0
-1947 -42 0
-1947 126 0
-130 1945 1946 1947 0
-1948 -22 0
-1948 165 0
-1949 -43 0
-1949 129 0
-1950 -44 0
-1950 128 0
-130 1948 1949 1950 0
-1951 -3 0
-1951 67 0
-1952 -4 0
-1952 62 0
-1953 -5 0
-1953 61 0
-131 1951 1952 1953 0
-1954 -11 0
-1954 95 0
-1955 -12 0
-1955 90 0
-1956 -13 0
-1956 89 0
-131 1954 1955 1956 0
-1957 -18 0
-1957 116 0
-1958 -19 0
-1958 111 0
-1959 -20 0
-1959 110 0
-131 1957 1958 1959 0
-1960 -27 0
-1960 146 0
-1961 -32 0
-1961 136 0
-1962 -36 0
-1962 132 0
-131 1960 1961 1962 0
-1963 -28 0
-1963 147 0
-1964 -33 0
-1964 137 0
-1965 -37 0
-1965 133 0
-131 1963 1964 1965 0
-1966 -29 0
-1966 148 0
-1967 -34 0
-1967 138 0
-1968 -38 0
-1968 134 0
-131 1966 1967 1968 0
-1969 -30 0
-1969 149 0
-1970 -35 0
-1970 139 0
-1971 -39 0
-1971 135 0
-131 1969 1970 1971 0
-1972 -3 0
-1972 68 0
-1973 -4 0
-1973 63 0
-1974 -6 0
-1974 61 0
-132 1972 1973 1974 0
-1975 -11 0
-1975 96 0
-1976 -12 0
-1976 91 0
-1977 -14 0
-1977 89 0
-132 1975 1976 1977 0
-1978 -18 0
-1978 117 0
-1979 -19 0
-1979 112 0
-1980 -21 0
-1980 110 0
-132 1978 1979 1980 0
-1981 -26 0
-1981 146 0
-1982 -31 0
-1982 136 0
-1983 -36 0
-1983 131 0
-132 1981 1982 1983 0
-1984 -28 0
-1984 150 0
-1985 -33 0
-1985 140 0
-1986 -40 0
-1986 133 0
-132 1984 1985 1986 0
-1987 -29 0
-1987 151 0
-1988 -34 0
-1988 141 0
-1989 -41 0
-1989 134 0
-132 1987 1988 1989 0
-1990 -30 0
-1990 152 0
-1991 -35 0
-1991 142 0
-1992 -42 0
-1992 135 0
-132 1990 1991 1992 0
-1993 -3 0
-1993 69 0
-1994 -4 0
-1994 64 0
-1995 -7 0
-1995 61 0
-133 1993 1994 1995 0
-1996 -11 0
-1996 97 0
-1997 -12 0
-1997 92 0
-1998 -15 0
-1998 89 0
-133 1996 1997 1998 0
-1999 -18 0
-1999 118 0
-2000 -19 0
-2000 113 0
-2001 -22 0
-2001 110 0
-133 1999 2000 2001 0
-2002 -26 0
-2002 147 0
-2003 -31 0
-2003 137 0
-2004 -37 0
-2004 131 0
-133 2002 2003 2004 0
-2005 -27 0
-2005 150 0
-2006 -32 0
-2006 140 0
-2007 -40 0
-2007 132 0
-133 2005 2006 2007 0
-2008 -29 0
-2008 153 0
-2009 -34 0
-2009 143 0
-2010 -43 0
-2010 134 0
-133 2008 2009 2010 0
-2011 -30 0
-2011 154 0
-2012 -35 0
-2012 144 0
-2013 -44 0
-2013 135 0
-133 2011 2012 2013 0
-2014 -3 0
-2014 70 0
-2015 -4 0
-2015 65 0
-2016 -8 0
-2016 61 0
-134 2014 2015 2016 0
-2017 -11 0
-2017 98 0
-2018 -12 0
-2018 93 0
-2019 -16 0
-2019 89 0
-134 2017 2018 2019 0
-2020 -18 0
-2020 119 0
-2021 -19 0
-2021 114 0
-2022 -23 0
-2022 110 0
-134 2020 2021 2022 0
-2023 -26 0
-2023 148 0
-2024 -31 0
-2024 138 0
-2025 -38 0
-2025 131 0
-134 2023 2024 2025 0
-2026 -27 0
-2026 151 0
-2027 -32 0
-2027 141 0
-2028 -41 0
-2028 132 0
-134 2026 2027 2028 0
-2029 -28 0
-2029 153 0
-2030 -33 0
-2030 143 0
-2031 -43 0
-2031 133 0
-134 2029 2030 2031 0
-2032 -30 0
-2032 155 0
-2033 -35 0
-2033 145 0
-2034 -45 0
-2034 135 0
-134 2032 2033 2034 0
-2035 -3 0
-2035 71 0
-2036 -4 0
-2036 66 0
-2037 -9 0
-2037 61 0
-135 2035 2036 2037 0
-2038 -11 0
-2038 99 0
-2039 -12 0
-2039 94 0
-2040 -17 0
-2040 89 0
-135 2038 2039 2040 0
-2041 -18 0
-2041 120 0
-2042 -19 0
-2042 115 0
-2043 -24 0
-2043 110 0
-135 2041 2042 2043 0
-2044 -26 0
-2044 149 0
-2045 -31 0
-2045 139 0
-2046 -39 0
-2046 131 0
-135 2044 2045 2046 0
-2047 -27 0
-2047 152 0
-2048 -32 0
-2048 142 0
-2049 -42 0
-2049 132 0
-135 2047 2048 2049 0
-2050 -28 0
-2050 154 0
-2051 -33 0
-2051 144 0
-2052 -44 0
-2052 133 0
-135 2050 2051 2052 0
-2053 -29 0
-2053 155 0
-2054 -34 0
-2054 145 0
-2055 -45 0
-2055 134 0
-135 2053 2054 2055 0
-2056 -3 0
-2056 72 0
-2057 -5 0
-2057 63 0
-2058 -6 0
-2058 62 0
-136 2056 2057 2058 0
-2059 -11 0
-2059 100 0
-2060 -13 0
-2060 91 0
-2061 -14 0
-2061 90 0
-136 2059 2060 2061 0
-2062 -18 0
-2062 121 0
-2063 -20 0
-2063 112 0
-2064 -21 0
-2064 111 0
-136 2062 2063 2064 0
-2065 -25 0
-2065 146 0
-2066 -31 0
-2066 132 0
-2067 -32 0
-2067 131 0
-136 2065 2066 2067 0
-2068 -28 0
-2068 156 0
-2069 -37 0
-2069 140 0
-2070 -40 0
-2070 137 0
-136 2068 2069 2070 0
-2071 -29 0
-2071 157 0
-2072 -38 0
-2072 141 0
-2073 -41 0
-2073 138 0
-136 2071 2072 2073 0
-2074 -30 0
-2074 158 0
-2075 -39 0
-2075 142 0
-2076 -42 0
-2076 139 0
-136 2074 2075 2076 0
-2077 -3 0
-2077 73 0
-2078 -5 0
-2078 64 0
-2079 -7 0
-2079 62 0
-137 2077 2078 2079 0
-2080 -11 0
-2080 101 0
-2081 -13 0
-2081 92 0
-2082 -15 0
-2082 90 0
-137 2080 2081 2082 0
-2083 -18 0
-2083 122 0
-2084 -20 0
-2084 113 0
-2085 -22 0
-2085 111 0
-137 2083 2084 2085 0
-2086 -25 0
-2086 147 0
-2087 -31 0
-2087 133 0
-2088 -33 0
-2088 131 0
-137 2086 2087 2088 0
-2089 -27 0
-2089 156 0
-2090 -36 0
-2090 140 0
-2091 -40 0
-2091 136 0
-137 2089 2090 2091 0
-2092 -29 0
-2092 159 0
-2093 -38 0
-2093 143 0
-2094 -43 0
-2094 138 0
-137 2092 2093 2094 0
-2095 -30 0
-2095 160 0
-2096 -39 0
-2096 144 0
-2097 -44 0
-2097 139 0
-137 2095 2096 2097 0
-2098 -3 0
-2098 74 0
-2099 -5 0
-2099 65 0
-2100 -8 0
-2100 62 0
-138 2098 2099 2100 0
-2101 -11 0
-2101 102 0
-2102 -13 0
-2102 93 0
-2103 -16 0
-2103 90 0
-138 2101 2102 2103 0
-2104 -18 0
-2104 123 0
-2105 -20 0
-2105 114 0
-2106 -23 0
-2106 111 0
-138 2104 2105 2106 0
-2107 -25 0
-2107 148 0
-2108 -31 0
-2108 134 0
-2109 -34 0
-2109 131 0
-138 2107 2108 2109 0
-2110 -27 0
-2110 157 0
-2111 -36 0
-2111 141 0
-2112 -41 0
-2112 136 0
-138 2110 2111 2112 0
-2113 -28 0
-2113 159 0
-2114 -37 0
-2114 143 0
-2115 -43 0
-2115 137 0
-138 2113 2114 2115 0
-2116 -30 0
-2116 161 0
-2117 -39 0
-2117 145 0
-2118 -45 0
-2118 139 0
-138 2116 2117 2118 0
-2119 -3 0
-2119 75 0
-2120 -5 0
-2120 66 0
-2121 -9 0
-2121 62 0
-139 2119 2120 2121 0
-2122 -11 0
-2122 103 0
-2123 -13 0
-2123 94 0
-2124 -17 0
-2124 90 0
-139 2122 2123 2124 0
-2125 -18 0
-2125 124 0
-2126 -20 0
-2126 115 0
-2127 -24 0
-2127 111 0
-139 2125 2126 2127 0
-2128 -25 0
-2128 149 0
-2129 -31 0
-2129 135 0
-2130 -35 0
-2130 131 0
-139 2128 2129 2130 0
-2131 -27 0
-2131 158 0
-2132 -36 0
-2132 142 0
-2133 -42 0
-2133 136 0
-139 2131 2132 2133 0
-2134 -28 0
-2134 160 0
-2135 -37 0
-2135 144 0
-2136 -44 0
-2136 137 0
-139 2134 2135 2136 0
-2137 -29 0
-2137 161 0
-2138 -38 0
-2138 145 0
-2139 -45 0
-2139 138 0
-139 2137 2138 2139 0
-2140 -3 0
-2140 76 0
-2141 -6 0
-2141 64 0
-2142 -7 0
-2142 63 0
-140 2140 2141 2142 0
-2143 -11 0
-2143 104 0
-2144 -14 0
-2144 92 0
-2145 -15 0
-2145 91 0
-140 2143 2144 2145 0
-2146 -18 0
-2146 125 0
-2147 -21 0
-2147 113 0
-2148 -22 0
-2148 112 0
-140 2146 2147 2148 0
-2149 -25 0
-2149 150 0
-2150 -32 0
-2150 133 0
-2151 -33 0
-2151 132 0
-140 2149 2150 2151 0
-2152 -26 0
-2152 156 0
-2153 -36 0
-2153 137 0
-2154 -37 0
-2154 136 0
-140 2152 2153 2154 0
-2155 -29 0
-2155 162 0
-2156 -41 0
-2156 143 0
-2157 -43 0
-2157 141 0
-140 2155 2156 2157 0
-2158 -30 0
-2158 163 0
-2159 -42 0
-2159 144 0
-2160 -44 0
-2160 142 0
-140 2158 2159 2160 0
-2161 -3 0
-2161 77 0
-2162 -6 0
-2162 65 0
-2163 -8 0
-2163 63 0
-141 2161 2162 2163 0
-2164 -11 0
-2164 105 0
-2165 -14 0
-2165 93 0
-2166 -16 0
-2166 91 0
-141 2164 2165 2166 0
-2167 -18 0
-2167 126 0
-2168 -21 0
-2168 114 0
-2169 -23 0
-2169 112 0
-141 2167 2168 2169 0
-2170 -25 0
-2170 151 0
-2171 -32 0
-2171 134 0
-2172 -34 0
-2172 132 0
-141 2170 2171 2172 0
-2173 -26 0
-2173 157 0
-2174 -36 0
-2174 138 0
-2175 -38 0
-2175 136 0
-141 2173 2174 2175 0
-2176 -28 0
-2176 162 0
-2177 -40 0
-2177 143 0
-2178 -43 0
-2178 140 0
-141 2176 2177 2178 0
-2179 -30 0
-2179 164 0
-2180 -42 0
-2180 145 0
-2181 -45 0
-2181 142 0
-141 2179 2180 2181 0
-2182 -3 0
-2182 78 0
-2183 -6 0
-2183 66 0
-2184 -9 0
-2184 63 0
-142 2182 2183 2184 0
-2185 -11 0
-2185 106 0
-2186 -14 0
-2186 94 0
-2187 -17 0
-2187 91 0
-142 2185 2186 2187 0
-2188 -18 0
-2188 127 0
-2189 -21 0
-2189 115 0
-2190 -24 0
-2190 112 0
-142 2188 2189 2190 0
-2191 -25 0
-2191 152 0
-2192 -32 0
-2192 135 0
-2193 -35 0
-2193 132 0
-142 2191 2192 2193 0
-2194 -26 0
-2194 158 0
-2195 -36 0
-2195 139 0
-2196 -39 0
-2196 136 0
-142 2194 2195 2196 0
-2197 -28 0
-2197 163 0
-2198 -40 0
-2198 144 0
-2199 -44 0
-2199 140 0
-142 2197 2198 2199 0
-2200 -29 0
-2200 164 0
-2201 -41 0
-2201 145 0
-2202 -45 0
-2202 141 0
-142 2200 2201 2202 0
-2203 -3 0
-2203 79 0
-2204 -7 0
-2204 65 0
-2205 -8 0
-2205 64 0
-143 2203 2204 2205 0
-2206 -11 0
-2206 107 0
-2207 -15 0
-2207 93 0
-2208 -16 0
-2208 92 0
-143 2206 2207 2208 0
-2209 -18 0
-2209 128 0
-2210 -22 0
-2210 114 0
-2211 -23 0
-2211 113 0
-143 2209 2210 2211 0
-2212 -25 0
-2212 153 0
-2213 -33 0
-2213 134 0
-2214 -34 0
-2214 133 0
-143 2212 2213 2214 0
-2215 -26 0
-2215 159 0
-2216 -37 0
-2216 138 0
-2217 -38 0
-2217 137 0
-143 2215 2216 2217 0
-2218 -27 0
-2218 162 0
-2219 -40 0
-2219 141 0
-2220 -41 0
-2220 140 0
-143 2218 2219 2220 0
-2221 -30 0
-2221 165 0
-2222 -44 0
-2222 145 0
-2223 -45 0
-2223 144 0
-143 2221 2222 2223 0
-2224 -3 0
-2224 80 0
-2225 -7 0
-2225 66 0
-2226 -9 0
-2226 64 0
-144 2224 2225 2226 0
-2227 -11 0
-2227 108 0
-2228 -15 0
-2228 94 0
-2229 -17 0
-2229 92 0
-144 2227 2228 2229 0
-2230 -18 0
-2230 129 0
-2231 -22 0
-2231 115 0
-2232 -24 0
-2232 113 0
-144 2230 2231 2232 0
-2233 -25 0
-2233 154 0
-2234 -33 0
-2234 135 0
-2235 -35 0
-2235 133 0
-144 2233 2234 2235 0
-2236 -26 0
-2236 160 0
-2237 -37 0
-2237 139 0
-2238 -39 0
-2238 137 0
-144 2236 2237 2238 0
-2239 -27 0
-2239 163 0
-2240 -40 0
-2240 142 0
-2241 -42 0
-2241 140 0
-144 2239 2240 2241 0
-2242 -29 0
-2242 165 0
-2243 -43 0
-2243 145 0
-2244 -45 0
-2244 143 0
-144 2242 2243 2244 0
-2245 -3 0
-2245 81 0
-2246 -8 0
-2246 66 0
-2247 -9 0
-2247 65 0
-145 2245 2246 2247 0
-2248 -11 0
-2248 109 0
-2249 -16 0
-2249 94 0
-2250 -17 0
-2250 93 0
-145 2248 2249 2250 0
-2251 -18 0
-2251 130 0
-2252 -23 0
-2252 115 0
-2253 -24 0
-2253 114 0
-145 2251 2252 2253 0
-2254 -25 0
-2254 155 0
-2255 -34 0
-2255 135 0
-2256 -35 0
-2256 134 0
-145 2254 2255 2256 0
-2257 -26 0
-2257 161 0
-2258 -38 0
-2258 139 0
-2259 -39 0
-2259 138 0
-145 2257 2258 2259 0
-2260 -27 0
-2260 164 0
-2261 -41 0
-2261 142 0
-2262 -42 0
-2262 141 0
-145 2260 2261 2262 0
-2263 -28 0
-2263 165 0
-2264 -43 0
-2264 144 0
-2265 -44 0
-2265 143 0
-145 2263 2264 2265 0
-2266 -4 0
-2266 72 0
-2267 -5 0
-2267 68 0
-2268 -6 0
-2268 67 0
-146 2266 2267 2268 0
-2269 -12 0
-2269 100 0
-2270 -13 0
-2270 96 0
-2271 -14 0
-2271 95 0
-146 2269 2270 2271 0
-2272 -19 0
-2272 121 0
-2273 -20 0
-2273 117 0
-2274 -21 0
-2274 116 0
-146 2272 2273 2274 0
-2275 -25 0
-2275 136 0
-2276 -26 0
-2276 132 0
-2277 -27 0
-2277 131 0
-146 2275 2276 2277 0
-2278 -33 0
-2278 156 0
-2279 -37 0
-2279 150 0
-2280 -40 0
-2280 147 0
-146 2278 2279 2280 0
-2281 -34 0
-2281 157 0
-2282 -38 0
-2282 151 0
-2283 -41 0
-2283 148 0
-146 2281 2282 2283 0
-2284 -35 0
-2284 158 0
-2285 -39 0
-2285 152 0
-2286 -42 0
-2286 149 0
-146 2284 2285 2286 0
-2287 -4 0
-2287 73 0
-2288 -5 0
-2288 69 0
-2289 -7 0
-2289 67 0
-147 2287 2288 2289 0
-2290 -12 0
-2290 101 0
-2291 -13 0
-2291 97 0
-2292 -15 0
-2292 95 0
-147 2290 2291 2292 0
-2293 -19 0
-2293 122 0
-2294 -20 0
-2294 118 0
-2295 -22 0
-2295 116 0
-147 2293 2294 2295 0
-2296 -25 0
-2296 137 0
-2297 -26 0
-2297 133 0
-2298 -28 0
-2298 131 0
-147 2296 2297 2298 0
-2299 -32 0
-2299 156 0
-2300 -36 0
-2300 150 0
-2301 -40 0
-2301 146 0
-147 2299 2300 2301 0
-2302 -34 0
-2302 159 0
-2303 -38 0
-2303 153 0
-2304 -43 0
-2304 148 0
-147 2302 2303 2304 0
-2305 -35 0
-2305 160 0
-2306 -39 0
-2306 154 0
-2307 -44 0
-2307 149 0
-147 2305 2306 2307 0
-2308 -4 0
-2308 74 0
-2309 -5 0
-2309 70 0
-2310 -8 0
-2310 67 0
-148 2308 2309 2310 0
-2311 -12 0
-2311 102 0
-2312 -13 0
-2312 98 0
-2313 -16 0
-2313 95 0
-148 2311 2312 2313 0
-2314 -19 0
-2314 123 0
-2315 -20 0
-2315 119 0
-2316 -23 0
-2316 116 0
-148 2314 2315 2316 0
-2317 -25 0
-2317 138 0
-2318 -26 0
-2318 134 0
-2319 -29 0
-2319 131 0
-148 2317 2318 2319 0
-2320 -32 0
-2320 157 0
-2321 -36 0
-2321 151 0
-2322 -41 0
-2322 146 0
-148 2320 2321 2322 0
-2323 -33 0
-2323 159 0
-2324 -37 0
-2324 153 0
-2325 -43 0
-2325 147 0
-148 2323 2324 2325 0
-2326 -35 0
-2326 161 0
-2327 -39 0
-2327 155 0
-2328 -45 0
-2328 149 0
-148 2326 2327 2328 0
-2329 -4 0
-2329 75 0
-2330 -5 0
-2330 71 0
-2331 -9 0
-2331 67 0
-149 2329 2330 2331 0
-2332 -12 0
-2332 103 0
-2333 -13 0
-2333 99 0
-2334 -17 0
-2334 95 0
-149 2332 2333 2334 0
-2335 -19 0
-2335 124 0
-2336 -20 0
-2336 120 0
-2337 -24 0
-2337 116 0
-149 2335 2336 2337 0
-2338 -25 0
-2338 139 0
-2339 -26 0
-2339 135 0
-2340 -30 0
-2340 131 0
-149 2338 2339 2340 0
-2341 -32 0
-2341 158 0
-2342 -36 0
-2342 152 0
-2343 -42 0
-2343 146 0
-149 2341 2342 2343 0
-2344 -33 0
-2344 160 0
-2345 -37 0
-2345 154 0
-2346 -44 0
-2346 147 0
-149 2344 2345 2346 0
-2347 -34 0
-2347 161 0
-2348 -38 0
-2348 155 0
-2349 -45 0
-2349 148 0
-149 2347 2348 2349 0
-2350 -4 0
-2350 76 0
-2351 -6 0
-2351 69 0
-2352 -7 0
-2352 68 0
-150 2350 2351 2352 0
-2353 -12 0
-2353 104 0
-2354 -14 0
-2354 97 0
-2355 -15 0
-2355 96 0
-150 2353 2354 2355 0
-2356 -19 0
-2356 125 0
-2357 -21 0
-2357 118 0
-2358 -22 0
-2358 117 0
-150 2356 2357 2358 0
-2359 -25 0
-2359 140 0
-2360 -27 0
-2360 133 0
-2361 -28 0
-2361 132 0
-150 2359 2360 2361 0
-2362 -31 0
-2362 156 0
-2363 -36 0
-2363 147 0
-2364 -37 0
-2364 146 0
-150 2362 2363 2364 0
-2365 -34 0
-2365 162 0
-2366 -41 0
-2366 153 0
-2367 -43 0
-2367 151 0
-150 2365 2366 2367 0
-2368 -35 0
-2368 163 0
-2369 -42 0
-2369 154 0
-2370 -44 0
-2370 152 0
-150 2368 2369 2370 0
-2371 -4 0
-2371 77 0
-2372 -6 0
-2372 70 0
-2373 -8 0
-2373 68 0
-151 2371 2372 2373 0
-2374 -12 0
-2374 105 0
-2375 -14 0
-2375 98 0
-2376 -16 0
-2376 96 0
-151 2374 2375 2376 0
-2377 -19 0
-2377 126 0
-2378 -21 0
-2378 119 0
-2379 -23 0
-2379 117 0
-151 2377 2378 2379 0
-2380 -25 0
-2380 141 0
-2381 -27 0
-2381 134 0
-2382 -29 0
-2382 132 0
-151 2380 2381 2382 0
-2383 -31 0
-2383 157 0
-2384 -36 0
-2384 148 0
-2385 -38 0
-2385 146 0
-151 2383 2384 2385 0
-2386 -33 0
-2386 162 0
-2387 -40 0
-2387 153 0
-2388 -43 0
-2388 150 0
-151 2386 2387 2388 0
-2389 -35 0
-2389 164 0
-2390 -42 0
-2390 155 0
-2391 -45 0
-2391 152 0
-151 2389 2390 2391 0
-2392 -4 0
-2392 78 0
-2393 -6 0
-2393 71 0
-2394 -9 0
-2394 68 0
-152 2392 2393 2394 0
-2395 -12 0
-2395 106 0
-2396 -14 0
-2396 99 0
-2397 -17 0
-2397 96 0
-152 2395 2396 2397 0
-2398 -19 0
-2398 127 0
-2399 -21 0
-2399 120 0
-2400 -24 0
-2400 117 0
-152 2398 2399 2400 0
-2401 -25 0
-2401 142 0
-2402 -27 0
-2402 135 0
-2403 -30 0
-2403 132 0
-152 2401 2402 2403 0
-2404 -31 0
-2404 158 0
-2405 -36 0
-2405 149 0
-2406 -39 0
-2406 146 0
-152 2404 2405 2406 0
-2407 -33 0
-2407 163 0
-2408 -40 0
-2408 154 0
-2409 -44 0
-2409 150 0
-152 2407 2408 2409 0
-2410 -34 0
-2410 164 0
-2411 -41 0
-2411 155 0
-2412 -45 0
-2412 151 0
-152 2410 2411 2412 0
-2413 -4 0
-2413 79 0
-2414 -7 0
-2414 70 0
-2415 -8 0
-2415 69 0
-153 2413 2414 2415 0
-2416 -12 0
-2416 107 0
-2417 -15 0
-2417 98 0
-2418 -16 0
-2418 97 0
-153 2416 2417 2418 0
-2419 -19 0
-2419 128 0
-2420 -22 0
-2420 119 0
-2421 -23 0
-2421 118 0
-153 2419 2420 2421 0
-2422 -25 0
-2422 143 0
-2423 -28 0
-2423 134 0
-2424 -29 0
-2424 133 0
-153 2422 2423 2424 0
-2425 -31 0
-2425 159 0
-2426 -37 0
-2426 148 0
-2427 -38 0
-2427 147 0
-153 2425 2426 2427 0
-2428 -32 0
-2428 162 0
-2429 -40 0
-2429 151 0
-2430 -41 0
-2430 150 0
-153 2428 2429 2430 0
-2431 -35 0
-2431 165 0
-2432 -44 0
-2432 155 0
-2433 -45 0
-2433 154 0
-153 2431 2432 2433 0
-2434 -4 0
-2434 80 0
-2435 -7 0
-2435 71 0
-2436 -9 0
-2436 69 0
-154 2434 2435 2436 0
-2437 -12 0
-2437 108 0
-2438 -15 0
-2438 99 0
-2439 -17 0
-2439 97 0
-154 2437 2438 2439 0
-2440 -19 0
-2440 129 0
-2441 -22 0
-2441 120 0
-2442 -24 0
-2442 118 0
-154 2440 2441 2442 0
-2443 -25 0
-2443 144 0
-2444 -28 0
-2444 135 0
-2445 -30 0
-2445 133 0
-154 2443 2444 2445 0
-2446 -31 0
-2446 160 0
-2447 -37 0
-2447 149 0
-2448 -39 0
-2448 147 0
-154 2446 2447 2448 0
-2449 -32 0
-2449 163 0
-2450 -40 0
-2450 152 0
-2451 -42 0
-2451 150 0
-154 2449 2450 2451 0
-2452 -34 0
-2452 165 0
-2453 -43 0
-2453 155 0
-2454 -45 0
-2454 153 0
-154 2452 2453 2454 0
-2455 -4 0
-2455 81 0
-2456 -8 0
-2456 71 0
-2457 -9 0
-2457 70 0
-155 2455 2456 2457 0
-2458 -12 0
-2458 109 0
-2459 -16 0
-2459 99 0
-2460 -17 0
-2460 98 0
-155 2458 2459 2460 0
-2461 -19 0
-2461 130 0
-2462 -23 0
-2462 120 0
-2463 -24 0
-2463 119 0
-155 2461 2462 2463 0
-2464 -25 0
-2464 145 0
-2465 -29 0
-2465 135 0
-2466 -30 0
-2466 134 0
-155 2464 2465 2466 0
-2467 -31 0
-2467 161 0
-2468 -38 0
-2468 149 0
-2469 -39 0
-2469 148 0
-155 2467 2468 2469 0
-2470 -32 0
-2470 164 0
-2471 -41 0
-2471 152 0
-2472 -42 0
-2472 151 0
-155 2470 2471 2472 0
-2473 -33 0
-2473 165 0
-2474 -43 0
-2474 154 0
-2475 -44 0
-2475 153 0
-155 2473 2474 2475 0
-2476 -5 0
-2476 76 0
-2477 -6 0
-2477 73 0
-2478 -7 0
-2478 72 0
-156 2476 2477 2478 0
-2479 -13 0
-2479 104 0
-2480 -14 0
-2480 101 0
-2481 -15 0
-2481 100 0
-156 2479 2480 2481 0
-2482 -20 0
-2482 125 0
-2483 -21 0
-2483 122 0
-2484 -22 0
-2484 121 0
-156 2482 2483 2484 0
-2485 -26 0
-2485 140 0
-2486 -27 0
-2486 137 0
-2487 -28 0
-2487 136 0
-156 2485 2486 2487 0
-2488 -31 0
-2488 150 0
-2489 -32 0
-2489 147 0
-2490 -33 0
-2490 146 0
-156 2488 2489 2490 0
-2491 -38 0
-2491 162 0
-2492 -41 0
-2492 159 0
-2493 -43 0
-2493 157 0
-156 2491 2492 2493 0
-2494 -39 0
-2494 163 0
-2495 -42 0
-2495 160 0
-2496 -44 0
-2496 158 0
-156 2494 2495 2496 0
-2497 -5 0
-2497 77 0
-2498 -6 0
-2498 74 0
-2499 -8 0
-2499 72 0
-157 2497 2498 2499 0
-2500 -13 0
-2500 105 0
-2501 -14 0
-2501 102 0
-2502 -16 0
-2502 100 0
-157 2500 2501 2502 0
-2503 -20 0
-2503 126 0
-2504 -21 0
-2504 123 0
-2505 -23 0
-2505 121 0
-157 2503 2504 2505 0
-2506 -26 0
-2506 141 0
-2507 -27 0
-2507 138 0
-2508 -29 0
-2508 136 0
-157 2506 2507 2508 0
-2509 -31 0
-2509 151 0
-2510 -32 0
-2510 148 0
-2511 -34 0
-2511 146 0
-157 2509 2510 2511 0
-2512 -37 0
-2512 162 0
-2513 -40 0
-2513 159 0
-2514 -43 0
-2514 156 0
-157 2512 2513 2514 0
-2515 -39 0
-2515 164 0
-2516 -42 0
-2516 161 0
-2517 -45 0
-2517 158 0
-157 2515 2516 2517 0
-2518 -5 0
-2518 78 0
-2519 -6 0
-2519 75 0
-2520 -9 0
-2520 72 0
-158 2518 2519 2520 0
-2521 -13 0
-2521 106 0
-2522 -14 0
-2522 103 0
-2523 -17 0
-2523 100 0
-158 2521 2522 2523 0
-2524 -20 0
-2524 127 0
-2525 -21 0
-2525 124 0
-2526 -24 0
-2526 121 0
-158 2524 2525 2526 0
-2527 -26 0
-2527 142 0
-2528 -27 0
-2528 139 0
-2529 -30 0
-2529 136 0
-158 2527 2528 2529 0
-2530 -31 0
-2530 152 0
-2531 -32 0
-2531 149 0
-2532 -35 0
-2532 146 0
-158 2530 2531 2532 0
-2533 -37 0
-2533 163 0
-2534 -40 0
-2534 160 0
-2535 -44 0
-2535 156 0
-158 2533 2534 2535 0
-2536 -38 0
-2536 164 0
-2537 -41 0
-2537 161 0
-2538 -45 0
-2538 157 0
-158 2536 2537 2538 0
-2539 -5 0
-2539 79 0
-2540 -7 0
-2540 74 0
-2541 -8 0
-2541 73 0
-159 2539 2540 2541 0
-2542 -13 0
-2542 107 0
-2543 -15 0
-2543 102 0
-2544 -16 0
-2544 101 0
-159 2542 2543 2544 0
-2545 -20 0
-2545 128 0
-2546 -22 0
-2546 123 0
-2547 -23 0
-2547 122 0
-159 2545 2546 2547 0
-2548 -26 0
-2548 143 0
-2549 -28 0
-2549 138 0
-2550 -29 0
-2550 137 0
-159 2548 2549 2550 0
-2551 -31 0
-2551 153 0
-2552 -33 0
-2552 148 0
-2553 -34 0
-2553 147 0
-159 2551 2552 2553 0
-2554 -36 0
-2554 162 0
-2555 -40 0
-2555 157 0
-2556 -41 0
-2556 156 0
-159 2554 2555 2556 0
-2557 -39 0
-2557 165 0
-2558 -44 0
-2558 161 0
-2559 -45 0
-2559 160 0
-159 2557 2558 2559 0
-2560 -5 0
-2560 80 0
-2561 -7 0
-2561 75 0
-2562 -9 0
-2562 73 0
-160 2560 2561 2562 0
-2563 -13 0
-2563 108 0
-2564 -15 0
-2564 103 0
-2565 -17 0
-2565 101 0
-160 2563 2564 2565 0
-2566 -20 0
-2566 129 0
-2567 -22 0
-2567 124 0
-2568 -24 0
-2568 122 0
-160 2566 2567 2568 0
-2569 -26 0
-2569 144 0
-2570 -28 0
-2570 139 0
-2571 -30 0
-2571 137 0
-160 2569 2570 2571 0
-2572 -31 0
-2572 154 0
-2573 -33 0
-2573 149 0
-2574 -35 0
-2574 147 0
-160 2572 2573 2574 0
-2575 -36 0
-2575 163 0
-2576 -40 0
-2576 158 0
-2577 -42 0
-2577 156 0
-160 2575 2576 2577 0
-2578 -38 0
-2578 165 0
-2579 -43 0
-2579 161 0
-2580 -45 0
-2580 159 0
-160 2578 2579 2580 0
-2581 -5 0
-2581 81 0
-2582 -8 0
-2582 75 0
-2583 -9 0
-2583 74 0
-161 2581 2582 2583 0
-2584 -13 0
-2584 109 0
-2585 -16 0
-2585 103 0
-2586 -17 0
-2586 102 0
-161 2584 2585 2586 0
-2587 -20 0
-2587 130 0
-2588 -23 0
-2588 124 0
-2589 -24 0
-2589 123 0
-161 2587 2588 2589 0
-2590 -26 0
-2590 145 0
-2591 -29 0
-2591 139 0
-2592 -30 0
-2592 138 0
-161 2590 2591 2592 0
-2593 -31 0
-2593 155 0
-2594 -34 0
-2594 149 0
-2595 -35 0
-2595 148 0
-161 2593 2594 2595 0
-2596 -36 0
-2596 164 0
-2597 -41 0
-2597 158 0
-2598 -42 0
-2598 157 0
-161 2596 2597 2598 0
-2599 -37 0
-2599 165 0
-2600 -43 0
-2600 160 0
-2601 -44 0
-2601 159 0
-161 2599 2600 2601 0
-2602 -6 0
-2602 79 0
-2603 -7 0
-2603 77 0
-2604 -8 0
-2604 76 0
-162 2602 2603 2604 0
-2605 -14 0
-2605 107 0
-2606 -15 0
-2606 105 0
-2607 -16 0
-2607 104 0
-162 2605 2606 2607 0
-2608 -21 0
-2608 128 0
-2609 -22 0
-2609 126 0
-2610 -23 0
-2610 125 0
-162 2608 2609 2610 0
-2611 -27 0
-2611 143 0
-2612 -28 0
-2612 141 0
-2613 -29 0
-2613 140 0
-162 2611 2612 2613 0
-2614 -32 0
-2614 153 0
-2615 -33 0
-2615 151 0
-2616 -34 0
-2616 150 0
-162 2614 2615 2616 0
-2617 -36 0
-2617 159 0
-2618 -37 0
-2618 157 0
-2619 -38 0
-2619 156 0
-162 2617 2618 2619 0
-2620 -42 0
-2620 165 0
-2621 -44 0
-2621 164 0
-2622 -45 0
-2622 163 0
-162 2620 2621 2622 0
-2623 -6 0
-2623 80 0
-2624 -7 0
-2624 78 0
-2625 -9 0
-2625 76 0
-163 2623 2624 2625 0
-2626 -14 0
-2626 108 0
-2627 -15 0
-2627 106 0
-2628 -17 0
-2628 104 0
-163 2626 2627 2628 0
-2629 -21 0
-2629 129 0
-2630 -22 0
-2630 127 0
-2631 -24 0
-2631 125 0
-163 2629 2630 2631 0
-2632 -27 0
-2632 144 0
-2633 -28 0
-2633 142 0
-2634 -30 0
-2634 140 0
-163 2632 2633 2634 0
-2635 -32 0
-2635 154 0
-2636 -33 0
-2636 152 0
-2637 -35 0
-2637 150 0
-163 2635 2636 2637 0
-2638 -36 0
-2638 160 0
-2639 -37 0
-2639 158 0
-2640 -39 0
-2640 156 0
-163 2638 2639 2640 0
-2641 -41 0
-2641 165 0
-2642 -43 0
-2642 164 0
-2643 -45 0
-2643 162 0
-163 2641 2642 2643 0
-2644 -6 0
-2644 81 0
-2645 -8 0
-2645 78 0
-2646 -9 0
-2646 77 0
-164 2644 2645 2646 0
-2647 -14 0
-2647 109 0
-2648 -16 0
-2648 106 0
-2649 -17 0
-2649 105 0
-164 2647 2648 2649 0
-2650 -21 0
-2650 130 0
-2651 -23 0
-2651 127 0
-2652 -24 0
-2652 126 0
-164 2650 2651 2652 0
-2653 -27 0
-2653 145 0
-2654 -29 0
-2654 142 0
-2655 -30 0
-2655 141 0
-164 2653 2654 2655 0
-2656 -32 0
-2656 155 0
-2657 -34 0
-2657 152 0
-2658 -35 0
-2658 151 0
-164 2656 2657 2658 0
-2659 -36 0
-2659 161 0
-2660 -38 0
-2660 158 0
-2661 -39 0
-2661 157 0
-164 2659 2660 2661 0
-2662 -40 0
-2662 165 0
-2663 -43 0
-2663 163 0
-2664 -44 0
-2664 162 0
-164 2662 2663 2664 0
-2665 -7 0
-2665 81 0
-2666 -8 0
-2666 80 0
-2667 -9 0
-2667 79 0
-165 2665 2666 2667 0
-2668 -15 0
-2668 109 0
-2669 -16 0
-2669 108 0
-2670 -17 0
-2670 107 0
-165 2668 2669 2670 0
-2671 -22 0
-2671 130 0
-2672 -23 0
-2672 129 0
-2673 -24 0
-2673 128 0
-165 2671 2672 2673 0
-2674 -28 0
-2674 145 0
-2675 -29 0
-2675 144 0
-2676 -30 0
-2676 143 0
-165 2674 2675 2676 0
-2677 -33 0
-2677 155 0
-2678 -34 0
-2678 154 0
-2679 -35 0
-2679 153 0
-165 2677 2678 2679 0
-2680 -37 0
-2680 161 0
-2681 -38 0
-2681 160 0
-2682 -39 0
-2682 159 0
-165 2680 2681 2682 0
-2683 -40 0
-2683 164 0
-2684 -41 0
-2684 163 0
-2685 -42 0
-2685 162 0
-165 2683 2684 2685 0
1 0
-2 0
-3 0
4 0
10 0
-11 0
-12 0
18 0
-19 0
25 0
5 0
13 0
49 0
-103 0
-75 0
14 0
21 0
85 0
-127 0
-106 0
20 0
26 0
111 0
-139 0
-124 0
28 0
33 0
133 0
-154 0
-144 0
34 0
8 0
70 0
-81 0
-155 0
