p cnf 1632 4067
-37 -3 -10 -16 0
-37 -4 -11 -17 0
-37 -5 -12 -18 0
-37 -6 -13 -19 0
-37 -7 -14 -20 0
-37 -8 -15 -21 0
-38 -2 -9 -16 0
-38 -4 -11 -22 0
-38 -5 -12 -23 0
-38 -6 -13 -24 0
-38 -7 -14 -25 0
-38 -8 -15 -26 0
-39 -2 -9 -17 0
-39 -3 -10 -22 0
-39 -5 -12 -27 0
-39 -6 -13 -28 0
-39 -7 -14 -29 0
-39 -8 -15 -30 0
-40 -2 -9 -18 0
-40 -3 -10 -23 0
-40 -4 -11 -27 0
-40 -6 -13 -31 0
-40 -7 -14 -32 0
-40 -8 -15 -33 0
-41 -2 -9 -19 0
-41 -3 -10 -24 0
-41 -4 -11 -28 0
-41 -5 -12 -31 0
-41 -7 -14 -34 0
-41 -8 -15 -35 0
-42 -2 -9 -20 0
-42 -3 -10 -25 0
-42 -4 -11 -29 0
-42 -5 -12 -32 0
-42 -6 -13 -34 0
-42 -8 -15 -36 0
-43 -2 -9 -21 0
-43 -3 -10 -26 0
-43 -4 -11 -30 0
-43 -5 -12 -33 0
-43 -6 -13 -35 0
-43 -7 -14 -36 0
-44 -1 -9 -10 0
-44 -4 -17 -22 0
-44 -5 -18 -23 0
-44 -6 -19 -24 0
-44 -7 -20 -25 0
-44 -8 -21 -26 0
-45 -1 -9 -11 0
-45 -3 -16 -22 0
-45 -5 -18 -27 0
-45 -6 -19 -28 0
-45 -7 -20 -29 0
-45 -8 -21 -30 0
-46 -1 -9 -12 0
-46 -3 -16 -23 0
-46 -4 -17 -27 0
-46 -6 -19 -31 0
-46 -7 -20 -32 0
-46 -8 -21 -33 0
-47 -1 -9 -13 0
-47 -3 -16 -24 0
-47 -4 -17 -28 0
-47 -5 -18 -31 0
-47 -7 -20 -34 0
-47 -8 -21 -35 0
-48 -1 -9 -14 0
-48 -3 -16 -25 0
-48 -4 -17 -29 0
-48 -5 -18 -32 0
-48 -6 -19 -34 0
-48 -8 -21 -36 0
-49 -1 -9 -15 0
-49 -3 -16 -26 0
-49 -4 -17 -30 0
-49 -5 -18 -33 0
-49 -6 -19 -35 0
-49 -7 -20 -36 0
-50 -1 -10 -11 0
-50 -2 -16 -17 0
-50 -5 -23 -27 0
-50 -6 -24 -28 0
-50 -7 -25 -29 0
-50 -8 -26 -30 0
-51 -1 -10 -12 0
-51 -2 -16 -18 0
-51 -4 -22 -27 0
-51 -6 -24 -31 0
-51 -7 -25 -32 0
-51 -8 -26 -33 0
-52 -1 -10 -13 0
-52 -2 -16 -19 0
-52 -4 -22 -28 0
-52 -5 -23 -31 0
-52 -7 -25 -34 0
-52 -8 -26 -35 0
-53 -1 -10 -14 0
-53 -2 -16 -20 0
-53 -4 -22 -29 0
-53 -5 -23 -32 0
-53 -6 -24 -34 0
-53 -8 -26 -36 0
-54 -1 -10 -15 0
-54 -2 -16 -21 0
-54 -4 -22 -30 0
-54 -5 -23 -33 0
-54 -6 -24 -35 0
-54 -7 -25 -36 0
-55 -1 -11 -12 0
-55 -2 -17 -18 0
-55 -3 -22 -23 0
-55 -6 -28 -31 0
-55 -7 -29 -32 0
-55 -8 -30 -33 0
-56 -1 -11 -13 0
-56 -2 -17 -19 0
-56 -3 -22 -24 0
-56 -5 -27 -31 0
-56 -7 -29 -34 0
-56 -8 -30 -35 0
-57 -1 -11 -14 0
-57 -2 -17 -20 0
-57 -3 -22 -25 0
-57 -5 -27 -32 0
-57 -6 -28 -34 0
-57 -8 -30 -36 0
-58 -1 -11 -15 0
-58 -2 -17 -21 0
-58 -3 -22 -26 0
-58 -5 -27 -33 0
-58 -6 -28 -35 0
-58 -7 -29 -36 0
-59 -1 -12 -13 0
-59 -2 -18 -19 0
-59 -3 -23 -24 0
-59 -4 -27 -28 0
-59 -7 -32 -34 0
-59 -8 -33 -35 0
-60 -1 -12 -14 0
-60 -2 -18 -20 0
-60 -3 -23 -25 0
-60 -4 -27 -29 0
-60 -6 -31 -34 0
-60 -8 -33 -36 0
-61 -1 -12 -15 0
-61 -2 -18 -21 0
-61 -3 -23 -26 0
-61 -4 -27 -30 0
-61 -6 -31 -35 0
-61 -7 -32 -36 0
-62 -1 -13 -14 0
-62 -2 -19 -20 0
-62 -3 -24 -25 0
-62 -4 -28 -29 0
-62 -5 -31 -32 0
-62 -8 -35 -36 0
-63 -1 -13 -15 0
-63 -2 -19 -21 0
-63 -3 -24 -26 0
-63 -4 -28 -30 0
-63 -5 -31 -33 0
-63 -7 -34 -36 0
-64 -1 -14 -15 0
-64 -2 -20 -21 0
-64 -3 -25 -26 0
-64 -4 -29 -30 0
-64 -5 -32 -33 0
-64 -6 -34 -35 0
-65 -1 -2 -3 0
-65 -11 -17 -22 0
-65 -12 -18 -23 0
-65 -13 -19 -24 0
-65 -14 -20 -25 0
-65 -15 -21 -26 0
-66 -1 -2 -4 0
-66 -10 -16 -22 0
-66 -12 -18 -27 0
-66 -13 -19 -28 0
-66 -14 -20 -29 0
-66 -15 -21 -30 0
-67 -1 -2 -5 0
-67 -10 -16 -23 0
-67 -11 -17 -27 0
-67 -13 -19 -31 0
-67 -14 -20 -32 0
-67 -15 -21 -33 0
-68 -1 -2 -6 0
-68 -10 -16 -24 0
-68 -11 -17 -28 0
-68 -12 -18 -31 0
-68 -14 -20 -34 0
-68 -15 -21 -35 0
-69 -1 -2 -7 0
-69 -10 -16 -25 0
-69 -11 -17 -29 0
-69 -12 -18 -32 0
-69 -13 -19 -34 0
-69 -15 -21 -36 0
-70 -1 -2 -8 0
-70 -10 -16 -26 0
-70 -11 -17 -30 0
-70 -12 -18 -33 0
-70 -13 -19 -35 0
-70 -14 -20 -36 0
-71 -1 -3 -4 0
-71 -9 -16 -17 0
-71 -12 -23 -27 0
-71 -13 -24 -28 0
-71 -14 -25 -29 0
-71 -15 -26 -30 0
-72 -1 -3 -5 0
-72 -9 -16 -18 0
-72 -11 -22 -27 0
-72 -13 -24 -31 0
-72 -14 -25 -32 0
-72 -15 -26 -33 0
-73 -1 -3 -6 0
-73 -9 -16 -19 0
-73 -11 -22 -28 0
-73 -12 -23 -31 0
-73 -14 -25 -34 0
-73 -15 -26 -35 0
-74 -1 -3 -7 0
-74 -9 -16 -20 0
-74 -11 -22 -29 0
-74 -12 -23 -32 0
-74 -13 -24 -34 0
-74 -15 -26 -36 0
-75 -1 -3 -8 0
-75 -9 -16 -21 0
-75 -11 -22 -30 0
-75 -12 -23 -33 0
-75 -13 -24 -35 0
-75 -14 -25 -36 0
-76 -1 -4 -5 0
-76 -9 -17 -18 0
-76 -10 -22 -23 0
-76 -13 -28 -31 0
-76 -14 -29 -32 0
-76 -15 -30 -33 0
-77 -1 -4 -6 0
-77 -9 -17 -19 0
-77 -10 -22 -24 0
-77 -12 -27 -31 0
-77 -14 -29 -34 0
-77 -15 -30 -35 0
-78 -1 -4 -7 0
-78 -9 -17 -20 0
-78 -10 -22 -25 0
-78 -12 -27 -32 0
-78 -13 -28 -34 0
-78 -15 -30 -36 0
-79 -1 -4 -8 0
-79 -9 -17 -21 0
-79 -10 -22 -26 0
-79 -12 -27 -33 0
-79 -13 -28 -35 0
-79 -14 -29 -36 0
-80 -1 -5 -6 0
-80 -9 -18 -19 0
-80 -10 -23 -24 0
-80 -11 -27 -28 0
-80 -14 -32 -34 0
-80 -15 -33 -35 0
-81 -1 -5 -7 0
-81 -9 -18 -20 0
-81 -10 -23 -25 0
-81 -11 -27 -29 0
-81 -13 -31 -34 0
-81 -15 -33 -36 0
-82 -1 -5 -8 0
-82 -9 -18 -21 0
-82 -10 -23 -26 0
-82 -11 -27 -30 0
-82 -13 -31 -35 0
-82 -14 -32 -36 0
-83 -1 -6 -7 0
-83 -9 -19 -20 0
-83 -10 -24 -25 0
-83 -11 -28 -29 0
-83 -12 -31 -32 0
-83 -15 -35 -36 0
-84 -1 -6 -8 0
-84 -9 -19 -21 0
-84 -10 -24 -26 0
-84 -11 -28 -30 0
-84 -12 -31 -33 0
-84 -14 -34 -36 0
-85 -1 -7 -8 0
-85 -9 -20 -21 0
-85 -10 -25 -26 0
-85 -11 -29 -30 0
-85 -12 -32 -33 0
-85 -13 -34 -35 0
-86 -2 -3 -4 0
-86 -9 -10 -11 0
-86 -18 -23 -27 0
-86 -19 -24 -28 0
-86 -20 -25 -29 0
-86 -21 -26 -30 0
-87 -2 -3 -5 0
-87 -9 -10 -12 0
-87 -17 -22 -27 0
-87 -19 -24 -31 0
-87 -20 -25 -32 0
-87 -21 -26 -33 0
-88 -2 -3 -6 0
-88 -9 -10 -13 0
-88 -17 -22 -28 0
-88 -18 -23 -31 0
-88 -20 -25 -34 0
-88 -21 -26 -35 0
-89 -2 -3 -7 0
-89 -9 -10 -14 0
-89 -17 -22 -29 0
-89 -18 -23 -32 0
-89 -19 -24 -34 0
-89 -21 -26 -36 0
-90 -2 -3 -8 0
-90 -9 -10 -15 0
-90 -17 -22 -30 0
-90 -18 -23 -33 0
-90 -19 -24 -35 0
-90 -20 -25 -36 0
-91 -2 -4 -5 0
-91 -9 -11 -12 0
-91 -16 -22 -23 0
-91 -19 -28 -31 0
-91 -20 -29 -32 0
-91 -21 -30 -33 0
-92 -2 -4 -6 0
-92 -9 -11 -13 0
-92 -16 -22 -24 0
-92 -18 -27 -31 0
-92 -20 -29 -34 0
-92 -21 -30 -35 0
-93 -2 -4 -7 0
-93 -9 -11 -14 0
-93 -16 -22 -25 0
-93 -18 -27 -32 0
-93 -19 -28 -34 0
-93 -21 -30 -36 0
-94 -2 -4 -8 0
-94 -9 -11 -15 0
-94 -16 -22 -26 0
-94 -18 -27 -33 0
-94 -19 -28 -35 0
-94 -20 -29 -36 0
-95 -2 -5 -6 0
-95 -9 -12 -13 0
-95 -16 -23 -24 0
-95 -17 -27 -28 0
-95 -20 -32 -34 0
-95 -21 -33 -35 0
-96 -2 -5 -7 0
-96 -9 -12 -14 0
-96 -16 -23 -25 0
-96 -17 -27 -29 0
-96 -19 -31 -34 0
-96 -21 -33 -36 0
-97 -2 -5 -8 0
-97 -9 -12 -15 0
-97 -16 -23 -26 0
-97 -17 -27 -30 0
-97 -19 -31 -35 0
-97 -20 -32 -36 0
-98 -2 -6 -7 0
-98 -9 -13 -14 0
-98 -16 -24 -25 0
-98 -17 -28 -29 0
-98 -18 -31 -32 0
-98 -21 -35 -36 0
-99 -2 -6 -8 0
-99 -9 -13 -15 0
-99 -16 -24 -26 0
-99 -17 -28 -30 0
-99 -18 -31 -33 0
-99 -20 -34 -36 0
-100 -2 -7 -8 0
-100 -9 -14 -15 0
-100 -16 -25 -26 0
-100 -17 -29 -30 0
-100 -18 -32 -33 0
-100 -19 -34 -35 0
-101 -3 -4 -5 0
-101 -10 -11 -12 0
-101 -16 -17 -18 0
-101 -24 -28 -31 0
-101 -25 -29 -32 0
-101 -26 -30 -33 0
-102 -3 -4 -6 0
-102 -10 -11 -13 0
-102 -16 -17 -19 0
-102 -23 -27 -31 0
-102 -25 -29 -34 0
-102 -26 -30 -35 0
-103 -3 -4 -7 0
-103 -10 -11 -14 0
-103 -16 -17 -20 0
-103 -23 -27 -32 0
-103 -24 -28 -34 0
-103 -26 -30 -36 0
-104 -3 -4 -8 0
-104 -10 -11 -15 0
-104 -16 -17 -21 0
-104 -23 -27 -33 0
-104 -24 -28 -35 0
-104 -25 -29 -36 0
-105 -3 -5 -6 0
-105 -10 -12 -13 0
-105 -16 -18 -19 0
-105 -22 -27 -28 0
-105 -25 -32 -34 0
-105 -26 -33 -35 0
-106 -3 -5 -7 0
-106 -10 -12 -14 0
-106 -16 -18 -20 0
-106 -22 -27 -29 0
-106 -24 -31 -34 0
-106 -26 -33 -36 0
-107 -3 -5 -8 0
-107 -10 -12 -15 0
-107 -16 -18 -21 0
-107 -22 -27 -30 0
-107 -24 -31 -35 0
-107 -25 -32 -36 0
-108 -3 -6 -7 0
-108 -10 -13 -14 0
-108 -16 -19 -20 0
-108 -22 -28 -29 0
-108 -23 -31 -32 0
-108 -26 -35 -36 0
-109 -3 -6 -8 0
-109 -10 -13 -15 0
-109 -16 -19 -21 0
-109 -22 -28 -30 0
-109 -23 -31 -33 0
-109 -25 -34 -36 0
-110 -3 -7 -8 0
-110 -10 -14 -15 0
-110 -16 -20 -21 0
-110 -22 -29 -30 0
-110 -23 -32 -33 0
-110 -24 -34 -35 0
-111 -4 -5 -6 0
-111 -11 -12 -13 0
-111 -17 -18 -19 0
-111 -22 -23 -24 0
-111 -29 -32 -34 0
-111 -30 -33 -35 0
-112 -4 -5 -7 0
-112 -11 -12 -14 0
-112 -17 -18 -20 0
-112 -22 -23 -25 0
-112 -28 -31 -34 0
-112 -30 -33 -36 0
-113 -4 -5 -8 0
-113 -11 -12 -15 0
-113 -17 -18 -21 0
-113 -22 -23 -26 0
-113 -28 -31 -35 0
-113 -29 -32 -36 0
-114 -4 -6 -7 0
-114 -11 -13 -14 0
-114 -17 -19 -20 0
-114 -22 -24 -25 0
-114 -27 -31 -32 0
-114 -30 -35 -36 0
-115 -4 -6 -8 0
-115 -11 -13 -15 0
-115 -17 -19 -21 0
-115 -22 -24 -26 0
-115 -27 -31 -33 0
-115 -29 -34 -36 0
-116 -4 -7 -8 0
-116 -11 -14 -15 0
-116 -17 -20 -21 0
-116 -22 -25 -26 0
-116 -27 -32 -33 0
-116 -28 -34 -35 0
-117 -5 -6 -7 0
-117 -12 -13 -14 0
-117 -18 -19 -20 0
-117 -23 -24 -25 0
-117 -27 -28 -29 0
-117 -33 -35 -36 0
-118 -5 -6 -8 0
-118 -12 -13 -15 0
-118 -18 -19 -21 0
-118 -23 -24 -26 0
-118 -27 -28 -30 0
-118 -32 -34 -36 0
-119 -5 -7 -8 0
-119 -12 -14 -15 0
-119 -18 -20 -21 0
-119 -23 -25 -26 0
-119 -27 -29 -30 0
-119 -31 -34 -35 0
-120 -6 -7 -8 0
-120 -13 -14 -15 0
-120 -19 -20 -21 0
-120 -24 -25 -26 0
-120 -28 -29 -30 0
-120 -31 -32 -33 0
-121 -3 0
-121 65 0
-122 -10 0
-122 44 0
-123 -16 0
-123 38 0
-37 121 122 123 0
-124 -4 0
-124 66 0
-125 -11 0
-125 45 0
-126 -17 0
-126 39 0
-37 124 125 126 0
-127 -5 0
-127 67 0
-128 -12 0
-128 46 0
-129 -18 0
-129 40 0
-37 127 128 129 0
-130 -6 0
-130 68 0
-131 -13 0
-131 47 0
-132 -19 0
-132 41 0
-37 130 131 132 0
-133 -7 0
-133 69 0
-134 -14 0
-134 48 0
-135 -20 0
-135 42 0
-37 133 134 135 0
-136 -8 0
-136 70 0
-137 -15 0
-137 49 0
-138 -21 0
-138 43 0
-37 136 137 138 0
-139 -2 0
-139 65 0
-140 -9 0
-140 44 0
-141 -16 0
-141 37 0
-38 139 140 141 0
-142 -4 0
-142 71 0
-143 -11 0
-143 50 0
-144 -22 0
-144 39 0
-38 142 143 144 0
-145 -5 0
-145 72 0
-146 -12 0
-146 51 0
-147 -23 0
-147 40 0
-38 145 146 147 0
-148 -6 0
-148 73 0
-149 -13 0
-149 52 0
-150 -24 0
-150 41 0
-38 148 149 150 0
-151 -7 0
-151 74 0
-152 -14 0
-152 53 0
-153 -25 0
-153 42 0
-38 151 152 153 0
-154 -8 0
-154 75 0
-155 -15 0
-155 54 0
-156 -26 0
-156 43 0
-38 154 155 156 0
-157 -2 0
-157 66 0
-158 -9 0
-158 45 0
-159 -17 0
-159 37 0
-39 157 158 159 0
-160 -3 0
-160 71 0
-161 -10 0
-161 50 0
-162 -22 0
-162 38 0
-39 160 161 162 0
-163 -5 0
-163 76 0
-164 -12 0
-164 55 0
-165 -27 0
-165 40 0
-39 163 164 165 0
-166 -6 0
-166 77 0
-167 -13 0
-167 56 0
-168 -28 0
-168 41 0
-39 166 167 168 0
-169 -7 0
-169 78 0
-170 -14 0
-170 57 0
-171 -29 0
-171 42 0
-39 169 170 171 0
-172 -8 0
-172 79 0
-173 -15 0
-173 58 0
-174 -30 0
-174 43 0
-39 172 173 174 0
-175 -2 0
-175 67 0
-176 -9 0
-176 46 0
-177 -18 0
-177 37 0
-40 175 176 177 0
-178 -3 0
-178 72 0
-179 -10 0
-179 51 0
-180 -23 0
-180 38 0
-40 178 179 180 0
-181 -4 0
-181 76 0
-182 -11 0
-182 55 0
-183 -27 0
-183 39 0
-40 181 182 183 0
-184 -6 0
-184 80 0
-185 -13 0
-185 59 0
-186 -31 0
-186 41 0
-40 184 185 186 0
-187 -7 0
-187 81 0
-188 -14 0
-188 60 0
-189 -32 0
-189 42 0
-40 187 188 189 0
-190 -8 0
-190 82 0
-191 -15 0
-191 61 0
-192 -33 0
-192 43 0
-40 190 191 192 0
-193 -2 0
-193 68 0
-194 -9 0
-194 47 0
-195 -19 0
-195 37 0
-41 193 194 195 0
-196 -3 0
-196 73 0
-197 -10 0
-197 52 0
-198 -24 0
-198 38 0
-41 196 197 198 0
-199 -4 0
-199 77 0
-200 -11 0
-200 56 0
-201 -28 0
-201 39 0
-41 199 200 201 0
-202 -5 0
-202 80 0
-203 -12 0
-203 59 0
-204 -31 0
-204 40 0
-41 202 203 204 0
-205 -7 0
-205 83 0
-206 -14 0
-206 62 0
-207 -34 0
-207 42 0
-41 205 206 207 0
-208 -8 0
-208 84 0
-209 -15 0
-209 63 0
-210 -35 0
-210 43 0
-41 208 209 210 0
-211 -2 0
-211 69 0
-212 -9 0
-212 48 0
-213 -20 0
-213 37 0
-42 211 212 213 0
-214 -3 0
-214 74 0
-215 -10 0
-215 53 0
-216 -25 0
-216 38 0
-42 214 215 216 0
-217 -4 0
-217 78 0
-218 -11 0
-218 57 0
-219 -29 0
-219 39 0
-42 217 218 219 0
-220 -5 0
-220 81 0
-221 -12 0
-221 60 0
-222 -32 0
-222 40 0
-42 220 221 222 0
-223 -6 0
-223 83 0
-224 -13 0
-224 62 0
-225 -34 0
-225 41 0
-42 223 224 225 0
-226 -8 0
-226 85 0
-227 -15 0
-227 64 0
-228 -36 0
-228 43 0
-42 226 227 228 0
-229 -2 0
-229 70 0
-230 -9 0
-230 49 0
-231 -21 0
-231 37 0
-43 229 230 231 0
-232 -3 0
-232 75 0
-233 -10 0
-233 54 0
-234 -26 0
-234 38 0
-43 232 233 234 0
-235 -4 0
-235 79 0
-236 -11 0
-236 58 0
-237 -30 0
-237 39 0
-43 235 236 237 0
-238 -5 0
-238 82 0
-239 -12 0
-239 61 0
-240 -33 0
-240 40 0
-43 238 239 240 0
-241 -6 0
-241 84 0
-242 -13 0
-242 63 0
-243 -35 0
-243 41 0
-43 241 242 243 0
-244 -7 0
-244 85 0
-245 -14 0
-245 64 0
-246 -36 0
-246 42 0
-43 244 245 246 0
-247 -1 0
-247 65 0
-248 -9 0
-248 38 0
-249 -10 0
-249 37 0
-44 247 248 249 0
-250 -4 0
-250 86 0
-251 -17 0
-251 50 0
-252 -22 0
-252 45 0
-44 250 251 252 0
-253 -5 0
-253 87 0
-254 -18 0
-254 51 0
-255 -23 0
-255 46 0
-44 253 254 255 0
-256 -6 0
-256 88 0
-257 -19 0
-257 52 0
-258 -24 0
-258 47 0
-44 256 257 258 0
-259 -7 0
-259 89 0
-260 -20 0
-260 53 0
-261 -25 0
-261 48 0
-44 259 260 261 0
-262 -8 0
-262 90 0
-263 -21 0
-263 54 0
-264 -26 0
-264 49 0
-44 262 263 264 0
-265 -1 0
-265 66 0
-266 -9 0
-266 39 0
-267 -11 0
-267 37 0
-45 265 266 267 0
-268 -3 0
-268 86 0
-269 -16 0
-269 50 0
-270 -22 0
-270 44 0
-45 268 269 270 0
-271 -5 0
-271 91 0
-272 -18 0
-272 55 0
-273 -27 0
-273 46 0
-45 271 272 273 0
-274 -6 0
-274 92 0
-275 -19 0
-275 56 0
-276 -28 0
-276 47 0
-45 274 275 276 0
-277 -7 0
-277 93 0
-278 -20 0
-278 57 0
-279 -29 0
-279 48 0
-45 277 278 279 0
-280 -8 0
-280 94 0
-281 -21 0
-281 58 0
-282 -30 0
-282 49 0
-45 280 281 282 0
-283 -1 0
-283 67 0
-284 -9 0
-284 40 0
-285 -12 0
-285 37 0
-46 283 284 285 0
-286 -3 0
-286 87 0
-287 -16 0
-287 51 0
-288 -23 0
-288 44 0
-46 286 287 288 0
-289 -4 0
-289 91 0
-290 -17 0
-290 55 0
-291 -27 0
-291 45 0
-46 289 290 291 0
-292 -6 0
-292 95 0
-293 -19 0
-293 59 0
-294 -31 0
-294 47 0
-46 292 293 294 0
-295 -7 0
-295 96 0
-296 -20 0
-296 60 0
-297 -32 0
-297 48 0
-46 295 296 297 0
-298 -8 0
-298 97 0
-299 -21 0
-299 61 0
-300 -33 0
-300 49 0
-46 298 299 300 0
-301 -1 0
-301 68 0
-302 -9 0
-302 41 0
-303 -13 0
-303 37 0
-47 301 302 303 0
-304 -3 0
-304 88 0
-305 -16 0
-305 52 0
-306 -24 0
-306 44 0
-47 304 305 306 0
-307 -4 0
-307 92 0
-308 -17 0
-308 56 0
-309 -28 0
-309 45 0
-47 307 308 309 0
-310 -5 0
-310 95 0
-311 -18 0
-311 59 0
-312 -31 0
-312 46 0
-47 310 311 312 0
-313 -7 0
-313 98 0
-314 -20 0
-314 62 0
-315 -34 0
-315 48 0
-47 313 314 315 0
-316 -8 0
-316 99 0
-317 -21 0
-317 63 0
-318 -35 0
-318 49 0
-47 316 317 318 0
-319 -1 0
-319 69 0
-320 -9 0
-320 42 0
-321 -14 0
-321 37 0
-48 319 320 321 0
-322 -3 0
-322 89 0
-323 -16 0
-323 53 0
-324 -25 0
-324 44 0
-48 322 323 324 0
-325 -4 0
-325 93 0
-326 -17 0
-326 57 0
-327 -29 0
-327 45 0
-48 325 326 327 0
-328 -5 0
-328 96 0
-329 -18 0
-329 60 0
-330 -32 0
-330 46 0
-48 328 329 330 0
-331 -6 0
-331 98 0
-332 -19 0
-332 62 0
-333 -34 0
-333 47 0
-48 331 332 333 0
-334 -8 0
-334 100 0
-335 -21 0
-335 64 0
-336 -36 0
-336 49 0
-48 334 335 336 0
-337 -1 0
-337 70 0
-338 -9 0
-338 43 0
-339 -15 0
-339 37 0
-49 337 338 339 0
-340 -3 0
-340 90 0
-341 -16 0
-341 54 0
-342 -26 0
-342 44 0
-49 340 341 342 0
-343 -4 0
-343 94 0
-344 -17 0
-344 58 0
-345 -30 0
-345 45 0
-49 343 344 345 0
-346 -5 0
-346 97 0
-347 -18 0
-347 61 0
-348 -33 0
-348 46 0
-49 346 347 348 0
-349 -6 0
-349 99 0
-350 -19 0
-350 63 0
-351 -35 0
-351 47 0
-49 349 350 351 0
-352 -7 0
-352 100 0
-353 -20 0
-353 64 0
-354 -36 0
-354 48 0
-49 352 353 354 0
-355 -1 0
-355 71 0
-356 -10 0
-356 39 0
-357 -11 0
-357 38 0
-50 355 356 357 0
-358 -2 0
-358 86 0
-359 -16 0
-359 45 0
-360 -17 0
-360 44 0
-50 358 359 360 0
-361 -5 0
-361 101 0
-362 -23 0
-362 55 0
-363 -27 0
-363 51 0
-50 361 362 363 0
-364 -6 0
-364 102 0
-365 -24 0
-365 56 0
-366 -28 0
-366 52 0
-50 364 365 366 0
-367 -7 0
-367 103 0
-368 -25 0
-368 57 0
-369 -29 0
-369 53 0
-50 367 368 369 0
-370 -8 0
-370 104 0
-371 -26 0
-371 58 0
-372 -30 0
-372 54 0
-50 370 371 372 0
-373 -1 0
-373 72 0
-374 -10 0
-374 40 0
-375 -12 0
-375 38 0
-51 373 374 375 0
-376 -2 0
-376 87 0
-377 -16 0
-377 46 0
-378 -18 0
-378 44 0
-51 376 377 378 0
-379 -4 0
-379 101 0
-380 -22 0
-380 55 0
-381 -27 0
-381 50 0
-51 379 380 381 0
-382 -6 0
-382 105 0
-383 -24 0
-383 59 0
-384 -31 0
-384 52 0
-51 382 383 384 0
-385 -7 0
-385 106 0
-386 -25 0
-386 60 0
-387 -32 0
-387 53 0
-51 385 386 387 0
-388 -8 0
-388 107 0
-389 -26 0
-389 61 0
-390 -33 0
-390 54 0
-51 388 389 390 0
-391 -1 0
-391 73 0
-392 -10 0
-392 41 0
-393 -13 0
-393 38 0
-52 391 392 393 0
-394 -2 0
-394 88 0
-395 -16 0
-395 47 0
-396 -19 0
-396 44 0
-52 394 395 396 0
-397 -4 0
-397 102 0
-398 -22 0
-398 56 0
-399 -28 0
-399 50 0
-52 397 398 399 0
-400 -5 0
-400 105 0
-401 -23 0
-401 59 0
-402 -31 0
-402 51 0
-52 400 401 402 0
-403 -7 0
-403 108 0
-404 -25 0
-404 62 0
-405 -34 0
-405 53 0
-52 403 404 405 0
-406 -8 0
-406 109 0
-407 -26 0
-407 63 0
-408 -35 0
-408 54 0
-52 406 407 408 0
-409 -1 0
-409 74 0
-410 -10 0
-410 42 0
-411 -14 0
-411 38 0
-53 409 410 411 0
-412 -2 0
-412 89 0
-413 -16 0
-413 48 0
-414 -20 0
-414 44 0
-53 412 413 414 0
-415 -4 0
-415 103 0
-416 -22 0
-416 57 0
-417 -29 0
-417 50 0
-53 415 416 417 0
-418 -5 0
-418 106 0
-419 -23 0
-419 60 0
-420 -32 0
-420 51 0
-53 418 419 420 0
-421 -6 0
-421 108 0
-422 -24 0
-422 62 0
-423 -34 0
-423 52 0
-53 421 422 423 0
-424 -8 0
-424 110 0
-425 -26 0
-425 64 0
-426 -36 0
-426 54 0
-53 424 425 426 0
-427 -1 0
-427 75 0
-428 -10 0
-428 43 0
-429 -15 0
-429 38 0
-54 427 428 429 0
-430 -2 0
-430 90 0
-431 -16 0
-431 49 0
-432 -21 0
-432 44 0
-54 430 431 432 0
-433 -4 0
-433 104 0
-434 -22 0
-434 58 0
-435 -30 0
-435 50 0
-54 433 434 435 0
-436 -5 0
-436 107 0
-437 -23 0
-437 61 0
-438 -33 0
-438 51 0
-54 436 437 438 0
-439 -6 0
-439 109 0
-440 -24 0
-440 63 0
-441 -35 0
-441 52 0
-54 439 440 441 0
-442 -7 0
-442 110 0
-443 -25 0
-443 64 0
-444 -36 0
-444 53 0
-54 442 443 444 0
-445 -1 0
-445 76 0
-446 -11 0
-446 40 0
-447 -12 0
-447 39 0
-55 445 446 447 0
-448 -2 0
-448 91 0
-449 -17 0
-449 46 0
-450 -18 0
-450 45 0
-55 448 449 450 0
-451 -3 0
-451 101 0
-452 -22 0
-452 51 0
-453 -23 0
-453 50 0
-55 451 452 453 0
-454 -6 0
-454 111 0
-455 -28 0
-455 59 0
-456 -31 0
-456 56 0
-55 454 455 456 0
-457 -7 0
-457 112 0
-458 -29 0
-458 60 0
-459 -32 0
-459 57 0
-55 457 458 459 0
-460 -8 0
-460 113 0
-461 -30 0
-461 61 0
-462 -33 0
-462 58 0
-55 460 461 462 0
-463 -1 0
-463 77 0
-464 -11 0
-464 41 0
-465 -13 0
-465 39 0
-56 463 464 465 0
-466 -2 0
-466 92 0
-467 -17 0
-467 47 0
-468 -19 0
-468 45 0
-56 466 467 468 0
-469 -3 0
-469 102 0
-470 -22 0
-470 52 0
-471 -24 0
-471 50 0
-56 469 470 471 0
-472 -5 0
-472 111 0
-473 -27 0
-473 59 0
-474 -31 0
-474 55 0
-56 472 473 474 0
-475 -7 0
-475 114 0
-476 -29 0
-476 62 0
-477 -34 0
-477 57 0
-56 475 476 477 0
-478 -8 0
-478 115 0
-479 -30 0
-479 63 0
-480 -35 0
-480 58 0
-56 478 479 480 0
-481 -1 0
-481 78 0
-482 -11 0
-482 42 0
-483 -14 0
-483 39 0
-57 481 482 483 0
-484 -2 0
-484 93 0
-485 -17 0
-485 48 0
-486 -20 0
-486 45 0
-57 484 485 486 0
-487 -3 0
-487 103 0
-488 -22 0
-488 53 0
-489 -25 0
-489 50 0
-57 487 488 489 0
-490 -5 0
-490 112 0
-491 -27 0
-491 60 0
-492 -32 0
-492 55 0
-57 490 491 492 0
-493 -6 0
-493 114 0
-494 -28 0
-494 62 0
-495 -34 0
-495 56 0
-57 493 494 495 0
-496 -8 0
-496 116 0
-497 -30 0
-497 64 0
-498 -36 0
-498 58 0
-57 496 497 498 0
-499 -1 0
-499 79 0
-500 -11 0
-500 43 0
-501 -15 0
-501 39 0
-58 499 500 501 0
-502 -2 0
-502 94 0
-503 -17 0
-503 49 0
-504 -21 0
-504 45 0
-58 502 503 504 0
-505 -3 0
-505 104 0
-506 -22 0
-506 54 0
-507 -26 0
-507 50 0
-58 505 506 507 0
-508 -5 0
-508 113 0
-509 -27 0
-509 61 0
-510 -33 0
-510 55 0
-58 508 509 510 0
-511 -6 0
-511 115 0
-512 -28 0
-512 63 0
-513 -35 0
-513 56 0
-58 511 512 513 0
-514 -7 0
-514 116 0
-515 -29 0
-515 64 0
-516 -36 0
-516 57 0
-58 514 515 516 0
-517 -1 0
-517 80 0
-518 -12 0
-518 41 0
-519 -13 0
-519 40 0
-59 517 518 519 0
-520 -2 0
-520 95 0
-521 -18 0
-521 47 0
-522 -19 0
-522 46 0
-59 520 521 522 0
-523 -3 0
-523 105 0
-524 -23 0
-524 52 0
-525 -24 0
-525 51 0
-59 523 524 525 0
-526 -4 0
-526 111 0
-527 -27 0
-527 56 0
-528 -28 0
-528 55 0
-59 526 527 528 0
-529 -7 0
-529 117 0
-530 -32 0
-530 62 0
-531 -34 0
-531 60 0
-59 529 530 531 0
-532 -8 0
-532 118 0
-533 -33 0
-533 63 0
-534 -35 0
-534 61 0
-59 532 533 534 0
-535 -1 0
-535 81 0
-536 -12 0
-536 42 0
-537 -14 0
-537 40 0
-60 535 536 537 0
-538 -2 0
-538 96 0
-539 -18 0
-539 48 0
-540 -20 0
-540 46 0
-60 538 539 540 0
-541 -3 0
-541 106 0
-542 -23 0
-542 53 0
-543 -25 0
-543 51 0
-60 541 542 543 0
-544 -4 0
-544 112 0
-545 -27 0
-545 57 0
-546 -29 0
-546 55 0
-60 544 545 546 0
-547 -6 0
-547 117 0
-548 -31 0
-548 62 0
-549 -34 0
-549 59 0
-60 547 548 549 0
-550 -8 0
-550 119 0
-551 -33 0
-551 64 0
-552 -36 0
-552 61 0
-60 550 551 552 0
-553 -1 0
-553 82 0
-554 -12 0
-554 43 0
-555 -15 0
-555 40 0
-61 553 554 555 0
-556 -2 0
-556 97 0
-557 -18 0
-557 49 0
-558 -21 0
-558 46 0
-61 556 557 558 0
-559 -3 0
-559 107 0
-560 -23 0
-560 54 0
-561 -26 0
-561 51 0
-61 559 560 561 0
-562 -4 0
-562 113 0
-563 -27 0
-563 58 0
-564 -30 0
-564 55 0
-61 562 563 564 0
-565 -6 0
-565 118 0
-566 -31 0
-566 63 0
-567 -35 0
-567 59 0
-61 565 566 567 0
-568 -7 0
-568 119 0
-569 -32 0
-569 64 0
-570 -36 0
-570 60 0
-61 568 569 570 0
-571 -1 0
-571 83 0
-572 -13 0
-572 42 0
-573 -14 0
-573 41 0
-62 571 572 573 0
-574 -2 0
-574 98 0
-575 -19 0
-575 48 0
-576 -20 0
-576 47 0
-62 574 575 576 0
-577 -3 0
-577 108 0
-578 -24 0
-578 53 0
-579 -25 0
-579 52 0
-62 577 578 579 0
-580 -4 0
-580 114 0
-581 -28 0
-581 57 0
-582 -29 0
-582 56 0
-62 580 581 582 0
-583 -5 0
-583 117 0
-584 -31 0
-584 60 0
-585 -32 0
-585 59 0
-62 583 584 585 0
-586 -8 0
-586 120 0
-587 -35 0
-587 64 0
-588 -36 0
-588 63 0
-62 586 587 588 0
-589 -1 0
-589 84 0
-590 -13 0
-590 43 0
-591 -15 0
-591 41 0
-63 589 590 591 0
-592 -2 0
-592 99 0
-593 -19 0
-593 49 0
-594 -21 0
-594 47 0
-63 592 593 594 0
-595 -3 0
-595 109 0
-596 -24 0
-596 54 0
-597 -26 0
-597 52 0
-63 595 596 597 0
-598 -4 0
-598 115 0
-599 -28 0
-599 58 0
-600 -30 0
-600 56 0
-63 598 599 600 0
-601 -5 0
-601 118 0
-602 -31 0
-602 61 0
-603 -33 0
-603 59 0
-63 601 602 603 0
-604 -7 0
-604 120 0
-605 -34 0
-605 64 0
-606 -36 0
-606 62 0
-63 604 605 606 0
-607 -1 0
-607 85 0
-608 -14 0
-608 43 0
-609 -15 0
-609 42 0
-64 607 608 609 0
-610 -2 0
-610 100 0
-611 -20 0
-611 49 0
-612 -21 0
-612 48 0
-64 610 611 612 0
-613 -3 0
-613 110 0
-614 -25 0
-614 54 0
-615 -26 0
-615 53 0
-64 613 614 615 0
-616 -4 0
-616 116 0
-617 -29 0
-617 58 0
-618 -30 0
-618 57 0
-64 616 617 618 0
-619 -5 0
-619 119 0
-620 -32 0
-620 61 0
-621 -33 0
-621 60 0
-64 619 620 621 0
-622 -6 0
-622 120 0
-623 -34 0
-623 63 0
-624 -35 0
-624 62 0
-64 622 623 624 0
-625 -1 0
-625 44 0
-626 -2 0
-626 38 0
-627 -3 0
-627 37 0
-65 625 626 627 0
-628 -11 0
-628 86 0
-629 -17 0
-629 71 0
-630 -22 0
-630 66 0
-65 628 629 630 0
-631 -12 0
-631 87 0
-632 -18 0
-632 72 0
-633 -23 0
-633 67 0
-65 631 632 633 0
-634 -13 0
-634 88 0
-635 -19 0
-635 73 0
-636 -24 0
-636 68 0
-65 634 635 636 0
-637 -14 0
-637 89 0
-638 -20 0
-638 74 0
-639 -25 0
-639 69 0
-65 637 638 639 0
-640 -15 0
-640 90 0
-641 -21 0
-641 75 0
-642 -26 0
-642 70 0
-65 640 641 642 0
-643 -1 0
-643 45 0
-644 -2 0
-644 39 0
-645 -4 0
-645 37 0
-66 643 644 645 0
-646 -10 0
-646 86 0
-647 -16 0
-647 71 0
-648 -22 0
-648 65 0
-66 646 647 648 0
-649 -12 0
-649 91 0
-650 -18 0
-650 76 0
-651 -27 0
-651 67 0
-66 649 650 651 0
-652 -13 0
-652 92 0
-653 -19 0
-653 77 0
-654 -28 0
-654 68 0
-66 652 653 654 0
-655 -14 0
-655 93 0
-656 -20 0
-656 78 0
-657 -29 0
-657 69 0
-66 655 656 657 0
-658 -15 0
-658 94 0
-659 -21 0
-659 79 0
-660 -30 0
-660 70 0
-66 658 659 660 0
-661 -1 0
-661 46 0
-662 -2 0
-662 40 0
-663 -5 0
-663 37 0
-67 661 662 663 0
-664 -10 0
-664 87 0
-665 -16 0
-665 72 0
-666 -23 0
-666 65 0
-67 664 665 666 0
-667 -11 0
-667 91 0
-668 -17 0
-668 76 0
-669 -27 0
-669 66 0
-67 667 668 669 0
-670 -13 0
-670 95 0
-671 -19 0
-671 80 0
-672 -31 0
-672 68 0
-67 670 671 672 0
-673 -14 0
-673 96 0
-674 -20 0
-674 81 0
-675 -32 0
-675 69 0
-67 673 674 675 0
-676 -15 0
-676 97 0
-677 -21 0
-677 82 0
-678 -33 0
-678 70 0
-67 676 677 678 0
-679 -1 0
-679 47 0
-680 -2 0
-680 41 0
-681 -6 0
-681 37 0
-68 679 680 681 0
-682 -10 0
-682 88 0
-683 -16 0
-683 73 0
-684 -24 0
-684 65 0
-68 682 683 684 0
-685 -11 0
-685 92 0
-686 -17 0
-686 77 0
-687 -28 0
-687 66 0
-68 685 686 687 0
-688 -12 0
-688 95 0
-689 -18 0
-689 80 0
-690 -31 0
-690 67 0
-68 688 689 690 0
-691 -14 0
-691 98 0
-692 -20 0
-692 83 0
-693 -34 0
-693 69 0
-68 691 692 693 0
-694 -15 0
-694 99 0
-695 -21 0
-695 84 0
-696 -35 0
-696 70 0
-68 694 695 696 0
-697 -1 0
-697 48 0
-698 -2 0
-698 42 0
-699 -7 0
-699 37 0
-69 697 698 699 0
-700 -10 0
-700 89 0
-701 -16 0
-701 74 0
-702 -25 0
-702 65 0
-69 700 701 702 0
-703 -11 0
-703 93 0
-704 -17 0
-704 78 0
-705 -29 0
-705 66 0
-69 703 704 705 0
-706 -12 0
-706 96 0
-707 -18 0
-707 81 0
-708 -32 0
-708 67 0
-69 706 707 708 0
-709 -13 0
-709 98 0
-710 -19 0
-710 83 0
-711 -34 0
-711 68 0
-69 709 710 711 0
-712 -15 0
-712 100 0
-713 -21 0
-713 85 0
-714 -36 0
-714 70 0
-69 712 713 714 0
-715 -1 0
-715 49 0
-716 -2 0
-716 43 0
-717 -8 0
-717 37 0
-70 715 716 717 0
-718 -10 0
-718 90 0
-719 -16 0
-719 75 0
-720 -26 0
-720 65 0
-70 718 719 720 0
-721 -11 0
-721 94 0
-722 -17 0
-722 79 0
-723 -30 0
-723 66 0
-70 721 722 723 0
-724 -12 0
-724 97 0
-725 -18 0
-725 82 0
-726 -33 0
-726 67 0
-70 724 725 726 0
-727 -13 0
-727 99 0
-728 -19 0
-728 84 0
-729 -35 0
-729 68 0
-70 727 728 729 0
-730 -14 0
-730 100 0
-731 -20 0
-731 85 0
-732 -36 0
-732 69 0
-70 730 731 732 0
-733 -1 0
-733 50 0
-734 -3 0
-734 39 0
-735 -4 0
-735 38 0
-71 733 734 735 0
-736 -9 0
-736 86 0
-737 -16 0
-737 66 0
-738 -17 0
-738 65 0
-71 736 737 738 0
-739 -12 0
-739 101 0
-740 -23 0
-740 76 0
-741 -27 0
-741 72 0
-71 739 740 741 0
-742 -13 0
-742 102 0
-743 -24 0
-743 77 0
-744 -28 0
-744 73 0
-71 742 743 744 0
-745 -14 0
-745 103 0
-746 -25 0
-746 78 0
-747 -29 0
-747 74 0
-71 745 746 747 0
-748 -15 0
-748 104 0
-749 -26 0
-749 79 0
-750 -30 0
-750 75 0
-71 748 749 750 0
-751 -1 0
-751 51 0
-752 -3 0
-752 40 0
-753 -5 0
-753 38 0
-72 751 752 753 0
-754 -9 0
-754 87 0
-755 -16 0
-755 67 0
-756 -18 0
-756 65 0
-72 754 755 756 0
-757 -11 0
-757 101 0
-758 -22 0
-758 76 0
-759 -27 0
-759 71 0
-72 757 758 759 0
-760 -13 0
-760 105 0
-761 -24 0
-761 80 0
-762 -31 0
-762 73 0
-72 760 761 762 0
-763 -14 0
-763 106 0
-764 -25 0
-764 81 0
-765 -32 0
-765 74 0
-72 763 764 765 0
-766 -15 0
-766 107 0
-767 -26 0
-767 82 0
-768 -33 0
-768 75 0
-72 766 767 768 0
-769 -1 0
-769 52 0
-770 -3 0
-770 41 0
-771 -6 0
-771 38 0
-73 769 770 771 0
-772 -9 0
-772 88 0
-773 -16 0
-773 68 0
-774 -19 0
-774 65 0
-73 772 773 774 0
-775 -11 0
-775 102 0
-776 -22 0
-776 77 0
-777 -28 0
-777 71 0
-73 775 776 777 0
-778 -12 0
-778 105 0
-779 -23 0
-779 80 0
-780 -31 0
-780 72 0
-73 778 779 780 0
-781 -14 0
-781 108 0
-782 -25 0
-782 83 0
-783 -34 0
-783 74 0
-73 781 782 783 0
-784 -15 0
-784 109 0
-785 -26 0
-785 84 0
-786 -35 0
-786 75 0
-73 784 785 786 0
-787 -1 0
-787 53 0
-788 -3 0
-788 42 0
-789 -7 0
-789 38 0
-74 787 788 789 0
-790 -9 0
-790 89 0
-791 -16 0
-791 69 0
-792 -20 0
-792 65 0
-74 790 791 792 0
-793 -11 0
-793 103 0
-794 -22 0
-794 78 0
-795 -29 0
-795 71 0
-74 793 794 795 0
-796 -12 0
-796 106 0
-797 -23 0
-797 81 0
-798 -32 0
-798 72 0
-74 796 797 798 0
-799 -13 0
-799 108 0
-800 -24 0
-800 83 0
-801 -34 0
-801 73 0
-74 799 800 801 0
-802 -15 0
-802 110 0
-803 -26 0
-803 85 0
-804 -36 0
-804 75 0
-74 802 803 804 0
-805 -1 0
-805 54 0
-806 -3 0
-806 43 0
-807 -8 0
-807 38 0
-75 805 806 807 0
-808 -9 0
-808 90 0
-809 -16 0
-809 70 0
-810 -21 0
-810 65 0
-75 808 809 810 0
-811 -11 0
-811 104 0
-812 -22 0
-812 79 0
-813 -30 0
-813 71 0
-75 811 812 813 0
-814 -12 0
-814 107 0
-815 -23 0
-815 82 0
-816 -33 0
-816 72 0
-75 814 815 816 0
-817 -13 0
-817 109 0
-818 -24 0
-818 84 0
-819 -35 0
-819 73 0
-75 817 818 819 0
-820 -14 0
-820 110 0
-821 -25 0
-821 85 0
-822 -36 0
-822 74 0
-75 820 821 822 0
-823 -1 0
-823 55 0
-824 -4 0
-824 40 0
-825 -5 0
-825 39 0
-76 823 824 825 0
-826 -9 0
-826 91 0
-827 -17 0
-827 67 0
-828 -18 0
-828 66 0
-76 826 827 828 0
-829 -10 0
-829 101 0
-830 -22 0
-830 72 0
-831 -23 0
-831 71 0
-76 829 830 831 0
-832 -13 0
-832 111 0
-833 -28 0
-833 80 0
-834 -31 0
-834 77 0
-76 832 833 834 0
-835 -14 0
-835 112 0
-836 -29 0
-836 81 0
-837 -32 0
-837 78 0
-76 835 836 837 0
-838 -15 0
-838 113 0
-839 -30 0
-839 82 0
-840 -33 0
-840 79 0
-76 838 839 840 0
-841 -1 0
-841 56 0
-842 -4 0
-842 41 0
-843 -6 0
-843 39 0
-77 841 842 843 0
-844 -9 0
-844 92 0
-845 -17 0
-845 68 0
-846 -19 0
-846 66 0
-77 844 845 846 0
-847 -10 0
-847 102 0
-848 -22 0
-848 73 0
-849 -24 0
-849 71 0
-77 847 848 849 0
-850 -12 0
-850 111 0
-851 -27 0
-851 80 0
-852 -31 0
-852 76 0
-77 850 851 852 0
-853 -14 0
-853 114 0
-854 -29 0
-854 83 0
-855 -34 0
-855 78 0
-77 853 854 855 0
-856 -15 0
-856 115 0
-857 -30 0
-857 84 0
-858 -35 0
-858 79 0
-77 856 857 858 0
-859 -1 0
-859 57 0
-860 -4 0
-860 42 0
-861 -7 0
-861 39 0
-78 859 860 861 0
-862 -9 0
-862 93 0
-863 -17 0
-863 69 0
-864 -20 0
-864 66 0
-78 862 863 864 0
-865 -10 0
-865 103 0
-866 -22 0
-866 74 0
-867 -25 0
-867 71 0
-78 865 866 867 0
-868 -12 0
-868 112 0
-869 -27 0
-869 81 0
-870 -32 0
-870 76 0
-78 868 869 870 0
-871 -13 0
-871 114 0
-872 -28 0
-872 83 0
-873 -34 0
-873 77 0
-78 871 872 873 0
-874 -15 0
-874 116 0
-875 -30 0
-875 85 0
-876 -36 0
-876 79 0
-78 874 875 876 0
-877 -1 0
-877 58 0
-878 -4 0
-878 43 0
-879 -8 0
-879 39 0
-79 877 878 879 0
-880 -9 0
-880 94 0
-881 -17 0
-881 70 0
-882 -21 0
-882 66 0
-79 880 881 882 0
-883 -10 0
-883 104 0
-884 -22 0
-884 75 0
-885 -26 0
-885 71 0
-79 883 884 885 0
-886 -12 0
-886 113 0
-887 -27 0
-887 82 0
-888 -33 0
-888 76 0
-79 886 887 888 0
-889 -13 0
-889 115 0
-890 -28 0
-890 84 0
-891 -35 0
-891 77 0
-79 889 890 891 0
-892 -14 0
-892 116 0
-893 -29 0
-893 85 0
-894 -36 0
-894 78 0
-79 892 893 894 0
-895 -1 0
-895 59 0
-896 -5 0
-896 41 0
-897 -6 0
-897 40 0
-80 895 896 897 0
-898 -9 0
-898 95 0
-899 -18 0
-899 68 0
-900 -19 0
-900 67 0
-80 898 899 900 0
-901 -10 0
-901 105 0
-902 -23 0
-902 73 0
-903 -24 0
-903 72 0
-80 901 902 903 0
-904 -11 0
-904 111 0
-905 -27 0
-905 77 0
-906 -28 0
-906 76 0
-80 904 905 906 0
-907 -14 0
-907 117 0
-908 -32 0
-908 83 0
-909 -34 0
-909 81 0
-80 907 908 909 0
-910 -15 0
-910 118 0
-911 -33 0
-911 84 0
-912 -35 0
-912 82 0
-80 910 911 912 0
-913 -1 0
-913 60 0
-914 -5 0
-914 42 0
-915 -7 0
-915 40 0
-81 913 914 915 0
-916 -9 0
-916 96 0
-917 -18 0
-917 69 0
-918 -20 0
-918 67 0
-81 916 917 918 0
-919 -10 0
-919 106 0
-920 -23 0
-920 74 0
-921 -25 0
-921 72 0
-81 919 920 921 0
-922 -11 0
-922 112 0
-923 -27 0
-923 78 0
-924 -29 0
-924 76 0
-81 922 923 924 0
-925 -13 0
-925 117 0
-926 -31 0
-926 83 0
-927 -34 0
-927 80 0
-81 925 926 927 0
-928 -15 0
-928 119 0
-929 -33 0
-929 85 0
-930 -36 0
-930 82 0
-81 928 929 930 0
-931 -1 0
-931 61 0
-932 -5 0
-932 43 0
-933 -8 0
-933 40 0
-82 931 932 933 0
-934 -9 0
-934 97 0
-935 -18 0
-935 70 0
-936 -21 0
-936 67 0
-82 934 935 936 0
-937 -10 0
-937 107 0
-938 -23 0
-938 75 0
-939 -26 0
-939 72 0
-82 937 938 939 0
-940 -11 0
-940 113 0
-941 -27 0
-941 79 0
-942 -30 0
-942 76 0
-82 940 941 942 0
-943 -13 0
-943 118 0
-944 -31 0
-944 84 0
-945 -35 0
-945 80 0
-82 943 944 945 0
-946 -14 0
-946 119 0
-947 -32 0
-947 85 0
-948 -36 0
-948 81 0
-82 946 947 948 0
-949 -1 0
-949 62 0
-950 -6 0
-950 42 0
-951 -7 0
-951 41 0
-83 949 950 951 0
-952 -9 0
-952 98 0
-953 -19 0
-953 69 0
-954 -20 0
-954 68 0
-83 952 953 954 0
-955 -10 0
-955 108 0
-956 -24 0
-956 74 0
-957 -25 0
-957 73 0
-83 955 956 957 0
-958 -11 0
-958 114 0
-959 -28 0
-959 78 0
-960 -29 0
-960 77 0
-83 958 959 960 0
-961 -12 0
-961 117 0
-962 -31 0
-962 81 0
-963 -32 0
-963 80 0
-83 961 962 963 0
-964 -15 0
-964 120 0
-965 -35 0
-965 85 0
-966 -36 0
-966 84 0
-83 964 965 966 0
-967 -1 0
-967 63 0
-968 -6 0
-968 43 0
-969 -8 0
-969 41 0
-84 967 968 969 0
-970 -9 0
-970 99 0
-971 -19 0
-971 70 0
-972 -21 0
-972 68 0
-84 970 971 972 0
-973 -10 0
-973 109 0
-974 -24 0
-974 75 0
-975 -26 0
-975 73 0
-84 973 974 975 0
-976 -11 0
-976 115 0
-977 -28 0
-977 79 0
-978 -30 0
-978 77 0
-84 976 977 978 0
-979 -12 0
-979 118 0
-980 -31 0
-980 82 0
-981 -33 0
-981 80 0
-84 979 980 981 0
-982 -14 0
-982 120 0
-983 -34 0
-983 85 0
-984 -36 0
-984 83 0
-84 982 983 984 0
-985 -1 0
-985 64 0
-986 -7 0
-986 43 0
-987 -8 0
-987 42 0
-85 985 986 987 0
-988 -9 0
-988 100 0
-989 -20 0
-989 70 0
-990 -21 0
-990 69 0
-85 988 989 990 0
-991 -10 0
-991 110 0
-992 -25 0
-992 75 0
-993 -26 0
-993 74 0
-85 991 992 993 0
-994 -11 0
-994 116 0
-995 -29 0
-995 79 0
-996 -30 0
-996 78 0
-85 994 995 996 0
-997 -12 0
-997 119 0
-998 -32 0
-998 82 0
-999 -33 0
-999 81 0
-85 997 998 999 0
-1000 -13 0
-1000 120 0
-1001 -34 0
-1001 84 0
-1002 -35 0
-1002 83 0
-85 1000 1001 1002 0
-1003 -2 0
-1003 50 0
-1004 -3 0
-1004 45 0
-1005 -4 0
-1005 44 0
-86 1003 1004 1005 0
-1006 -9 0
-1006 71 0
-1007 -10 0
-1007 66 0
-1008 -11 0
-1008 65 0
-86 1006 1007 1008 0
-1009 -18 0
-1009 101 0
-1010 -23 0
-1010 91 0
-1011 -27 0
-1011 87 0
-86 1009 1010 1011 0
-1012 -19 0
-1012 102 0
-1013 -24 0
-1013 92 0
-1014 -28 0
-1014 88 0
-86 1012 1013 1014 0
-1015 -20 0
-1015 103 0
-1016 -25 0
-1016 93 0
-1017 -29 0
-1017 89 0
-86 1015 1016 1017 0
-1018 -21 0
-1018 104 0
-1019 -26 0
-1019 94 0
-1020 -30 0
-1020 90 0
-86 1018 1019 1020 0
-1021 -2 0
-1021 51 0
-1022 -3 0
-1022 46 0
-1023 -5 0
-1023 44 0
-87 1021 1022 1023 0
-1024 -9 0
-1024 72 0
-1025 -10 0
-1025 67 0
-1026 -12 0
-1026 65 0
-87 1024 1025 1026 0
-1027 -17 0
-1027 101 0
-1028 -22 0
-1028 91 0
-1029 -27 0
-1029 86 0
-87 1027 1028 1029 0
-1030 -19 0
-1030 105 0
-1031 -24 0
-1031 95 0
-1032 -31 0
-1032 88 0
-87 1030 1031 1032 0
-1033 -20 0
-1033 106 0
-1034 -25 0
-1034 96 0
-1035 -32 0
-1035 89 0
-87 1033 1034 1035 0
-1036 -21 0
-1036 107 0
-1037 -26 0
-1037 97 0
-1038 -33 0
-1038 90 0
-87 1036 1037 1038 0
-1039 -2 0
-1039 52 0
-1040 -3 0
-1040 47 0
-1041 -6 0
-1041 44 0
-88 1039 1040 1041 0
-1042 -9 0
-1042 73 0
-1043 -10 0
-1043 68 0
-1044 -13 0
-1044 65 0
-88 1042 1043 1044 0
-1045 -17 0
-1045 102 0
-1046 -22 0
-1046 92 0
-1047 -28 0
-1047 86 0
-88 1045 1046 1047 0
-1048 -18 0
-1048 105 0
-1049 -23 0
-1049 95 0
-1050 -31 0
-1050 87 0
-88 1048 1049 1050 0
-1051 -20 0
-1051 108 0
-1052 -25 0
-1052 98 0
-1053 -34 0
-1053 89 0
-88 1051 1052 1053 0
-1054 -21 0
-1054 109 0
-1055 -26 0
-1055 99 0
-1056 -35 0
-1056 90 0
-88 1054 1055 1056 0
-1057 -2 0
-1057 53 0
-1058 -3 0
-1058 48 0
-1059 -7 0
-1059 44 0
-89 1057 1058 1059 0
-1060 -9 0
-1060 74 0
-1061 -10 0
-1061 69 0
-1062 -14 0
-1062 65 0
-89 1060 1061 1062 0
-1063 -17 0
-1063 103 0
-1064 -22 0
-1064 93 0
-1065 -29 0
-1065 86 0
-89 1063 1064 1065 0
-1066 -18 0
-1066 106 0
-1067 -23 0
-1067 96 0
-1068 -32 0
-1068 87 0
-89 1066 1067 1068 0
-1069 -19 0
-1069 108 0
-1070 -24 0
-1070 98 0
-1071 -34 0
-1071 88 0
-89 1069 1070 1071 0
-1072 -21 0
-1072 110 0
-1073 -26 0
-1073 100 0
-1074 -36 0
-1074 90 0
-89 1072 1073 1074 0
-1075 -2 0
-1075 54 0
-1076 -3 0
-1076 49 0
-1077 -8 0
-1077 44 0
-90 1075 1076 1077 0
-1078 -9 0
-1078 75 0
-1079 -10 0
-1079 70 0
-1080 -15 0
-1080 65 0
-90 1078 1079 1080 0
-1081 -17 0
-1081 104 0
-1082 -22 0
-1082 94 0
-1083 -30 0
-1083 86 0
-90 1081 1082 1083 0
-1084 -18 0
-1084 107 0
-1085 -23 0
-1085 97 0
-1086 -33 0
-1086 87 0
-90 1084 1085 1086 0
-1087 -19 0
-1087 109 0
-1088 -24 0
-1088 99 0
-1089 -35 0
-1089 88 0
-90 1087 1088 1089 0
-1090 -20 0
-1090 110 0
-1091 -25 0
-1091 100 0
-1092 -36 0
-1092 89 0
-90 1090 1091 1092 0
-1093 -2 0
-1093 55 0
-1094 -4 0
-1094 46 0
-1095 -5 0
-1095 45 0
-91 1093 1094 1095 0
-1096 -9 0
-1096 76 0
-1097 -11 0
-1097 67 0
-1098 -12 0
-1098 66 0
-91 1096 1097 1098 0
-1099 -16 0
-1099 101 0
-1100 -22 0
-1100 87 0
-1101 -23 0
-1101 86 0
-91 1099 1100 1101 0
-1102 -19 0
-1102 111 0
-1103 -28 0
-1103 95 0
-1104 -31 0
-1104 92 0
-91 1102 1103 1104 0
-1105 -20 0
-1105 112 0
-1106 -29 0
-1106 96 0
-1107 -32 0
-1107 93 0
-91 1105 1106 1107 0
-1108 -21 0
-1108 113 0
-1109 -30 0
-1109 97 0
-1110 -33 0
-1110 94 0
-91 1108 1109 1110 0
-1111 -2 0
-1111 56 0
-1112 -4 0
-1112 47 0
-1113 -6 0
-1113 45 0
-92 1111 1112 1113 0
-1114 -9 0
-1114 77 0
-1115 -11 0
-1115 68 0
-1116 -13 0
-1116 66 0
-92 1114 1115 1116 0
-1117 -16 0
-1117 102 0
-1118 -22 0
-1118 88 0
-1119 -24 0
-1119 86 0
-92 1117 1118 1119 0
-1120 -18 0
-1120 111 0
-1121 -27 0
-1121 95 0
-1122 -31 0
-1122 91 0
-92 1120 1121 1122 0
-1123 -20 0
-1123 114 0
-1124 -29 0
-1124 98 0
-1125 -34 0
-1125 93 0
-92 1123 1124 1125 0
-1126 -21 0
-1126 115 0
-1127 -30 0
-1127 99 0
-1128 -35 0
-1128 94 0
-92 1126 1127 1128 0
-1129 -2 0
-1129 57 0
-1130 -4 0
-1130 48 0
-1131 -7 0
-1131 45 0
-93 1129 1130 1131 0
-1132 -9 0
-1132 78 0
-1133 -11 0
-1133 69 0
-1134 -14 0
-1134 66 0
-93 1132 1133 1134 0
-1135 -16 0
-1135 103 0
-1136 -22 0
-1136 89 0
-1137 -25 0
-1137 86 0
-93 1135 1136 1137 0
-1138 -18 0
-1138 112 0
-1139 -27 0
-1139 96 0
-1140 -32 0
-1140 91 0
-93 1138 1139 1140 0
-1141 -19 0
-1141 114 0
-1142 -28 0
-1142 98 0
-1143 -34 0
-1143 92 0
-93 1141 1142 1143 0
-1144 -21 0
-1144 116 0
-1145 -30 0
-1145 100 0
-1146 -36 0
-1146 94 0
-93 1144 1145 1146 0
-1147 -2 0
-1147 58 0
-1148 -4 0
-1148 49 0
-1149 -8 0
-1149 45 0
-94 1147 1148 1149 0
-1150 -9 0
-1150 79 0
-1151 -11 0
-1151 70 0
-1152 -15 0
-1152 66 0
-94 1150 1151 1152 0
-1153 -16 0
-1153 104 0
-1154 -22 0
-1154 90 0
-1155 -26 0
-1155 86 0
-94 1153 1154 1155 0
-1156 -18 0
-1156 113 0
-1157 -27 0
-1157 97 0
-1158 -33 0
-1158 91 0
-94 1156 1157 1158 0
-1159 -19 0
-1159 115 0
-1160 -28 0
-1160 99 0
-1161 -35 0
-1161 92 0
-94 1159 1160 1161 0
-1162 -20 0
-1162 116 0
-1163 -29 0
-1163 100 0
-1164 -36 0
-1164 93 0
-94 1162 1163 1164 0
-1165 -2 0
-1165 59 0
-1166 -5 0
-1166 47 0
-1167 -6 0
-1167 46 0
-95 1165 1166 1167 0
-1168 -9 0
-1168 80 0
-1169 -12 0
-1169 68 0
-1170 -13 0
-1170 67 0
-95 1168 1169 1170 0
-1171 -16 0
-1171 105 0
-1172 -23 0
-1172 88 0
-1173 -24 0
-1173 87 0
-95 1171 1172 1173 0
-1174 -17 0
-1174 111 0
-1175 -27 0
-1175 92 0
-1176 -28 0
-1176 91 0
-95 1174 1175 1176 0
-1177 -20 0
-1177 117 0
-1178 -32 0
-1178 98 0
-1179 -34 0
-1179 96 0
-95 1177 1178 1179 0
-1180 -21 0
-1180 118 0
-1181 -33 0
-1181 99 0
-1182 -35 0
-1182 97 0
-95 1180 1181 1182 0
-1183 -2 0
-1183 60 0
-1184 -5 0
-1184 48 0
-1185 -7 0
-1185 46 0
-96 1183 1184 1185 0
-1186 -9 0
-1186 81 0
-1187 -12 0
-1187 69 0
-1188 -14 0
-1188 67 0
-96 1186 1187 1188 0
-1189 -16 0
-1189 106 0
-1190 -23 0
-1190 89 0
-1191 -25 0
-1191 87 0
-96 1189 1190 1191 0
-1192 -17 0
-1192 112 0
-1193 -27 0
-1193 93 0
-1194 -29 0
-1194 91 0
-96 1192 1193 1194 0
-1195 -19 0
-1195 117 0
-1196 -31 0
-1196 98 0
-1197 -34 0
-1197 95 0
-96 1195 1196 1197 0
-1198 -21 0
-1198 119 0
-1199 -33 0
-1199 100 0
-1200 -36 0
-1200 97 0
-96 1198 1199 1200 0
-1201 -2 0
-1201 61 0
-1202 -5 0
-1202 49 0
-1203 -8 0
-1203 46 0
-97 1201 1202 1203 0
-1204 -9 0
-1204 82 0
-1205 -12 0
-1205 70 0
-1206 -15 0
-1206 67 0
-97 1204 1205 1206 0
-1207 -16 0
-1207 107 0
-1208 -23 0
-1208 90 0
-1209 -26 0
-1209 87 0
-97 1207 1208 1209 0
-1210 -17 0
-1210 113 0
-1211 -27 0
-1211 94 0
-1212 -30 0
-1212 91 0
-97 1210 1211 1212 0
-1213 -19 0
-1213 118 0
-1214 -31 0
-1214 99 0
-1215 -35 0
-1215 95 0
-97 1213 1214 1215 0
-1216 -20 0
-1216 119 0
-1217 -32 0
-1217 100 0
-1218 -36 0
-1218 96 0
-97 1216 1217 1218 0
-1219 -2 0
-1219 62 0
-1220 -6 0
-1220 48 0
-1221 -7 0
-1221 47 0
-98 1219 1220 1221 0
-1222 -9 0
-1222 83 0
-1223 -13 0
-1223 69 0
-1224 -14 0
-1224 68 0
-98 1222 1223 1224 0
-1225 -16 0
-1225 108 0
-1226 -24 0
-1226 89 0
-1227 -25 0
-1227 88 0
-98 1225 1226 1227 0
-1228 -17 0
-1228 114 0
-1229 -28 0
-1229 93 0
-1230 -29 0
-1230 92 0
-98 1228 1229 1230 0
-1231 -18 0
-1231 117 0
-1232 -31 0
-1232 96 0
-1233 -32 0
-1233 95 0
-98 1231 1232 1233 0
-1234 -21 0
-1234 120 0
-1235 -35 0
-1235 100 0
-1236 -36 0
-1236 99 0
-98 1234 1235 1236 0
-1237 -2 0
-1237 63 0
-1238 -6 0
-1238 49 0
-1239 -8 0
-1239 47 0
-99 1237 1238 1239 0
-1240 -9 0
-1240 84 0
-1241 -13 0
-1241 70 0
-1242 -15 0
-1242 68 0
-99 1240 1241 1242 0
-1243 -16 0
-1243 109 0
-1244 -24 0
-1244 90 0
-1245 -26 0
-1245 88 0
-99 1243 1244 1245 0
-1246 -17 0
-1246 115 0
-1247 -28 0
-1247 94 0
-1248 -30 0
-1248 92 0
-99 1246 1247 1248 0
-1249 -18 0
-1249 118 0
-1250 -31 0
-1250 97 0
-1251 -33 0
-1251 95 0
-99 1249 1250 1251 0
-1252 -20 0
-1252 120 0
-1253 -34 0
-1253 100 0
-1254 -36 0
-1254 98 0
-99 1252 1253 1254 0
-1255 -2 0
-1255 64 0
-1256 -7 0
-1256 49 0
-1257 -8 0
-1257 48 0
-100 1255 1256 1257 0
-1258 -9 0
-1258 85 0
-1259 -14 0
-1259 70 0
-1260 -15 0
-1260 69 0
-100 1258 1259 1260 0
-1261 -16 0
-1261 110 0
-1262 -25 0
-1262 90 0
-1263 -26 0
-1263 89 0
-100 1261 1262 1263 0
-1264 -17 0
-1264 116 0
-1265 -29 0
-1265 94 0
-1266 -30 0
-1266 93 0
-100 1264 1265 1266 0
-1267 -18 0
-1267 119 0
-1268 -32 0
-1268 97 0
-1269 -33 0
-1269 96 0
-100 1267 1268 1269 0
-1270 -19 0
-1270 120 0
-1271 -34 0
-1271 99 0
-1272 -35 0
-1272 98 0
-100 1270 1271 1272 0
-1273 -3 0
-1273 55 0
-1274 -4 0
-1274 51 0
-1275 -5 0
-1275 50 0
-101 1273 1274 1275 0
-1276 -10 0
-1276 76 0
-1277 -11 0
-1277 72 0
-1278 -12 0
-1278 71 0
-101 1276 1277 1278 0
-1279 -16 0
-1279 91 0
-1280 -17 0
-1280 87 0
-1281 -18 0
-1281 86 0
-101 1279 1280 1281 0
-1282 -24 0
-1282 111 0
-1283 -28 0
-1283 105 0
-1284 -31 0
-1284 102 0
-101 1282 1283 1284 0
-1285 -25 0
-1285 112 0
-1286 -29 0
-1286 106 0
-1287 -32 0
-1287 103 0
-101 1285 1286 1287 0
-1288 -26 0
-1288 113 0
-1289 -30 0
-1289 107 0
-1290 -33 0
-1290 104 0
-101 1288 1289 1290 0
-1291 -3 0
-1291 56 0
-1292 -4 0
-1292 52 0
-1293 -6 0
-1293 50 0
-102 1291 1292 1293 0
-1294 -10 0
-1294 77 0
-1295 -11 0
-1295 73 0
-1296 -13 0
-1296 71 0
-102 1294 1295 1296 0
-1297 -16 0
-1297 92 0
-1298 -17 0
-1298 88 0
-1299 -19 0
-1299 86 0
-102 1297 1298 1299 0
-1300 -23 0
-1300 111 0
-1301 -27 0
-1301 105 0
-1302 -31 0
-1302 101 0
-102 1300 1301 1302 0
-1303 -25 0
-1303 114 0
-1304 -29 0
-1304 108 0
-1305 -34 0
-1305 103 0
-102 1303 1304 1305 0
-1306 -26 0
-1306 115 0
-1307 -30 0
-1307 109 0
-1308 -35 0
-1308 104 0
-102 1306 1307 1308 0
-1309 -3 0
-1309 57 0
-1310 -4 0
-1310 53 0
-1311 -7 0
-1311 50 0
-103 1309 1310 1311 0
-1312 -10 0
-1312 78 0
-1313 -11 0
-1313 74 0
-1314 -14 0
-1314 71 0
-103 1312 1313 1314 0
-1315 -16 0
-1315 93 0
-1316 -17 0
-1316 89 0
-1317 -20 0
-1317 86 0
-103 1315 1316 1317 0
-1318 -23 0
-1318 112 0
-1319 -27 0
-1319 106 0
-1320 -32 0
-1320 101 0
-103 1318 1319 1320 0
-1321 -24 0
-1321 114 0
-1322 -28 0
-1322 108 0
-1323 -34 0
-1323 102 0
-103 1321 1322 1323 0
-1324 -26 0
-1324 116 0
-1325 -30 0
-1325 110 0
-1326 -36 0
-1326 104 0
-103 1324 1325 1326 0
-1327 -3 0
-1327 58 0
-1328 -4 0
-1328 54 0
-1329 -8 0
-1329 50 0
-104 1327 1328 1329 0
-1330 -10 0
-1330 79 0
-1331 -11 0
-1331 75 0
-1332 -15 0
-1332 71 0
-104 1330 1331 1332 0
-1333 -16 0
-1333 94 0
-1334 -17 0
-1334 90 0
-1335 -21 0
-1335 86 0
-104 1333 1334 1335 0
-1336 -23 0
-1336 113 0
-1337 -27 0
-1337 107 0
-1338 -33 0
-1338 101 0
-104 1336 1337 1338 0
-1339 -24 0
-1339 115 0
-1340 -28 0
-1340 109 0
-1341 -35 0
-1341 102 0
-104 1339 1340 1341 0
-1342 -25 0
-1342 116 0
-1343 -29 0
-1343 110 0
-1344 -36 0
-1344 103 0
-104 1342 1343 1344 0
-1345 -3 0
-1345 59 0
-1346 -5 0
-1346 52 0
-1347 -6 0
-1347 51 0
-105 1345 1346 1347 0
-1348 -10 0
-1348 80 0
-1349 -12 0
-1349 73 0
-1350 -13 0
-1350 72 0
-105 1348 1349 1350 0
-1351 -16 0
-1351 95 0
-1352 -18 0
-1352 88 0
-1353 -19 0
-1353 87 0
-105 1351 1352 1353 0
-1354 -22 0
-1354 111 0
-1355 -27 0
-1355 102 0
-1356 -28 0
-1356 101 0
-105 1354 1355 1356 0
-1357 -25 0
-1357 117 0
-1358 -32 0
-1358 108 0
-1359 -34 0
-1359 106 0
-105 1357 1358 1359 0
-1360 -26 0
-1360 118 0
-1361 -33 0
-1361 109 0
-1362 -35 0
-1362 107 0
-105 1360 1361 1362 0
-1363 -3 0
-1363 60 0
-1364 -5 0
-1364 53 0
-1365 -7 0
-1365 51 0
-106 1363 1364 1365 0
-1366 -10 0
-1366 81 0
-1367 -12 0
-1367 74 0
-1368 -14 0
-1368 72 0
-106 1366 1367 1368 0
-1369 -16 0
-1369 96 0
-1370 -18 0
-1370 89 0
-1371 -20 0
-1371 87 0
-106 1369 1370 1371 0
-1372 -22 0
-1372 112 0
-1373 -27 0
-1373 103 0
-1374 -29 0
-1374 101 0
-106 1372 1373 1374 0
-1375 -24 0
-1375 117 0
-1376 -31 0
-1376 108 0
-1377 -34 0
-1377 105 0
-106 1375 1376 1377 0
-1378 -26 0
-1378 119 0
-1379 -33 0
-1379 110 0
-1380 -36 0
-1380 107 0
-106 1378 1379 1380 0
-1381 -3 0
-1381 61 0
-1382 -5 0
-1382 54 0
-1383 -8 0
-1383 51 0
-107 1381 1382 1383 0
-1384 -10 0
-1384 82 0
-1385 -12 0
-1385 75 0
-1386 -15 0
-1386 72 0
-107 1384 1385 1386 0
-1387 -16 0
-1387 97 0
-1388 -18 0
-1388 90 0
-1389 -21 0
-1389 87 0
-107 1387 1388 1389 0
-1390 -22 0
-1390 113 0
-1391 -27 0
-1391 104 0
-1392 -30 0
-1392 101 0
-107 1390 1391 1392 0
-1393 -24 0
-1393 118 0
-1394 -31 0
-1394 109 0
-1395 -35 0
-1395 105 0
-107 1393 1394 1395 0
-1396 -25 0
-1396 119 0
-1397 -32 0
-1397 110 0
-1398 -36 0
-1398 106 0
-107 1396 1397 1398 0
-1399 -3 0
-1399 62 0
-1400 -6 0
-1400 53 0
-1401 -7 0
-1401 52 0
-108 1399 1400 1401 0
-1402 -10 0
-1402 83 0
-1403 -13 0
-1403 74 0
-1404 -14 0
-1404 73 0
-108 1402 1403 1404 0
-1405 -16 0
-1405 98 0
-1406 -19 0
-1406 89 0
-1407 -20 0
-1407 88 0
-108 1405 1406 1407 0
-1408 -22 0
-1408 114 0
-1409 -28 0
-1409 103 0
-1410 -29 0
-1410 102 0
-108 1408 1409 1410 0
-1411 -23 0
-1411 117 0
-1412 -31 0
-1412 106 0
-1413 -32 0
-1413 105 0
-108 1411 1412 1413 0
-1414 -26 0
-1414 120 0
-1415 -35 0
-1415 110 0
-1416 -36 0
-1416 109 0
-108 1414 1415 1416 0
-1417 -3 0
-1417 63 0
-1418 -6 0
-1418 54 0
-1419 -8 0
-1419 52 0
-109 1417 1418 1419 0
-1420 -10 0
-1420 84 0
-1421 -13 0
-1421 75 0
-1422 -15 0
-1422 73 0
-109 1420 1421 1422 0
-1423 -16 0
-1423 99 0
-1424 -19 0
-1424 90 0
-1425 -21 0
-1425 88 0
-109 1423 1424 1425 0
-1426 -22 0
-1426 115 0
-1427 -28 0
-1427 104 0
-1428 -30 0
-1428 102 0
-109 1426 1427 1428 0
-1429 -23 0
-1429 118 0
-1430 -31 0
-1430 107 0
-1431 -33 0
-1431 105 0
-109 1429 1430 1431 0
-1432 -25 0
-1432 120 0
-1433 -34 0
-1433 110 0
-1434 -36 0
-1434 108 0
-109 1432 1433 1434 0
-1435 -3 0
-1435 64 0
-1436 -7 0
-1436 54 0
-1437 -8 0
-1437 53 0
-110 1435 1436 1437 0
-1438 -10 0
-1438 85 0
-1439 -14 0
-1439 75 0
-1440 -15 0
-1440 74 0
-110 1438 1439 1440 0
-1441 -16 0
-1441 100 0
-1442 -20 0
-1442 90 0
-1443 -21 0
-1443 89 0
-110 1441 1442 1443 0
-1444 -22 0
-1444 116 0
-1445 -29 0
-1445 104 0
-1446 -30 0
-1446 103 0
-110 1444 1445 1446 0
-1447 -23 0
-1447 119 0
-1448 -32 0
-1448 107 0
-1449 -33 0
-1449 106 0
-110 1447 1448 1449 0
-1450 -24 0
-1450 120 0
-1451 -34 0
-1451 109 0
-1452 -35 0
-1452 108 0
-110 1450 1451 1452 0
-1453 -4 0
-1453 59 0
-1454 -5 0
-1454 56 0
-1455 -6 0
-1455 55 0
-111 1453 1454 1455 0
-1456 -11 0
-1456 80 0
-1457 -12 0
-1457 77 0
-1458 -13 0
-1458 76 0
-111 1456 1457 1458 0
-1459 -17 0
-1459 95 0
-1460 -18 0
-1460 92 0
-1461 -19 0
-1461 91 0
-111 1459 1460 1461 0
-1462 -22 0
-1462 105 0
-1463 -23 0
-1463 102 0
-1464 -24 0
-1464 101 0
-111 1462 1463 1464 0
-1465 -29 0
-1465 117 0
-1466 -32 0
-1466 114 0
-1467 -34 0
-1467 112 0
-111 1465 1466 1467 0
-1468 -30 0
-1468 118 0
-1469 -33 0
-1469 115 0
-1470 -35 0
-1470 113 0
-111 1468 1469 1470 0
-1471 -4 0
-1471 60 0
-1472 -5 0
-1472 57 0
-1473 -7 0
-1473 55 0
-112 1471 1472 1473 0
-1474 -11 0
-1474 81 0
-1475 -12 0
-1475 78 0
-1476 -14 0
-1476 76 0
-112 1474 1475 1476 0
-1477 -17 0
-1477 96 0
-1478 -18 0
-1478 93 0
-1479 -20 0
-1479 91 0
-112 1477 1478 1479 0
-1480 -22 0
-1480 106 0
-1481 -23 0
-1481 103 0
-1482 -25 0
-1482 101 0
-112 1480 1481 1482 0
-1483 -28 0
-1483 117 0
-1484 -31 0
-1484 114 0
-1485 -34 0
-1485 111 0
-112 1483 1484 1485 0
-1486 -30 0
-1486 119 0
-1487 -33 0
-1487 116 0
-1488 -36 0
-1488 113 0
-112 1486 1487 1488 0
-1489 -4 0
-1489 61 0
-1490 -5 0
-1490 58 0
-1491 -8 0
-1491 55 0
-113 1489 1490 1491 0
-1492 -11 0
-1492 82 0
-1493 -12 0
-1493 79 0
-1494 -15 0
-1494 76 0
-113 1492 1493 1494 0
-1495 -17 0
-1495 97 0
-1496 -18 0
-1496 94 0
-1497 -21 0
-1497 91 0
-113 1495 1496 1497 0
-1498 -22 0
-1498 107 0
-1499 -23 0
-1499 104 0
-1500 -26 0
-1500 101 0
-113 1498 1499 1500 0
-1501 -28 0
-1501 118 0
-1502 -31 0
-1502 115 0
-1503 -35 0
-1503 111 0
-113 1501 1502 1503 0
-1504 -29 0
-1504 119 0
-1505 -32 0
-1505 116 0
-1506 -36 0
-1506 112 0
-113 1504 1505 1506 0
-1507 -4 0
-1507 62 0
-1508 -6 0
-1508 57 0
-1509 -7 0
-1509 56 0
-114 1507 1508 1509 0
-1510 -11 0
-1510 83 0
-1511 -13 0
-1511 78 0
-1512 -14 0
-1512 77 0
-114 1510 1511 1512 0
-1513 -17 0
-1513 98 0
-1514 -19 0
-1514 93 0
-1515 -20 0
-1515 92 0
-114 1513 1514 1515 0
-1516 -22 0
-1516 108 0
-1517 -24 0
-1517 103 0
-1518 -25 0
-1518 102 0
-114 1516 1517 1518 0
-1519 -27 0
-1519 117 0
-1520 -31 0
-1520 112 0
-1521 -32 0
-1521 111 0
-114 1519 1520 1521 0
-1522 -30 0
-1522 120 0
-1523 -35 0
-1523 116 0
-1524 -36 0
-1524 115 0
-114 1522 1523 1524 0
-1525 -4 0
-1525 63 0
-1526 -6 0
-1526 58 0
-1527 -8 0
-1527 56 0
-115 1525 1526 1527 0
-1528 -11 0
-1528 84 0
-1529 -13 0
-1529 79 0
-1530 -15 0
-1530 77 0
-115 1528 1529 1530 0
-1531 -17 0
-1531 99 0
-1532 -19 0
-1532 94 0
-1533 -21 0
-1533 92 0
-115 1531 1532 1533 0
-1534 -22 0
-1534 109 0
-1535 -24 0
-1535 104 0
-1536 -26 0
-1536 102 0
-115 1534 1535 1536 0
-1537 -27 0
-1537 118 0
-1538 -31 0
-1538 113 0
-1539 -33 0
-1539 111 0
-115 1537 1538 1539 0
-1540 -29 0
-1540 120 0
-1541 -34 0
-1541 116 0
-1542 -36 0
-1542 114 0
-115 1540 1541 1542 0
-1543 -4 0
-1543 64 0
-1544 -7 0
-1544 58 0
-1545 -8 0
-1545 57 0
-116 1543 1544 1545 0
-1546 -11 0
-1546 85 0
-1547 -14 0
-1547 79 0
-1548 -15 0
-1548 78 0
-116 1546 1547 1548 0
-1549 -17 0
-1549 100 0
-1550 -20 0
-1550 94 0
-1551 -21 0
-1551 93 0
-116 1549 1550 1551 0
-1552 -22 0
-1552 110 0
-1553 -25 0
-1553 104 0
-1554 -26 0
-1554 103 0
-116 1552 1553 1554 0
-1555 -27 0
-1555 119 0
-1556 -32 0
-1556 113 0
-1557 -33 0
-1557 112 0
-116 1555 1556 1557 0
-1558 -28 0
-1558 120 0
-1559 -34 0
-1559 115 0
-1560 -35 0
-1560 114 0
-116 1558 1559 1560 0
-1561 -5 0
-1561 62 0
-1562 -6 0
-1562 60 0
-1563 -7 0
-1563 59 0
-117 1561 1562 1563 0
-1564 -12 0
-1564 83 0
-1565 -13 0
-1565 81 0
-1566 -14 0
-1566 80 0
-117 1564 1565 1566 0
-1567 -18 0
-1567 98 0
-1568 -19 0
-1568 96 0
-1569 -20 0
-1569 95 0
-117 1567 1568 1569 0
-1570 -23 0
-1570 108 0
-1571 -24 0
-1571 106 0
-1572 -25 0
-1572 105 0
-117 1570 1571 1572 0
-1573 -27 0
-1573 114 0
-1574 -28 0
-1574 112 0
-1575 -29 0
-1575 111 0
-117 1573 1574 1575 0
-1576 -33 0
-1576 120 0
-1577 -35 0
-1577 119 0
-1578 -36 0
-1578 118 0
-117 1576 1577 1578 0
-1579 -5 0
-1579 63 0
-1580 -6 0
-1580 61 0
-1581 -8 0
-1581 59 0
-118 1579 1580 1581 0
-1582 -12 0
-1582 84 0
-1583 -13 0
-1583 82 0
-1584 -15 0
-1584 80 0
-118 1582 1583 1584 0
-1585 -18 0
-1585 99 0
-1586 -19 0
-1586 97 0
-1587 -21 0
-1587 95 0
-118 1585 1586 1587 0
-1588 -23 0
-1588 109 0
-1589 -24 0
-1589 107 0
-1590 -26 0
-1590 105 0
-118 1588 1589 1590 0
-1591 -27 0
-1591 115 0
-1592 -28 0
-1592 113 0
-1593 -30 0
-1593 111 0
-118 1591 1592 1593 0
-1594 -32 0
-1594 120 0
-1595 -34 0
-1595 119 0
-1596 -36 0
-1596 117 0
-118 1594 1595 1596 0
-1597 -5 0
-1597 64 0
-1598 -7 0
-1598 61 0
-1599 -8 0
-1599 60 0
-119 1597 1598 1599 0
-1600 -12 0
-1600 85 0
-1601 -14 0
-1601 82 0
-1602 -15 0
-1602 81 0
-119 1600 1601 1602 0
-1603 -18 0
-1603 100 0
-1604 -20 0
-1604 97 0
-1605 -21 0
-1605 96 0
-119 1603 1604 1605 0
-1606 -23 0
-1606 110 0
-1607 -25 0
-1607 107 0
-1608 -26 0
-1608 106 0
-119 1606 1607 1608 0
-1609 -27 0
-1609 116 0
-1610 -29 0
-1610 113 0
-1611 -30 0
-1611 112 0
-119 1609 1610 1611 0
-1612 -31 0
-1612 120 0
-1613 -34 0
-1613 118 0
-1614 -35 0
-1614 117 0
-119 1612 1613 1614 0
-1615 -6 0
-1615 64 0
-1616 -7 0
-1616 63 0
-1617 -8 0
-1617 62 0
-120 1615 1616 1617 0
-1618 -13 0
-1618 85 0
-1619 -14 0
-1619 84 0
-1620 -15 0
-1620 83 0
-120 1618 1619 1620 0
-1621 -19 0
-1621 100 0
-1622 -20 0
-1622 99 0
-1623 -21 0
-1623 98 0
-120 1621 1622 1623 0
-1624 -24 0
-1624 110 0
-1625 -25 0
-1625 109 0
-1626 -26 0
-1626 108 0
-120 1624 1625 1626 0
-1627 -28 0
-1627 116 0
-1628 -29 0
-1628 115 0
-1629 -30 0
-1629 114 0
-120 1627 1628 1629 0
-1630 -31 0
-1630 119 0
-1631 -32 0
-1631 118 0
-1632 -33 0
-1632 117 0
-120 1630 1631 1632 0
1 0
-2 0
-3 0
4 0
9 0
-10 0
-11 0
16 0
-17 0
22 0
5 0
12 0
40 0
-82 0
-61 0
13 0
19 0
68 0
-99 0
-84 0
19 0
24 0
88 0
-109 0
-99 0
23 0
27 0
101 0
-113 0
-107 0
29 0
7 0
57 0
-64 0
-116 0
