p cnf 174 699
-1 -29 0
-1 57 0
-29 57 0
-57 1 29 0
-2 -30 0
-2 58 0
-30 58 0
-58 2 30 0
-3 -31 0
-3 59 0
-31 59 0
-59 3 31 0
-4 -32 0
-4 60 0
-32 60 0
-60 4 32 0
-5 -33 0
-5 61 0
-33 61 0
-61 5 33 0
-6 -34 0
-6 62 0
-34 62 0
-62 6 34 0
-7 -35 0
-7 63 0
-35 63 0
-63 7 35 0
-8 -36 0
-8 64 0
-36 64 0
-64 8 36 0
-9 -37 0
-9 65 0
-37 65 0
-65 9 37 0
-10 -38 0
-10 66 0
-38 66 0
-66 10 38 0
-11 -39 0
-11 67 0
-39 67 0
-67 11 39 0
-12 -40 0
-12 68 0
-40 68 0
-68 12 40 0
-13 -41 0
-13 69 0
-41 69 0
-69 13 41 0
-14 -42 0
-14 70 0
-42 70 0
-70 14 42 0
-15 -43 0
-15 71 0
-43 71 0
-71 15 43 0
-16 -44 0
-16 72 0
-44 72 0
-72 16 44 0
-17 -45 0
-17 73 0
-45 73 0
-73 17 45 0
-18 -46 0
-18 74 0
-46 74 0
-74 18 46 0
-19 -47 0
-19 75 0
-47 75 0
-75 19 47 0
-20 -48 0
-20 76 0
-48 76 0
-76 20 48 0
-21 -49 0
-21 77 0
-49 77 0
-77 21 49 0
-22 -50 0
-22 78 0
-50 78 0
-78 22 50 0
-23 -51 0
-23 79 0
-51 79 0
-79 23 51 0
-24 -52 0
-24 80 0
-52 80 0
-80 24 52 0
-25 -53 0
-25 81 0
-53 81 0
-81 25 53 0
-26 -54 0
-26 82 0
-54 82 0
-82 26 54 0
-27 -55 0
-27 83 0
-55 83 0
-83 27 55 0
-28 -56 0
-28 84 0
-56 84 0
-84 28 56 0
-64 85 0
-71 85 0
-78 85 0
-85 64 71 78 0
-58 86 0
-59 86 0
-60 86 0
-61 86 0
-62 86 0
-63 86 0
-86 58 59 60 61 62 63 0
-65 87 0
-72 87 0
-79 87 0
-87 65 72 79 0
-59 88 0
-60 88 0
-61 88 0
-62 88 0
-63 88 0
-88 59 60 61 62 63 0
-57 89 0
-89 57 0
-30 -87 -88 -89 0
-66 90 0
-73 90 0
-80 90 0
-90 66 73 80 0
-60 91 0
-61 91 0
-62 91 0
-63 91 0
-91 60 61 62 63 0
-57 92 0
-58 92 0
-92 57 58 0
-31 -90 -91 -92 0
-67 93 0
-74 93 0
-81 93 0
-93 67 74 81 0
-61 94 0
-62 94 0
-63 94 0
-94 61 62 63 0
-57 95 0
-58 95 0
-59 95 0
-95 57 58 59 0
-32 -93 -94 -95 0
-68 96 0
-75 96 0
-82 96 0
-96 68 75 82 0
-62 97 0
-63 97 0
-97 62 63 0
-57 98 0
-58 98 0
-59 98 0
-60 98 0
-98 57 58 59 60 0
-33 -96 -97 -98 0
-69 99 0
-76 99 0
-83 99 0
-99 69 76 83 0
-63 100 0
-100 63 0
-57 101 0
-58 101 0
-59 101 0
-60 101 0
-61 101 0
-101 57 58 59 60 61 0
-34 -99 -100 -101 0
-70 102 0
-77 102 0
-84 102 0
-102 70 77 84 0
-57 103 0
-58 103 0
-59 103 0
-60 103 0
-61 103 0
-62 103 0
-103 57 58 59 60 61 62 0
-71 104 0
-78 104 0
-104 71 78 0
-57 105 0
-105 57 0
-65 106 0
-66 106 0
-67 106 0
-68 106 0
-69 106 0
-70 106 0
-106 65 66 67 68 69 70 0
-36 -104 -105 -106 0
-72 107 0
-79 107 0
-107 72 79 0
-58 108 0
-108 58 0
-66 109 0
-67 109 0
-68 109 0
-69 109 0
-70 109 0
-109 66 67 68 69 70 0
-64 110 0
-110 64 0
-37 -107 -108 -109 0
-37 -107 -108 -110 0
-37 -107 -109 -110 0
-37 -108 -109 -110 0
-73 111 0
-80 111 0
-111 73 80 0
-59 112 0
-112 59 0
-67 113 0
-68 113 0
-69 113 0
-70 113 0
-113 67 68 69 70 0
-64 114 0
-65 114 0
-114 64 65 0
-38 -111 -112 -113 0
-38 -111 -112 -114 0
-38 -111 -113 -114 0
-38 -112 -113 -114 0
-74 115 0
-81 115 0
-115 74 81 0
-60 116 0
-116 60 0
-68 117 0
-69 117 0
-70 117 0
-117 68 69 70 0
-64 118 0
-65 118 0
-66 118 0
-118 64 65 66 0
-39 -115 -116 -117 0
-39 -115 -116 -118 0
-39 -115 -117 -118 0
-39 -116 -117 -118 0
-75 119 0
-82 119 0
-119 75 82 0
-61 120 0
-120 61 0
-69 121 0
-70 121 0
-121 69 70 0
-64 122 0
-65 122 0
-66 122 0
-67 122 0
-122 64 65 66 67 0
-40 -119 -120 -121 0
-40 -119 -120 -122 0
-40 -119 -121 -122 0
-40 -120 -121 -122 0
-76 123 0
-83 123 0
-123 76 83 0
-62 124 0
-124 62 0
-70 125 0
-125 70 0
-64 126 0
-65 126 0
-66 126 0
-67 126 0
-68 126 0
-126 64 65 66 67 68 0
-41 -123 -124 -125 0
-41 -123 -124 -126 0
-41 -123 -125 -126 0
-41 -124 -125 -126 0
-77 127 0
-84 127 0
-127 77 84 0
-63 128 0
-128 63 0
-64 129 0
-65 129 0
-66 129 0
-67 129 0
-68 129 0
-69 129 0
-129 64 65 66 67 68 69 0
-42 -127 -128 -129 0
-78 130 0
-130 78 0
-57 131 0
-64 131 0
-131 57 64 0
-72 132 0
-73 132 0
-74 132 0
-75 132 0
-76 132 0
-77 132 0
-132 72 73 74 75 76 77 0
-43 -130 -131 -132 0
-79 133 0
-133 79 0
-58 134 0
-65 134 0
-134 58 65 0
-73 135 0
-74 135 0
-75 135 0
-76 135 0
-77 135 0
-135 73 74 75 76 77 0
-71 136 0
-136 71 0
-44 -133 -134 -135 0
-44 -133 -134 -136 0
-44 -133 -135 -136 0
-44 -134 -135 -136 0
-80 137 0
-137 80 0
-59 138 0
-66 138 0
-138 59 66 0
-74 139 0
-75 139 0
-76 139 0
-77 139 0
-139 74 75 76 77 0
-71 140 0
-72 140 0
-140 71 72 0
-45 -137 -138 -139 0
-45 -137 -138 -140 0
-45 -137 -139 -140 0
-45 -138 -139 -140 0
-81 141 0
-141 81 0
-60 142 0
-67 142 0
-142 60 67 0
-75 143 0
-76 143 0
-77 143 0
-143 75 76 77 0
-71 144 0
-72 144 0
-73 144 0
-144 71 72 73 0
-46 -141 -142 -143 0
-46 -141 -142 -144 0
-46 -141 -143 -144 0
-46 -142 -143 -144 0
-82 145 0
-145 82 0
-61 146 0
-68 146 0
-146 61 68 0
-76 147 0
-77 147 0
-147 76 77 0
-71 148 0
-72 148 0
-73 148 0
-74 148 0
-148 71 72 73 74 0
-47 -145 -146 -147 0
-47 -145 -146 -148 0
-47 -145 -147 -148 0
-47 -146 -147 -148 0
-83 149 0
-149 83 0
-62 150 0
-69 150 0
-150 62 69 0
-77 151 0
-151 77 0
-71 152 0
-72 152 0
-73 152 0
-74 152 0
-75 152 0
-152 71 72 73 74 75 0
-48 -149 -150 -151 0
-48 -149 -150 -152 0
-48 -149 -151 -152 0
-48 -150 -151 -152 0
-84 153 0
-153 84 0
-63 154 0
-70 154 0
-154 63 70 0
-71 155 0
-72 155 0
-73 155 0
-74 155 0
-75 155 0
-76 155 0
-155 71 72 73 74 75 76 0
-49 -153 -154 -155 0
-57 156 0
-64 156 0
-71 156 0
-156 57 64 71 0
-79 157 0
-80 157 0
-81 157 0
-82 157 0
-83 157 0
-84 157 0
-157 79 80 81 82 83 84 0
-58 158 0
-65 158 0
-72 158 0
-158 58 65 72 0
-80 159 0
-81 159 0
-82 159 0
-83 159 0
-84 159 0
-159 80 81 82 83 84 0
-78 160 0
-160 78 0
-51 -158 -159 -160 0
-59 161 0
-66 161 0
-73 161 0
-161 59 66 73 0
-81 162 0
-82 162 0
-83 162 0
-84 162 0
-162 81 82 83 84 0
-78 163 0
-79 163 0
-163 78 79 0
-52 -161 -162 -163 0
-60 164 0
-67 164 0
-74 164 0
-164 60 67 74 0
-82 165 0
-83 165 0
-84 165 0
-165 82 83 84 0
-78 166 0
-79 166 0
-80 166 0
-166 78 79 80 0
-53 -164 -165 -166 0
-61 167 0
-68 167 0
-75 167 0
-167 61 68 75 0
-83 168 0
-84 168 0
-168 83 84 0
-78 169 0
-79 169 0
-80 169 0
-81 169 0
-169 78 79 80 81 0
-54 -167 -168 -169 0
-62 170 0
-69 170 0
-76 170 0
-170 62 69 76 0
-84 171 0
-171 84 0
-78 172 0
-79 172 0
-80 172 0
-81 172 0
-82 172 0
-172 78 79 80 81 82 0
-55 -170 -171 -172 0
-63 173 0
-70 173 0
-77 173 0
-173 63 70 77 0
-78 174 0
-79 174 0
-80 174 0
-81 174 0
-82 174 0
-83 174 0
-174 78 79 80 81 82 83 0
-29 -30 0
-29 -31 2 0
-29 -32 2 3 0
-29 -33 2 3 4 0
-29 -34 2 3 4 5 0
-29 -35 2 3 4 5 6 0
-29 -36 0
-29 -43 8 0
-29 -50 8 15 0
-30 -31 0
-30 -32 3 0
-30 -33 3 4 0
-30 -34 3 4 5 0
-30 -35 3 4 5 6 0
-30 -37 0
-30 -44 9 0
-30 -51 9 16 0
-31 -32 0
-31 -33 4 0
-31 -34 4 5 0
-31 -35 4 5 6 0
-31 -38 0
-31 -45 10 0
-31 -52 10 17 0
-32 -33 0
-32 -34 5 0
-32 -35 5 6 0
-32 -39 0
-32 -46 11 0
-32 -53 11 18 0
-33 -34 0
-33 -35 6 0
-33 -40 0
-33 -47 12 0
-33 -54 12 19 0
-34 -35 0
-34 -41 0
-34 -48 13 0
-34 -55 13 20 0
-35 -42 0
-35 -49 14 0
-35 -56 14 21 0
-36 -37 0
-36 -38 9 0
-36 -39 9 10 0
-36 -40 9 10 11 0
-36 -41 9 10 11 12 0
-36 -42 9 10 11 12 13 0
-36 -43 0
-36 -50 15 0
-37 -38 0
-37 -39 10 0
-37 -40 10 11 0
-37 -41 10 11 12 0
-37 -42 10 11 12 13 0
-37 -44 0
-37 -51 16 0
-38 -39 0
-38 -40 11 0
-38 -41 11 12 0
-38 -42 11 12 13 0
-38 -45 0
-38 -52 17 0
-39 -40 0
-39 -41 12 0
-39 -42 12 13 0
-39 -46 0
-39 -53 18 0
-40 -41 0
-40 -42 13 0
-40 -47 0
-40 -54 19 0
-41 -42 0
-41 -48 0
-41 -55 20 0
-42 -49 0
-42 -56 21 0
-43 -44 0
-43 -45 16 0
-43 -46 16 17 0
-43 -47 16 17 18 0
-43 -48 16 17 18 19 0
-43 -49 16 17 18 19 20 0
-43 -50 0
-44 -45 0
-44 -46 17 0
-44 -47 17 18 0
-44 -48 17 18 19 0
-44 -49 17 18 19 20 0
-44 -51 0
-45 -46 0
-45 -47 18 0
-45 -48 18 19 0
-45 -49 18 19 20 0
-45 -52 0
-46 -47 0
-46 -48 19 0
-46 -49 19 20 0
-46 -53 0
-47 -48 0
-47 -49 20 0
-47 -54 0
-48 -49 0
-48 -55 0
-49 -56 0
-50 -51 0
-50 -52 23 0
-50 -53 23 24 0
-50 -54 23 24 25 0
-50 -55 23 24 25 26 0
-50 -56 23 24 25 26 27 0
-51 -52 0
-51 -53 24 0
-51 -54 24 25 0
-51 -55 24 25 26 0
-51 -56 24 25 26 27 0
-52 -53 0
-52 -54 25 0
-52 -55 25 26 0
-52 -56 25 26 27 0
-53 -54 0
-53 -55 26 0
-53 -56 26 27 0
-54 -55 0
-54 -56 27 0
-55 -56 0
-25 38 0
-25 40 0
-25 44 0
-25 48 0
-18 31 33 37 0
-18 31 33 41 0
-18 31 33 51 0
-18 31 33 55 0
-18 31 37 41 0
-18 31 37 51 0
-18 31 37 55 0
-18 31 41 51 0
-18 31 41 55 0
-18 31 51 55 0
-18 33 37 41 0
-18 33 37 51 0
-18 33 37 55 0
-18 33 41 51 0
-18 33 41 55 0
-18 33 51 55 0
-18 37 41 51 0
-18 37 41 55 0
-18 37 51 55 0
-18 41 51 55 0
-19 32 34 38 0
-19 32 34 42 0
-19 32 34 52 0
-19 32 34 56 0
-19 32 38 42 0
-19 32 38 52 0
-19 32 38 56 0
-19 32 42 52 0
-19 32 42 56 0
-19 32 52 56 0
-19 34 38 42 0
-19 34 38 52 0
-19 34 38 56 0
-19 34 42 52 0
-19 34 42 56 0
-19 34 52 56 0
-19 38 42 52 0
-19 38 42 56 0
-19 38 52 56 0
-19 42 52 56 0
-17 30 32 36 0
-17 30 32 40 0
-17 30 32 50 0
-17 30 32 54 0
-17 30 36 40 0
-17 30 36 50 0
-17 30 36 54 0
-17 30 40 50 0
-17 30 40 54 0
-17 30 50 54 0
-17 32 36 40 0
-17 32 36 50 0
-17 32 36 54 0
-17 32 40 50 0
-17 32 40 54 0
-17 32 50 54 0
-17 36 40 50 0
-17 36 40 54 0
-17 36 50 54 0
-17 40 50 54 0
25 0
