p cnf 4180 10616
-56 -3 -12 -20 0
-56 -4 -13 -21 0
-56 -5 -14 -22 0
-56 -6 -15 -23 0
-56 -7 -16 -24 0
-56 -8 -17 -25 0
-56 -9 -18 -26 0
-56 -10 -19 -27 0
-57 -2 -11 -20 0
-57 -4 -13 -28 0
-57 -5 -14 -29 0
-57 -6 -15 -30 0
-57 -7 -16 -31 0
-57 -8 -17 -32 0
-57 -9 -18 -33 0
-57 -10 -19 -34 0
-58 -2 -11 -21 0
-58 -3 -12 -28 0
-58 -5 -14 -35 0
-58 -6 -15 -36 0
-58 -7 -16 -37 0
-58 -8 -17 -38 0
-58 -9 -18 -39 0
-58 -10 -19 -40 0
-59 -2 -11 -22 0
-59 -3 -12 -29 0
-59 -4 -13 -35 0
-59 -6 -15 -41 0
-59 -7 -16 -42 0
-59 -8 -17 -43 0
-59 -9 -18 -44 0
-59 -10 -19 -45 0
-60 -2 -11 -23 0
-60 -3 -12 -30 0
-60 -4 -13 -36 0
-60 -5 -14 -41 0
-60 -7 -16 -46 0
-60 -8 -17 -47 0
-60 -9 -18 -48 0
-60 -10 -19 -49 0
-61 -2 -11 -24 0
-61 -3 -12 -31 0
-61 -4 -13 -37 0
-61 -5 -14 -42 0
-61 -6 -15 -46 0
-61 -8 -17 -50 0
-61 -9 -18 -51 0
-61 -10 -19 -52 0
-62 -2 -11 -25 0
-62 -3 -12 -32 0
-62 -4 -13 -38 0
-62 -5 -14 -43 0
-62 -6 -15 -47 0
-62 -7 -16 -50 0
-62 -9 -18 -53 0
-62 -10 -19 -54 0
-63 -2 -11 -26 0
-63 -3 -12 -33 0
-63 -4 -13 -39 0
-63 -5 -14 -44 0
-63 -6 -15 -48 0
-63 -7 -16 -51 0
-63 -8 -17 -53 0
-63 -10 -19 -55 0
-64 -2 -11 -27 0
-64 -3 -12 -34 0
-64 -4 -13 -40 0
-64 -5 -14 -45 0
-64 -6 -15 -49 0
-64 -7 -16 -52 0
-64 -8 -17 -54 0
-64 -9 -18 -55 0
-65 -1 -11 -12 0
-65 -4 -21 -28 0
-65 -5 -22 -29 0
-65 -6 -23 -30 0
-65 -7 -24 -31 0
-65 -8 -25 -32 0
-65 -9 -26 -33 0
-65 -10 -27 -34 0
-66 -1 -11 -13 0
-66 -3 -20 -28 0
-66 -5 -22 -35 0
-66 -6 -23 -36 0
-66 -7 -24 -37 0
-66 -8 -25 -38 0
-66 -9 -26 -39 0
-66 -10 -27 -40 0
-67 -1 -11 -14 0
-67 -3 -20 -29 0
-67 -4 -21 -35 0
-67 -6 -23 -41 0
-67 -7 -24 -42 0
-67 -8 -25 -43 0
-67 -9 -26 -44 0
-67 -10 -27 -45 0
-68 -1 -11 -15 0
-68 -3 -20 -30 0
-68 -4 -21 -36 0
-68 -5 -22 -41 0
-68 -7 -24 -46 0
-68 -8 -25 -47 0
-68 -9 -26 -48 0
-68 -10 -27 -49 0
-69 -1 -11 -16 0
-69 -3 -20 -31 0
-69 -4 -21 -37 0
-69 -5 -22 -42 0
-69 -6 -23 -46 0
-69 -8 -25 -50 0
-69 -9 -26 -51 0
-69 -10 -27 -52 0
-70 -1 -11 -17 0
-70 -3 -20 -32 0
-70 -4 -21 -38 0
-70 -5 -22 -43 0
-70 -6 -23 -47 0
-70 -7 -24 -50 0
-70 -9 -26 -53 0
-70 -10 -27 -54 0
-71 -1 -11 -18 0
-71 -3 -20 -33 0
-71 -4 -21 -39 0
-71 -5 -22 -44 0
-71 -6 -23 -48 0
-71 -7 -24 -51 0
-71 -8 -25 -53 0
-71 -10 -27 -55 0
-72 -1 -11 -19 0
-72 -3 -20 -34 0
-72 -4 -21 -40 0
-72 -5 -22 -45 0
-72 -6 -23 -49 0
-72 -7 -24 -52 0
-72 -8 -25 -54 0
-72 -9 -26 -55 0
-73 -1 -12 -13 0
-73 -2 -20 -21 0
-73 -5 -29 -35 0
-73 -6 -30 -36 0
-73 -7 -31 -37 0
-73 -8 -32 -38 0
-73 -9 -33 -39 0
-73 -10 -34 -40 0
-74 -1 -12 -14 0
-74 -2 -20 -22 0
-74 -4 -28 -35 0
-74 -6 -30 -41 0
-74 -7 -31 -42 0
-74 -8 -32 -43 0
-74 -9 -33 -44 0
-74 -10 -34 -45 0
-75 -1 -12 -15 0
-75 -2 -20 -23 0
-75 -4 -28 -36 0
-75 -5 -29 -41 0
-75 -7 -31 -46 0
-75 -8 -32 -47 0
-75 -9 -33 -48 0
-75 -10 -34 -49 0
-76 -1 -12 -16 0
-76 -2 -20 -24 0
-76 -4 -28 -37 0
-76 -5 -29 -42 0
-76 -6 -30 -46 0
-76 -8 -32 -50 0
-76 -9 -33 -51 0
-76 -10 -34 -52 0
-77 -1 -12 -17 0
-77 -2 -20 -25 0
-77 -4 -28 -38 0
-77 -5 -29 -43 0
-77 -6 -30 -47 0
-77 -7 -31 -50 0
-77 -9 -33 -53 0
-77 -10 -34 -54 0
-78 -1 -12 -18 0
-78 -2 -20 -26 0
-78 -4 -28 -39 0
-78 -5 -29 -44 0
-78 -6 -30 -48 0
-78 -7 -31 -51 0
-78 -8 -32 -53 0
-78 -10 -34 -55 0
-79 -1 -12 -19 0
-79 -2 -20 -27 0
-79 -4 -28 -40 0
-79 -5 -29 -45 0
-79 -6 -30 -49 0
-79 -7 -31 -52 0
-79 -8 -32 -54 0
-79 -9 -33 -55 0
-80 -1 -13 -14 0
-80 -2 -21 -22 0
-80 -3 -28 -29 0
-80 -6 -36 -41 0
-80 -7 -37 -42 0
-80 -8 -38 -43 0
-80 -9 -39 -44 0
-80 -10 -40 -45 0
-81 -1 -13 -15 0
-81 -2 -21 -23 0
-81 -3 -28 -30 0
-81 -5 -35 -41 0
-81 -7 -37 -46 0
-81 -8 -38 -47 0
-81 -9 -39 -48 0
-81 -10 -40 -49 0
-82 -1 -13 -16 0
-82 -2 -21 -24 0
-82 -3 -28 -31 0
-82 -5 -35 -42 0
-82 -6 -36 -46 0
-82 -8 -38 -50 0
-82 -9 -39 -51 0
-82 -10 -40 -52 0
-83 -1 -13 -17 0
-83 -2 -21 -25 0
-83 -3 -28 -32 0
-83 -5 -35 -43 0
-83 -6 -36 -47 0
-83 -7 -37 -50 0
-83 -9 -39 -53 0
-83 -10 -40 -54 0
-84 -1 -13 -18 0
-84 -2 -21 -26 0
-84 -3 -28 -33 0
-84 -5 -35 -44 0
-84 -6 -36 -48 0
-84 -7 -37 -51 0
-84 -8 -38 -53 0
-84 -10 -40 -55 0
-85 -1 -13 -19 0
-85 -2 -21 -27 0
-85 -3 -28 -34 0
-85 -5 -35 -45 0
-85 -6 -36 -49 0
-85 -7 -37 -52 0
-85 -8 -38 -54 0
-85 -9 -39 -55 0
-86 -1 -14 -15 0
-86 -2 -22 -23 0
-86 -3 -29 -30 0
-86 -4 -35 -36 0
-86 -7 -42 -46 0
-86 -8 -43 -47 0
-86 -9 -44 -48 0
-86 -10 -45 -49 0
-87 -1 -14 -16 0
-87 -2 -22 -24 0
-87 -3 -29 -31 0
-87 -4 -35 -37 0
-87 -6 -41 -46 0
-87 -8 -43 -50 0
-87 -9 -44 -51 0
-87 -10 -45 -52 0
-88 -1 -14 -17 0
-88 -2 -22 -25 0
-88 -3 -29 -32 0
-88 -4 -35 -38 0
-88 -6 -41 -47 0
-88 -7 -42 -50 0
-88 -9 -44 -53 0
-88 -10 -45 -54 0
-89 -1 -14 -18 0
-89 -2 -22 -26 0
-89 -3 -29 -33 0
-89 -4 -35 -39 0
-89 -6 -41 -48 0
-89 -7 -42 -51 0
-89 -8 -43 -53 0
-89 -10 -45 -55 0
-90 -1 -14 -19 0
-90 -2 -22 -27 0
-90 -3 -29 -34 0
-90 -4 -35 -40 0
-90 -6 -41 -49 0
-90 -7 -42 -52 0
-90 -8 -43 -54 0
-90 -9 -44 -55 0
-91 -1 -15 -16 0
-91 -2 -23 -24 0
-91 -3 -30 -31 0
-91 -4 -36 -37 0
-91 -5 -41 -42 0
-91 -8 -47 -50 0
-91 -9 -48 -51 0
-91 -10 -49 -52 0
-92 -1 -15 -17 0
-92 -2 -23 -25 0
-92 -3 -30 -32 0
-92 -4 -36 -38 0
-92 -5 -41 -43 0
-92 -7 -46 -50 0
-92 -9 -48 -53 0
-92 -10 -49 -54 0
-93 -1 -15 -18 0
-93 -2 -23 -26 0
-93 -3 -30 -33 0
-93 -4 -36 -39 0
-93 -5 -41 -44 0
-93 -7 -46 -51 0
-93 -8 -47 -53 0
-93 -10 -49 -55 0
-94 -1 -15 -19 0
-94 -2 -23 -27 0
-94 -3 -30 -34 0
-94 -4 -36 -40 0
-94 -5 -41 -45 0
-94 -7 -46 -52 0
-94 -8 -47 -54 0
-94 -9 -48 -55 0
-95 -1 -16 -17 0
-95 -2 -24 -25 0
-95 -3 -31 -32 0
-95 -4 -37 -38 0
-95 -5 -42 -43 0
-95 -6 -46 -47 0
-95 -9 -51 -53 0
-95 -10 -52 -54 0
-96 -1 -16 -18 0
-96 -2 -24 -26 0
-96 -3 -31 -33 0
-96 -4 -37 -39 0
-96 -5 -42 -44 0
-96 -6 -46 -48 0
-96 -8 -50 -53 0
-96 -10 -52 -55 0
-97 -1 -16 -19 0
-97 -2 -24 -27 0
-97 -3 -31 -34 0
-97 -4 -37 -40 0
-97 -5 -42 -45 0
-97 -6 -46 -49 0
-97 -8 -50 -54 0
-97 -9 -51 -55 0
-98 -1 -17 -18 0
-98 -2 -25 -26 0
-98 -3 -32 -33 0
-98 -4 -38 -39 0
-98 -5 -43 -44 0
-98 -6 -47 -48 0
-98 -7 -50 -51 0
-98 -10 -54 -55 0
-99 -1 -17 -19 0
-99 -2 -25 -27 0
-99 -3 -32 -34 0
-99 -4 -38 -40 0
-99 -5 -43 -45 0
-99 -6 -47 -49 0
-99 -7 -50 -52 0
-99 -9 -53 -55 0
-100 -1 -18 -19 0
-100 -2 -26 -27 0
-100 -3 -33 -34 0
-100 -4 -39 -40 0
-100 -5 -44 -45 0
-100 -6 -48 -49 0
-100 -7 -51 -52 0
-100 -8 -53 -54 0
-101 -1 -2 -3 0
-101 -13 -21 -28 0
-101 -14 -22 -29 0
-101 -15 -23 -30 0
-101 -16 -24 -31 0
-101 -17 -25 -32 0
-101 -18 -26 -33 0
-101 -19 -27 -34 0
-102 -1 -2 -4 0
-102 -12 -20 -28 0
-102 -14 -22 -35 0
-102 -15 -23 -36 0
-102 -16 -24 -37 0
-102 -17 -25 -38 0
-102 -18 -26 -39 0
-102 -19 -27 -40 0
-103 -1 -2 -5 0
-103 -12 -20 -29 0
-103 -13 -21 -35 0
-103 -15 -23 -41 0
-103 -16 -24 -42 0
-103 -17 -25 -43 0
-103 -18 -26 -44 0
-103 -19 -27 -45 0
-104 -1 -2 -6 0
-104 -12 -20 -30 0
-104 -13 -21 -36 0
-104 -14 -22 -41 0
-104 -16 -24 -46 0
-104 -17 -25 -47 0
-104 -18 -26 -48 0
-104 -19 -27 -49 0
-105 -1 -2 -7 0
-105 -12 -20 -31 0
-105 -13 -21 -37 0
-105 -14 -22 -42 0
-105 -15 -23 -46 0
-105 -17 -25 -50 0
-105 -18 -26 -51 0
-105 -19 -27 -52 0
-106 -1 -2 -8 0
-106 -12 -20 -32 0
-106 -13 -21 -38 0
-106 -14 -22 -43 0
-106 -15 -23 -47 0
-106 -16 -24 -50 0
-106 -18 -26 -53 0
-106 -19 -27 -54 0
-107 -1 -2 -9 0
-107 -12 -20 -33 0
-107 -13 -21 -39 0
-107 -14 -22 -44 0
-107 -15 -23 -48 0
-107 -16 -24 -51 0
-107 -17 -25 -53 0
-107 -19 -27 -55 0
-108 -1 -2 -10 0
-108 -12 -20 -34 0
-108 -13 -21 -40 0
-108 -14 -22 -45 0
-108 -15 -23 -49 0
-108 -16 -24 -52 0
-108 -17 -25 -54 0
-108 -18 -26 -55 0
-109 -1 -3 -4 0
-109 -11 -20 -21 0
-109 -14 -29 -35 0
-109 -15 -30 -36 0
-109 -16 -31 -37 0
-109 -17 -32 -38 0
-109 -18 -33 -39 0
-109 -19 -34 -40 0
-110 -1 -3 -5 0
-110 -11 -20 -22 0
-110 -13 -28 -35 0
-110 -15 -30 -41 0
-110 -16 -31 -42 0
-110 -17 -32 -43 0
-110 -18 -33 -44 0
-110 -19 -34 -45 0
-111 -1 -3 -6 0
-111 -11 -20 -23 0
-111 -13 -28 -36 0
-111 -14 -29 -41 0
-111 -16 -31 -46 0
-111 -17 -32 -47 0
-111 -18 -33 -48 0
-111 -19 -34 -49 0
-112 -1 -3 -7 0
-112 -11 -20 -24 0
-112 -13 -28 -37 0
-112 -14 -29 -42 0
-112 -15 -30 -46 0
-112 -17 -32 -50 0
-112 -18 -33 -51 0
-112 -19 -34 -52 0
-113 -1 -3 -8 0
-113 -11 -20 -25 0
-113 -13 -28 -38 0
-113 -14 -29 -43 0
-113 -15 -30 -47 0
-113 -16 -31 -50 0
-113 -18 -33 -53 0
-113 -19 -34 -54 0
-114 -1 -3 -9 0
-114 -11 -20 -26 0
-114 -13 -28 -39 0
-114 -14 -29 -44 0
-114 -15 -30 -48 0
-114 -16 -31 -51 0
-114 -17 -32 -53 0
-114 -19 -34 -55 0
-115 -1 -3 -10 0
-115 -11 -20 -27 0
-115 -13 -28 -40 0
-115 -14 -29 -45 0
-115 -15 -30 -49 0
-115 -16 -31 -52 0
-115 -17 -32 -54 0
-115 -18 -33 -55 0
-116 -1 -4 -5 0
-116 -11 -21 -22 0
-116 -12 -28 -29 0
-116 -15 -36 -41 0
-116 -16 -37 -42 0
-116 -17 -38 -43 0
-116 -18 -39 -44 0
-116 -19 -40 -45 0
-117 -1 -4 -6 0
-117 -11 -21 -23 0
-117 -12 -28 -30 0
-117 -14 -35 -41 0
-117 -16 -37 -46 0
-117 -17 -38 -47 0
-117 -18 -39 -48 0
-117 -19 -40 -49 0
-118 -1 -4 -7 0
-118 -11 -21 -24 0
-118 -12 -28 -31 0
-118 -14 -35 -42 0
-118 -15 -36 -46 0
-118 -17 -38 -50 0
-118 -18 -39 -51 0
-118 -19 -40 -52 0
-119 -1 -4 -8 0
-119 -11 -21 -25 0
-119 -12 -28 -32 0
-119 -14 -35 -43 0
-119 -15 -36 -47 0
-119 -16 -37 -50 0
-119 -18 -39 -53 0
-119 -19 -40 -54 0
-120 -1 -4 -9 0
-120 -11 -21 -26 0
-120 -12 -28 -33 0
-120 -14 -35 -44 0
-120 -15 -36 -48 0
-120 -16 -37 -51 0
-120 -17 -38 -53 0
-120 -19 -40 -55 0
-121 -1 -4 -10 0
-121 -11 -21 -27 0
-121 -12 -28 -34 0
-121 -14 -35 -45 0
-121 -15 -36 -49 0
-121 -16 -37 -52 0
-121 -17 -38 -54 0
-121 -18 -39 -55 0
-122 -1 -5 -6 0
-122 -11 -22 -23 0
-122 -12 -29 -30 0
-122 -13 -35 -36 0
-122 -16 -42 -46 0
-122 -17 -43 -47 0
-122 -18 -44 -48 0
-122 -19 -45 -49 0
-123 -1 -5 -7 0
-123 -11 -22 -24 0
-123 -12 -29 -31 0
-123 -13 -35 -37 0
-123 -15 -41 -46 0
-123 -17 -43 -50 0
-123 -18 -44 -51 0
-123 -19 -45 -52 0
-124 -1 -5 -8 0
-124 -11 -22 -25 0
-124 -12 -29 -32 0
-124 -13 -35 -38 0
-124 -15 -41 -47 0
-124 -16 -42 -50 0
-124 -18 -44 -53 0
-124 -19 -45 -54 0
-125 -1 -5 -9 0
-125 -11 -22 -26 0
-125 -12 -29 -33 0
-125 -13 -35 -39 0
-125 -15 -41 -48 0
-125 -16 -42 -51 0
-125 -17 -43 -53 0
-125 -19 -45 -55 0
-126 -1 -5 -10 0
-126 -11 -22 -27 0
-126 -12 -29 -34 0
-126 -13 -35 -40 0
-126 -15 -41 -49 0
-126 -16 -42 -52 0
-126 -17 -43 -54 0
-126 -18 -44 -55 0
-127 -1 -6 -7 0
-127 -11 -23 -24 0
-127 -12 -30 -31 0
-127 -13 -36 -37 0
-127 -14 -41 -42 0
-127 -17 -47 -50 0
-127 -18 -48 -51 0
-127 -19 -49 -52 0
-128 -1 -6 -8 0
-128 -11 -23 -25 0
-128 -12 -30 -32 0
-128 -13 -36 -38 0
-128 -14 -41 -43 0
-128 -16 -46 -50 0
-128 -18 -48 -53 0
-128 -19 -49 -54 0
-129 -1 -6 -9 0
-129 -11 -23 -26 0
-129 -12 -30 -33 0
-129 -13 -36 -39 0
-129 -14 -41 -44 0
-129 -16 -46 -51 0
-129 -17 -47 -53 0
-129 -19 -49 -55 0
-130 -1 -6 -10 0
-130 -11 -23 -27 0
-130 -12 -30 -34 0
-130 -13 -36 -40 0
-130 -14 -41 -45 0
-130 -16 -46 -52 0
-130 -17 -47 -54 0
-130 -18 -48 -55 0
-131 -1 -7 -8 0
-131 -11 -24 -25 0
-131 -12 -31 -32 0
-131 -13 -37 -38 0
-131 -14 -42 -43 0
-131 -15 -46 -47 0
-131 -18 -51 -53 0
-131 -19 -52 -54 0
-132 -1 -7 -9 0
-132 -11 -24 -26 0
-132 -12 -31 -33 0
-132 -13 -37 -39 0
-132 -14 -42 -44 0
-132 -15 -46 -48 0
-132 -17 -50 -53 0
-132 -19 -52 -55 0
-133 -1 -7 -10 0
-133 -11 -24 -27 0
-133 -12 -31 -34 0
-133 -13 -37 -40 0
-133 -14 -42 -45 0
-133 -15 -46 -49 0
-133 -17 -50 -54 0
-133 -18 -51 -55 0
-134 -1 -8 -9 0
-134 -11 -25 -26 0
-134 -12 -32 -33 0
-134 -13 -38 -39 0
-134 -14 -43 -44 0
-134 -15 -47 -48 0
-134 -16 -50 -51 0
-134 -19 -54 -55 0
-135 -1 -8 -10 0
-135 -11 -25 -27 0
-135 -12 -32 -34 0
-135 -13 -38 -40 0
-135 -14 -43 -45 0
-135 -15 -47 -49 0
-135 -16 -50 -52 0
-135 -18 -53 -55 0
-136 -1 -9 -10 0
-136 -11 -26 -27 0
-136 -12 -33 -34 0
-136 -13 -39 -40 0
-136 -14 -44 -45 0
-136 -15 -48 -49 0
-136 -16 -51 -52 0
-136 -17 -53 -54 0
-137 -2 -3 -4 0
-137 -11 -12 -13 0
-137 -22 -29 -35 0
-137 -23 -30 -36 0
-137 -24 -31 -37 0
-137 -25 -32 -38 0
-137 -26 -33 -39 0
-137 -27 -34 -40 0
-138 -2 -3 -5 0
-138 -11 -12 -14 0
-138 -21 -28 -35 0
-138 -23 -30 -41 0
-138 -24 -31 -42 0
-138 -25 -32 -43 0
-138 -26 -33 -44 0
-138 -27 -34 -45 0
-139 -2 -3 -6 0
-139 -11 -12 -15 0
-139 -21 -28 -36 0
-139 -22 -29 -41 0
-139 -24 -31 -46 0
-139 -25 -32 -47 0
-139 -26 -33 -48 0
-139 -27 -34 -49 0
-140 -2 -3 -7 0
-140 -11 -12 -16 0
-140 -21 -28 -37 0
-140 -22 -29 -42 0
-140 -23 -30 -46 0
-140 -25 -32 -50 0
-140 -26 -33 -51 0
-140 -27 -34 -52 0
-141 -2 -3 -8 0
-141 -11 -12 -17 0
-141 -21 -28 -38 0
-141 -22 -29 -43 0
-141 -23 -30 -47 0
-141 -24 -31 -50 0
-141 -26 -33 -53 0
-141 -27 -34 -54 0
-142 -2 -3 -9 0
-142 -11 -12 -18 0
-142 -21 -28 -39 0
-142 -22 -29 -44 0
-142 -23 -30 -48 0
-142 -24 -31 -51 0
-142 -25 -32 -53 0
-142 -27 -34 -55 0
-143 -2 -3 -10 0
-143 -11 -12 -19 0
-143 -21 -28 -40 0
-143 -22 -29 -45 0
-143 -23 -30 -49 0
-143 -24 -31 -52 0
-143 -25 -32 -54 0
-143 -26 -33 -55 0
-144 -2 -4 -5 0
-144 -11 -13 -14 0
-144 -20 -28 -29 0
-144 -23 -36 -41 0
-144 -24 -37 -42 0
-144 -25 -38 -43 0
-144 -26 -39 -44 0
-144 -27 -40 -45 0
-145 -2 -4 -6 0
-145 -11 -13 -15 0
-145 -20 -28 -30 0
-145 -22 -35 -41 0
-145 -24 -37 -46 0
-145 -25 -38 -47 0
-145 -26 -39 -48 0
-145 -27 -40 -49 0
-146 -2 -4 -7 0
-146 -11 -13 -16 0
-146 -20 -28 -31 0
-146 -22 -35 -42 0
-146 -23 -36 -46 0
-146 -25 -38 -50 0
-146 -26 -39 -51 0
-146 -27 -40 -52 0
-147 -2 -4 -8 0
-147 -11 -13 -17 0
-147 -20 -28 -32 0
-147 -22 -35 -43 0
-147 -23 -36 -47 0
-147 -24 -37 -50 0
-147 -26 -39 -53 0
-147 -27 -40 -54 0
-148 -2 -4 -9 0
-148 -11 -13 -18 0
-148 -20 -28 -33 0
-148 -22 -35 -44 0
-148 -23 -36 -48 0
-148 -24 -37 -51 0
-148 -25 -38 -53 0
-148 -27 -40 -55 0
-149 -2 -4 -10 0
-149 -11 -13 -19 0
-149 -20 -28 -34 0
-149 -22 -35 -45 0
-149 -23 -36 -49 0
-149 -24 -37 -52 0
-149 -25 -38 -54 0
-149 -26 -39 -55 0
-150 -2 -5 -6 0
-150 -11 -14 -15 0
-150 -20 -29 -30 0
-150 -21 -35 -36 0
-150 -24 -42 -46 0
-150 -25 -43 -47 0
-150 -26 -44 -48 0
-150 -27 -45 -49 0
-151 -2 -5 -7 0
-151 -11 -14 -16 0
-151 -20 -29 -31 0
-151 -21 -35 -37 0
-151 -23 -41 -46 0
-151 -25 -43 -50 0
-151 -26 -44 -51 0
-151 -27 -45 -52 0
-152 -2 -5 -8 0
-152 -11 -14 -17 0
-152 -20 -29 -32 0
-152 -21 -35 -38 0
-152 -23 -41 -47 0
-152 -24 -42 -50 0
-152 -26 -44 -53 0
-152 -27 -45 -54 0
-153 -2 -5 -9 0
-153 -11 -14 -18 0
-153 -20 -29 -33 0
-153 -21 -35 -39 0
-153 -23 -41 -48 0
-153 -24 -42 -51 0
-153 -25 -43 -53 0
-153 -27 -45 -55 0
-154 -2 -5 -10 0
-154 -11 -14 -19 0
-154 -20 -29 -34 0
-154 -21 -35 -40 0
-154 -23 -41 -49 0
-154 -24 -42 -52 0
-154 -25 -43 -54 0
-154 -26 -44 -55 0
-155 -2 -6 -7 0
-155 -11 -15 -16 0
-155 -20 -30 -31 0
-155 -21 -36 -37 0
-155 -22 -41 -42 0
-155 -25 -47 -50 0
-155 -26 -48 -51 0
-155 -27 -49 -52 0
-156 -2 -6 -8 0
-156 -11 -15 -17 0
-156 -20 -30 -32 0
-156 -21 -36 -38 0
-156 -22 -41 -43 0
-156 -24 -46 -50 0
-156 -26 -48 -53 0
-156 -27 -49 -54 0
-157 -2 -6 -9 0
-157 -11 -15 -18 0
-157 -20 -30 -33 0
-157 -21 -36 -39 0
-157 -22 -41 -44 0
-157 -24 -46 -51 0
-157 -25 -47 -53 0
-157 -27 -49 -55 0
-158 -2 -6 -10 0
-158 -11 -15 -19 0
-158 -20 -30 -34 0
-158 -21 -36 -40 0
-158 -22 -41 -45 0
-158 -24 -46 -52 0
-158 -25 -47 -54 0
-158 -26 -48 -55 0
-159 -2 -7 -8 0
-159 -11 -16 -17 0
-159 -20 -31 -32 0
-159 -21 -37 -38 0
-159 -22 -42 -43 0
-159 -23 -46 -47 0
-159 -26 -51 -53 0
-159 -27 -52 -54 0
-160 -2 -7 -9 0
-160 -11 -16 -18 0
-160 -20 -31 -33 0
-160 -21 -37 -39 0
-160 -22 -42 -44 0
-160 -23 -46 -48 0
-160 -25 -50 -53 0
-160 -27 -52 -55 0
-161 -2 -7 -10 0
-161 -11 -16 -19 0
-161 -20 -31 -34 0
-161 -21 -37 -40 0
-161 -22 -42 -45 0
-161 -23 -46 -49 0
-161 -25 -50 -54 0
-161 -26 -51 -55 0
-162 -2 -8 -9 0
-162 -11 -17 -18 0
-162 -20 -32 -33 0
-162 -21 -38 -39 0
-162 -22 -43 -44 0
-162 -23 -47 -48 0
-162 -24 -50 -51 0
-162 -27 -54 -55 0
-163 -2 -8 -10 0
-163 -11 -17 -19 0
-163 -20 -32 -34 0
-163 -21 -38 -40 0
-163 -22 -43 -45 0
-163 -23 -47 -49 0
-163 -24 -50 -52 0
-163 -26 -53 -55 0
-164 -2 -9 -10 0
-164 -11 -18 -19 0
-164 -20 -33 -34 0
-164 -21 -39 -40 0
-164 -22 -44 -45 0
-164 -23 -48 -49 0
-164 -24 -51 -52 0
-164 -25 -53 -54 0
-165 -3 -4 -5 0
-165 -12 -13 -14 0
-165 -20 -21 -22 0
-165 -30 -36 -41 0
-165 -31 -37 -42 0
-165 -32 -38 -43 0
-165 -33 -39 -44 0
-165 -34 -40 -45 0
-166 -3 -4 -6 0
-166 -12 -13 -15 0
-166 -20 -21 -23 0
-166 -29 -35 -41 0
-166 -31 -37 -46 0
-166 -32 -38 -47 0
-166 -33 -39 -48 0
-166 -34 -40 -49 0
-167 -3 -4 -7 0
-167 -12 -13 -16 0
-167 -20 -21 -24 0
-167 -29 -35 -42 0
-167 -30 -36 -46 0
-167 -32 -38 -50 0
-167 -33 -39 -51 0
-167 -34 -40 -52 0
-168 -3 -4 -8 0
-168 -12 -13 -17 0
-168 -20 -21 -25 0
-168 -29 -35 -43 0
-168 -30 -36 -47 0
-168 -31 -37 -50 0
-168 -33 -39 -53 0
-168 -34 -40 -54 0
-169 -3 -4 -9 0
-169 -12 -13 -18 0
-169 -20 -21 -26 0
-169 -29 -35 -44 0
-169 -30 -36 -48 0
-169 -31 -37 -51 0
-169 -32 -38 -53 0
-169 -34 -40 -55 0
-170 -3 -4 -10 0
-170 -12 -13 -19 0
-170 -20 -21 -27 0
-170 -29 -35 -45 0
-170 -30 -36 -49 0
-170 -31 -37 -52 0
-170 -32 -38 -54 0
-170 -33 -39 -55 0
-171 -3 -5 -6 0
-171 -12 -14 -15 0
-171 -20 -22 -23 0
-171 -28 -35 -36 0
-171 -31 -42 -46 0
-171 -32 -43 -47 0
-171 -33 -44 -48 0
-171 -34 -45 -49 0
-172 -3 -5 -7 0
-172 -12 -14 -16 0
-172 -20 -22 -24 0
-172 -28 -35 -37 0
-172 -30 -41 -46 0
-172 -32 -43 -50 0
-172 -33 -44 -51 0
-172 -34 -45 -52 0
-173 -3 -5 -8 0
-173 -12 -14 -17 0
-173 -20 -22 -25 0
-173 -28 -35 -38 0
-173 -30 -41 -47 0
-173 -31 -42 -50 0
-173 -33 -44 -53 0
-173 -34 -45 -54 0
-174 -3 -5 -9 0
-174 -12 -14 -18 0
-174 -20 -22 -26 0
-174 -28 -35 -39 0
-174 -30 -41 -48 0
-174 -31 -42 -51 0
-174 -32 -43 -53 0
-174 -34 -45 -55 0
-175 -3 -5 -10 0
-175 -12 -14 -19 0
-175 -20 -22 -27 0
-175 -28 -35 -40 0
-175 -30 -41 -49 0
-175 -31 -42 -52 0
-175 -32 -43 -54 0
-175 -33 -44 -55 0
-176 -3 -6 -7 0
-176 -12 -15 -16 0
-176 -20 -23 -24 0
-176 -28 -36 -37 0
-176 -29 -41 -42 0
-176 -32 -47 -50 0
-176 -33 -48 -51 0
-176 -34 -49 -52 0
-177 -3 -6 -8 0
-177 -12 -15 -17 0
-177 -20 -23 -25 0
-177 -28 -36 -38 0
-177 -29 -41 -43 0
-177 -31 -46 -50 0
-177 -33 -48 -53 0
-177 -34 -49 -54 0
-178 -3 -6 -9 0
-178 -12 -15 -18 0
-178 -20 -23 -26 0
-178 -28 -36 -39 0
-178 -29 -41 -44 0
-178 -31 -46 -51 0
-178 -32 -47 -53 0
-178 -34 -49 -55 0
-179 -3 -6 -10 0
-179 -12 -15 -19 0
-179 -20 -23 -27 0
-179 -28 -36 -40 0
-179 -29 -41 -45 0
-179 -31 -46 -52 0
-179 -32 -47 -54 0
-179 -33 -48 -55 0
-180 -3 -7 -8 0
-180 -12 -16 -17 0
-180 -20 -24 -25 0
-180 -28 -37 -38 0
-180 -29 -42 -43 0
-180 -30 -46 -47 0
-180 -33 -51 -53 0
-180 -34 -52 -54 0
-181 -3 -7 -9 0
-181 -12 -16 -18 0
-181 -20 -24 -26 0
-181 -28 -37 -39 0
-181 -29 -42 -44 0
-181 -30 -46 -48 0
-181 -32 -50 -53 0
-181 -34 -52 -55 0
-182 -3 -7 -10 0
-182 -12 -16 -19 0
-182 -20 -24 -27 0
-182 -28 -37 -40 0
-182 -29 -42 -45 0
-182 -30 -46 -49 0
-182 -32 -50 -54 0
-182 -33 -51 -55 0
-183 -3 -8 -9 0
-183 -12 -17 -18 0
-183 -20 -25 -26 0
-183 -28 -38 -39 0
-183 -29 -43 -44 0
-183 -30 -47 -48 0
-183 -31 -50 -51 0
-183 -34 -54 -55 0
-184 -3 -8 -10 0
-184 -12 -17 -19 0
-184 -20 -25 -27 0
-184 -28 -38 -40 0
-184 -29 -43 -45 0
-184 -30 -47 -49 0
-184 -31 -50 -52 0
-184 -33 -53 -55 0
-185 -3 -9 -10 0
-185 -12 -18 -19 0
-185 -20 -26 -27 0
-185 -28 -39 -40 0
-185 -29 -44 -45 0
-185 -30 -48 -49 0
-185 -31 -51 -52 0
-185 -32 -53 -54 0
-186 -4 -5 -6 0
-186 -13 -14 -15 0
-186 -21 -22 -23 0
-186 -28 -29 -30 0
-186 -37 -42 -46 0
-186 -38 -43 -47 0
-186 -39 -44 -48 0
-186 -40 -45 -49 0
-187 -4 -5 -7 0
-187 -13 -14 -16 0
-187 -21 -22 -24 0
-187 -28 -29 -31 0
-187 -36 -41 -46 0
-187 -38 -43 -50 0
-187 -39 -44 -51 0
-187 -40 -45 -52 0
-188 -4 -5 -8 0
-188 -13 -14 -17 0
-188 -21 -22 -25 0
-188 -28 -29 -32 0
-188 -36 -41 -47 0
-188 -37 -42 -50 0
-188 -39 -44 -53 0
-188 -40 -45 -54 0
-189 -4 -5 -9 0
-189 -13 -14 -18 0
-189 -21 -22 -26 0
-189 -28 -29 -33 0
-189 -36 -41 -48 0
-189 -37 -42 -51 0
-189 -38 -43 -53 0
-189 -40 -45 -55 0
-190 -4 -5 -10 0
-190 -13 -14 -19 0
-190 -21 -22 -27 0
-190 -28 -29 -34 0
-190 -36 -41 -49 0
-190 -37 -42 -52 0
-190 -38 -43 -54 0
-190 -39 -44 -55 0
-191 -4 -6 -7 0
-191 -13 -15 -16 0
-191 -21 -23 -24 0
-191 -28 -30 -31 0
-191 -35 -41 -42 0
-191 -38 -47 -50 0
-191 -39 -48 -51 0
-191 -40 -49 -52 0
-192 -4 -6 -8 0
-192 -13 -15 -17 0
-192 -21 -23 -25 0
-192 -28 -30 -32 0
-192 -35 -41 -43 0
-192 -37 -46 -50 0
-192 -39 -48 -53 0
-192 -40 -49 -54 0
-193 -4 -6 -9 0
-193 -13 -15 -18 0
-193 -21 -23 -26 0
-193 -28 -30 -33 0
-193 -35 -41 -44 0
-193 -37 -46 -51 0
-193 -38 -47 -53 0
-193 -40 -49 -55 0
-194 -4 -6 -10 0
-194 -13 -15 -19 0
-194 -21 -23 -27 0
-194 -28 -30 -34 0
-194 -35 -41 -45 0
-194 -37 -46 -52 0
-194 -38 -47 -54 0
-194 -39 -48 -55 0
-195 -4 -7 -8 0
-195 -13 -16 -17 0
-195 -21 -24 -25 0
-195 -28 -31 -32 0
-195 -35 -42 -43 0
-195 -36 -46 -47 0
-195 -39 -51 -53 0
-195 -40 -52 -54 0
-196 -4 -7 -9 0
-196 -13 -16 -18 0
-196 -21 -24 -26 0
-196 -28 -31 -33 0
-196 -35 -42 -44 0
-196 -36 -46 -48 0
-196 -38 -50 -53 0
-196 -40 -52 -55 0
-197 -4 -7 -10 0
-197 -13 -16 -19 0
-197 -21 -24 -27 0
-197 -28 -31 -34 0
-197 -35 -42 -45 0
-197 -36 -46 -49 0
-197 -38 -50 -54 0
-197 -39 -51 -55 0
-198 -4 -8 -9 0
-198 -13 -17 -18 0
-198 -21 -25 -26 0
-198 -28 -32 -33 0
-198 -35 -43 -44 0
-198 -36 -47 -48 0
-198 -37 -50 -51 0
-198 -40 -54 -55 0
-199 -4 -8 -10 0
-199 -13 -17 -19 0
-199 -21 -25 -27 0
-199 -28 -32 -34 0
-199 -35 -43 -45 0
-199 -36 -47 -49 0
-199 -37 -50 -52 0
-199 -39 -53 -55 0
-200 -4 -9 -10 0
-200 -13 -18 -19 0
-200 -21 -26 -27 0
-200 -28 -33 -34 0
-200 -35 -44 -45 0
-200 -36 -48 -49 0
-200 -37 -51 -52 0
-200 -38 -53 -54 0
-201 -5 -6 -7 0
-201 -14 -15 -16 0
-201 -22 -23 -24 0
-201 -29 -30 -31 0
-201 -35 -36 -37 0
-201 -43 -47 -50 0
-201 -44 -48 -51 0
-201 -45 -49 -52 0
-202 -5 -6 -8 0
-202 -14 -15 -17 0
-202 -22 -23 -25 0
-202 -29 -30 -32 0
-202 -35 -36 -38 0
-202 -42 -46 -50 0
-202 -44 -48 -53 0
-202 -45 -49 -54 0
-203 -5 -6 -9 0
-203 -14 -15 -18 0
-203 -22 -23 -26 0
-203 -29 -30 -33 0
-203 -35 -36 -39 0
-203 -42 -46 -51 0
-203 -43 -47 -53 0
-203 -45 -49 -55 0
-204 -5 -6 -10 0
-204 -14 -15 -19 0
-204 -22 -23 -27 0
-204 -29 -30 -34 0
-204 -35 -36 -40 0
-204 -42 -46 -52 0
-204 -43 -47 -54 0
-204 -44 -48 -55 0
-205 -5 -7 -8 0
-205 -14 -16 -17 0
-205 -22 -24 -25 0
-205 -29 -31 -32 0
-205 -35 -37 -38 0
-205 -41 -46 -47 0
-205 -44 -51 -53 0
-205 -45 -52 -54 0
-206 -5 -7 -9 0
-206 -14 -16 -18 0
-206 -22 -24 -26 0
-206 -29 -31 -33 0
-206 -35 -37 -39 0
-206 -41 -46 -48 0
-206 -43 -50 -53 0
-206 -45 -52 -55 0
-207 -5 -7 -10 0
-207 -14 -16 -19 0
-207 -22 -24 -27 0
-207 -29 -31 -34 0
-207 -35 -37 -40 0
-207 -41 -46 -49 0
-207 -43 -50 -54 0
-207 -44 -51 -55 0
-208 -5 -8 -9 0
-208 -14 -17 -18 0
-208 -22 -25 -26 0
-208 -29 -32 -33 0
-208 -35 -38 -39 0
-208 -41 -47 -48 0
-208 -42 -50 -51 0
-208 -45 -54 -55 0
-209 -5 -8 -10 0
-209 -14 -17 -19 0
-209 -22 -25 -27 0
-209 -29 -32 -34 0
-209 -35 -38 -40 0
-209 -41 -47 -49 0
-209 -42 -50 -52 0
-209 -44 -53 -55 0
-210 -5 -9 -10 0
-210 -14 -18 -19 0
-210 -22 -26 -27 0
-210 -29 -33 -34 0
-210 -35 -39 -40 0
-210 -41 -48 -49 0
-210 -42 -51 -52 0
-210 -43 -53 -54 0
-211 -6 -7 -8 0
-211 -15 -16 -17 0
-211 -23 -24 -25 0
-211 -30 -31 -32 0
-211 -36 -37 -38 0
-211 -41 -42 -43 0
-211 -48 -51 -53 0
-211 -49 -52 -54 0
-212 -6 -7 -9 0
-212 -15 -16 -18 0
-212 -23 -24 -26 0
-212 -30 -31 -33 0
-212 -36 -37 -39 0
-212 -41 -42 -44 0
-212 -47 -50 -53 0
-212 -49 -52 -55 0
-213 -6 -7 -10 0
-213 -15 -16 -19 0
-213 -23 -24 -27 0
-213 -30 -31 -34 0
-213 -36 -37 -40 0
-213 -41 -42 -45 0
-213 -47 -50 -54 0
-213 -48 -51 -55 0
-214 -6 -8 -9 0
-214 -15 -17 -18 0
-214 -23 -25 -26 0
-214 -30 -32 -33 0
-214 -36 -38 -39 0
-214 -41 -43 -44 0
-214 -46 -50 -51 0
-214 -49 -54 -55 0
-215 -6 -8 -10 0
-215 -15 -17 -19 0
-215 -23 -25 -27 0
-215 -30 -32 -34 0
-215 -36 -38 -40 0
-215 -41 -43 -45 0
-215 -46 -50 -52 0
-215 -48 -53 -55 0
-216 -6 -9 -10 0
-216 -15 -18 -19 0
-216 -23 -26 -27 0
-216 -30 -33 -34 0
-216 -36 -39 -40 0
-216 -41 -44 -45 0
-216 -46 -51 -52 0
-216 -47 -53 -54 0
-217 -7 -8 -9 0
-217 -16 -17 -18 0
-217 -24 -25 -26 0
-217 -31 -32 -33 0
-217 -37 -38 -39 0
-217 -42 -43 -44 0
-217 -46 -47 -48 0
-217 -52 -54 -55 0
-218 -7 -8 -10 0
-218 -16 -17 -19 0
-218 -24 -25 -27 0
-218 -31 -32 -34 0
-218 -37 -38 -40 0
-218 -42 -43 -45 0
-218 -46 -47 -49 0
-218 -51 -53 -55 0
-219 -7 -9 -10 0
-219 -16 -18 -19 0
-219 -24 -26 -27 0
-219 -31 -33 -34 0
-219 -37 -39 -40 0
-219 -42 -44 -45 0
-219 -46 -48 -49 0
-219 -50 -53 -54 0
-220 -8 -9 -10 0
-220 -17 -18 -19 0
-220 -25 -26 -27 0
-220 -32 -33 -34 0
-220 -38 -39 -40 0
-220 -43 -44 -45 0
-220 -47 -48 -49 0
-220 -50 -51 -52 0
-221 -3 0
-221 101 0
-222 -12 0
-222 65 0
-223 -20 0
-223 57 0
-56 221 222 223 0
-224 -4 0
-224 102 0
-225 -13 0
-225 66 0
-226 -21 0
-226 58 0
-56 224 225 226 0
-227 -5 0
-227 103 0
-228 -14 0
-228 67 0
-229 -22 0
-229 59 0
-56 227 228 229 0
-230 -6 0
-230 104 0
-231 -15 0
-231 68 0
-232 -23 0
-232 60 0
-56 230 231 232 0
-233 -7 0
-233 105 0
-234 -16 0
-234 69 0
-235 -24 0
-235 61 0
-56 233 234 235 0
-236 -8 0
-236 106 0
-237 -17 0
-237 70 0
-238 -25 0
-238 62 0
-56 236 237 238 0
-239 -9 0
-239 107 0
-240 -18 0
-240 71 0
-241 -26 0
-241 63 0
-56 239 240 241 0
-242 -10 0
-242 108 0
-243 -19 0
-243 72 0
-244 -27 0
-244 64 0
-56 242 243 244 0
-245 -2 0
-245 101 0
-246 -11 0
-246 65 0
-247 -20 0
-247 56 0
-57 245 246 247 0
-248 -4 0
-248 109 0
-249 -13 0
-249 73 0
-250 -28 0
-250 58 0
-57 248 249 250 0
-251 -5 0
-251 110 0
-252 -14 0
-252 74 0
-253 -29 0
-253 59 0
-57 251 252 253 0
-254 -6 0
-254 111 0
-255 -15 0
-255 75 0
-256 -30 0
-256 60 0
-57 254 255 256 0
-257 -7 0
-257 112 0
-258 -16 0
-258 76 0
-259 -31 0
-259 61 0
-57 257 258 259 0
-260 -8 0
-260 113 0
-261 -17 0
-261 77 0
-262 -32 0
-262 62 0
-57 260 261 262 0
-263 -9 0
-263 114 0
-264 -18 0
-264 78 0
-265 -33 0
-265 63 0
-57 263 264 265 0
-266 -10 0
-266 115 0
-267 -19 0
-267 79 0
-268 -34 0
-268 64 0
-57 266 267 268 0
-269 -2 0
-269 102 0
-270 -11 0
-270 66 0
-271 -21 0
-271 56 0
-58 269 270 271 0
-272 -3 0
-272 109 0
-273 -12 0
-273 73 0
-274 -28 0
-274 57 0
-58 272 273 274 0
-275 -5 0
-275 116 0
-276 -14 0
-276 80 0
-277 -35 0
-277 59 0
-58 275 276 277 0
-278 -6 0
-278 117 0
-279 -15 0
-279 81 0
-280 -36 0
-280 60 0
-58 278 279 280 0
-281 -7 0
-281 118 0
-282 -16 0
-282 82 0
-283 -37 0
-283 61 0
-58 281 282 283 0
-284 -8 0
-284 119 0
-285 -17 0
-285 83 0
-286 -38 0
-286 62 0
-58 284 285 286 0
-287 -9 0
-287 120 0
-288 -18 0
-288 84 0
-289 -39 0
-289 63 0
-58 287 288 289 0
-290 -10 0
-290 121 0
-291 -19 0
-291 85 0
-292 -40 0
-292 64 0
-58 290 291 292 0
-293 -2 0
-293 103 0
-294 -11 0
-294 67 0
-295 -22 0
-295 56 0
-59 293 294 295 0
-296 -3 0
-296 110 0
-297 -12 0
-297 74 0
-298 -29 0
-298 57 0
-59 296 297 298 0
-299 -4 0
-299 116 0
-300 -13 0
-300 80 0
-301 -35 0
-301 58 0
-59 299 300 301 0
-302 -6 0
-302 122 0
-303 -15 0
-303 86 0
-304 -41 0
-304 60 0
-59 302 303 304 0
-305 -7 0
-305 123 0
-306 -16 0
-306 87 0
-307 -42 0
-307 61 0
-59 305 306 307 0
-308 -8 0
-308 124 0
-309 -17 0
-309 88 0
-310 -43 0
-310 62 0
-59 308 309 310 0
-311 -9 0
-311 125 0
-312 -18 0
-312 89 0
-313 -44 0
-313 63 0
-59 311 312 313 0
-314 -10 0
-314 126 0
-315 -19 0
-315 90 0
-316 -45 0
-316 64 0
-59 314 315 316 0
-317 -2 0
-317 104 0
-318 -11 0
-318 68 0
-319 -23 0
-319 56 0
-60 317 318 319 0
-320 -3 0
-320 111 0
-321 -12 0
-321 75 0
-322 -30 0
-322 57 0
-60 320 321 322 0
-323 -4 0
-323 117 0
-324 -13 0
-324 81 0
-325 -36 0
-325 58 0
-60 323 324 325 0
-326 -5 0
-326 122 0
-327 -14 0
-327 86 0
-328 -41 0
-328 59 0
-60 326 327 328 0
-329 -7 0
-329 127 0
-330 -16 0
-330 91 0
-331 -46 0
-331 61 0
-60 329 330 331 0
-332 -8 0
-332 128 0
-333 -17 0
-333 92 0
-334 -47 0
-334 62 0
-60 332 333 334 0
-335 -9 0
-335 129 0
-336 -18 0
-336 93 0
-337 -48 0
-337 63 0
-60 335 336 337 0
-338 -10 0
-338 130 0
-339 -19 0
-339 94 0
-340 -49 0
-340 64 0
-60 338 339 340 0
-341 -2 0
-341 105 0
-342 -11 0
-342 69 0
-343 -24 0
-343 56 0
-61 341 342 343 0
-344 -3 0
-344 112 0
-345 -12 0
-345 76 0
-346 -31 0
-346 57 0
-61 344 345 346 0
-347 -4 0
-347 118 0
-348 -13 0
-348 82 0
-349 -37 0
-349 58 0
-61 347 348 349 0
-350 -5 0
-350 123 0
-351 -14 0
-351 87 0
-352 -42 0
-352 59 0
-61 350 351 352 0
-353 -6 0
-353 127 0
-354 -15 0
-354 91 0
-355 -46 0
-355 60 0
-61 353 354 355 0
-356 -8 0
-356 131 0
-357 -17 0
-357 95 0
-358 -50 0
-358 62 0
-61 356 357 358 0
-359 -9 0
-359 132 0
-360 -18 0
-360 96 0
-361 -51 0
-361 63 0
-61 359 360 361 0
-362 -10 0
-362 133 0
-363 -19 0
-363 97 0
-364 -52 0
-364 64 0
-61 362 363 364 0
-365 -2 0
-365 106 0
-366 -11 0
-366 70 0
-367 -25 0
-367 56 0
-62 365 366 367 0
-368 -3 0
-368 113 0
-369 -12 0
-369 77 0
-370 -32 0
-370 57 0
-62 368 369 370 0
-371 -4 0
-371 119 0
-372 -13 0
-372 83 0
-373 -38 0
-373 58 0
-62 371 372 373 0
-374 -5 0
-374 124 0
-375 -14 0
-375 88 0
-376 -43 0
-376 59 0
-62 374 375 376 0
-377 -6 0
-377 128 0
-378 -15 0
-378 92 0
-379 -47 0
-379 60 0
-62 377 378 379 0
-380 -7 0
-380 131 0
-381 -16 0
-381 95 0
-382 -50 0
-382 61 0
-62 380 381 382 0
-383 -9 0
-383 134 0
-384 -18 0
-384 98 0
-385 -53 0
-385 63 0
-62 383 384 385 0
-386 -10 0
-386 135 0
-387 -19 0
-387 99 0
-388 -54 0
-388 64 0
-62 386 387 388 0
-389 -2 0
-389 107 0
-390 -11 0
-390 71 0
-391 -26 0
-391 56 0
-63 389 390 391 0
-392 -3 0
-392 114 0
-393 -12 0
-393 78 0
-394 -33 0
-394 57 0
-63 392 393 394 0
-395 -4 0
-395 120 0
-396 -13 0
-396 84 0
-397 -39 0
-397 58 0
-63 395 396 397 0
-398 -5 0
-398 125 0
-399 -14 0
-399 89 0
-400 -44 0
-400 59 0
-63 398 399 400 0
-401 -6 0
-401 129 0
-402 -15 0
-402 93 0
-403 -48 0
-403 60 0
-63 401 402 403 0
-404 -7 0
-404 132 0
-405 -16 0
-405 96 0
-406 -51 0
-406 61 0
-63 404 405 406 0
-407 -8 0
-407 134 0
-408 -17 0
-408 98 0
-409 -53 0
-409 62 0
-63 407 408 409 0
-410 -10 0
-410 136 0
-411 -19 0
-411 100 0
-412 -55 0
-412 64 0
-63 410 411 412 0
-413 -2 0
-413 108 0
-414 -11 0
-414 72 0
-415 -27 0
-415 56 0
-64 413 414 415 0
-416 -3 0
-416 115 0
-417 -12 0
-417 79 0
-418 -34 0
-418 57 0
-64 416 417 418 0
-419 -4 0
-419 121 0
-420 -13 0
-420 85 0
-421 -40 0
-421 58 0
-64 419 420 421 0
-422 -5 0
-422 126 0
-423 -14 0
-423 90 0
-424 -45 0
-424 59 0
-64 422 423 424 0
-425 -6 0
-425 130 0
-426 -15 0
-426 94 0
-427 -49 0
-427 60 0
-64 425 426 427 0
-428 -7 0
-428 133 0
-429 -16 0
-429 97 0
-430 -52 0
-430 61 0
-64 428 429 430 0
-431 -8 0
-431 135 0
-432 -17 0
-432 99 0
-433 -54 0
-433 62 0
-64 431 432 433 0
-434 -9 0
-434 136 0
-435 -18 0
-435 100 0
-436 -55 0
-436 63 0
-64 434 435 436 0
-437 -1 0
-437 101 0
-438 -11 0
-438 57 0
-439 -12 0
-439 56 0
-65 437 438 439 0
-440 -4 0
-440 137 0
-441 -21 0
-441 73 0
-442 -28 0
-442 66 0
-65 440 441 442 0
-443 -5 0
-443 138 0
-444 -22 0
-444 74 0
-445 -29 0
-445 67 0
-65 443 444 445 0
-446 -6 0
-446 139 0
-447 -23 0
-447 75 0
-448 -30 0
-448 68 0
-65 446 447 448 0
-449 -7 0
-449 140 0
-450 -24 0
-450 76 0
-451 -31 0
-451 69 0
-65 449 450 451 0
-452 -8 0
-452 141 0
-453 -25 0
-453 77 0
-454 -32 0
-454 70 0
-65 452 453 454 0
-455 -9 0
-455 142 0
-456 -26 0
-456 78 0
-457 -33 0
-457 71 0
-65 455 456 457 0
-458 -10 0
-458 143 0
-459 -27 0
-459 79 0
-460 -34 0
-460 72 0
-65 458 459 460 0
-461 -1 0
-461 102 0
-462 -11 0
-462 58 0
-463 -13 0
-463 56 0
-66 461 462 463 0
-464 -3 0
-464 137 0
-465 -20 0
-465 73 0
-466 -28 0
-466 65 0
-66 464 465 466 0
-467 -5 0
-467 144 0
-468 -22 0
-468 80 0
-469 -35 0
-469 67 0
-66 467 468 469 0
-470 -6 0
-470 145 0
-471 -23 0
-471 81 0
-472 -36 0
-472 68 0
-66 470 471 472 0
-473 -7 0
-473 146 0
-474 -24 0
-474 82 0
-475 -37 0
-475 69 0
-66 473 474 475 0
-476 -8 0
-476 147 0
-477 -25 0
-477 83 0
-478 -38 0
-478 70 0
-66 476 477 478 0
-479 -9 0
-479 148 0
-480 -26 0
-480 84 0
-481 -39 0
-481 71 0
-66 479 480 481 0
-482 -10 0
-482 149 0
-483 -27 0
-483 85 0
-484 -40 0
-484 72 0
-66 482 483 484 0
-485 -1 0
-485 103 0
-486 -11 0
-486 59 0
-487 -14 0
-487 56 0
-67 485 486 487 0
-488 -3 0
-488 138 0
-489 -20 0
-489 74 0
-490 -29 0
-490 65 0
-67 488 489 490 0
-491 -4 0
-491 144 0
-492 -21 0
-492 80 0
-493 -35 0
-493 66 0
-67 491 492 493 0
-494 -6 0
-494 150 0
-495 -23 0
-495 86 0
-496 -41 0
-496 68 0
-67 494 495 496 0
-497 -7 0
-497 151 0
-498 -24 0
-498 87 0
-499 -42 0
-499 69 0
-67 497 498 499 0
-500 -8 0
-500 152 0
-501 -25 0
-501 88 0
-502 -43 0
-502 70 0
-67 500 501 502 0
-503 -9 0
-503 153 0
-504 -26 0
-504 89 0
-505 -44 0
-505 71 0
-67 503 504 505 0
-506 -10 0
-506 154 0
-507 -27 0
-507 90 0
-508 -45 0
-508 72 0
-67 506 507 508 0
-509 -1 0
-509 104 0
-510 -11 0
-510 60 0
-511 -15 0
-511 56 0
-68 509 510 511 0
-512 -3 0
-512 139 0
-513 -20 0
-513 75 0
-514 -30 0
-514 65 0
-68 512 513 514 0
-515 -4 0
-515 145 0
-516 -21 0
-516 81 0
-517 -36 0
-517 66 0
-68 515 516 517 0
-518 -5 0
-518 150 0
-519 -22 0
-519 86 0
-520 -41 0
-520 67 0
-68 518 519 520 0
-521 -7 0
-521 155 0
-522 -24 0
-522 91 0
-523 -46 0
-523 69 0
-68 521 522 523 0
-524 -8 0
-524 156 0
-525 -25 0
-525 92 0
-526 -47 0
-526 70 0
-68 524 525 526 0
-527 -9 0
-527 157 0
-528 -26 0
-528 93 0
-529 -48 0
-529 71 0
-68 527 528 529 0
-530 -10 0
-530 158 0
-531 -27 0
-531 94 0
-532 -49 0
-532 72 0
-68 530 531 532 0
-533 -1 0
-533 105 0
-534 -11 0
-534 61 0
-535 -16 0
-535 56 0
-69 533 534 535 0
-536 -3 0
-536 140 0
-537 -20 0
-537 76 0
-538 -31 0
-538 65 0
-69 536 537 538 0
-539 -4 0
-539 146 0
-540 -21 0
-540 82 0
-541 -37 0
-541 66 0
-69 539 540 541 0
-542 -5 0
-542 151 0
-543 -22 0
-543 87 0
-544 -42 0
-544 67 0
-69 542 543 544 0
-545 -6 0
-545 155 0
-546 -23 0
-546 91 0
-547 -46 0
-547 68 0
-69 545 546 547 0
-548 -8 0
-548 159 0
-549 -25 0
-549 95 0
-550 -50 0
-550 70 0
-69 548 549 550 0
-551 -9 0
-551 160 0
-552 -26 0
-552 96 0
-553 -51 0
-553 71 0
-69 551 552 553 0
-554 -10 0
-554 161 0
-555 -27 0
-555 97 0
-556 -52 0
-556 72 0
-69 554 555 556 0
-557 -1 0
-557 106 0
-558 -11 0
-558 62 0
-559 -17 0
-559 56 0
-70 557 558 559 0
-560 -3 0
-560 141 0
-561 -20 0
-561 77 0
-562 -32 0
-562 65 0
-70 560 561 562 0
-563 -4 0
-563 147 0
-564 -21 0
-564 83 0
-565 -38 0
-565 66 0
-70 563 564 565 0
-566 -5 0
-566 152 0
-567 -22 0
-567 88 0
-568 -43 0
-568 67 0
-70 566 567 568 0
-569 -6 0
-569 156 0
-570 -23 0
-570 92 0
-571 -47 0
-571 68 0
-70 569 570 571 0
-572 -7 0
-572 159 0
-573 -24 0
-573 95 0
-574 -50 0
-574 69 0
-70 572 573 574 0
-575 -9 0
-575 162 0
-576 -26 0
-576 98 0
-577 -53 0
-577 71 0
-70 575 576 577 0
-578 -10 0
-578 163 0
-579 -27 0
-579 99 0
-580 -54 0
-580 72 0
-70 578 579 580 0
-581 -1 0
-581 107 0
-582 -11 0
-582 63 0
-583 -18 0
-583 56 0
-71 581 582 583 0
-584 -3 0
-584 142 0
-585 -20 0
-585 78 0
-586 -33 0
-586 65 0
-71 584 585 586 0
-587 -4 0
-587 148 0
-588 -21 0
-588 84 0
-589 -39 0
-589 66 0
-71 587 588 589 0
-590 -5 0
-590 153 0
-591 -22 0
-591 89 0
-592 -44 0
-592 67 0
-71 590 591 592 0
-593 -6 0
-593 157 0
-594 -23 0
-594 93 0
-595 -48 0
-595 68 0
-71 593 594 595 0
-596 -7 0
-596 160 0
-597 -24 0
-597 96 0
-598 -51 0
-598 69 0
-71 596 597 598 0
-599 -8 0
-599 162 0
-600 -25 0
-600 98 0
-601 -53 0
-601 70 0
-71 599 600 601 0
-602 -10 0
-602 164 0
-603 -27 0
-603 100 0
-604 -55 0
-604 72 0
-71 602 603 604 0
-605 -1 0
-605 108 0
-606 -11 0
-606 64 0
-607 -19 0
-607 56 0
-72 605 606 607 0
-608 -3 0
-608 143 0
-609 -20 0
-609 79 0
-610 -34 0
-610 65 0
-72 608 609 610 0
-611 -4 0
-611 149 0
-612 -21 0
-612 85 0
-613 -40 0
-613 66 0
-72 611 612 613 0
-614 -5 0
-614 154 0
-615 -22 0
-615 90 0
-616 -45 0
-616 67 0
-72 614 615 616 0
-617 -6 0
-617 158 0
-618 -23 0
-618 94 0
-619 -49 0
-619 68 0
-72 617 618 619 0
-620 -7 0
-620 161 0
-621 -24 0
-621 97 0
-622 -52 0
-622 69 0
-72 620 621 622 0
-623 -8 0
-623 163 0
-624 -25 0
-624 99 0
-625 -54 0
-625 70 0
-72 623 624 625 0
-626 -9 0
-626 164 0
-627 -26 0
-627 100 0
-628 -55 0
-628 71 0
-72 626 627 628 0
-629 -1 0
-629 109 0
-630 -12 0
-630 58 0
-631 -13 0
-631 57 0
-73 629 630 631 0
-632 -2 0
-632 137 0
-633 -20 0
-633 66 0
-634 -21 0
-634 65 0
-73 632 633 634 0
-635 -5 0
-635 165 0
-636 -29 0
-636 80 0
-637 -35 0
-637 74 0
-73 635 636 637 0
-638 -6 0
-638 166 0
-639 -30 0
-639 81 0
-640 -36 0
-640 75 0
-73 638 639 640 0
-641 -7 0
-641 167 0
-642 -31 0
-642 82 0
-643 -37 0
-643 76 0
-73 641 642 643 0
-644 -8 0
-644 168 0
-645 -32 0
-645 83 0
-646 -38 0
-646 77 0
-73 644 645 646 0
-647 -9 0
-647 169 0
-648 -33 0
-648 84 0
-649 -39 0
-649 78 0
-73 647 648 649 0
-650 -10 0
-650 170 0
-651 -34 0
-651 85 0
-652 -40 0
-652 79 0
-73 650 651 652 0
-653 -1 0
-653 110 0
-654 -12 0
-654 59 0
-655 -14 0
-655 57 0
-74 653 654 655 0
-656 -2 0
-656 138 0
-657 -20 0
-657 67 0
-658 -22 0
-658 65 0
-74 656 657 658 0
-659 -4 0
-659 165 0
-660 -28 0
-660 80 0
-661 -35 0
-661 73 0
-74 659 660 661 0
-662 -6 0
-662 171 0
-663 -30 0
-663 86 0
-664 -41 0
-664 75 0
-74 662 663 664 0
-665 -7 0
-665 172 0
-666 -31 0
-666 87 0
-667 -42 0
-667 76 0
-74 665 666 667 0
-668 -8 0
-668 173 0
-669 -32 0
-669 88 0
-670 -43 0
-670 77 0
-74 668 669 670 0
-671 -9 0
-671 174 0
-672 -33 0
-672 89 0
-673 -44 0
-673 78 0
-74 671 672 673 0
-674 -10 0
-674 175 0
-675 -34 0
-675 90 0
-676 -45 0
-676 79 0
-74 674 675 676 0
-677 -1 0
-677 111 0
-678 -12 0
-678 60 0
-679 -15 0
-679 57 0
-75 677 678 679 0
-680 -2 0
-680 139 0
-681 -20 0
-681 68 0
-682 -23 0
-682 65 0
-75 680 681 682 0
-683 -4 0
-683 166 0
-684 -28 0
-684 81 0
-685 -36 0
-685 73 0
-75 683 684 685 0
-686 -5 0
-686 171 0
-687 -29 0
-687 86 0
-688 -41 0
-688 74 0
-75 686 687 688 0
-689 -7 0
-689 176 0
-690 -31 0
-690 91 0
-691 -46 0
-691 76 0
-75 689 690 691 0
-692 -8 0
-692 177 0
-693 -32 0
-693 92 0
-694 -47 0
-694 77 0
-75 692 693 694 0
-695 -9 0
-695 178 0
-696 -33 0
-696 93 0
-697 -48 0
-697 78 0
-75 695 696 697 0
-698 -10 0
-698 179 0
-699 -34 0
-699 94 0
-700 -49 0
-700 79 0
-75 698 699 700 0
-701 -1 0
-701 112 0
-702 -12 0
-702 61 0
-703 -16 0
-703 57 0
-76 701 702 703 0
-704 -2 0
-704 140 0
-705 -20 0
-705 69 0
-706 -24 0
-706 65 0
-76 704 705 706 0
-707 -4 0
-707 167 0
-708 -28 0
-708 82 0
-709 -37 0
-709 73 0
-76 707 708 709 0
-710 -5 0
-710 172 0
-711 -29 0
-711 87 0
-712 -42 0
-712 74 0
-76 710 711 712 0
-713 -6 0
-713 176 0
-714 -30 0
-714 91 0
-715 -46 0
-715 75 0
-76 713 714 715 0
-716 -8 0
-716 180 0
-717 -32 0
-717 95 0
-718 -50 0
-718 77 0
-76 716 717 718 0
-719 -9 0
-719 181 0
-720 -33 0
-720 96 0
-721 -51 0
-721 78 0
-76 719 720 721 0
-722 -10 0
-722 182 0
-723 -34 0
-723 97 0
-724 -52 0
-724 79 0
-76 722 723 724 0
-725 -1 0
-725 113 0
-726 -12 0
-726 62 0
-727 -17 0
-727 57 0
-77 725 726 727 0
-728 -2 0
-728 141 0
-729 -20 0
-729 70 0
-730 -25 0
-730 65 0
-77 728 729 730 0
-731 -4 0
-731 168 0
-732 -28 0
-732 83 0
-733 -38 0
-733 73 0
-77 731 732 733 0
-734 -5 0
-734 173 0
-735 -29 0
-735 88 0
-736 -43 0
-736 74 0
-77 734 735 736 0
-737 -6 0
-737 177 0
-738 -30 0
-738 92 0
-739 -47 0
-739 75 0
-77 737 738 739 0
-740 -7 0
-740 180 0
-741 -31 0
-741 95 0
-742 -50 0
-742 76 0
-77 740 741 742 0
-743 -9 0
-743 183 0
-744 -33 0
-744 98 0
-745 -53 0
-745 78 0
-77 743 744 745 0
-746 -10 0
-746 184 0
-747 -34 0
-747 99 0
-748 -54 0
-748 79 0
-77 746 747 748 0
-749 -1 0
-749 114 0
-750 -12 0
-750 63 0
-751 -18 0
-751 57 0
-78 749 750 751 0
-752 -2 0
-752 142 0
-753 -20 0
-753 71 0
-754 -26 0
-754 65 0
-78 752 753 754 0
-755 -4 0
-755 169 0
-756 -28 0
-756 84 0
-757 -39 0
-757 73 0
-78 755 756 757 0
-758 -5 0
-758 174 0
-759 -29 0
-759 89 0
-760 -44 0
-760 74 0
-78 758 759 760 0
-761 -6 0
-761 178 0
-762 -30 0
-762 93 0
-763 -48 0
-763 75 0
-78 761 762 763 0
-764 -7 0
-764 181 0
-765 -31 0
-765 96 0
-766 -51 0
-766 76 0
-78 764 765 766 0
-767 -8 0
-767 183 0
-768 -32 0
-768 98 0
-769 -53 0
-769 77 0
-78 767 768 769 0
-770 -10 0
-770 185 0
-771 -34 0
-771 100 0
-772 -55 0
-772 79 0
-78 770 771 772 0
-773 -1 0
-773 115 0
-774 -12 0
-774 64 0
-775 -19 0
-775 57 0
-79 773 774 775 0
-776 -2 0
-776 143 0
-777 -20 0
-777 72 0
-778 -27 0
-778 65 0
-79 776 777 778 0
-779 -4 0
-779 170 0
-780 -28 0
-780 85 0
-781 -40 0
-781 73 0
-79 779 780 781 0
-782 -5 0
-782 175 0
-783 -29 0
-783 90 0
-784 -45 0
-784 74 0
-79 782 783 784 0
-785 -6 0
-785 179 0
-786 -30 0
-786 94 0
-787 -49 0
-787 75 0
-79 785 786 787 0
-788 -7 0
-788 182 0
-789 -31 0
-789 97 0
-790 -52 0
-790 76 0
-79 788 789 790 0
-791 -8 0
-791 184 0
-792 -32 0
-792 99 0
-793 -54 0
-793 77 0
-79 791 792 793 0
-794 -9 0
-794 185 0
-795 -33 0
-795 100 0
-796 -55 0
-796 78 0
-79 794 795 796 0
-797 -1 0
-797 116 0
-798 -13 0
-798 59 0
-799 -14 0
-799 58 0
-80 797 798 799 0
-800 -2 0
-800 144 0
-801 -21 0
-801 67 0
-802 -22 0
-802 66 0
-80 800 801 802 0
-803 -3 0
-803 165 0
-804 -28 0
-804 74 0
-805 -29 0
-805 73 0
-80 803 804 805 0
-806 -6 0
-806 186 0
-807 -36 0
-807 86 0
-808 -41 0
-808 81 0
-80 806 807 808 0
-809 -7 0
-809 187 0
-810 -37 0
-810 87 0
-811 -42 0
-811 82 0
-80 809 810 811 0
-812 -8 0
-812 188 0
-813 -38 0
-813 88 0
-814 -43 0
-814 83 0
-80 812 813 814 0
-815 -9 0
-815 189 0
-816 -39 0
-816 89 0
-817 -44 0
-817 84 0
-80 815 816 817 0
-818 -10 0
-818 190 0
-819 -40 0
-819 90 0
-820 -45 0
-820 85 0
-80 818 819 820 0
-821 -1 0
-821 117 0
-822 -13 0
-822 60 0
-823 -15 0
-823 58 0
-81 821 822 823 0
-824 -2 0
-824 145 0
-825 -21 0
-825 68 0
-826 -23 0
-826 66 0
-81 824 825 826 0
-827 -3 0
-827 166 0
-828 -28 0
-828 75 0
-829 -30 0
-829 73 0
-81 827 828 829 0
-830 -5 0
-830 186 0
-831 -35 0
-831 86 0
-832 -41 0
-832 80 0
-81 830 831 832 0
-833 -7 0
-833 191 0
-834 -37 0
-834 91 0
-835 -46 0
-835 82 0
-81 833 834 835 0
-836 -8 0
-836 192 0
-837 -38 0
-837 92 0
-838 -47 0
-838 83 0
-81 836 837 838 0
-839 -9 0
-839 193 0
-840 -39 0
-840 93 0
-841 -48 0
-841 84 0
-81 839 840 841 0
-842 -10 0
-842 194 0
-843 -40 0
-843 94 0
-844 -49 0
-844 85 0
-81 842 843 844 0
-845 -1 0
-845 118 0
-846 -13 0
-846 61 0
-847 -16 0
-847 58 0
-82 845 846 847 0
-848 -2 0
-848 146 0
-849 -21 0
-849 69 0
-850 -24 0
-850 66 0
-82 848 849 850 0
-851 -3 0
-851 167 0
-852 -28 0
-852 76 0
-853 -31 0
-853 73 0
-82 851 852 853 0
-854 -5 0
-854 187 0
-855 -35 0
-855 87 0
-856 -42 0
-856 80 0
-82 854 855 856 0
-857 -6 0
-857 191 0
-858 -36 0
-858 91 0
-859 -46 0
-859 81 0
-82 857 858 859 0
-860 -8 0
-860 195 0
-861 -38 0
-861 95 0
-862 -50 0
-862 83 0
-82 860 861 862 0
-863 -9 0
-863 196 0
-864 -39 0
-864 96 0
-865 -51 0
-865 84 0
-82 863 864 865 0
-866 -10 0
-866 197 0
-867 -40 0
-867 97 0
-868 -52 0
-868 85 0
-82 866 867 868 0
-869 -1 0
-869 119 0
-870 -13 0
-870 62 0
-871 -17 0
-871 58 0
-83 869 870 871 0
-872 -2 0
-872 147 0
-873 -21 0
-873 70 0
-874 -25 0
-874 66 0
-83 872 873 874 0
-875 -3 0
-875 168 0
-876 -28 0
-876 77 0
-877 -32 0
-877 73 0
-83 875 876 877 0
-878 -5 0
-878 188 0
-879 -35 0
-879 88 0
-880 -43 0
-880 80 0
-83 878 879 880 0
-881 -6 0
-881 192 0
-882 -36 0
-882 92 0
-883 -47 0
-883 81 0
-83 881 882 883 0
-884 -7 0
-884 195 0
-885 -37 0
-885 95 0
-886 -50 0
-886 82 0
-83 884 885 886 0
-887 -9 0
-887 198 0
-888 -39 0
-888 98 0
-889 -53 0
-889 84 0
-83 887 888 889 0
-890 -10 0
-890 199 0
-891 -40 0
-891 99 0
-892 -54 0
-892 85 0
-83 890 891 892 0
-893 -1 0
-893 120 0
-894 -13 0
-894 63 0
-895 -18 0
-895 58 0
-84 893 894 895 0
-896 -2 0
-896 148 0
-897 -21 0
-897 71 0
-898 -26 0
-898 66 0
-84 896 897 898 0
-899 -3 0
-899 169 0
-900 -28 0
-900 78 0
-901 -33 0
-901 73 0
-84 899 900 901 0
-902 -5 0
-902 189 0
-903 -35 0
-903 89 0
-904 -44 0
-904 80 0
-84 902 903 904 0
-905 -6 0
-905 193 0
-906 -36 0
-906 93 0
-907 -48 0
-907 81 0
-84 905 906 907 0
-908 -7 0
-908 196 0
-909 -37 0
-909 96 0
-910 -51 0
-910 82 0
-84 908 909 910 0
-911 -8 0
-911 198 0
-912 -38 0
-912 98 0
-913 -53 0
-913 83 0
-84 911 912 913 0
-914 -10 0
-914 200 0
-915 -40 0
-915 100 0
-916 -55 0
-916 85 0
-84 914 915 916 0
-917 -1 0
-917 121 0
-918 -13 0
-918 64 0
-919 -19 0
-919 58 0
-85 917 918 919 0
-920 -2 0
-920 149 0
-921 -21 0
-921 72 0
-922 -27 0
-922 66 0
-85 920 921 922 0
-923 -3 0
-923 170 0
-924 -28 0
-924 79 0
-925 -34 0
-925 73 0
-85 923 924 925 0
-926 -5 0
-926 190 0
-927 -35 0
-927 90 0
-928 -45 0
-928 80 0
-85 926 927 928 0
-929 -6 0
-929 194 0
-930 -36 0
-930 94 0
-931 -49 0
-931 81 0
-85 929 930 931 0
-932 -7 0
-932 197 0
-933 -37 0
-933 97 0
-934 -52 0
-934 82 0
-85 932 933 934 0
-935 -8 0
-935 199 0
-936 -38 0
-936 99 0
-937 -54 0
-937 83 0
-85 935 936 937 0
-938 -9 0
-938 200 0
-939 -39 0
-939 100 0
-940 -55 0
-940 84 0
-85 938 939 940 0
-941 -1 0
-941 122 0
-942 -14 0
-942 60 0
-943 -15 0
-943 59 0
-86 941 942 943 0
-944 -2 0
-944 150 0
-945 -22 0
-945 68 0
-946 -23 0
-946 67 0
-86 944 945 946 0
-947 -3 0
-947 171 0
-948 -29 0
-948 75 0
-949 -30 0
-949 74 0
-86 947 948 949 0
-950 -4 0
-950 186 0
-951 -35 0
-951 81 0
-952 -36 0
-952 80 0
-86 950 951 952 0
-953 -7 0
-953 201 0
-954 -42 0
-954 91 0
-955 -46 0
-955 87 0
-86 953 954 955 0
-956 -8 0
-956 202 0
-957 -43 0
-957 92 0
-958 -47 0
-958 88 0
-86 956 957 958 0
-959 -9 0
-959 203 0
-960 -44 0
-960 93 0
-961 -48 0
-961 89 0
-86 959 960 961 0
-962 -10 0
-962 204 0
-963 -45 0
-963 94 0
-964 -49 0
-964 90 0
-86 962 963 964 0
-965 -1 0
-965 123 0
-966 -14 0
-966 61 0
-967 -16 0
-967 59 0
-87 965 966 967 0
-968 -2 0
-968 151 0
-969 -22 0
-969 69 0
-970 -24 0
-970 67 0
-87 968 969 970 0
-971 -3 0
-971 172 0
-972 -29 0
-972 76 0
-973 -31 0
-973 74 0
-87 971 972 973 0
-974 -4 0
-974 187 0
-975 -35 0
-975 82 0
-976 -37 0
-976 80 0
-87 974 975 976 0
-977 -6 0
-977 201 0
-978 -41 0
-978 91 0
-979 -46 0
-979 86 0
-87 977 978 979 0
-980 -8 0
-980 205 0
-981 -43 0
-981 95 0
-982 -50 0
-982 88 0
-87 980 981 982 0
-983 -9 0
-983 206 0
-984 -44 0
-984 96 0
-985 -51 0
-985 89 0
-87 983 984 985 0
-986 -10 0
-986 207 0
-987 -45 0
-987 97 0
-988 -52 0
-988 90 0
-87 986 987 988 0
-989 -1 0
-989 124 0
-990 -14 0
-990 62 0
-991 -17 0
-991 59 0
-88 989 990 991 0
-992 -2 0
-992 152 0
-993 -22 0
-993 70 0
-994 -25 0
-994 67 0
-88 992 993 994 0
-995 -3 0
-995 173 0
-996 -29 0
-996 77 0
-997 -32 0
-997 74 0
-88 995 996 997 0
-998 -4 0
-998 188 0
-999 -35 0
-999 83 0
-1000 -38 0
-1000 80 0
-88 998 999 1000 0
-1001 -6 0
-1001 202 0
-1002 -41 0
-1002 92 0
-1003 -47 0
-1003 86 0
-88 1001 1002 1003 0
-1004 -7 0
-1004 205 0
-1005 -42 0
-1005 95 0
-1006 -50 0
-1006 87 0
-88 1004 1005 1006 0
-1007 -9 0
-1007 208 0
-1008 -44 0
-1008 98 0
-1009 -53 0
-1009 89 0
-88 1007 1008 1009 0
-1010 -10 0
-1010 209 0
-1011 -45 0
-1011 99 0
-1012 -54 0
-1012 90 0
-88 1010 1011 1012 0
-1013 -1 0
-1013 125 0
-1014 -14 0
-1014 63 0
-1015 -18 0
-1015 59 0
-89 1013 1014 1015 0
-1016 -2 0
-1016 153 0
-1017 -22 0
-1017 71 0
-1018 -26 0
-1018 67 0
-89 1016 1017 1018 0
-1019 -3 0
-1019 174 0
-1020 -29 0
-1020 78 0
-1021 -33 0
-1021 74 0
-89 1019 1020 1021 0
-1022 -4 0
-1022 189 0
-1023 -35 0
-1023 84 0
-1024 -39 0
-1024 80 0
-89 1022 1023 1024 0
-1025 -6 0
-1025 203 0
-1026 -41 0
-1026 93 0
-1027 -48 0
-1027 86 0
-89 1025 1026 1027 0
-1028 -7 0
-1028 206 0
-1029 -42 0
-1029 96 0
-1030 -51 0
-1030 87 0
-89 1028 1029 1030 0
-1031 -8 0
-1031 208 0
-1032 -43 0
-1032 98 0
-1033 -53 0
-1033 88 0
-89 1031 1032 1033 0
-1034 -10 0
-1034 210 0
-1035 -45 0
-1035 100 0
-1036 -55 0
-1036 90 0
-89 1034 1035 1036 0
-1037 -1 0
-1037 126 0
-1038 -14 0
-1038 64 0
-1039 -19 0
-1039 59 0
-90 1037 1038 1039 0
-1040 -2 0
-1040 154 0
-1041 -22 0
-1041 72 0
-1042 -27 0
-1042 67 0
-90 1040 1041 1042 0
-1043 -3 0
-1043 175 0
-1044 -29 0
-1044 79 0
-1045 -34 0
-1045 74 0
-90 1043 1044 1045 0
-1046 -4 0
-1046 190 0
-1047 -35 0
-1047 85 0
-1048 -40 0
-1048 80 0
-90 1046 1047 1048 0
-1049 -6 0
-1049 204 0
-1050 -41 0
-1050 94 0
-1051 -49 0
-1051 86 0
-90 1049 1050 1051 0
-1052 -7 0
-1052 207 0
-1053 -42 0
-1053 97 0
-1054 -52 0
-1054 87 0
-90 1052 1053 1054 0
-1055 -8 0
-1055 209 0
-1056 -43 0
-1056 99 0
-1057 -54 0
-1057 88 0
-90 1055 1056 1057 0
-1058 -9 0
-1058 210 0
-1059 -44 0
-1059 100 0
-1060 -55 0
-1060 89 0
-90 1058 1059 1060 0
-1061 -1 0
-1061 127 0
-1062 -15 0
-1062 61 0
-1063 -16 0
-1063 60 0
-91 1061 1062 1063 0
-1064 -2 0
-1064 155 0
-1065 -23 0
-1065 69 0
-1066 -24 0
-1066 68 0
-91 1064 1065 1066 0
-1067 -3 0
-1067 176 0
-1068 -30 0
-1068 76 0
-1069 -31 0
-1069 75 0
-91 1067 1068 1069 0
-1070 -4 0
-1070 191 0
-1071 -36 0
-1071 82 0
-1072 -37 0
-1072 81 0
-91 1070 1071 1072 0
-1073 -5 0
-1073 201 0
-1074 -41 0
-1074 87 0
-1075 -42 0
-1075 86 0
-91 1073 1074 1075 0
-1076 -8 0
-1076 211 0
-1077 -47 0
-1077 95 0
-1078 -50 0
-1078 92 0
-91 1076 1077 1078 0
-1079 -9 0
-1079 212 0
-1080 -48 0
-1080 96 0
-1081 -51 0
-1081 93 0
-91 1079 1080 1081 0
-1082 -10 0
-1082 213 0
-1083 -49 0
-1083 97 0
-1084 -52 0
-1084 94 0
-91 1082 1083 1084 0
-1085 -1 0
-1085 128 0
-1086 -15 0
-1086 62 0
-1087 -17 0
-1087 60 0
-92 1085 1086 1087 0
-1088 -2 0
-1088 156 0
-1089 -23 0
-1089 70 0
-1090 -25 0
-1090 68 0
-92 1088 1089 1090 0
-1091 -3 0
-1091 177 0
-1092 -30 0
-1092 77 0
-1093 -32 0
-1093 75 0
-92 1091 1092 1093 0
-1094 -4 0
-1094 192 0
-1095 -36 0
-1095 83 0
-1096 -38 0
-1096 81 0
-92 1094 1095 1096 0
-1097 -5 0
-1097 202 0
-1098 -41 0
-1098 88 0
-1099 -43 0
-1099 86 0
-92 1097 1098 1099 0
-1100 -7 0
-1100 211 0
-1101 -46 0
-1101 95 0
-1102 -50 0
-1102 91 0
-92 1100 1101 1102 0
-1103 -9 0
-1103 214 0
-1104 -48 0
-1104 98 0
-1105 -53 0
-1105 93 0
-92 1103 1104 1105 0
-1106 -10 0
-1106 215 0
-1107 -49 0
-1107 99 0
-1108 -54 0
-1108 94 0
-92 1106 1107 1108 0
-1109 -1 0
-1109 129 0
-1110 -15 0
-1110 63 0
-1111 -18 0
-1111 60 0
-93 1109 1110 1111 0
-1112 -2 0
-1112 157 0
-1113 -23 0
-1113 71 0
-1114 -26 0
-1114 68 0
-93 1112 1113 1114 0
-1115 -3 0
-1115 178 0
-1116 -30 0
-1116 78 0
-1117 -33 0
-1117 75 0
-93 1115 1116 1117 0
-1118 -4 0
-1118 193 0
-1119 -36 0
-1119 84 0
-1120 -39 0
-1120 81 0
-93 1118 1119 1120 0
-1121 -5 0
-1121 203 0
-1122 -41 0
-1122 89 0
-1123 -44 0
-1123 86 0
-93 1121 1122 1123 0
-1124 -7 0
-1124 212 0
-1125 -46 0
-1125 96 0
-1126 -51 0
-1126 91 0
-93 1124 1125 1126 0
-1127 -8 0
-1127 214 0
-1128 -47 0
-1128 98 0
-1129 -53 0
-1129 92 0
-93 1127 1128 1129 0
-1130 -10 0
-1130 216 0
-1131 -49 0
-1131 100 0
-1132 -55 0
-1132 94 0
-93 1130 1131 1132 0
-1133 -1 0
-1133 130 0
-1134 -15 0
-1134 64 0
-1135 -19 0
-1135 60 0
-94 1133 1134 1135 0
-1136 -2 0
-1136 158 0
-1137 -23 0
-1137 72 0
-1138 -27 0
-1138 68 0
-94 1136 1137 1138 0
-1139 -3 0
-1139 179 0
-1140 -30 0
-1140 79 0
-1141 -34 0
-1141 75 0
-94 1139 1140 1141 0
-1142 -4 0
-1142 194 0
-1143 -36 0
-1143 85 0
-1144 -40 0
-1144 81 0
-94 1142 1143 1144 0
-1145 -5 0
-1145 204 0
-1146 -41 0
-1146 90 0
-1147 -45 0
-1147 86 0
-94 1145 1146 1147 0
-1148 -7 0
-1148 213 0
-1149 -46 0
-1149 97 0
-1150 -52 0
-1150 91 0
-94 1148 1149 1150 0
-1151 -8 0
-1151 215 0
-1152 -47 0
-1152 99 0
-1153 -54 0
-1153 92 0
-94 1151 1152 1153 0
-1154 -9 0
-1154 216 0
-1155 -48 0
-1155 100 0
-1156 -55 0
-1156 93 0
-94 1154 1155 1156 0
-1157 -1 0
-1157 131 0
-1158 -16 0
-1158 62 0
-1159 -17 0
-1159 61 0
-95 1157 1158 1159 0
-1160 -2 0
-1160 159 0
-1161 -24 0
-1161 70 0
-1162 -25 0
-1162 69 0
-95 1160 1161 1162 0
-1163 -3 0
-1163 180 0
-1164 -31 0
-1164 77 0
-1165 -32 0
-1165 76 0
-95 1163 1164 1165 0
-1166 -4 0
-1166 195 0
-1167 -37 0
-1167 83 0
-1168 -38 0
-1168 82 0
-95 1166 1167 1168 0
-1169 -5 0
-1169 205 0
-1170 -42 0
-1170 88 0
-1171 -43 0
-1171 87 0
-95 1169 1170 1171 0
-1172 -6 0
-1172 211 0
-1173 -46 0
-1173 92 0
-1174 -47 0
-1174 91 0
-95 1172 1173 1174 0
-1175 -9 0
-1175 217 0
-1176 -51 0
-1176 98 0
-1177 -53 0
-1177 96 0
-95 1175 1176 1177 0
-1178 -10 0
-1178 218 0
-1179 -52 0
-1179 99 0
-1180 -54 0
-1180 97 0
-95 1178 1179 1180 0
-1181 -1 0
-1181 132 0
-1182 -16 0
-1182 63 0
-1183 -18 0
-1183 61 0
-96 1181 1182 1183 0
-1184 -2 0
-1184 160 0
-1185 -24 0
-1185 71 0
-1186 -26 0
-1186 69 0
-96 1184 1185 1186 0
-1187 -3 0
-1187 181 0
-1188 -31 0
-1188 78 0
-1189 -33 0
-1189 76 0
-96 1187 1188 1189 0
-1190 -4 0
-1190 196 0
-1191 -37 0
-1191 84 0
-1192 -39 0
-1192 82 0
-96 1190 1191 1192 0
-1193 -5 0
-1193 206 0
-1194 -42 0
-1194 89 0
-1195 -44 0
-1195 87 0
-96 1193 1194 1195 0
-1196 -6 0
-1196 212 0
-1197 -46 0
-1197 93 0
-1198 -48 0
-1198 91 0
-96 1196 1197 1198 0
-1199 -8 0
-1199 217 0
-1200 -50 0
-1200 98 0
-1201 -53 0
-1201 95 0
-96 1199 1200 1201 0
-1202 -10 0
-1202 219 0
-1203 -52 0
-1203 100 0
-1204 -55 0
-1204 97 0
-96 1202 1203 1204 0
-1205 -1 0
-1205 133 0
-1206 -16 0
-1206 64 0
-1207 -19 0
-1207 61 0
-97 1205 1206 1207 0
-1208 -2 0
-1208 161 0
-1209 -24 0
-1209 72 0
-1210 -27 0
-1210 69 0
-97 1208 1209 1210 0
-1211 -3 0
-1211 182 0
-1212 -31 0
-1212 79 0
-1213 -34 0
-1213 76 0
-97 1211 1212 1213 0
-1214 -4 0
-1214 197 0
-1215 -37 0
-1215 85 0
-1216 -40 0
-1216 82 0
-97 1214 1215 1216 0
-1217 -5 0
-1217 207 0
-1218 -42 0
-1218 90 0
-1219 -45 0
-1219 87 0
-97 1217 1218 1219 0
-1220 -6 0
-1220 213 0
-1221 -46 0
-1221 94 0
-1222 -49 0
-1222 91 0
-97 1220 1221 1222 0
-1223 -8 0
-1223 218 0
-1224 -50 0
-1224 99 0
-1225 -54 0
-1225 95 0
-97 1223 1224 1225 0
-1226 -9 0
-1226 219 0
-1227 -51 0
-1227 100 0
-1228 -55 0
-1228 96 0
-97 1226 1227 1228 0
-1229 -1 0
-1229 134 0
-1230 -17 0
-1230 63 0
-1231 -18 0
-1231 62 0
-98 1229 1230 1231 0
-1232 -2 0
-1232 162 0
-1233 -25 0
-1233 71 0
-1234 -26 0
-1234 70 0
-98 1232 1233 1234 0
-1235 -3 0
-1235 183 0
-1236 -32 0
-1236 78 0
-1237 -33 0
-1237 77 0
-98 1235 1236 1237 0
-1238 -4 0
-1238 198 0
-1239 -38 0
-1239 84 0
-1240 -39 0
-1240 83 0
-98 1238 1239 1240 0
-1241 -5 0
-1241 208 0
-1242 -43 0
-1242 89 0
-1243 -44 0
-1243 88 0
-98 1241 1242 1243 0
-1244 -6 0
-1244 214 0
-1245 -47 0
-1245 93 0
-1246 -48 0
-1246 92 0
-98 1244 1245 1246 0
-1247 -7 0
-1247 217 0
-1248 -50 0
-1248 96 0
-1249 -51 0
-1249 95 0
-98 1247 1248 1249 0
-1250 -10 0
-1250 220 0
-1251 -54 0
-1251 100 0
-1252 -55 0
-1252 99 0
-98 1250 1251 1252 0
-1253 -1 0
-1253 135 0
-1254 -17 0
-1254 64 0
-1255 -19 0
-1255 62 0
-99 1253 1254 1255 0
-1256 -2 0
-1256 163 0
-1257 -25 0
-1257 72 0
-1258 -27 0
-1258 70 0
-99 1256 1257 1258 0
-1259 -3 0
-1259 184 0
-1260 -32 0
-1260 79 0
-1261 -34 0
-1261 77 0
-99 1259 1260 1261 0
-1262 -4 0
-1262 199 0
-1263 -38 0
-1263 85 0
-1264 -40 0
-1264 83 0
-99 1262 1263 1264 0
-1265 -5 0
-1265 209 0
-1266 -43 0
-1266 90 0
-1267 -45 0
-1267 88 0
-99 1265 1266 1267 0
-1268 -6 0
-1268 215 0
-1269 -47 0
-1269 94 0
-1270 -49 0
-1270 92 0
-99 1268 1269 1270 0
-1271 -7 0
-1271 218 0
-1272 -50 0
-1272 97 0
-1273 -52 0
-1273 95 0
-99 1271 1272 1273 0
-1274 -9 0
-1274 220 0
-1275 -53 0
-1275 100 0
-1276 -55 0
-1276 98 0
-99 1274 1275 1276 0
-1277 -1 0
-1277 136 0
-1278 -18 0
-1278 64 0
-1279 -19 0
-1279 63 0
-100 1277 1278 1279 0
-1280 -2 0
-1280 164 0
-1281 -26 0
-1281 72 0
-1282 -27 0
-1282 71 0
-100 1280 1281 1282 0
-1283 -3 0
-1283 185 0
-1284 -33 0
-1284 79 0
-1285 -34 0
-1285 78 0
-100 1283 1284 1285 0
-1286 -4 0
-1286 200 0
-1287 -39 0
-1287 85 0
-1288 -40 0
-1288 84 0
-100 1286 1287 1288 0
-1289 -5 0
-1289 210 0
-1290 -44 0
-1290 90 0
-1291 -45 0
-1291 89 0
-100 1289 1290 1291 0
-1292 -6 0
-1292 216 0
-1293 -48 0
-1293 94 0
-1294 -49 0
-1294 93 0
-100 1292 1293 1294 0
-1295 -7 0
-1295 219 0
-1296 -51 0
-1296 97 0
-1297 -52 0
-1297 96 0
-100 1295 1296 1297 0
-1298 -8 0
-1298 220 0
-1299 -53 0
-1299 99 0
-1300 -54 0
-1300 98 0
-100 1298 1299 1300 0
-1301 -1 0
-1301 65 0
-1302 -2 0
-1302 57 0
-1303 -3 0
-1303 56 0
-101 1301 1302 1303 0
-1304 -13 0
-1304 137 0
-1305 -21 0
-1305 109 0
-1306 -28 0
-1306 102 0
-101 1304 1305 1306 0
-1307 -14 0
-1307 138 0
-1308 -22 0
-1308 110 0
-1309 -29 0
-1309 103 0
-101 1307 1308 1309 0
-1310 -15 0
-1310 139 0
-1311 -23 0
-1311 111 0
-1312 -30 0
-1312 104 0
-101 1310 1311 1312 0
-1313 -16 0
-1313 140 0
-1314 -24 0
-1314 112 0
-1315 -31 0
-1315 105 0
-101 1313 1314 1315 0
-1316 -17 0
-1316 141 0
-1317 -25 0
-1317 113 0
-1318 -32 0
-1318 106 0
-101 1316 1317 1318 0
-1319 -18 0
-1319 142 0
-1320 -26 0
-1320 114 0
-1321 -33 0
-1321 107 0
-101 1319 1320 1321 0
-1322 -19 0
-1322 143 0
-1323 -27 0
-1323 115 0
-1324 -34 0
-1324 108 0
-101 1322 1323 1324 0
-1325 -1 0
-1325 66 0
-1326 -2 0
-1326 58 0
-1327 -4 0
-1327 56 0
-102 1325 1326 1327 0
-1328 -12 0
-1328 137 0
-1329 -20 0
-1329 109 0
-1330 -28 0
-1330 101 0
-102 1328 1329 1330 0
-1331 -14 0
-1331 144 0
-1332 -22 0
-1332 116 0
-1333 -35 0
-1333 103 0
-102 1331 1332 1333 0
-1334 -15 0
-1334 145 0
-1335 -23 0
-1335 117 0
-1336 -36 0
-1336 104 0
-102 1334 1335 1336 0
-1337 -16 0
-1337 146 0
-1338 -24 0
-1338 118 0
-1339 -37 0
-1339 105 0
-102 1337 1338 1339 0
-1340 -17 0
-1340 147 0
-1341 -25 0
-1341 119 0
-1342 -38 0
-1342 106 0
-102 1340 1341 1342 0
-1343 -18 0
-1343 148 0
-1344 -26 0
-1344 120 0
-1345 -39 0
-1345 107 0
-102 1343 1344 1345 0
-1346 -19 0
-1346 149 0
-1347 -27 0
-1347 121 0
-1348 -40 0
-1348 108 0
-102 1346 1347 1348 0
-1349 -1 0
-1349 67 0
-1350 -2 0
-1350 59 0
-1351 -5 0
-1351 56 0
-103 1349 1350 1351 0
-1352 -12 0
-1352 138 0
-1353 -20 0
-1353 110 0
-1354 -29 0
-1354 101 0
-103 1352 1353 1354 0
-1355 -13 0
-1355 144 0
-1356 -21 0
-1356 116 0
-1357 -35 0
-1357 102 0
-103 1355 1356 1357 0
-1358 -15 0
-1358 150 0
-1359 -23 0
-1359 122 0
-1360 -41 0
-1360 104 0
-103 1358 1359 1360 0
-1361 -16 0
-1361 151 0
-1362 -24 0
-1362 123 0
-1363 -42 0
-1363 105 0
-103 1361 1362 1363 0
-1364 -17 0
-1364 152 0
-1365 -25 0
-1365 124 0
-1366 -43 0
-1366 106 0
-103 1364 1365 1366 0
-1367 -18 0
-1367 153 0
-1368 -26 0
-1368 125 0
-1369 -44 0
-1369 107 0
-103 1367 1368 1369 0
-1370 -19 0
-1370 154 0
-1371 -27 0
-1371 126 0
-1372 -45 0
-1372 108 0
-103 1370 1371 1372 0
-1373 -1 0
-1373 68 0
-1374 -2 0
-1374 60 0
-1375 -6 0
-1375 56 0
-104 1373 1374 1375 0
-1376 -12 0
-1376 139 0
-1377 -20 0
-1377 111 0
-1378 -30 0
-1378 101 0
-104 1376 1377 1378 0
-1379 -13 0
-1379 145 0
-1380 -21 0
-1380 117 0
-1381 -36 0
-1381 102 0
-104 1379 1380 1381 0
-1382 -14 0
-1382 150 0
-1383 -22 0
-1383 122 0
-1384 -41 0
-1384 103 0
-104 1382 1383 1384 0
-1385 -16 0
-1385 155 0
-1386 -24 0
-1386 127 0
-1387 -46 0
-1387 105 0
-104 1385 1386 1387 0
-1388 -17 0
-1388 156 0
-1389 -25 0
-1389 128 0
-1390 -47 0
-1390 106 0
-104 1388 1389 1390 0
-1391 -18 0
-1391 157 0
-1392 -26 0
-1392 129 0
-1393 -48 0
-1393 107 0
-104 1391 1392 1393 0
-1394 -19 0
-1394 158 0
-1395 -27 0
-1395 130 0
-1396 -49 0
-1396 108 0
-104 1394 1395 1396 0
-1397 -1 0
-1397 69 0
-1398 -2 0
-1398 61 0
-1399 -7 0
-1399 56 0
-105 1397 1398 1399 0
-1400 -12 0
-1400 140 0
-1401 -20 0
-1401 112 0
-1402 -31 0
-1402 101 0
-105 1400 1401 1402 0
-1403 -13 0
-1403 146 0
-1404 -21 0
-1404 118 0
-1405 -37 0
-1405 102 0
-105 1403 1404 1405 0
-1406 -14 0
-1406 151 0
-1407 -22 0
-1407 123 0
-1408 -42 0
-1408 103 0
-105 1406 1407 1408 0
-1409 -15 0
-1409 155 0
-1410 -23 0
-1410 127 0
-1411 -46 0
-1411 104 0
-105 1409 1410 1411 0
-1412 -17 0
-1412 159 0
-1413 -25 0
-1413 131 0
-1414 -50 0
-1414 106 0
-105 1412 1413 1414 0
-1415 -18 0
-1415 160 0
-1416 -26 0
-1416 132 0
-1417 -51 0
-1417 107 0
-105 1415 1416 1417 0
-1418 -19 0
-1418 161 0
-1419 -27 0
-1419 133 0
-1420 -52 0
-1420 108 0
-105 1418 1419 1420 0
-1421 -1 0
-1421 70 0
-1422 -2 0
-1422 62 0
-1423 -8 0
-1423 56 0
-106 1421 1422 1423 0
-1424 -12 0
-1424 141 0
-1425 -20 0
-1425 113 0
-1426 -32 0
-1426 101 0
-106 1424 1425 1426 0
-1427 -13 0
-1427 147 0
-1428 -21 0
-1428 119 0
-1429 -38 0
-1429 102 0
-106 1427 1428 1429 0
-1430 -14 0
-1430 152 0
-1431 -22 0
-1431 124 0
-1432 -43 0
-1432 103 0
-106 1430 1431 1432 0
-1433 -15 0
-1433 156 0
-1434 -23 0
-1434 128 0
-1435 -47 0
-1435 104 0
-106 1433 1434 1435 0
-1436 -16 0
-1436 159 0
-1437 -24 0
-1437 131 0
-1438 -50 0
-1438 105 0
-106 1436 1437 1438 0
-1439 -18 0
-1439 162 0
-1440 -26 0
-1440 134 0
-1441 -53 0
-1441 107 0
-106 1439 1440 1441 0
-1442 -19 0
-1442 163 0
-1443 -27 0
-1443 135 0
-1444 -54 0
-1444 108 0
-106 1442 1443 1444 0
-1445 -1 0
-1445 71 0
-1446 -2 0
-1446 63 0
-1447 -9 0
-1447 56 0
-107 1445 1446 1447 0
-1448 -12 0
-1448 142 0
-1449 -20 0
-1449 114 0
-1450 -33 0
-1450 101 0
-107 1448 1449 1450 0
-1451 -13 0
-1451 148 0
-1452 -21 0
-1452 120 0
-1453 -39 0
-1453 102 0
-107 1451 1452 1453 0
-1454 -14 0
-1454 153 0
-1455 -22 0
-1455 125 0
-1456 -44 0
-1456 103 0
-107 1454 1455 1456 0
-1457 -15 0
-1457 157 0
-1458 -23 0
-1458 129 0
-1459 -48 0
-1459 104 0
-107 1457 1458 1459 0
-1460 -16 0
-1460 160 0
-1461 -24 0
-1461 132 0
-1462 -51 0
-1462 105 0
-107 1460 1461 1462 0
-1463 -17 0
-1463 162 0
-1464 -25 0
-1464 134 0
-1465 -53 0
-1465 106 0
-107 1463 1464 1465 0
-1466 -19 0
-1466 164 0
-1467 -27 0
-1467 136 0
-1468 -55 0
-1468 108 0
-107 1466 1467 1468 0
-1469 -1 0
-1469 72 0
-1470 -2 0
-1470 64 0
-1471 -10 0
-1471 56 0
-108 1469 1470 1471 0
-1472 -12 0
-1472 143 0
-1473 -20 0
-1473 115 0
-1474 -34 0
-1474 101 0
-108 1472 1473 1474 0
-1475 -13 0
-1475 149 0
-1476 -21 0
-1476 121 0
-1477 -40 0
-1477 102 0
-108 1475 1476 1477 0
-1478 -14 0
-1478 154 0
-1479 -22 0
-1479 126 0
-1480 -45 0
-1480 103 0
-108 1478 1479 1480 0
-1481 -15 0
-1481 158 0
-1482 -23 0
-1482 130 0
-1483 -49 0
-1483 104 0
-108 1481 1482 1483 0
-1484 -16 0
-1484 161 0
-1485 -24 0
-1485 133 0
-1486 -52 0
-1486 105 0
-108 1484 1485 1486 0
-1487 -17 0
-1487 163 0
-1488 -25 0
-1488 135 0
-1489 -54 0
-1489 106 0
-108 1487 1488 1489 0
-1490 -18 0
-1490 164 0
-1491 -26 0
-1491 136 0
-1492 -55 0
-1492 107 0
-108 1490 1491 1492 0
-1493 -1 0
-1493 73 0
-1494 -3 0
-1494 58 0
-1495 -4 0
-1495 57 0
-109 1493 1494 1495 0
-1496 -11 0
-1496 137 0
-1497 -20 0
-1497 102 0
-1498 -21 0
-1498 101 0
-109 1496 1497 1498 0
-1499 -14 0
-1499 165 0
-1500 -29 0
-1500 116 0
-1501 -35 0
-1501 110 0
-109 1499 1500 1501 0
-1502 -15 0
-1502 166 0
-1503 -30 0
-1503 117 0
-1504 -36 0
-1504 111 0
-109 1502 1503 1504 0
-1505 -16 0
-1505 167 0
-1506 -31 0
-1506 118 0
-1507 -37 0
-1507 112 0
-109 1505 1506 1507 0
-1508 -17 0
-1508 168 0
-1509 -32 0
-1509 119 0
-1510 -38 0
-1510 113 0
-109 1508 1509 1510 0
-1511 -18 0
-1511 169 0
-1512 -33 0
-1512 120 0
-1513 -39 0
-1513 114 0
-109 1511 1512 1513 0
-1514 -19 0
-1514 170 0
-1515 -34 0
-1515 121 0
-1516 -40 0
-1516 115 0
-109 1514 1515 1516 0
-1517 -1 0
-1517 74 0
-1518 -3 0
-1518 59 0
-1519 -5 0
-1519 57 0
-110 1517 1518 1519 0
-1520 -11 0
-1520 138 0
-1521 -20 0
-1521 103 0
-1522 -22 0
-1522 101 0
-110 1520 1521 1522 0
-1523 -13 0
-1523 165 0
-1524 -28 0
-1524 116 0
-1525 -35 0
-1525 109 0
-110 1523 1524 1525 0
-1526 -15 0
-1526 171 0
-1527 -30 0
-1527 122 0
-1528 -41 0
-1528 111 0
-110 1526 1527 1528 0
-1529 -16 0
-1529 172 0
-1530 -31 0
-1530 123 0
-1531 -42 0
-1531 112 0
-110 1529 1530 1531 0
-1532 -17 0
-1532 173 0
-1533 -32 0
-1533 124 0
-1534 -43 0
-1534 113 0
-110 1532 1533 1534 0
-1535 -18 0
-1535 174 0
-1536 -33 0
-1536 125 0
-1537 -44 0
-1537 114 0
-110 1535 1536 1537 0
-1538 -19 0
-1538 175 0
-1539 -34 0
-1539 126 0
-1540 -45 0
-1540 115 0
-110 1538 1539 1540 0
-1541 -1 0
-1541 75 0
-1542 -3 0
-1542 60 0
-1543 -6 0
-1543 57 0
-111 1541 1542 1543 0
-1544 -11 0
-1544 139 0
-1545 -20 0
-1545 104 0
-1546 -23 0
-1546 101 0
-111 1544 1545 1546 0
-1547 -13 0
-1547 166 0
-1548 -28 0
-1548 117 0
-1549 -36 0
-1549 109 0
-111 1547 1548 1549 0
-1550 -14 0
-1550 171 0
-1551 -29 0
-1551 122 0
-1552 -41 0
-1552 110 0
-111 1550 1551 1552 0
-1553 -16 0
-1553 176 0
-1554 -31 0
-1554 127 0
-1555 -46 0
-1555 112 0
-111 1553 1554 1555 0
-1556 -17 0
-1556 177 0
-1557 -32 0
-1557 128 0
-1558 -47 0
-1558 113 0
-111 1556 1557 1558 0
-1559 -18 0
-1559 178 0
-1560 -33 0
-1560 129 0
-1561 -48 0
-1561 114 0
-111 1559 1560 1561 0
-1562 -19 0
-1562 179 0
-1563 -34 0
-1563 130 0
-1564 -49 0
-1564 115 0
-111 1562 1563 1564 0
-1565 -1 0
-1565 76 0
-1566 -3 0
-1566 61 0
-1567 -7 0
-1567 57 0
-112 1565 1566 1567 0
-1568 -11 0
-1568 140 0
-1569 -20 0
-1569 105 0
-1570 -24 0
-1570 101 0
-112 1568 1569 1570 0
-1571 -13 0
-1571 167 0
-1572 -28 0
-1572 118 0
-1573 -37 0
-1573 109 0
-112 1571 1572 1573 0
-1574 -14 0
-1574 172 0
-1575 -29 0
-1575 123 0
-1576 -42 0
-1576 110 0
-112 1574 1575 1576 0
-1577 -15 0
-1577 176 0
-1578 -30 0
-1578 127 0
-1579 -46 0
-1579 111 0
-112 1577 1578 1579 0
-1580 -17 0
-1580 180 0
-1581 -32 0
-1581 131 0
-1582 -50 0
-1582 113 0
-112 1580 1581 1582 0
-1583 -18 0
-1583 181 0
-1584 -33 0
-1584 132 0
-1585 -51 0
-1585 114 0
-112 1583 1584 1585 0
-1586 -19 0
-1586 182 0
-1587 -34 0
-1587 133 0
-1588 -52 0
-1588 115 0
-112 1586 1587 1588 0
-1589 -1 0
-1589 77 0
-1590 -3 0
-1590 62 0
-1591 -8 0
-1591 57 0
-113 1589 1590 1591 0
-1592 -11 0
-1592 141 0
-1593 -20 0
-1593 106 0
-1594 -25 0
-1594 101 0
-113 1592 1593 1594 0
-1595 -13 0
-1595 168 0
-1596 -28 0
-1596 119 0
-1597 -38 0
-1597 109 0
-113 1595 1596 1597 0
-1598 -14 0
-1598 173 0
-1599 -29 0
-1599 124 0
-1600 -43 0
-1600 110 0
-113 1598 1599 1600 0
-1601 -15 0
-1601 177 0
-1602 -30 0
-1602 128 0
-1603 -47 0
-1603 111 0
-113 1601 1602 1603 0
-1604 -16 0
-1604 180 0
-1605 -31 0
-1605 131 0
-1606 -50 0
-1606 112 0
-113 1604 1605 1606 0
-1607 -18 0
-1607 183 0
-1608 -33 0
-1608 134 0
-1609 -53 0
-1609 114 0
-113 1607 1608 1609 0
-1610 -19 0
-1610 184 0
-1611 -34 0
-1611 135 0
-1612 -54 0
-1612 115 0
-113 1610 1611 1612 0
-1613 -1 0
-1613 78 0
-1614 -3 0
-1614 63 0
-1615 -9 0
-1615 57 0
-114 1613 1614 1615 0
-1616 -11 0
-1616 142 0
-1617 -20 0
-1617 107 0
-1618 -26 0
-1618 101 0
-114 1616 1617 1618 0
-1619 -13 0
-1619 169 0
-1620 -28 0
-1620 120 0
-1621 -39 0
-1621 109 0
-114 1619 1620 1621 0
-1622 -14 0
-1622 174 0
-1623 -29 0
-1623 125 0
-1624 -44 0
-1624 110 0
-114 1622 1623 1624 0
-1625 -15 0
-1625 178 0
-1626 -30 0
-1626 129 0
-1627 -48 0
-1627 111 0
-114 1625 1626 1627 0
-1628 -16 0
-1628 181 0
-1629 -31 0
-1629 132 0
-1630 -51 0
-1630 112 0
-114 1628 1629 1630 0
-1631 -17 0
-1631 183 0
-1632 -32 0
-1632 134 0
-1633 -53 0
-1633 113 0
-114 1631 1632 1633 0
-1634 -19 0
-1634 185 0
-1635 -34 0
-1635 136 0
-1636 -55 0
-1636 115 0
-114 1634 1635 1636 0
-1637 -1 0
-1637 79 0
-1638 -3 0
-1638 64 0
-1639 -10 0
-1639 57 0
-115 1637 1638 1639 0
-1640 -11 0
-1640 143 0
-1641 -20 0
-1641 108 0
-1642 -27 0
-1642 101 0
-115 1640 1641 1642 0
-1643 -13 0
-1643 170 0
-1644 -28 0
-1644 121 0
-1645 -40 0
-1645 109 0
-115 1643 1644 1645 0
-1646 -14 0
-1646 175 0
-1647 -29 0
-1647 126 0
-1648 -45 0
-1648 110 0
-115 1646 1647 1648 0
-1649 -15 0
-1649 179 0
-1650 -30 0
-1650 130 0
-1651 -49 0
-1651 111 0
-115 1649 1650 1651 0
-1652 -16 0
-1652 182 0
-1653 -31 0
-1653 133 0
-1654 -52 0
-1654 112 0
-115 1652 1653 1654 0
-1655 -17 0
-1655 184 0
-1656 -32 0
-1656 135 0
-1657 -54 0
-1657 113 0
-115 1655 1656 1657 0
-1658 -18 0
-1658 185 0
-1659 -33 0
-1659 136 0
-1660 -55 0
-1660 114 0
-115 1658 1659 1660 0
-1661 -1 0
-1661 80 0
-1662 -4 0
-1662 59 0
-1663 -5 0
-1663 58 0
-116 1661 1662 1663 0
-1664 -11 0
-1664 144 0
-1665 -21 0
-1665 103 0
-1666 -22 0
-1666 102 0
-116 1664 1665 1666 0
-1667 -12 0
-1667 165 0
-1668 -28 0
-1668 110 0
-1669 -29 0
-1669 109 0
-116 1667 1668 1669 0
-1670 -15 0
-1670 186 0
-1671 -36 0
-1671 122 0
-1672 -41 0
-1672 117 0
-116 1670 1671 1672 0
-1673 -16 0
-1673 187 0
-1674 -37 0
-1674 123 0
-1675 -42 0
-1675 118 0
-116 1673 1674 1675 0
-1676 -17 0
-1676 188 0
-1677 -38 0
-1677 124 0
-1678 -43 0
-1678 119 0
-116 1676 1677 1678 0
-1679 -18 0
-1679 189 0
-1680 -39 0
-1680 125 0
-1681 -44 0
-1681 120 0
-116 1679 1680 1681 0
-1682 -19 0
-1682 190 0
-1683 -40 0
-1683 126 0
-1684 -45 0
-1684 121 0
-116 1682 1683 1684 0
-1685 -1 0
-1685 81 0
-1686 -4 0
-1686 60 0
-1687 -6 0
-1687 58 0
-117 1685 1686 1687 0
-1688 -11 0
-1688 145 0
-1689 -21 0
-1689 104 0
-1690 -23 0
-1690 102 0
-117 1688 1689 1690 0
-1691 -12 0
-1691 166 0
-1692 -28 0
-1692 111 0
-1693 -30 0
-1693 109 0
-117 1691 1692 1693 0
-1694 -14 0
-1694 186 0
-1695 -35 0
-1695 122 0
-1696 -41 0
-1696 116 0
-117 1694 1695 1696 0
-1697 -16 0
-1697 191 0
-1698 -37 0
-1698 127 0
-1699 -46 0
-1699 118 0
-117 1697 1698 1699 0
-1700 -17 0
-1700 192 0
-1701 -38 0
-1701 128 0
-1702 -47 0
-1702 119 0
-117 1700 1701 1702 0
-1703 -18 0
-1703 193 0
-1704 -39 0
-1704 129 0
-1705 -48 0
-1705 120 0
-117 1703 1704 1705 0
-1706 -19 0
-1706 194 0
-1707 -40 0
-1707 130 0
-1708 -49 0
-1708 121 0
-117 1706 1707 1708 0
-1709 -1 0
-1709 82 0
-1710 -4 0
-1710 61 0
-1711 -7 0
-1711 58 0
-118 1709 1710 1711 0
-1712 -11 0
-1712 146 0
-1713 -21 0
-1713 105 0
-1714 -24 0
-1714 102 0
-118 1712 1713 1714 0
-1715 -12 0
-1715 167 0
-1716 -28 0
-1716 112 0
-1717 -31 0
-1717 109 0
-118 1715 1716 1717 0
-1718 -14 0
-1718 187 0
-1719 -35 0
-1719 123 0
-1720 -42 0
-1720 116 0
-118 1718 1719 1720 0
-1721 -15 0
-1721 191 0
-1722 -36 0
-1722 127 0
-1723 -46 0
-1723 117 0
-118 1721 1722 1723 0
-1724 -17 0
-1724 195 0
-1725 -38 0
-1725 131 0
-1726 -50 0
-1726 119 0
-118 1724 1725 1726 0
-1727 -18 0
-1727 196 0
-1728 -39 0
-1728 132 0
-1729 -51 0
-1729 120 0
-118 1727 1728 1729 0
-1730 -19 0
-1730 197 0
-1731 -40 0
-1731 133 0
-1732 -52 0
-1732 121 0
-118 1730 1731 1732 0
-1733 -1 0
-1733 83 0
-1734 -4 0
-1734 62 0
-1735 -8 0
-1735 58 0
-119 1733 1734 1735 0
-1736 -11 0
-1736 147 0
-1737 -21 0
-1737 106 0
-1738 -25 0
-1738 102 0
-119 1736 1737 1738 0
-1739 -12 0
-1739 168 0
-1740 -28 0
-1740 113 0
-1741 -32 0
-1741 109 0
-119 1739 1740 1741 0
-1742 -14 0
-1742 188 0
-1743 -35 0
-1743 124 0
-1744 -43 0
-1744 116 0
-119 1742 1743 1744 0
-1745 -15 0
-1745 192 0
-1746 -36 0
-1746 128 0
-1747 -47 0
-1747 117 0
-119 1745 1746 1747 0
-1748 -16 0
-1748 195 0
-1749 -37 0
-1749 131 0
-1750 -50 0
-1750 118 0
-119 1748 1749 1750 0
-1751 -18 0
-1751 198 0
-1752 -39 0
-1752 134 0
-1753 -53 0
-1753 120 0
-119 1751 1752 1753 0
-1754 -19 0
-1754 199 0
-1755 -40 0
-1755 135 0
-1756 -54 0
-1756 121 0
-119 1754 1755 1756 0
-1757 -1 0
-1757 84 0
-1758 -4 0
-1758 63 0
-1759 -9 0
-1759 58 0
-120 1757 1758 1759 0
-1760 -11 0
-1760 148 0
-1761 -21 0
-1761 107 0
-1762 -26 0
-1762 102 0
-120 1760 1761 1762 0
-1763 -12 0
-1763 169 0
-1764 -28 0
-1764 114 0
-1765 -33 0
-1765 109 0
-120 1763 1764 1765 0
-1766 -14 0
-1766 189 0
-1767 -35 0
-1767 125 0
-1768 -44 0
-1768 116 0
-120 1766 1767 1768 0
-1769 -15 0
-1769 193 0
-1770 -36 0
-1770 129 0
-1771 -48 0
-1771 117 0
-120 1769 1770 1771 0
-1772 -16 0
-1772 196 0
-1773 -37 0
-1773 132 0
-1774 -51 0
-1774 118 0
-120 1772 1773 1774 0
-1775 -17 0
-1775 198 0
-1776 -38 0
-1776 134 0
-1777 -53 0
-1777 119 0
-120 1775 1776 1777 0
-1778 -19 0
-1778 200 0
-1779 -40 0
-1779 136 0
-1780 -55 0
-1780 121 0
-120 1778 1779 1780 0
-1781 -1 0
-1781 85 0
-1782 -4 0
-1782 64 0
-1783 -10 0
-1783 58 0
-121 1781 1782 1783 0
-1784 -11 0
-1784 149 0
-1785 -21 0
-1785 108 0
-1786 -27 0
-1786 102 0
-121 1784 1785 1786 0
-1787 -12 0
-1787 170 0
-1788 -28 0
-1788 115 0
-1789 -34 0
-1789 109 0
-121 1787 1788 1789 0
-1790 -14 0
-1790 190 0
-1791 -35 0
-1791 126 0
-1792 -45 0
-1792 116 0
-121 1790 1791 1792 0
-1793 -15 0
-1793 194 0
-1794 -36 0
-1794 130 0
-1795 -49 0
-1795 117 0
-121 1793 1794 1795 0
-1796 -16 0
-1796 197 0
-1797 -37 0
-1797 133 0
-1798 -52 0
-1798 118 0
-121 1796 1797 1798 0
-1799 -17 0
-1799 199 0
-1800 -38 0
-1800 135 0
-1801 -54 0
-1801 119 0
-121 1799 1800 1801 0
-1802 -18 0
-1802 200 0
-1803 -39 0
-1803 136 0
-1804 -55 0
-1804 120 0
-121 1802 1803 1804 0
-1805 -1 0
-1805 86 0
-1806 -5 0
-1806 60 0
-1807 -6 0
-1807 59 0
-122 1805 1806 1807 0
-1808 -11 0
-1808 150 0
-1809 -22 0
-1809 104 0
-1810 -23 0
-1810 103 0
-122 1808 1809 1810 0
-1811 -12 0
-1811 171 0
-1812 -29 0
-1812 111 0
-1813 -30 0
-1813 110 0
-122 1811 1812 1813 0
-1814 -13 0
-1814 186 0
-1815 -35 0
-1815 117 0
-1816 -36 0
-1816 116 0
-122 1814 1815 1816 0
-1817 -16 0
-1817 201 0
-1818 -42 0
-1818 127 0
-1819 -46 0
-1819 123 0
-122 1817 1818 1819 0
-1820 -17 0
-1820 202 0
-1821 -43 0
-1821 128 0
-1822 -47 0
-1822 124 0
-122 1820 1821 1822 0
-1823 -18 0
-1823 203 0
-1824 -44 0
-1824 129 0
-1825 -48 0
-1825 125 0
-122 1823 1824 1825 0
-1826 -19 0
-1826 204 0
-1827 -45 0
-1827 130 0
-1828 -49 0
-1828 126 0
-122 1826 1827 1828 0
-1829 -1 0
-1829 87 0
-1830 -5 0
-1830 61 0
-1831 -7 0
-1831 59 0
-123 1829 1830 1831 0
-1832 -11 0
-1832 151 0
-1833 -22 0
-1833 105 0
-1834 -24 0
-1834 103 0
-123 1832 1833 1834 0
-1835 -12 0
-1835 172 0
-1836 -29 0
-1836 112 0
-1837 -31 0
-1837 110 0
-123 1835 1836 1837 0
-1838 -13 0
-1838 187 0
-1839 -35 0
-1839 118 0
-1840 -37 0
-1840 116 0
-123 1838 1839 1840 0
-1841 -15 0
-1841 201 0
-1842 -41 0
-1842 127 0
-1843 -46 0
-1843 122 0
-123 1841 1842 1843 0
-1844 -17 0
-1844 205 0
-1845 -43 0
-1845 131 0
-1846 -50 0
-1846 124 0
-123 1844 1845 1846 0
-1847 -18 0
-1847 206 0
-1848 -44 0
-1848 132 0
-1849 -51 0
-1849 125 0
-123 1847 1848 1849 0
-1850 -19 0
-1850 207 0
-1851 -45 0
-1851 133 0
-1852 -52 0
-1852 126 0
-123 1850 1851 1852 0
-1853 -1 0
-1853 88 0
-1854 -5 0
-1854 62 0
-1855 -8 0
-1855 59 0
-124 1853 1854 1855 0
-1856 -11 0
-1856 152 0
-1857 -22 0
-1857 106 0
-1858 -25 0
-1858 103 0
-124 1856 1857 1858 0
-1859 -12 0
-1859 173 0
-1860 -29 0
-1860 113 0
-1861 -32 0
-1861 110 0
-124 1859 1860 1861 0
-1862 -13 0
-1862 188 0
-1863 -35 0
-1863 119 0
-1864 -38 0
-1864 116 0
-124 1862 1863 1864 0
-1865 -15 0
-1865 202 0
-1866 -41 0
-1866 128 0
-1867 -47 0
-1867 122 0
-124 1865 1866 1867 0
-1868 -16 0
-1868 205 0
-1869 -42 0
-1869 131 0
-1870 -50 0
-1870 123 0
-124 1868 1869 1870 0
-1871 -18 0
-1871 208 0
-1872 -44 0
-1872 134 0
-1873 -53 0
-1873 125 0
-124 1871 1872 1873 0
-1874 -19 0
-1874 209 0
-1875 -45 0
-1875 135 0
-1876 -54 0
-1876 126 0
-124 1874 1875 1876 0
-1877 -1 0
-1877 89 0
-1878 -5 0
-1878 63 0
-1879 -9 0
-1879 59 0
-125 1877 1878 1879 0
-1880 -11 0
-1880 153 0
-1881 -22 0
-1881 107 0
-1882 -26 0
-1882 103 0
-125 1880 1881 1882 0
-1883 -12 0
-1883 174 0
-1884 -29 0
-1884 114 0
-1885 -33 0
-1885 110 0
-125 1883 1884 1885 0
-1886 -13 0
-1886 189 0
-1887 -35 0
-1887 120 0
-1888 -39 0
-1888 116 0
-125 1886 1887 1888 0
-1889 -15 0
-1889 203 0
-1890 -41 0
-1890 129 0
-1891 -48 0
-1891 122 0
-125 1889 1890 1891 0
-1892 -16 0
-1892 206 0
-1893 -42 0
-1893 132 0
-1894 -51 0
-1894 123 0
-125 1892 1893 1894 0
-1895 -17 0
-1895 208 0
-1896 -43 0
-1896 134 0
-1897 -53 0
-1897 124 0
-125 1895 1896 1897 0
-1898 -19 0
-1898 210 0
-1899 -45 0
-1899 136 0
-1900 -55 0
-1900 126 0
-125 1898 1899 1900 0
-1901 -1 0
-1901 90 0
-1902 -5 0
-1902 64 0
-1903 -10 0
-1903 59 0
-126 1901 1902 1903 0
-1904 -11 0
-1904 154 0
-1905 -22 0
-1905 108 0
-1906 -27 0
-1906 103 0
-126 1904 1905 1906 0
-1907 -12 0
-1907 175 0
-1908 -29 0
-1908 115 0
-1909 -34 0
-1909 110 0
-126 1907 1908 1909 0
-1910 -13 0
-1910 190 0
-1911 -35 0
-1911 121 0
-1912 -40 0
-1912 116 0
-126 1910 1911 1912 0
-1913 -15 0
-1913 204 0
-1914 -41 0
-1914 130 0
-1915 -49 0
-1915 122 0
-126 1913 1914 1915 0
-1916 -16 0
-1916 207 0
-1917 -42 0
-1917 133 0
-1918 -52 0
-1918 123 0
-126 1916 1917 1918 0
-1919 -17 0
-1919 209 0
-1920 -43 0
-1920 135 0
-1921 -54 0
-1921 124 0
-126 1919 1920 1921 0
-1922 -18 0
-1922 210 0
-1923 -44 0
-1923 136 0
-1924 -55 0
-1924 125 0
-126 1922 1923 1924 0
-1925 -1 0
-1925 91 0
-1926 -6 0
-1926 61 0
-1927 -7 0
-1927 60 0
-127 1925 1926 1927 0
-1928 -11 0
-1928 155 0
-1929 -23 0
-1929 105 0
-1930 -24 0
-1930 104 0
-127 1928 1929 1930 0
-1931 -12 0
-1931 176 0
-1932 -30 0
-1932 112 0
-1933 -31 0
-1933 111 0
-127 1931 1932 1933 0
-1934 -13 0
-1934 191 0
-1935 -36 0
-1935 118 0
-1936 -37 0
-1936 117 0
-127 1934 1935 1936 0
-1937 -14 0
-1937 201 0
-1938 -41 0
-1938 123 0
-1939 -42 0
-1939 122 0
-127 1937 1938 1939 0
-1940 -17 0
-1940 211 0
-1941 -47 0
-1941 131 0
-1942 -50 0
-1942 128 0
-127 1940 1941 1942 0
-1943 -18 0
-1943 212 0
-1944 -48 0
-1944 132 0
-1945 -51 0
-1945 129 0
-127 1943 1944 1945 0
-1946 -19 0
-1946 213 0
-1947 -49 0
-1947 133 0
-1948 -52 0
-1948 130 0
-127 1946 1947 1948 0
-1949 -1 0
-1949 92 0
-1950 -6 0
-1950 62 0
-1951 -8 0
-1951 60 0
-128 1949 1950 1951 0
-1952 -11 0
-1952 156 0
-1953 -23 0
-1953 106 0
-1954 -25 0
-1954 104 0
-128 1952 1953 1954 0
-1955 -12 0
-1955 177 0
-1956 -30 0
-1956 113 0
-1957 -32 0
-1957 111 0
-128 1955 1956 1957 0
-1958 -13 0
-1958 192 0
-1959 -36 0
-1959 119 0
-1960 -38 0
-1960 117 0
-128 1958 1959 1960 0
-1961 -14 0
-1961 202 0
-1962 -41 0
-1962 124 0
-1963 -43 0
-1963 122 0
-128 1961 1962 1963 0
-1964 -16 0
-1964 211 0
-1965 -46 0
-1965 131 0
-1966 -50 0
-1966 127 0
-128 1964 1965 1966 0
-1967 -18 0
-1967 214 0
-1968 -48 0
-1968 134 0
-1969 -53 0
-1969 129 0
-128 1967 1968 1969 0
-1970 -19 0
-1970 215 0
-1971 -49 0
-1971 135 0
-1972 -54 0
-1972 130 0
-128 1970 1971 1972 0
-1973 -1 0
-1973 93 0
-1974 -6 0
-1974 63 0
-1975 -9 0
-1975 60 0
-129 1973 1974 1975 0
-1976 -11 0
-1976 157 0
-1977 -23 0
-1977 107 0
-1978 -26 0
-1978 104 0
-129 1976 1977 1978 0
-1979 -12 0
-1979 178 0
-1980 -30 0
-1980 114 0
-1981 -33 0
-1981 111 0
-129 1979 1980 1981 0
-1982 -13 0
-1982 193 0
-1983 -36 0
-1983 120 0
-1984 -39 0
-1984 117 0
-129 1982 1983 1984 0
-1985 -14 0
-1985 203 0
-1986 -41 0
-1986 125 0
-1987 -44 0
-1987 122 0
-129 1985 1986 1987 0
-1988 -16 0
-1988 212 0
-1989 -46 0
-1989 132 0
-1990 -51 0
-1990 127 0
-129 1988 1989 1990 0
-1991 -17 0
-1991 214 0
-1992 -47 0
-1992 134 0
-1993 -53 0
-1993 128 0
-129 1991 1992 1993 0
-1994 -19 0
-1994 216 0
-1995 -49 0
-1995 136 0
-1996 -55 0
-1996 130 0
-129 1994 1995 1996 0
-1997 -1 0
-1997 94 0
-1998 -6 0
-1998 64 0
-1999 -10 0
-1999 60 0
-130 1997 1998 1999 0
-2000 -11 0
-2000 158 0
-2001 -23 0
-2001 108 0
-2002 -27 0
-2002 104 0
-130 2000 2001 2002 0
-2003 -12 0
-2003 179 0
-2004 -30 0
-2004 115 0
-2005 -34 0
-2005 111 0
-130 2003 2004 2005 0
-2006 -13 0
-2006 194 0
-2007 -36 0
-2007 121 0
-2008 -40 0
-2008 117 0
-130 2006 2007 2008 0
-2009 -14 0
-2009 204 0
-2010 -41 0
-2010 126 0
-2011 -45 0
-2011 122 0
-130 2009 2010 2011 0
-2012 -16 0
-2012 213 0
-2013 -46 0
-2013 133 0
-2014 -52 0
-2014 127 0
-130 2012 2013 2014 0
-2015 -17 0
-2015 215 0
-2016 -47 0
-2016 135 0
-2017 -54 0
-2017 128 0
-130 2015 2016 2017 0
-2018 -18 0
-2018 216 0
-2019 -48 0
-2019 136 0
-2020 -55 0
-2020 129 0
-130 2018 2019 2020 0
-2021 -1 0
-2021 95 0
-2022 -7 0
-2022 62 0
-2023 -8 0
-2023 61 0
-131 2021 2022 2023 0
-2024 -11 0
-2024 159 0
-2025 -24 0
-2025 106 0
-2026 -25 0
-2026 105 0
-131 2024 2025 2026 0
-2027 -12 0
-2027 180 0
-2028 -31 0
-2028 113 0
-2029 -32 0
-2029 112 0
-131 2027 2028 2029 0
-2030 -13 0
-2030 195 0
-2031 -37 0
-2031 119 0
-2032 -38 0
-2032 118 0
-131 2030 2031 2032 0
-2033 -14 0
-2033 205 0
-2034 -42 0
-2034 124 0
-2035 -43 0
-2035 123 0
-131 2033 2034 2035 0
-2036 -15 0
-2036 211 0
-2037 -46 0
-2037 128 0
-2038 -47 0
-2038 127 0
-131 2036 2037 2038 0
-2039 -18 0
-2039 217 0
-2040 -51 0
-2040 134 0
-2041 -53 0
-2041 132 0
-131 2039 2040 2041 0
-2042 -19 0
-2042 218 0
-2043 -52 0
-2043 135 0
-2044 -54 0
-2044 133 0
-131 2042 2043 2044 0
-2045 -1 0
-2045 96 0
-2046 -7 0
-2046 63 0
-2047 -9 0
-2047 61 0
-132 2045 2046 2047 0
-2048 -11 0
-2048 160 0
-2049 -24 0
-2049 107 0
-2050 -26 0
-2050 105 0
-132 2048 2049 2050 0
-2051 -12 0
-2051 181 0
-2052 -31 0
-2052 114 0
-2053 -33 0
-2053 112 0
-132 2051 2052 2053 0
-2054 -13 0
-2054 196 0
-2055 -37 0
-2055 120 0
-2056 -39 0
-2056 118 0
-132 2054 2055 2056 0
-2057 -14 0
-2057 206 0
-2058 -42 0
-2058 125 0
-2059 -44 0
-2059 123 0
-132 2057 2058 2059 0
-2060 -15 0
-2060 212 0
-2061 -46 0
-2061 129 0
-2062 -48 0
-2062 127 0
-132 2060 2061 2062 0
-2063 -17 0
-2063 217 0
-2064 -50 0
-2064 134 0
-2065 -53 0
-2065 131 0
-132 2063 2064 2065 0
-2066 -19 0
-2066 219 0
-2067 -52 0
-2067 136 0
-2068 -55 0
-2068 133 0
-132 2066 2067 2068 0
-2069 -1 0
-2069 97 0
-2070 -7 0
-2070 64 0
-2071 -10 0
-2071 61 0
-133 2069 2070 2071 0
-2072 -11 0
-2072 161 0
-2073 -24 0
-2073 108 0
-2074 -27 0
-2074 105 0
-133 2072 2073 2074 0
-2075 -12 0
-2075 182 0
-2076 -31 0
-2076 115 0
-2077 -34 0
-2077 112 0
-133 2075 2076 2077 0
-2078 -13 0
-2078 197 0
-2079 -37 0
-2079 121 0
-2080 -40 0
-2080 118 0
-133 2078 2079 2080 0
-2081 -14 0
-2081 207 0
-2082 -42 0
-2082 126 0
-2083 -45 0
-2083 123 0
-133 2081 2082 2083 0
-2084 -15 0
-2084 213 0
-2085 -46 0
-2085 130 0
-2086 -49 0
-2086 127 0
-133 2084 2085 2086 0
-2087 -17 0
-2087 218 0
-2088 -50 0
-2088 135 0
-2089 -54 0
-2089 131 0
-133 2087 2088 2089 0
-2090 -18 0
-2090 219 0
-2091 -51 0
-2091 136 0
-2092 -55 0
-2092 132 0
-133 2090 2091 2092 0
-2093 -1 0
-2093 98 0
-2094 -8 0
-2094 63 0
-2095 -9 0
-2095 62 0
-134 2093 2094 2095 0
-2096 -11 0
-2096 162 0
-2097 -25 0
-2097 107 0
-2098 -26 0
-2098 106 0
-134 2096 2097 2098 0
-2099 -12 0
-2099 183 0
-2100 -32 0
-2100 114 0
-2101 -33 0
-2101 113 0
-134 2099 2100 2101 0
-2102 -13 0
-2102 198 0
-2103 -38 0
-2103 120 0
-2104 -39 0
-2104 119 0
-134 2102 2103 2104 0
-2105 -14 0
-2105 208 0
-2106 -43 0
-2106 125 0
-2107 -44 0
-2107 124 0
-134 2105 2106 2107 0
-2108 -15 0
-2108 214 0
-2109 -47 0
-2109 129 0
-2110 -48 0
-2110 128 0
-134 2108 2109 2110 0
-2111 -16 0
-2111 217 0
-2112 -50 0
-2112 132 0
-2113 -51 0
-2113 131 0
-134 2111 2112 2113 0
-2114 -19 0
-2114 220 0
-2115 -54 0
-2115 136 0
-2116 -55 0
-2116 135 0
-134 2114 2115 2116 0
-2117 -1 0
-2117 99 0
-2118 -8 0
-2118 64 0
-2119 -10 0
-2119 62 0
-135 2117 2118 2119 0
-2120 -11 0
-2120 163 0
-2121 -25 0
-2121 108 0
-2122 -27 0
-2122 106 0
-135 2120 2121 2122 0
-2123 -12 0
-2123 184 0
-2124 -32 0
-2124 115 0
-2125 -34 0
-2125 113 0
-135 2123 2124 2125 0
-2126 -13 0
-2126 199 0
-2127 -38 0
-2127 121 0
-2128 -40 0
-2128 119 0
-135 2126 2127 2128 0
-2129 -14 0
-2129 209 0
-2130 -43 0
-2130 126 0
-2131 -45 0
-2131 124 0
-135 2129 2130 2131 0
-2132 -15 0
-2132 215 0
-2133 -47 0
-2133 130 0
-2134 -49 0
-2134 128 0
-135 2132 2133 2134 0
-2135 -16 0
-2135 218 0
-2136 -50 0
-2136 133 0
-2137 -52 0
-2137 131 0
-135 2135 2136 2137 0
-2138 -18 0
-2138 220 0
-2139 -53 0
-2139 136 0
-2140 -55 0
-2140 134 0
-135 2138 2139 2140 0
-2141 -1 0
-2141 100 0
-2142 -9 0
-2142 64 0
-2143 -10 0
-2143 63 0
-136 2141 2142 2143 0
-2144 -11 0
-2144 164 0
-2145 -26 0
-2145 108 0
-2146 -27 0
-2146 107 0
-136 2144 2145 2146 0
-2147 -12 0
-2147 185 0
-2148 -33 0
-2148 115 0
-2149 -34 0
-2149 114 0
-136 2147 2148 2149 0
-2150 -13 0
-2150 200 0
-2151 -39 0
-2151 121 0
-2152 -40 0
-2152 120 0
-136 2150 2151 2152 0
-2153 -14 0
-2153 210 0
-2154 -44 0
-2154 126 0
-2155 -45 0
-2155 125 0
-136 2153 2154 2155 0
-2156 -15 0
-2156 216 0
-2157 -48 0
-2157 130 0
-2158 -49 0
-2158 129 0
-136 2156 2157 2158 0
-2159 -16 0
-2159 219 0
-2160 -51 0
-2160 133 0
-2161 -52 0
-2161 132 0
-136 2159 2160 2161 0
-2162 -17 0
-2162 220 0
-2163 -53 0
-2163 135 0
-2164 -54 0
-2164 134 0
-136 2162 2163 2164 0
-2165 -2 0
-2165 73 0
-2166 -3 0
-2166 66 0
-2167 -4 0
-2167 65 0
-137 2165 2166 2167 0
-2168 -11 0
-2168 109 0
-2169 -12 0
-2169 102 0
-2170 -13 0
-2170 101 0
-137 2168 2169 2170 0
-2171 -22 0
-2171 165 0
-2172 -29 0
-2172 144 0
-2173 -35 0
-2173 138 0
-137 2171 2172 2173 0
-2174 -23 0
-2174 166 0
-2175 -30 0
-2175 145 0
-2176 -36 0
-2176 139 0
-137 2174 2175 2176 0
-2177 -24 0
-2177 167 0
-2178 -31 0
-2178 146 0
-2179 -37 0
-2179 140 0
-137 2177 2178 2179 0
-2180 -25 0
-2180 168 0
-2181 -32 0
-2181 147 0
-2182 -38 0
-2182 141 0
-137 2180 2181 2182 0
-2183 -26 0
-2183 169 0
-2184 -33 0
-2184 148 0
-2185 -39 0
-2185 142 0
-137 2183 2184 2185 0
-2186 -27 0
-2186 170 0
-2187 -34 0
-2187 149 0
-2188 -40 0
-2188 143 0
-137 2186 2187 2188 0
-2189 -2 0
-2189 74 0
-2190 -3 0
-2190 67 0
-2191 -5 0
-2191 65 0
-138 2189 2190 2191 0
-2192 -11 0
-2192 110 0
-2193 -12 0
-2193 103 0
-2194 -14 0
-2194 101 0
-138 2192 2193 2194 0
-2195 -21 0
-2195 165 0
-2196 -28 0
-2196 144 0
-2197 -35 0
-2197 137 0
-138 2195 2196 2197 0
-2198 -23 0
-2198 171 0
-2199 -30 0
-2199 150 0
-2200 -41 0
-2200 139 0
-138 2198 2199 2200 0
-2201 -24 0
-2201 172 0
-2202 -31 0
-2202 151 0
-2203 -42 0
-2203 140 0
-138 2201 2202 2203 0
-2204 -25 0
-2204 173 0
-2205 -32 0
-2205 152 0
-2206 -43 0
-2206 141 0
-138 2204 2205 2206 0
-2207 -26 0
-2207 174 0
-2208 -33 0
-2208 153 0
-2209 -44 0
-2209 142 0
-138 2207 2208 2209 0
-2210 -27 0
-2210 175 0
-2211 -34 0
-2211 154 0
-2212 -45 0
-2212 143 0
-138 2210 2211 2212 0
-2213 -2 0
-2213 75 0
-2214 -3 0
-2214 68 0
-2215 -6 0
-2215 65 0
-139 2213 2214 2215 0
-2216 -11 0
-2216 111 0
-2217 -12 0
-2217 104 0
-2218 -15 0
-2218 101 0
-139 2216 2217 2218 0
-2219 -21 0
-2219 166 0
-2220 -28 0
-2220 145 0
-2221 -36 0
-2221 137 0
-139 2219 2220 2221 0
-2222 -22 0
-2222 171 0
-2223 -29 0
-2223 150 0
-2224 -41 0
-2224 138 0
-139 2222 2223 2224 0
-2225 -24 0
-2225 176 0
-2226 -31 0
-2226 155 0
-2227 -46 0
-2227 140 0
-139 2225 2226 2227 0
-2228 -25 0
-2228 177 0
-2229 -32 0
-2229 156 0
-2230 -47 0
-2230 141 0
-139 2228 2229 2230 0
-2231 -26 0
-2231 178 0
-2232 -33 0
-2232 157 0
-2233 -48 0
-2233 142 0
-139 2231 2232 2233 0
-2234 -27 0
-2234 179 0
-2235 -34 0
-2235 158 0
-2236 -49 0
-2236 143 0
-139 2234 2235 2236 0
-2237 -2 0
-2237 76 0
-2238 -3 0
-2238 69 0
-2239 -7 0
-2239 65 0
-140 2237 2238 2239 0
-2240 -11 0
-2240 112 0
-2241 -12 0
-2241 105 0
-2242 -16 0
-2242 101 0
-140 2240 2241 2242 0
-2243 -21 0
-2243 167 0
-2244 -28 0
-2244 146 0
-2245 -37 0
-2245 137 0
-140 2243 2244 2245 0
-2246 -22 0
-2246 172 0
-2247 -29 0
-2247 151 0
-2248 -42 0
-2248 138 0
-140 2246 2247 2248 0
-2249 -23 0
-2249 176 0
-2250 -30 0
-2250 155 0
-2251 -46 0
-2251 139 0
-140 2249 2250 2251 0
-2252 -25 0
-2252 180 0
-2253 -32 0
-2253 159 0
-2254 -50 0
-2254 141 0
-140 2252 2253 2254 0
-2255 -26 0
-2255 181 0
-2256 -33 0
-2256 160 0
-2257 -51 0
-2257 142 0
-140 2255 2256 2257 0
-2258 -27 0
-2258 182 0
-2259 -34 0
-2259 161 0
-2260 -52 0
-2260 143 0
-140 2258 2259 2260 0
-2261 -2 0
-2261 77 0
-2262 -3 0
-2262 70 0
-2263 -8 0
-2263 65 0
-141 2261 2262 2263 0
-2264 -11 0
-2264 113 0
-2265 -12 0
-2265 106 0
-2266 -17 0
-2266 101 0
-141 2264 2265 2266 0
-2267 -21 0
-2267 168 0
-2268 -28 0
-2268 147 0
-2269 -38 0
-2269 137 0
-141 2267 2268 2269 0
-2270 -22 0
-2270 173 0
-2271 -29 0
-2271 152 0
-2272 -43 0
-2272 138 0
-141 2270 2271 2272 0
-2273 -23 0
-2273 177 0
-2274 -30 0
-2274 156 0
-2275 -47 0
-2275 139 0
-141 2273 2274 2275 0
-2276 -24 0
-2276 180 0
-2277 -31 0
-2277 159 0
-2278 -50 0
-2278 140 0
-141 2276 2277 2278 0
-2279 -26 0
-2279 183 0
-2280 -33 0
-2280 162 0
-2281 -53 0
-2281 142 0
-141 2279 2280 2281 0
-2282 -27 0
-2282 184 0
-2283 -34 0
-2283 163 0
-2284 -54 0
-2284 143 0
-141 2282 2283 2284 0
-2285 -2 0
-2285 78 0
-2286 -3 0
-2286 71 0
-2287 -9 0
-2287 65 0
-142 2285 2286 2287 0
-2288 -11 0
-2288 114 0
-2289 -12 0
-2289 107 0
-2290 -18 0
-2290 101 0
-142 2288 2289 2290 0
-2291 -21 0
-2291 169 0
-2292 -28 0
-2292 148 0
-2293 -39 0
-2293 137 0
-142 2291 2292 2293 0
-2294 -22 0
-2294 174 0
-2295 -29 0
-2295 153 0
-2296 -44 0
-2296 138 0
-142 2294 2295 2296 0
-2297 -23 0
-2297 178 0
-2298 -30 0
-2298 157 0
-2299 -48 0
-2299 139 0
-142 2297 2298 2299 0
-2300 -24 0
-2300 181 0
-2301 -31 0
-2301 160 0
-2302 -51 0
-2302 140 0
-142 2300 2301 2302 0
-2303 -25 0
-2303 183 0
-2304 -32 0
-2304 162 0
-2305 -53 0
-2305 141 0
-142 2303 2304 2305 0
-2306 -27 0
-2306 185 0
-2307 -34 0
-2307 164 0
-2308 -55 0
-2308 143 0
-142 2306 2307 2308 0
-2309 -2 0
-2309 79 0
-2310 -3 0
-2310 72 0
-2311 -10 0
-2311 65 0
-143 2309 2310 2311 0
-2312 -11 0
-2312 115 0
-2313 -12 0
-2313 108 0
-2314 -19 0
-2314 101 0
-143 2312 2313 2314 0
-2315 -21 0
-2315 170 0
-2316 -28 0
-2316 149 0
-2317 -40 0
-2317 137 0
-143 2315 2316 2317 0
-2318 -22 0
-2318 175 0
-2319 -29 0
-2319 154 0
-2320 -45 0
-2320 138 0
-143 2318 2319 2320 0
-2321 -23 0
-2321 179 0
-2322 -30 0
-2322 158 0
-2323 -49 0
-2323 139 0
-143 2321 2322 2323 0
-2324 -24 0
-2324 182 0
-2325 -31 0
-2325 161 0
-2326 -52 0
-2326 140 0
-143 2324 2325 2326 0
-2327 -25 0
-2327 184 0
-2328 -32 0
-2328 163 0
-2329 -54 0
-2329 141 0
-143 2327 2328 2329 0
-2330 -26 0
-2330 185 0
-2331 -33 0
-2331 164 0
-2332 -55 0
-2332 142 0
-143 2330 2331 2332 0
-2333 -2 0
-2333 80 0
-2334 -4 0
-2334 67 0
-2335 -5 0
-2335 66 0
-144 2333 2334 2335 0
-2336 -11 0
-2336 116 0
-2337 -13 0
-2337 103 0
-2338 -14 0
-2338 102 0
-144 2336 2337 2338 0
-2339 -20 0
-2339 165 0
-2340 -28 0
-2340 138 0
-2341 -29 0
-2341 137 0
-144 2339 2340 2341 0
-2342 -23 0
-2342 186 0
-2343 -36 0
-2343 150 0
-2344 -41 0
-2344 145 0
-144 2342 2343 2344 0
-2345 -24 0
-2345 187 0
-2346 -37 0
-2346 151 0
-2347 -42 0
-2347 146 0
-144 2345 2346 2347 0
-2348 -25 0
-2348 188 0
-2349 -38 0
-2349 152 0
-2350 -43 0
-2350 147 0
-144 2348 2349 2350 0
-2351 -26 0
-2351 189 0
-2352 -39 0
-2352 153 0
-2353 -44 0
-2353 148 0
-144 2351 2352 2353 0
-2354 -27 0
-2354 190 0
-2355 -40 0
-2355 154 0
-2356 -45 0
-2356 149 0
-144 2354 2355 2356 0
-2357 -2 0
-2357 81 0
-2358 -4 0
-2358 68 0
-2359 -6 0
-2359 66 0
-145 2357 2358 2359 0
-2360 -11 0
-2360 117 0
-2361 -13 0
-2361 104 0
-2362 -15 0
-2362 102 0
-145 2360 2361 2362 0
-2363 -20 0
-2363 166 0
-2364 -28 0
-2364 139 0
-2365 -30 0
-2365 137 0
-145 2363 2364 2365 0
-2366 -22 0
-2366 186 0
-2367 -35 0
-2367 150 0
-2368 -41 0
-2368 144 0
-145 2366 2367 2368 0
-2369 -24 0
-2369 191 0
-2370 -37 0
-2370 155 0
-2371 -46 0
-2371 146 0
-145 2369 2370 2371 0
-2372 -25 0
-2372 192 0
-2373 -38 0
-2373 156 0
-2374 -47 0
-2374 147 0
-145 2372 2373 2374 0
-2375 -26 0
-2375 193 0
-2376 -39 0
-2376 157 0
-2377 -48 0
-2377 148 0
-145 2375 2376 2377 0
-2378 -27 0
-2378 194 0
-2379 -40 0
-2379 158 0
-2380 -49 0
-2380 149 0
-145 2378 2379 2380 0
-2381 -2 0
-2381 82 0
-2382 -4 0
-2382 69 0
-2383 -7 0
-2383 66 0
-146 2381 2382 2383 0
-2384 -11 0
-2384 118 0
-2385 -13 0
-2385 105 0
-2386 -16 0
-2386 102 0
-146 2384 2385 2386 0
-2387 -20 0
-2387 167 0
-2388 -28 0
-2388 140 0
-2389 -31 0
-2389 137 0
-146 2387 2388 2389 0
-2390 -22 0
-2390 187 0
-2391 -35 0
-2391 151 0
-2392 -42 0
-2392 144 0
-146 2390 2391 2392 0
-2393 -23 0
-2393 191 0
-2394 -36 0
-2394 155 0
-2395 -46 0
-2395 145 0
-146 2393 2394 2395 0
-2396 -25 0
-2396 195 0
-2397 -38 0
-2397 159 0
-2398 -50 0
-2398 147 0
-146 2396 2397 2398 0
-2399 -26 0
-2399 196 0
-2400 -39 0
-2400 160 0
-2401 -51 0
-2401 148 0
-146 2399 2400 2401 0
-2402 -27 0
-2402 197 0
-2403 -40 0
-2403 161 0
-2404 -52 0
-2404 149 0
-146 2402 2403 2404 0
-2405 -2 0
-2405 83 0
-2406 -4 0
-2406 70 0
-2407 -8 0
-2407 66 0
-147 2405 2406 2407 0
-2408 -11 0
-2408 119 0
-2409 -13 0
-2409 106 0
-2410 -17 0
-2410 102 0
-147 2408 2409 2410 0
-2411 -20 0
-2411 168 0
-2412 -28 0
-2412 141 0
-2413 -32 0
-2413 137 0
-147 2411 2412 2413 0
-2414 -22 0
-2414 188 0
-2415 -35 0
-2415 152 0
-2416 -43 0
-2416 144 0
-147 2414 2415 2416 0
-2417 -23 0
-2417 192 0
-2418 -36 0
-2418 156 0
-2419 -47 0
-2419 145 0
-147 2417 2418 2419 0
-2420 -24 0
-2420 195 0
-2421 -37 0
-2421 159 0
-2422 -50 0
-2422 146 0
-147 2420 2421 2422 0
-2423 -26 0
-2423 198 0
-2424 -39 0
-2424 162 0
-2425 -53 0
-2425 148 0
-147 2423 2424 2425 0
-2426 -27 0
-2426 199 0
-2427 -40 0
-2427 163 0
-2428 -54 0
-2428 149 0
-147 2426 2427 2428 0
-2429 -2 0
-2429 84 0
-2430 -4 0
-2430 71 0
-2431 -9 0
-2431 66 0
-148 2429 2430 2431 0
-2432 -11 0
-2432 120 0
-2433 -13 0
-2433 107 0
-2434 -18 0
-2434 102 0
-148 2432 2433 2434 0
-2435 -20 0
-2435 169 0
-2436 -28 0
-2436 142 0
-2437 -33 0
-2437 137 0
-148 2435 2436 2437 0
-2438 -22 0
-2438 189 0
-2439 -35 0
-2439 153 0
-2440 -44 0
-2440 144 0
-148 2438 2439 2440 0
-2441 -23 0
-2441 193 0
-2442 -36 0
-2442 157 0
-2443 -48 0
-2443 145 0
-148 2441 2442 2443 0
-2444 -24 0
-2444 196 0
-2445 -37 0
-2445 160 0
-2446 -51 0
-2446 146 0
-148 2444 2445 2446 0
-2447 -25 0
-2447 198 0
-2448 -38 0
-2448 162 0
-2449 -53 0
-2449 147 0
-148 2447 2448 2449 0
-2450 -27 0
-2450 200 0
-2451 -40 0
-2451 164 0
-2452 -55 0
-2452 149 0
-148 2450 2451 2452 0
-2453 -2 0
-2453 85 0
-2454 -4 0
-2454 72 0
-2455 -10 0
-2455 66 0
-149 2453 2454 2455 0
-2456 -11 0
-2456 121 0
-2457 -13 0
-2457 108 0
-2458 -19 0
-2458 102 0
-149 2456 2457 2458 0
-2459 -20 0
-2459 170 0
-2460 -28 0
-2460 143 0
-2461 -34 0
-2461 137 0
-149 2459 2460 2461 0
-2462 -22 0
-2462 190 0
-2463 -35 0
-2463 154 0
-2464 -45 0
-2464 144 0
-149 2462 2463 2464 0
-2465 -23 0
-2465 194 0
-2466 -36 0
-2466 158 0
-2467 -49 0
-2467 145 0
-149 2465 2466 2467 0
-2468 -24 0
-2468 197 0
-2469 -37 0
-2469 161 0
-2470 -52 0
-2470 146 0
-149 2468 2469 2470 0
-2471 -25 0
-2471 199 0
-2472 -38 0
-2472 163 0
-2473 -54 0
-2473 147 0
-149 2471 2472 2473 0
-2474 -26 0
-2474 200 0
-2475 -39 0
-2475 164 0
-2476 -55 0
-2476 148 0
-149 2474 2475 2476 0
-2477 -2 0
-2477 86 0
-2478 -5 0
-2478 68 0
-2479 -6 0
-2479 67 0
-150 2477 2478 2479 0
-2480 -11 0
-2480 122 0
-2481 -14 0
-2481 104 0
-2482 -15 0
-2482 103 0
-150 2480 2481 2482 0
-2483 -20 0
-2483 171 0
-2484 -29 0
-2484 139 0
-2485 -30 0
-2485 138 0
-150 2483 2484 2485 0
-2486 -21 0
-2486 186 0
-2487 -35 0
-2487 145 0
-2488 -36 0
-2488 144 0
-150 2486 2487 2488 0
-2489 -24 0
-2489 201 0
-2490 -42 0
-2490 155 0
-2491 -46 0
-2491 151 0
-150 2489 2490 2491 0
-2492 -25 0
-2492 202 0
-2493 -43 0
-2493 156 0
-2494 -47 0
-2494 152 0
-150 2492 2493 2494 0
-2495 -26 0
-2495 203 0
-2496 -44 0
-2496 157 0
-2497 -48 0
-2497 153 0
-150 2495 2496 2497 0
-2498 -27 0
-2498 204 0
-2499 -45 0
-2499 158 0
-2500 -49 0
-2500 154 0
-150 2498 2499 2500 0
-2501 -2 0
-2501 87 0
-2502 -5 0
-2502 69 0
-2503 -7 0
-2503 67 0
-151 2501 2502 2503 0
-2504 -11 0
-2504 123 0
-2505 -14 0
-2505 105 0
-2506 -16 0
-2506 103 0
-151 2504 2505 2506 0
-2507 -20 0
-2507 172 0
-2508 -29 0
-2508 140 0
-2509 -31 0
-2509 138 0
-151 2507 2508 2509 0
-2510 -21 0
-2510 187 0
-2511 -35 0
-2511 146 0
-2512 -37 0
-2512 144 0
-151 2510 2511 2512 0
-2513 -23 0
-2513 201 0
-2514 -41 0
-2514 155 0
-2515 -46 0
-2515 150 0
-151 2513 2514 2515 0
-2516 -25 0
-2516 205 0
-2517 -43 0
-2517 159 0
-2518 -50 0
-2518 152 0
-151 2516 2517 2518 0
-2519 -26 0
-2519 206 0
-2520 -44 0
-2520 160 0
-2521 -51 0
-2521 153 0
-151 2519 2520 2521 0
-2522 -27 0
-2522 207 0
-2523 -45 0
-2523 161 0
-2524 -52 0
-2524 154 0
-151 2522 2523 2524 0
-2525 -2 0
-2525 88 0
-2526 -5 0
-2526 70 0
-2527 -8 0
-2527 67 0
-152 2525 2526 2527 0
-2528 -11 0
-2528 124 0
-2529 -14 0
-2529 106 0
-2530 -17 0
-2530 103 0
-152 2528 2529 2530 0
-2531 -20 0
-2531 173 0
-2532 -29 0
-2532 141 0
-2533 -32 0
-2533 138 0
-152 2531 2532 2533 0
-2534 -21 0
-2534 188 0
-2535 -35 0
-2535 147 0
-2536 -38 0
-2536 144 0
-152 2534 2535 2536 0
-2537 -23 0
-2537 202 0
-2538 -41 0
-2538 156 0
-2539 -47 0
-2539 150 0
-152 2537 2538 2539 0
-2540 -24 0
-2540 205 0
-2541 -42 0
-2541 159 0
-2542 -50 0
-2542 151 0
-152 2540 2541 2542 0
-2543 -26 0
-2543 208 0
-2544 -44 0
-2544 162 0
-2545 -53 0
-2545 153 0
-152 2543 2544 2545 0
-2546 -27 0
-2546 209 0
-2547 -45 0
-2547 163 0
-2548 -54 0
-2548 154 0
-152 2546 2547 2548 0
-2549 -2 0
-2549 89 0
-2550 -5 0
-2550 71 0
-2551 -9 0
-2551 67 0
-153 2549 2550 2551 0
-2552 -11 0
-2552 125 0
-2553 -14 0
-2553 107 0
-2554 -18 0
-2554 103 0
-153 2552 2553 2554 0
-2555 -20 0
-2555 174 0
-2556 -29 0
-2556 142 0
-2557 -33 0
-2557 138 0
-153 2555 2556 2557 0
-2558 -21 0
-2558 189 0
-2559 -35 0
-2559 148 0
-2560 -39 0
-2560 144 0
-153 2558 2559 2560 0
-2561 -23 0
-2561 203 0
-2562 -41 0
-2562 157 0
-2563 -48 0
-2563 150 0
-153 2561 2562 2563 0
-2564 -24 0
-2564 206 0
-2565 -42 0
-2565 160 0
-2566 -51 0
-2566 151 0
-153 2564 2565 2566 0
-2567 -25 0
-2567 208 0
-2568 -43 0
-2568 162 0
-2569 -53 0
-2569 152 0
-153 2567 2568 2569 0
-2570 -27 0
-2570 210 0
-2571 -45 0
-2571 164 0
-2572 -55 0
-2572 154 0
-153 2570 2571 2572 0
-2573 -2 0
-2573 90 0
-2574 -5 0
-2574 72 0
-2575 -10 0
-2575 67 0
-154 2573 2574 2575 0
-2576 -11 0
-2576 126 0
-2577 -14 0
-2577 108 0
-2578 -19 0
-2578 103 0
-154 2576 2577 2578 0
-2579 -20 0
-2579 175 0
-2580 -29 0
-2580 143 0
-2581 -34 0
-2581 138 0
-154 2579 2580 2581 0
-2582 -21 0
-2582 190 0
-2583 -35 0
-2583 149 0
-2584 -40 0
-2584 144 0
-154 2582 2583 2584 0
-2585 -23 0
-2585 204 0
-2586 -41 0
-2586 158 0
-2587 -49 0
-2587 150 0
-154 2585 2586 2587 0
-2588 -24 0
-2588 207 0
-2589 -42 0
-2589 161 0
-2590 -52 0
-2590 151 0
-154 2588 2589 2590 0
-2591 -25 0
-2591 209 0
-2592 -43 0
-2592 163 0
-2593 -54 0
-2593 152 0
-154 2591 2592 2593 0
-2594 -26 0
-2594 210 0
-2595 -44 0
-2595 164 0
-2596 -55 0
-2596 153 0
-154 2594 2595 2596 0
-2597 -2 0
-2597 91 0
-2598 -6 0
-2598 69 0
-2599 -7 0
-2599 68 0
-155 2597 2598 2599 0
-2600 -11 0
-2600 127 0
-2601 -15 0
-2601 105 0
-2602 -16 0
-2602 104 0
-155 2600 2601 2602 0
-2603 -20 0
-2603 176 0
-2604 -30 0
-2604 140 0
-2605 -31 0
-2605 139 0
-155 2603 2604 2605 0
-2606 -21 0
-2606 191 0
-2607 -36 0
-2607 146 0
-2608 -37 0
-2608 145 0
-155 2606 2607 2608 0
-2609 -22 0
-2609 201 0
-2610 -41 0
-2610 151 0
-2611 -42 0
-2611 150 0
-155 2609 2610 2611 0
-2612 -25 0
-2612 211 0
-2613 -47 0
-2613 159 0
-2614 -50 0
-2614 156 0
-155 2612 2613 2614 0
-2615 -26 0
-2615 212 0
-2616 -48 0
-2616 160 0
-2617 -51 0
-2617 157 0
-155 2615 2616 2617 0
-2618 -27 0
-2618 213 0
-2619 -49 0
-2619 161 0
-2620 -52 0
-2620 158 0
-155 2618 2619 2620 0
-2621 -2 0
-2621 92 0
-2622 -6 0
-2622 70 0
-2623 -8 0
-2623 68 0
-156 2621 2622 2623 0
-2624 -11 0
-2624 128 0
-2625 -15 0
-2625 106 0
-2626 -17 0
-2626 104 0
-156 2624 2625 2626 0
-2627 -20 0
-2627 177 0
-2628 -30 0
-2628 141 0
-2629 -32 0
-2629 139 0
-156 2627 2628 2629 0
-2630 -21 0
-2630 192 0
-2631 -36 0
-2631 147 0
-2632 -38 0
-2632 145 0
-156 2630 2631 2632 0
-2633 -22 0
-2633 202 0
-2634 -41 0
-2634 152 0
-2635 -43 0
-2635 150 0
-156 2633 2634 2635 0
-2636 -24 0
-2636 211 0
-2637 -46 0
-2637 159 0
-2638 -50 0
-2638 155 0
-156 2636 2637 2638 0
-2639 -26 0
-2639 214 0
-2640 -48 0
-2640 162 0
-2641 -53 0
-2641 157 0
-156 2639 2640 2641 0
-2642 -27 0
-2642 215 0
-2643 -49 0
-2643 163 0
-2644 -54 0
-2644 158 0
-156 2642 2643 2644 0
-2645 -2 0
-2645 93 0
-2646 -6 0
-2646 71 0
-2647 -9 0
-2647 68 0
-157 2645 2646 2647 0
-2648 -11 0
-2648 129 0
-2649 -15 0
-2649 107 0
-2650 -18 0
-2650 104 0
-157 2648 2649 2650 0
-2651 -20 0
-2651 178 0
-2652 -30 0
-2652 142 0
-2653 -33 0
-2653 139 0
-157 2651 2652 2653 0
-2654 -21 0
-2654 193 0
-2655 -36 0
-2655 148 0
-2656 -39 0
-2656 145 0
-157 2654 2655 2656 0
-2657 -22 0
-2657 203 0
-2658 -41 0
-2658 153 0
-2659 -44 0
-2659 150 0
-157 2657 2658 2659 0
-2660 -24 0
-2660 212 0
-2661 -46 0
-2661 160 0
-2662 -51 0
-2662 155 0
-157 2660 2661 2662 0
-2663 -25 0
-2663 214 0
-2664 -47 0
-2664 162 0
-2665 -53 0
-2665 156 0
-157 2663 2664 2665 0
-2666 -27 0
-2666 216 0
-2667 -49 0
-2667 164 0
-2668 -55 0
-2668 158 0
-157 2666 2667 2668 0
-2669 -2 0
-2669 94 0
-2670 -6 0
-2670 72 0
-2671 -10 0
-2671 68 0
-158 2669 2670 2671 0
-2672 -11 0
-2672 130 0
-2673 -15 0
-2673 108 0
-2674 -19 0
-2674 104 0
-158 2672 2673 2674 0
-2675 -20 0
-2675 179 0
-2676 -30 0
-2676 143 0
-2677 -34 0
-2677 139 0
-158 2675 2676 2677 0
-2678 -21 0
-2678 194 0
-2679 -36 0
-2679 149 0
-2680 -40 0
-2680 145 0
-158 2678 2679 2680 0
-2681 -22 0
-2681 204 0
-2682 -41 0
-2682 154 0
-2683 -45 0
-2683 150 0
-158 2681 2682 2683 0
-2684 -24 0
-2684 213 0
-2685 -46 0
-2685 161 0
-2686 -52 0
-2686 155 0
-158 2684 2685 2686 0
-2687 -25 0
-2687 215 0
-2688 -47 0
-2688 163 0
-2689 -54 0
-2689 156 0
-158 2687 2688 2689 0
-2690 -26 0
-2690 216 0
-2691 -48 0
-2691 164 0
-2692 -55 0
-2692 157 0
-158 2690 2691 2692 0
-2693 -2 0
-2693 95 0
-2694 -7 0
-2694 70 0
-2695 -8 0
-2695 69 0
-159 2693 2694 2695 0
-2696 -11 0
-2696 131 0
-2697 -16 0
-2697 106 0
-2698 -17 0
-2698 105 0
-159 2696 2697 2698 0
-2699 -20 0
-2699 180 0
-2700 -31 0
-2700 141 0
-2701 -32 0
-2701 140 0
-159 2699 2700 2701 0
-2702 -21 0
-2702 195 0
-2703 -37 0
-2703 147 0
-2704 -38 0
-2704 146 0
-159 2702 2703 2704 0
-2705 -22 0
-2705 205 0
-2706 -42 0
-2706 152 0
-2707 -43 0
-2707 151 0
-159 2705 2706 2707 0
-2708 -23 0
-2708 211 0
-2709 -46 0
-2709 156 0
-2710 -47 0
-2710 155 0
-159 2708 2709 2710 0
-2711 -26 0
-2711 217 0
-2712 -51 0
-2712 162 0
-2713 -53 0
-2713 160 0
-159 2711 2712 2713 0
-2714 -27 0
-2714 218 0
-2715 -52 0
-2715 163 0
-2716 -54 0
-2716 161 0
-159 2714 2715 2716 0
-2717 -2 0
-2717 96 0
-2718 -7 0
-2718 71 0
-2719 -9 0
-2719 69 0
-160 2717 2718 2719 0
-2720 -11 0
-2720 132 0
-2721 -16 0
-2721 107 0
-2722 -18 0
-2722 105 0
-160 2720 2721 2722 0
-2723 -20 0
-2723 181 0
-2724 -31 0
-2724 142 0
-2725 -33 0
-2725 140 0
-160 2723 2724 2725 0
-2726 -21 0
-2726 196 0
-2727 -37 0
-2727 148 0
-2728 -39 0
-2728 146 0
-160 2726 2727 2728 0
-2729 -22 0
-2729 206 0
-2730 -42 0
-2730 153 0
-2731 -44 0
-2731 151 0
-160 2729 2730 2731 0
-2732 -23 0
-2732 212 0
-2733 -46 0
-2733 157 0
-2734 -48 0
-2734 155 0
-160 2732 2733 2734 0
-2735 -25 0
-2735 217 0
-2736 -50 0
-2736 162 0
-2737 -53 0
-2737 159 0
-160 2735 2736 2737 0
-2738 -27 0
-2738 219 0
-2739 -52 0
-2739 164 0
-2740 -55 0
-2740 161 0
-160 2738 2739 2740 0
-2741 -2 0
-2741 97 0
-2742 -7 0
-2742 72 0
-2743 -10 0
-2743 69 0
-161 2741 2742 2743 0
-2744 -11 0
-2744 133 0
-2745 -16 0
-2745 108 0
-2746 -19 0
-2746 105 0
-161 2744 2745 2746 0
-2747 -20 0
-2747 182 0
-2748 -31 0
-2748 143 0
-2749 -34 0
-2749 140 0
-161 2747 2748 2749 0
-2750 -21 0
-2750 197 0
-2751 -37 0
-2751 149 0
-2752 -40 0
-2752 146 0
-161 2750 2751 2752 0
-2753 -22 0
-2753 207 0
-2754 -42 0
-2754 154 0
-2755 -45 0
-2755 151 0
-161 2753 2754 2755 0
-2756 -23 0
-2756 213 0
-2757 -46 0
-2757 158 0
-2758 -49 0
-2758 155 0
-161 2756 2757 2758 0
-2759 -25 0
-2759 218 0
-2760 -50 0
-2760 163 0
-2761 -54 0
-2761 159 0
-161 2759 2760 2761 0
-2762 -26 0
-2762 219 0
-2763 -51 0
-2763 164 0
-2764 -55 0
-2764 160 0
-161 2762 2763 2764 0
-2765 -2 0
-2765 98 0
-2766 -8 0
-2766 71 0
-2767 -9 0
-2767 70 0
-162 2765 2766 2767 0
-2768 -11 0
-2768 134 0
-2769 -17 0
-2769 107 0
-2770 -18 0
-2770 106 0
-162 2768 2769 2770 0
-2771 -20 0
-2771 183 0
-2772 -32 0
-2772 142 0
-2773 -33 0
-2773 141 0
-162 2771 2772 2773 0
-2774 -21 0
-2774 198 0
-2775 -38 0
-2775 148 0
-2776 -39 0
-2776 147 0
-162 2774 2775 2776 0
-2777 -22 0
-2777 208 0
-2778 -43 0
-2778 153 0
-2779 -44 0
-2779 152 0
-162 2777 2778 2779 0
-2780 -23 0
-2780 214 0
-2781 -47 0
-2781 157 0
-2782 -48 0
-2782 156 0
-162 2780 2781 2782 0
-2783 -24 0
-2783 217 0
-2784 -50 0
-2784 160 0
-2785 -51 0
-2785 159 0
-162 2783 2784 2785 0
-2786 -27 0
-2786 220 0
-2787 -54 0
-2787 164 0
-2788 -55 0
-2788 163 0
-162 2786 2787 2788 0
-2789 -2 0
-2789 99 0
-2790 -8 0
-2790 72 0
-2791 -10 0
-2791 70 0
-163 2789 2790 2791 0
-2792 -11 0
-2792 135 0
-2793 -17 0
-2793 108 0
-2794 -19 0
-2794 106 0
-163 2792 2793 2794 0
-2795 -20 0
-2795 184 0
-2796 -32 0
-2796 143 0
-2797 -34 0
-2797 141 0
-163 2795 2796 2797 0
-2798 -21 0
-2798 199 0
-2799 -38 0
-2799 149 0
-2800 -40 0
-2800 147 0
-163 2798 2799 2800 0
-2801 -22 0
-2801 209 0
-2802 -43 0
-2802 154 0
-2803 -45 0
-2803 152 0
-163 2801 2802 2803 0
-2804 -23 0
-2804 215 0
-2805 -47 0
-2805 158 0
-2806 -49 0
-2806 156 0
-163 2804 2805 2806 0
-2807 -24 0
-2807 218 0
-2808 -50 0
-2808 161 0
-2809 -52 0
-2809 159 0
-163 2807 2808 2809 0
-2810 -26 0
-2810 220 0
-2811 -53 0
-2811 164 0
-2812 -55 0
-2812 162 0
-163 2810 2811 2812 0
-2813 -2 0
-2813 100 0
-2814 -9 0
-2814 72 0
-2815 -10 0
-2815 71 0
-164 2813 2814 2815 0
-2816 -11 0
-2816 136 0
-2817 -18 0
-2817 108 0
-2818 -19 0
-2818 107 0
-164 2816 2817 2818 0
-2819 -20 0
-2819 185 0
-2820 -33 0
-2820 143 0
-2821 -34 0
-2821 142 0
-164 2819 2820 2821 0
-2822 -21 0
-2822 200 0
-2823 -39 0
-2823 149 0
-2824 -40 0
-2824 148 0
-164 2822 2823 2824 0
-2825 -22 0
-2825 210 0
-2826 -44 0
-2826 154 0
-2827 -45 0
-2827 153 0
-164 2825 2826 2827 0
-2828 -23 0
-2828 216 0
-2829 -48 0
-2829 158 0
-2830 -49 0
-2830 157 0
-164 2828 2829 2830 0
-2831 -24 0
-2831 219 0
-2832 -51 0
-2832 161 0
-2833 -52 0
-2833 160 0
-164 2831 2832 2833 0
-2834 -25 0
-2834 220 0
-2835 -53 0
-2835 163 0
-2836 -54 0
-2836 162 0
-164 2834 2835 2836 0
-2837 -3 0
-2837 80 0
-2838 -4 0
-2838 74 0
-2839 -5 0
-2839 73 0
-165 2837 2838 2839 0
-2840 -12 0
-2840 116 0
-2841 -13 0
-2841 110 0
-2842 -14 0
-2842 109 0
-165 2840 2841 2842 0
-2843 -20 0
-2843 144 0
-2844 -21 0
-2844 138 0
-2845 -22 0
-2845 137 0
-165 2843 2844 2845 0
-2846 -30 0
-2846 186 0
-2847 -36 0
-2847 171 0
-2848 -41 0
-2848 166 0
-165 2846 2847 2848 0
-2849 -31 0
-2849 187 0
-2850 -37 0
-2850 172 0
-2851 -42 0
-2851 167 0
-165 2849 2850 2851 0
-2852 -32 0
-2852 188 0
-2853 -38 0
-2853 173 0
-2854 -43 0
-2854 168 0
-165 2852 2853 2854 0
-2855 -33 0
-2855 189 0
-2856 -39 0
-2856 174 0
-2857 -44 0
-2857 169 0
-165 2855 2856 2857 0
-2858 -34 0
-2858 190 0
-2859 -40 0
-2859 175 0
-2860 -45 0
-2860 170 0
-165 2858 2859 2860 0
-2861 -3 0
-2861 81 0
-2862 -4 0
-2862 75 0
-2863 -6 0
-2863 73 0
-166 2861 2862 2863 0
-2864 -12 0
-2864 117 0
-2865 -13 0
-2865 111 0
-2866 -15 0
-2866 109 0
-166 2864 2865 2866 0
-2867 -20 0
-2867 145 0
-2868 -21 0
-2868 139 0
-2869 -23 0
-2869 137 0
-166 2867 2868 2869 0
-2870 -29 0
-2870 186 0
-2871 -35 0
-2871 171 0
-2872 -41 0
-2872 165 0
-166 2870 2871 2872 0
-2873 -31 0
-2873 191 0
-2874 -37 0
-2874 176 0
-2875 -46 0
-2875 167 0
-166 2873 2874 2875 0
-2876 -32 0
-2876 192 0
-2877 -38 0
-2877 177 0
-2878 -47 0
-2878 168 0
-166 2876 2877 2878 0
-2879 -33 0
-2879 193 0
-2880 -39 0
-2880 178 0
-2881 -48 0
-2881 169 0
-166 2879 2880 2881 0
-2882 -34 0
-2882 194 0
-2883 -40 0
-2883 179 0
-2884 -49 0
-2884 170 0
-166 2882 2883 2884 0
-2885 -3 0
-2885 82 0
-2886 -4 0
-2886 76 0
-2887 -7 0
-2887 73 0
-167 2885 2886 2887 0
-2888 -12 0
-2888 118 0
-2889 -13 0
-2889 112 0
-2890 -16 0
-2890 109 0
-167 2888 2889 2890 0
-2891 -20 0
-2891 146 0
-2892 -21 0
-2892 140 0
-2893 -24 0
-2893 137 0
-167 2891 2892 2893 0
-2894 -29 0
-2894 187 0
-2895 -35 0
-2895 172 0
-2896 -42 0
-2896 165 0
-167 2894 2895 2896 0
-2897 -30 0
-2897 191 0
-2898 -36 0
-2898 176 0
-2899 -46 0
-2899 166 0
-167 2897 2898 2899 0
-2900 -32 0
-2900 195 0
-2901 -38 0
-2901 180 0
-2902 -50 0
-2902 168 0
-167 2900 2901 2902 0
-2903 -33 0
-2903 196 0
-2904 -39 0
-2904 181 0
-2905 -51 0
-2905 169 0
-167 2903 2904 2905 0
-2906 -34 0
-2906 197 0
-2907 -40 0
-2907 182 0
-2908 -52 0
-2908 170 0
-167 2906 2907 2908 0
-2909 -3 0
-2909 83 0
-2910 -4 0
-2910 77 0
-2911 -8 0
-2911 73 0
-168 2909 2910 2911 0
-2912 -12 0
-2912 119 0
-2913 -13 0
-2913 113 0
-2914 -17 0
-2914 109 0
-168 2912 2913 2914 0
-2915 -20 0
-2915 147 0
-2916 -21 0
-2916 141 0
-2917 -25 0
-2917 137 0
-168 2915 2916 2917 0
-2918 -29 0
-2918 188 0
-2919 -35 0
-2919 173 0
-2920 -43 0
-2920 165 0
-168 2918 2919 2920 0
-2921 -30 0
-2921 192 0
-2922 -36 0
-2922 177 0
-2923 -47 0
-2923 166 0
-168 2921 2922 2923 0
-2924 -31 0
-2924 195 0
-2925 -37 0
-2925 180 0
-2926 -50 0
-2926 167 0
-168 2924 2925 2926 0
-2927 -33 0
-2927 198 0
-2928 -39 0
-2928 183 0
-2929 -53 0
-2929 169 0
-168 2927 2928 2929 0
-2930 -34 0
-2930 199 0
-2931 -40 0
-2931 184 0
-2932 -54 0
-2932 170 0
-168 2930 2931 2932 0
-2933 -3 0
-2933 84 0
-2934 -4 0
-2934 78 0
-2935 -9 0
-2935 73 0
-169 2933 2934 2935 0
-2936 -12 0
-2936 120 0
-2937 -13 0
-2937 114 0
-2938 -18 0
-2938 109 0
-169 2936 2937 2938 0
-2939 -20 0
-2939 148 0
-2940 -21 0
-2940 142 0
-2941 -26 0
-2941 137 0
-169 2939 2940 2941 0
-2942 -29 0
-2942 189 0
-2943 -35 0
-2943 174 0
-2944 -44 0
-2944 165 0
-169 2942 2943 2944 0
-2945 -30 0
-2945 193 0
-2946 -36 0
-2946 178 0
-2947 -48 0
-2947 166 0
-169 2945 2946 2947 0
-2948 -31 0
-2948 196 0
-2949 -37 0
-2949 181 0
-2950 -51 0
-2950 167 0
-169 2948 2949 2950 0
-2951 -32 0
-2951 198 0
-2952 -38 0
-2952 183 0
-2953 -53 0
-2953 168 0
-169 2951 2952 2953 0
-2954 -34 0
-2954 200 0
-2955 -40 0
-2955 185 0
-2956 -55 0
-2956 170 0
-169 2954 2955 2956 0
-2957 -3 0
-2957 85 0
-2958 -4 0
-2958 79 0
-2959 -10 0
-2959 73 0
-170 2957 2958 2959 0
-2960 -12 0
-2960 121 0
-2961 -13 0
-2961 115 0
-2962 -19 0
-2962 109 0
-170 2960 2961 2962 0
-2963 -20 0
-2963 149 0
-2964 -21 0
-2964 143 0
-2965 -27 0
-2965 137 0
-170 2963 2964 2965 0
-2966 -29 0
-2966 190 0
-2967 -35 0
-2967 175 0
-2968 -45 0
-2968 165 0
-170 2966 2967 2968 0
-2969 -30 0
-2969 194 0
-2970 -36 0
-2970 179 0
-2971 -49 0
-2971 166 0
-170 2969 2970 2971 0
-2972 -31 0
-2972 197 0
-2973 -37 0
-2973 182 0
-2974 -52 0
-2974 167 0
-170 2972 2973 2974 0
-2975 -32 0
-2975 199 0
-2976 -38 0
-2976 184 0
-2977 -54 0
-2977 168 0
-170 2975 2976 2977 0
-2978 -33 0
-2978 200 0
-2979 -39 0
-2979 185 0
-2980 -55 0
-2980 169 0
-170 2978 2979 2980 0
-2981 -3 0
-2981 86 0
-2982 -5 0
-2982 75 0
-2983 -6 0
-2983 74 0
-171 2981 2982 2983 0
-2984 -12 0
-2984 122 0
-2985 -14 0
-2985 111 0
-2986 -15 0
-2986 110 0
-171 2984 2985 2986 0
-2987 -20 0
-2987 150 0
-2988 -22 0
-2988 139 0
-2989 -23 0
-2989 138 0
-171 2987 2988 2989 0
-2990 -28 0
-2990 186 0
-2991 -35 0
-2991 166 0
-2992 -36 0
-2992 165 0
-171 2990 2991 2992 0
-2993 -31 0
-2993 201 0
-2994 -42 0
-2994 176 0
-2995 -46 0
-2995 172 0
-171 2993 2994 2995 0
-2996 -32 0
-2996 202 0
-2997 -43 0
-2997 177 0
-2998 -47 0
-2998 173 0
-171 2996 2997 2998 0
-2999 -33 0
-2999 203 0
-3000 -44 0
-3000 178 0
-3001 -48 0
-3001 174 0
-171 2999 3000 3001 0
-3002 -34 0
-3002 204 0
-3003 -45 0
-3003 179 0
-3004 -49 0
-3004 175 0
-171 3002 3003 3004 0
-3005 -3 0
-3005 87 0
-3006 -5 0
-3006 76 0
-3007 -7 0
-3007 74 0
-172 3005 3006 3007 0
-3008 -12 0
-3008 123 0
-3009 -14 0
-3009 112 0
-3010 -16 0
-3010 110 0
-172 3008 3009 3010 0
-3011 -20 0
-3011 151 0
-3012 -22 0
-3012 140 0
-3013 -24 0
-3013 138 0
-172 3011 3012 3013 0
-3014 -28 0
-3014 187 0
-3015 -35 0
-3015 167 0
-3016 -37 0
-3016 165 0
-172 3014 3015 3016 0
-3017 -30 0
-3017 201 0
-3018 -41 0
-3018 176 0
-3019 -46 0
-3019 171 0
-172 3017 3018 3019 0
-3020 -32 0
-3020 205 0
-3021 -43 0
-3021 180 0
-3022 -50 0
-3022 173 0
-172 3020 3021 3022 0
-3023 -33 0
-3023 206 0
-3024 -44 0
-3024 181 0
-3025 -51 0
-3025 174 0
-172 3023 3024 3025 0
-3026 -34 0
-3026 207 0
-3027 -45 0
-3027 182 0
-3028 -52 0
-3028 175 0
-172 3026 3027 3028 0
-3029 -3 0
-3029 88 0
-3030 -5 0
-3030 77 0
-3031 -8 0
-3031 74 0
-173 3029 3030 3031 0
-3032 -12 0
-3032 124 0
-3033 -14 0
-3033 113 0
-3034 -17 0
-3034 110 0
-173 3032 3033 3034 0
-3035 -20 0
-3035 152 0
-3036 -22 0
-3036 141 0
-3037 -25 0
-3037 138 0
-173 3035 3036 3037 0
-3038 -28 0
-3038 188 0
-3039 -35 0
-3039 168 0
-3040 -38 0
-3040 165 0
-173 3038 3039 3040 0
-3041 -30 0
-3041 202 0
-3042 -41 0
-3042 177 0
-3043 -47 0
-3043 171 0
-173 3041 3042 3043 0
-3044 -31 0
-3044 205 0
-3045 -42 0
-3045 180 0
-3046 -50 0
-3046 172 0
-173 3044 3045 3046 0
-3047 -33 0
-3047 208 0
-3048 -44 0
-3048 183 0
-3049 -53 0
-3049 174 0
-173 3047 3048 3049 0
-3050 -34 0
-3050 209 0
-3051 -45 0
-3051 184 0
-3052 -54 0
-3052 175 0
-173 3050 3051 3052 0
-3053 -3 0
-3053 89 0
-3054 -5 0
-3054 78 0
-3055 -9 0
-3055 74 0
-174 3053 3054 3055 0
-3056 -12 0
-3056 125 0
-3057 -14 0
-3057 114 0
-3058 -18 0
-3058 110 0
-174 3056 3057 3058 0
-3059 -20 0
-3059 153 0
-3060 -22 0
-3060 142 0
-3061 -26 0
-3061 138 0
-174 3059 3060 3061 0
-3062 -28 0
-3062 189 0
-3063 -35 0
-3063 169 0
-3064 -39 0
-3064 165 0
-174 3062 3063 3064 0
-3065 -30 0
-3065 203 0
-3066 -41 0
-3066 178 0
-3067 -48 0
-3067 171 0
-174 3065 3066 3067 0
-3068 -31 0
-3068 206 0
-3069 -42 0
-3069 181 0
-3070 -51 0
-3070 172 0
-174 3068 3069 3070 0
-3071 -32 0
-3071 208 0
-3072 -43 0
-3072 183 0
-3073 -53 0
-3073 173 0
-174 3071 3072 3073 0
-3074 -34 0
-3074 210 0
-3075 -45 0
-3075 185 0
-3076 -55 0
-3076 175 0
-174 3074 3075 3076 0
-3077 -3 0
-3077 90 0
-3078 -5 0
-3078 79 0
-3079 -10 0
-3079 74 0
-175 3077 3078 3079 0
-3080 -12 0
-3080 126 0
-3081 -14 0
-3081 115 0
-3082 -19 0
-3082 110 0
-175 3080 3081 3082 0
-3083 -20 0
-3083 154 0
-3084 -22 0
-3084 143 0
-3085 -27 0
-3085 138 0
-175 3083 3084 3085 0
-3086 -28 0
-3086 190 0
-3087 -35 0
-3087 170 0
-3088 -40 0
-3088 165 0
-175 3086 3087 3088 0
-3089 -30 0
-3089 204 0
-3090 -41 0
-3090 179 0
-3091 -49 0
-3091 171 0
-175 3089 3090 3091 0
-3092 -31 0
-3092 207 0
-3093 -42 0
-3093 182 0
-3094 -52 0
-3094 172 0
-175 3092 3093 3094 0
-3095 -32 0
-3095 209 0
-3096 -43 0
-3096 184 0
-3097 -54 0
-3097 173 0
-175 3095 3096 3097 0
-3098 -33 0
-3098 210 0
-3099 -44 0
-3099 185 0
-3100 -55 0
-3100 174 0
-175 3098 3099 3100 0
-3101 -3 0
-3101 91 0
-3102 -6 0
-3102 76 0
-3103 -7 0
-3103 75 0
-176 3101 3102 3103 0
-3104 -12 0
-3104 127 0
-3105 -15 0
-3105 112 0
-3106 -16 0
-3106 111 0
-176 3104 3105 3106 0
-3107 -20 0
-3107 155 0
-3108 -23 0
-3108 140 0
-3109 -24 0
-3109 139 0
-176 3107 3108 3109 0
-3110 -28 0
-3110 191 0
-3111 -36 0
-3111 167 0
-3112 -37 0
-3112 166 0
-176 3110 3111 3112 0
-3113 -29 0
-3113 201 0
-3114 -41 0
-3114 172 0
-3115 -42 0
-3115 171 0
-176 3113 3114 3115 0
-3116 -32 0
-3116 211 0
-3117 -47 0
-3117 180 0
-3118 -50 0
-3118 177 0
-176 3116 3117 3118 0
-3119 -33 0
-3119 212 0
-3120 -48 0
-3120 181 0
-3121 -51 0
-3121 178 0
-176 3119 3120 3121 0
-3122 -34 0
-3122 213 0
-3123 -49 0
-3123 182 0
-3124 -52 0
-3124 179 0
-176 3122 3123 3124 0
-3125 -3 0
-3125 92 0
-3126 -6 0
-3126 77 0
-3127 -8 0
-3127 75 0
-177 3125 3126 3127 0
-3128 -12 0
-3128 128 0
-3129 -15 0
-3129 113 0
-3130 -17 0
-3130 111 0
-177 3128 3129 3130 0
-3131 -20 0
-3131 156 0
-3132 -23 0
-3132 141 0
-3133 -25 0
-3133 139 0
-177 3131 3132 3133 0
-3134 -28 0
-3134 192 0
-3135 -36 0
-3135 168 0
-3136 -38 0
-3136 166 0
-177 3134 3135 3136 0
-3137 -29 0
-3137 202 0
-3138 -41 0
-3138 173 0
-3139 -43 0
-3139 171 0
-177 3137 3138 3139 0
-3140 -31 0
-3140 211 0
-3141 -46 0
-3141 180 0
-3142 -50 0
-3142 176 0
-177 3140 3141 3142 0
-3143 -33 0
-3143 214 0
-3144 -48 0
-3144 183 0
-3145 -53 0
-3145 178 0
-177 3143 3144 3145 0
-3146 -34 0
-3146 215 0
-3147 -49 0
-3147 184 0
-3148 -54 0
-3148 179 0
-177 3146 3147 3148 0
-3149 -3 0
-3149 93 0
-3150 -6 0
-3150 78 0
-3151 -9 0
-3151 75 0
-178 3149 3150 3151 0
-3152 -12 0
-3152 129 0
-3153 -15 0
-3153 114 0
-3154 -18 0
-3154 111 0
-178 3152 3153 3154 0
-3155 -20 0
-3155 157 0
-3156 -23 0
-3156 142 0
-3157 -26 0
-3157 139 0
-178 3155 3156 3157 0
-3158 -28 0
-3158 193 0
-3159 -36 0
-3159 169 0
-3160 -39 0
-3160 166 0
-178 3158 3159 3160 0
-3161 -29 0
-3161 203 0
-3162 -41 0
-3162 174 0
-3163 -44 0
-3163 171 0
-178 3161 3162 3163 0
-3164 -31 0
-3164 212 0
-3165 -46 0
-3165 181 0
-3166 -51 0
-3166 176 0
-178 3164 3165 3166 0
-3167 -32 0
-3167 214 0
-3168 -47 0
-3168 183 0
-3169 -53 0
-3169 177 0
-178 3167 3168 3169 0
-3170 -34 0
-3170 216 0
-3171 -49 0
-3171 185 0
-3172 -55 0
-3172 179 0
-178 3170 3171 3172 0
-3173 -3 0
-3173 94 0
-3174 -6 0
-3174 79 0
-3175 -10 0
-3175 75 0
-179 3173 3174 3175 0
-3176 -12 0
-3176 130 0
-3177 -15 0
-3177 115 0
-3178 -19 0
-3178 111 0
-179 3176 3177 3178 0
-3179 -20 0
-3179 158 0
-3180 -23 0
-3180 143 0
-3181 -27 0
-3181 139 0
-179 3179 3180 3181 0
-3182 -28 0
-3182 194 0
-3183 -36 0
-3183 170 0
-3184 -40 0
-3184 166 0
-179 3182 3183 3184 0
-3185 -29 0
-3185 204 0
-3186 -41 0
-3186 175 0
-3187 -45 0
-3187 171 0
-179 3185 3186 3187 0
-3188 -31 0
-3188 213 0
-3189 -46 0
-3189 182 0
-3190 -52 0
-3190 176 0
-179 3188 3189 3190 0
-3191 -32 0
-3191 215 0
-3192 -47 0
-3192 184 0
-3193 -54 0
-3193 177 0
-179 3191 3192 3193 0
-3194 -33 0
-3194 216 0
-3195 -48 0
-3195 185 0
-3196 -55 0
-3196 178 0
-179 3194 3195 3196 0
-3197 -3 0
-3197 95 0
-3198 -7 0
-3198 77 0
-3199 -8 0
-3199 76 0
-180 3197 3198 3199 0
-3200 -12 0
-3200 131 0
-3201 -16 0
-3201 113 0
-3202 -17 0
-3202 112 0
-180 3200 3201 3202 0
-3203 -20 0
-3203 159 0
-3204 -24 0
-3204 141 0
-3205 -25 0
-3205 140 0
-180 3203 3204 3205 0
-3206 -28 0
-3206 195 0
-3207 -37 0
-3207 168 0
-3208 -38 0
-3208 167 0
-180 3206 3207 3208 0
-3209 -29 0
-3209 205 0
-3210 -42 0
-3210 173 0
-3211 -43 0
-3211 172 0
-180 3209 3210 3211 0
-3212 -30 0
-3212 211 0
-3213 -46 0
-3213 177 0
-3214 -47 0
-3214 176 0
-180 3212 3213 3214 0
-3215 -33 0
-3215 217 0
-3216 -51 0
-3216 183 0
-3217 -53 0
-3217 181 0
-180 3215 3216 3217 0
-3218 -34 0
-3218 218 0
-3219 -52 0
-3219 184 0
-3220 -54 0
-3220 182 0
-180 3218 3219 3220 0
-3221 -3 0
-3221 96 0
-3222 -7 0
-3222 78 0
-3223 -9 0
-3223 76 0
-181 3221 3222 3223 0
-3224 -12 0
-3224 132 0
-3225 -16 0
-3225 114 0
-3226 -18 0
-3226 112 0
-181 3224 3225 3226 0
-3227 -20 0
-3227 160 0
-3228 -24 0
-3228 142 0
-3229 -26 0
-3229 140 0
-181 3227 3228 3229 0
-3230 -28 0
-3230 196 0
-3231 -37 0
-3231 169 0
-3232 -39 0
-3232 167 0
-181 3230 3231 3232 0
-3233 -29 0
-3233 206 0
-3234 -42 0
-3234 174 0
-3235 -44 0
-3235 172 0
-181 3233 3234 3235 0
-3236 -30 0
-3236 212 0
-3237 -46 0
-3237 178 0
-3238 -48 0
-3238 176 0
-181 3236 3237 3238 0
-3239 -32 0
-3239 217 0
-3240 -50 0
-3240 183 0
-3241 -53 0
-3241 180 0
-181 3239 3240 3241 0
-3242 -34 0
-3242 219 0
-3243 -52 0
-3243 185 0
-3244 -55 0
-3244 182 0
-181 3242 3243 3244 0
-3245 -3 0
-3245 97 0
-3246 -7 0
-3246 79 0
-3247 -10 0
-3247 76 0
-182 3245 3246 3247 0
-3248 -12 0
-3248 133 0
-3249 -16 0
-3249 115 0
-3250 -19 0
-3250 112 0
-182 3248 3249 3250 0
-3251 -20 0
-3251 161 0
-3252 -24 0
-3252 143 0
-3253 -27 0
-3253 140 0
-182 3251 3252 3253 0
-3254 -28 0
-3254 197 0
-3255 -37 0
-3255 170 0
-3256 -40 0
-3256 167 0
-182 3254 3255 3256 0
-3257 -29 0
-3257 207 0
-3258 -42 0
-3258 175 0
-3259 -45 0
-3259 172 0
-182 3257 3258 3259 0
-3260 -30 0
-3260 213 0
-3261 -46 0
-3261 179 0
-3262 -49 0
-3262 176 0
-182 3260 3261 3262 0
-3263 -32 0
-3263 218 0
-3264 -50 0
-3264 184 0
-3265 -54 0
-3265 180 0
-182 3263 3264 3265 0
-3266 -33 0
-3266 219 0
-3267 -51 0
-3267 185 0
-3268 -55 0
-3268 181 0
-182 3266 3267 3268 0
-3269 -3 0
-3269 98 0
-3270 -8 0
-3270 78 0
-3271 -9 0
-3271 77 0
-183 3269 3270 3271 0
-3272 -12 0
-3272 134 0
-3273 -17 0
-3273 114 0
-3274 -18 0
-3274 113 0
-183 3272 3273 3274 0
-3275 -20 0
-3275 162 0
-3276 -25 0
-3276 142 0
-3277 -26 0
-3277 141 0
-183 3275 3276 3277 0
-3278 -28 0
-3278 198 0
-3279 -38 0
-3279 169 0
-3280 -39 0
-3280 168 0
-183 3278 3279 3280 0
-3281 -29 0
-3281 208 0
-3282 -43 0
-3282 174 0
-3283 -44 0
-3283 173 0
-183 3281 3282 3283 0
-3284 -30 0
-3284 214 0
-3285 -47 0
-3285 178 0
-3286 -48 0
-3286 177 0
-183 3284 3285 3286 0
-3287 -31 0
-3287 217 0
-3288 -50 0
-3288 181 0
-3289 -51 0
-3289 180 0
-183 3287 3288 3289 0
-3290 -34 0
-3290 220 0
-3291 -54 0
-3291 185 0
-3292 -55 0
-3292 184 0
-183 3290 3291 3292 0
-3293 -3 0
-3293 99 0
-3294 -8 0
-3294 79 0
-3295 -10 0
-3295 77 0
-184 3293 3294 3295 0
-3296 -12 0
-3296 135 0
-3297 -17 0
-3297 115 0
-3298 -19 0
-3298 113 0
-184 3296 3297 3298 0
-3299 -20 0
-3299 163 0
-3300 -25 0
-3300 143 0
-3301 -27 0
-3301 141 0
-184 3299 3300 3301 0
-3302 -28 0
-3302 199 0
-3303 -38 0
-3303 170 0
-3304 -40 0
-3304 168 0
-184 3302 3303 3304 0
-3305 -29 0
-3305 209 0
-3306 -43 0
-3306 175 0
-3307 -45 0
-3307 173 0
-184 3305 3306 3307 0
-3308 -30 0
-3308 215 0
-3309 -47 0
-3309 179 0
-3310 -49 0
-3310 177 0
-184 3308 3309 3310 0
-3311 -31 0
-3311 218 0
-3312 -50 0
-3312 182 0
-3313 -52 0
-3313 180 0
-184 3311 3312 3313 0
-3314 -33 0
-3314 220 0
-3315 -53 0
-3315 185 0
-3316 -55 0
-3316 183 0
-184 3314 3315 3316 0
-3317 -3 0
-3317 100 0
-3318 -9 0
-3318 79 0
-3319 -10 0
-3319 78 0
-185 3317 3318 3319 0
-3320 -12 0
-3320 136 0
-3321 -18 0
-3321 115 0
-3322 -19 0
-3322 114 0
-185 3320 3321 3322 0
-3323 -20 0
-3323 164 0
-3324 -26 0
-3324 143 0
-3325 -27 0
-3325 142 0
-185 3323 3324 3325 0
-3326 -28 0
-3326 200 0
-3327 -39 0
-3327 170 0
-3328 -40 0
-3328 169 0
-185 3326 3327 3328 0
-3329 -29 0
-3329 210 0
-3330 -44 0
-3330 175 0
-3331 -45 0
-3331 174 0
-185 3329 3330 3331 0
-3332 -30 0
-3332 216 0
-3333 -48 0
-3333 179 0
-3334 -49 0
-3334 178 0
-185 3332 3333 3334 0
-3335 -31 0
-3335 219 0
-3336 -51 0
-3336 182 0
-3337 -52 0
-3337 181 0
-185 3335 3336 3337 0
-3338 -32 0
-3338 220 0
-3339 -53 0
-3339 184 0
-3340 -54 0
-3340 183 0
-185 3338 3339 3340 0
-3341 -4 0
-3341 86 0
-3342 -5 0
-3342 81 0
-3343 -6 0
-3343 80 0
-186 3341 3342 3343 0
-3344 -13 0
-3344 122 0
-3345 -14 0
-3345 117 0
-3346 -15 0
-3346 116 0
-186 3344 3345 3346 0
-3347 -21 0
-3347 150 0
-3348 -22 0
-3348 145 0
-3349 -23 0
-3349 144 0
-186 3347 3348 3349 0
-3350 -28 0
-3350 171 0
-3351 -29 0
-3351 166 0
-3352 -30 0
-3352 165 0
-186 3350 3351 3352 0
-3353 -37 0
-3353 201 0
-3354 -42 0
-3354 191 0
-3355 -46 0
-3355 187 0
-186 3353 3354 3355 0
-3356 -38 0
-3356 202 0
-3357 -43 0
-3357 192 0
-3358 -47 0
-3358 188 0
-186 3356 3357 3358 0
-3359 -39 0
-3359 203 0
-3360 -44 0
-3360 193 0
-3361 -48 0
-3361 189 0
-186 3359 3360 3361 0
-3362 -40 0
-3362 204 0
-3363 -45 0
-3363 194 0
-3364 -49 0
-3364 190 0
-186 3362 3363 3364 0
-3365 -4 0
-3365 87 0
-3366 -5 0
-3366 82 0
-3367 -7 0
-3367 80 0
-187 3365 3366 3367 0
-3368 -13 0
-3368 123 0
-3369 -14 0
-3369 118 0
-3370 -16 0
-3370 116 0
-187 3368 3369 3370 0
-3371 -21 0
-3371 151 0
-3372 -22 0
-3372 146 0
-3373 -24 0
-3373 144 0
-187 3371 3372 3373 0
-3374 -28 0
-3374 172 0
-3375 -29 0
-3375 167 0
-3376 -31 0
-3376 165 0
-187 3374 3375 3376 0
-3377 -36 0
-3377 201 0
-3378 -41 0
-3378 191 0
-3379 -46 0
-3379 186 0
-187 3377 3378 3379 0
-3380 -38 0
-3380 205 0
-3381 -43 0
-3381 195 0
-3382 -50 0
-3382 188 0
-187 3380 3381 3382 0
-3383 -39 0
-3383 206 0
-3384 -44 0
-3384 196 0
-3385 -51 0
-3385 189 0
-187 3383 3384 3385 0
-3386 -40 0
-3386 207 0
-3387 -45 0
-3387 197 0
-3388 -52 0
-3388 190 0
-187 3386 3387 3388 0
-3389 -4 0
-3389 88 0
-3390 -5 0
-3390 83 0
-3391 -8 0
-3391 80 0
-188 3389 3390 3391 0
-3392 -13 0
-3392 124 0
-3393 -14 0
-3393 119 0
-3394 -17 0
-3394 116 0
-188 3392 3393 3394 0
-3395 -21 0
-3395 152 0
-3396 -22 0
-3396 147 0
-3397 -25 0
-3397 144 0
-188 3395 3396 3397 0
-3398 -28 0
-3398 173 0
-3399 -29 0
-3399 168 0
-3400 -32 0
-3400 165 0
-188 3398 3399 3400 0
-3401 -36 0
-3401 202 0
-3402 -41 0
-3402 192 0
-3403 -47 0
-3403 186 0
-188 3401 3402 3403 0
-3404 -37 0
-3404 205 0
-3405 -42 0
-3405 195 0
-3406 -50 0
-3406 187 0
-188 3404 3405 3406 0
-3407 -39 0
-3407 208 0
-3408 -44 0
-3408 198 0
-3409 -53 0
-3409 189 0
-188 3407 3408 3409 0
-3410 -40 0
-3410 209 0
-3411 -45 0
-3411 199 0
-3412 -54 0
-3412 190 0
-188 3410 3411 3412 0
-3413 -4 0
-3413 89 0
-3414 -5 0
-3414 84 0
-3415 -9 0
-3415 80 0
-189 3413 3414 3415 0
-3416 -13 0
-3416 125 0
-3417 -14 0
-3417 120 0
-3418 -18 0
-3418 116 0
-189 3416 3417 3418 0
-3419 -21 0
-3419 153 0
-3420 -22 0
-3420 148 0
-3421 -26 0
-3421 144 0
-189 3419 3420 3421 0
-3422 -28 0
-3422 174 0
-3423 -29 0
-3423 169 0
-3424 -33 0
-3424 165 0
-189 3422 3423 3424 0
-3425 -36 0
-3425 203 0
-3426 -41 0
-3426 193 0
-3427 -48 0
-3427 186 0
-189 3425 3426 3427 0
-3428 -37 0
-3428 206 0
-3429 -42 0
-3429 196 0
-3430 -51 0
-3430 187 0
-189 3428 3429 3430 0
-3431 -38 0
-3431 208 0
-3432 -43 0
-3432 198 0
-3433 -53 0
-3433 188 0
-189 3431 3432 3433 0
-3434 -40 0
-3434 210 0
-3435 -45 0
-3435 200 0
-3436 -55 0
-3436 190 0
-189 3434 3435 3436 0
-3437 -4 0
-3437 90 0
-3438 -5 0
-3438 85 0
-3439 -10 0
-3439 80 0
-190 3437 3438 3439 0
-3440 -13 0
-3440 126 0
-3441 -14 0
-3441 121 0
-3442 -19 0
-3442 116 0
-190 3440 3441 3442 0
-3443 -21 0
-3443 154 0
-3444 -22 0
-3444 149 0
-3445 -27 0
-3445 144 0
-190 3443 3444 3445 0
-3446 -28 0
-3446 175 0
-3447 -29 0
-3447 170 0
-3448 -34 0
-3448 165 0
-190 3446 3447 3448 0
-3449 -36 0
-3449 204 0
-3450 -41 0
-3450 194 0
-3451 -49 0
-3451 186 0
-190 3449 3450 3451 0
-3452 -37 0
-3452 207 0
-3453 -42 0
-3453 197 0
-3454 -52 0
-3454 187 0
-190 3452 3453 3454 0
-3455 -38 0
-3455 209 0
-3456 -43 0
-3456 199 0
-3457 -54 0
-3457 188 0
-190 3455 3456 3457 0
-3458 -39 0
-3458 210 0
-3459 -44 0
-3459 200 0
-3460 -55 0
-3460 189 0
-190 3458 3459 3460 0
-3461 -4 0
-3461 91 0
-3462 -6 0
-3462 82 0
-3463 -7 0
-3463 81 0
-191 3461 3462 3463 0
-3464 -13 0
-3464 127 0
-3465 -15 0
-3465 118 0
-3466 -16 0
-3466 117 0
-191 3464 3465 3466 0
-3467 -21 0
-3467 155 0
-3468 -23 0
-3468 146 0
-3469 -24 0
-3469 145 0
-191 3467 3468 3469 0
-3470 -28 0
-3470 176 0
-3471 -30 0
-3471 167 0
-3472 -31 0
-3472 166 0
-191 3470 3471 3472 0
-3473 -35 0
-3473 201 0
-3474 -41 0
-3474 187 0
-3475 -42 0
-3475 186 0
-191 3473 3474 3475 0
-3476 -38 0
-3476 211 0
-3477 -47 0
-3477 195 0
-3478 -50 0
-3478 192 0
-191 3476 3477 3478 0
-3479 -39 0
-3479 212 0
-3480 -48 0
-3480 196 0
-3481 -51 0
-3481 193 0
-191 3479 3480 3481 0
-3482 -40 0
-3482 213 0
-3483 -49 0
-3483 197 0
-3484 -52 0
-3484 194 0
-191 3482 3483 3484 0
-3485 -4 0
-3485 92 0
-3486 -6 0
-3486 83 0
-3487 -8 0
-3487 81 0
-192 3485 3486 3487 0
-3488 -13 0
-3488 128 0
-3489 -15 0
-3489 119 0
-3490 -17 0
-3490 117 0
-192 3488 3489 3490 0
-3491 -21 0
-3491 156 0
-3492 -23 0
-3492 147 0
-3493 -25 0
-3493 145 0
-192 3491 3492 3493 0
-3494 -28 0
-3494 177 0
-3495 -30 0
-3495 168 0
-3496 -32 0
-3496 166 0
-192 3494 3495 3496 0
-3497 -35 0
-3497 202 0
-3498 -41 0
-3498 188 0
-3499 -43 0
-3499 186 0
-192 3497 3498 3499 0
-3500 -37 0
-3500 211 0
-3501 -46 0
-3501 195 0
-3502 -50 0
-3502 191 0
-192 3500 3501 3502 0
-3503 -39 0
-3503 214 0
-3504 -48 0
-3504 198 0
-3505 -53 0
-3505 193 0
-192 3503 3504 3505 0
-3506 -40 0
-3506 215 0
-3507 -49 0
-3507 199 0
-3508 -54 0
-3508 194 0
-192 3506 3507 3508 0
-3509 -4 0
-3509 93 0
-3510 -6 0
-3510 84 0
-3511 -9 0
-3511 81 0
-193 3509 3510 3511 0
-3512 -13 0
-3512 129 0
-3513 -15 0
-3513 120 0
-3514 -18 0
-3514 117 0
-193 3512 3513 3514 0
-3515 -21 0
-3515 157 0
-3516 -23 0
-3516 148 0
-3517 -26 0
-3517 145 0
-193 3515 3516 3517 0
-3518 -28 0
-3518 178 0
-3519 -30 0
-3519 169 0
-3520 -33 0
-3520 166 0
-193 3518 3519 3520 0
-3521 -35 0
-3521 203 0
-3522 -41 0
-3522 189 0
-3523 -44 0
-3523 186 0
-193 3521 3522 3523 0
-3524 -37 0
-3524 212 0
-3525 -46 0
-3525 196 0
-3526 -51 0
-3526 191 0
-193 3524 3525 3526 0
-3527 -38 0
-3527 214 0
-3528 -47 0
-3528 198 0
-3529 -53 0
-3529 192 0
-193 3527 3528 3529 0
-3530 -40 0
-3530 216 0
-3531 -49 0
-3531 200 0
-3532 -55 0
-3532 194 0
-193 3530 3531 3532 0
-3533 -4 0
-3533 94 0
-3534 -6 0
-3534 85 0
-3535 -10 0
-3535 81 0
-194 3533 3534 3535 0
-3536 -13 0
-3536 130 0
-3537 -15 0
-3537 121 0
-3538 -19 0
-3538 117 0
-194 3536 3537 3538 0
-3539 -21 0
-3539 158 0
-3540 -23 0
-3540 149 0
-3541 -27 0
-3541 145 0
-194 3539 3540 3541 0
-3542 -28 0
-3542 179 0
-3543 -30 0
-3543 170 0
-3544 -34 0
-3544 166 0
-194 3542 3543 3544 0
-3545 -35 0
-3545 204 0
-3546 -41 0
-3546 190 0
-3547 -45 0
-3547 186 0
-194 3545 3546 3547 0
-3548 -37 0
-3548 213 0
-3549 -46 0
-3549 197 0
-3550 -52 0
-3550 191 0
-194 3548 3549 3550 0
-3551 -38 0
-3551 215 0
-3552 -47 0
-3552 199 0
-3553 -54 0
-3553 192 0
-194 3551 3552 3553 0
-3554 -39 0
-3554 216 0
-3555 -48 0
-3555 200 0
-3556 -55 0
-3556 193 0
-194 3554 3555 3556 0
-3557 -4 0
-3557 95 0
-3558 -7 0
-3558 83 0
-3559 -8 0
-3559 82 0
-195 3557 3558 3559 0
-3560 -13 0
-3560 131 0
-3561 -16 0
-3561 119 0
-3562 -17 0
-3562 118 0
-195 3560 3561 3562 0
-3563 -21 0
-3563 159 0
-3564 -24 0
-3564 147 0
-3565 -25 0
-3565 146 0
-195 3563 3564 3565 0
-3566 -28 0
-3566 180 0
-3567 -31 0
-3567 168 0
-3568 -32 0
-3568 167 0
-195 3566 3567 3568 0
-3569 -35 0
-3569 205 0
-3570 -42 0
-3570 188 0
-3571 -43 0
-3571 187 0
-195 3569 3570 3571 0
-3572 -36 0
-3572 211 0
-3573 -46 0
-3573 192 0
-3574 -47 0
-3574 191 0
-195 3572 3573 3574 0
-3575 -39 0
-3575 217 0
-3576 -51 0
-3576 198 0
-3577 -53 0
-3577 196 0
-195 3575 3576 3577 0
-3578 -40 0
-3578 218 0
-3579 -52 0
-3579 199 0
-3580 -54 0
-3580 197 0
-195 3578 3579 3580 0
-3581 -4 0
-3581 96 0
-3582 -7 0
-3582 84 0
-3583 -9 0
-3583 82 0
-196 3581 3582 3583 0
-3584 -13 0
-3584 132 0
-3585 -16 0
-3585 120 0
-3586 -18 0
-3586 118 0
-196 3584 3585 3586 0
-3587 -21 0
-3587 160 0
-3588 -24 0
-3588 148 0
-3589 -26 0
-3589 146 0
-196 3587 3588 3589 0
-3590 -28 0
-3590 181 0
-3591 -31 0
-3591 169 0
-3592 -33 0
-3592 167 0
-196 3590 3591 3592 0
-3593 -35 0
-3593 206 0
-3594 -42 0
-3594 189 0
-3595 -44 0
-3595 187 0
-196 3593 3594 3595 0
-3596 -36 0
-3596 212 0
-3597 -46 0
-3597 193 0
-3598 -48 0
-3598 191 0
-196 3596 3597 3598 0
-3599 -38 0
-3599 217 0
-3600 -50 0
-3600 198 0
-3601 -53 0
-3601 195 0
-196 3599 3600 3601 0
-3602 -40 0
-3602 219 0
-3603 -52 0
-3603 200 0
-3604 -55 0
-3604 197 0
-196 3602 3603 3604 0
-3605 -4 0
-3605 97 0
-3606 -7 0
-3606 85 0
-3607 -10 0
-3607 82 0
-197 3605 3606 3607 0
-3608 -13 0
-3608 133 0
-3609 -16 0
-3609 121 0
-3610 -19 0
-3610 118 0
-197 3608 3609 3610 0
-3611 -21 0
-3611 161 0
-3612 -24 0
-3612 149 0
-3613 -27 0
-3613 146 0
-197 3611 3612 3613 0
-3614 -28 0
-3614 182 0
-3615 -31 0
-3615 170 0
-3616 -34 0
-3616 167 0
-197 3614 3615 3616 0
-3617 -35 0
-3617 207 0
-3618 -42 0
-3618 190 0
-3619 -45 0
-3619 187 0
-197 3617 3618 3619 0
-3620 -36 0
-3620 213 0
-3621 -46 0
-3621 194 0
-3622 -49 0
-3622 191 0
-197 3620 3621 3622 0
-3623 -38 0
-3623 218 0
-3624 -50 0
-3624 199 0
-3625 -54 0
-3625 195 0
-197 3623 3624 3625 0
-3626 -39 0
-3626 219 0
-3627 -51 0
-3627 200 0
-3628 -55 0
-3628 196 0
-197 3626 3627 3628 0
-3629 -4 0
-3629 98 0
-3630 -8 0
-3630 84 0
-3631 -9 0
-3631 83 0
-198 3629 3630 3631 0
-3632 -13 0
-3632 134 0
-3633 -17 0
-3633 120 0
-3634 -18 0
-3634 119 0
-198 3632 3633 3634 0
-3635 -21 0
-3635 162 0
-3636 -25 0
-3636 148 0
-3637 -26 0
-3637 147 0
-198 3635 3636 3637 0
-3638 -28 0
-3638 183 0
-3639 -32 0
-3639 169 0
-3640 -33 0
-3640 168 0
-198 3638 3639 3640 0
-3641 -35 0
-3641 208 0
-3642 -43 0
-3642 189 0
-3643 -44 0
-3643 188 0
-198 3641 3642 3643 0
-3644 -36 0
-3644 214 0
-3645 -47 0
-3645 193 0
-3646 -48 0
-3646 192 0
-198 3644 3645 3646 0
-3647 -37 0
-3647 217 0
-3648 -50 0
-3648 196 0
-3649 -51 0
-3649 195 0
-198 3647 3648 3649 0
-3650 -40 0
-3650 220 0
-3651 -54 0
-3651 200 0
-3652 -55 0
-3652 199 0
-198 3650 3651 3652 0
-3653 -4 0
-3653 99 0
-3654 -8 0
-3654 85 0
-3655 -10 0
-3655 83 0
-199 3653 3654 3655 0
-3656 -13 0
-3656 135 0
-3657 -17 0
-3657 121 0
-3658 -19 0
-3658 119 0
-199 3656 3657 3658 0
-3659 -21 0
-3659 163 0
-3660 -25 0
-3660 149 0
-3661 -27 0
-3661 147 0
-199 3659 3660 3661 0
-3662 -28 0
-3662 184 0
-3663 -32 0
-3663 170 0
-3664 -34 0
-3664 168 0
-199 3662 3663 3664 0
-3665 -35 0
-3665 209 0
-3666 -43 0
-3666 190 0
-3667 -45 0
-3667 188 0
-199 3665 3666 3667 0
-3668 -36 0
-3668 215 0
-3669 -47 0
-3669 194 0
-3670 -49 0
-3670 192 0
-199 3668 3669 3670 0
-3671 -37 0
-3671 218 0
-3672 -50 0
-3672 197 0
-3673 -52 0
-3673 195 0
-199 3671 3672 3673 0
-3674 -39 0
-3674 220 0
-3675 -53 0
-3675 200 0
-3676 -55 0
-3676 198 0
-199 3674 3675 3676 0
-3677 -4 0
-3677 100 0
-3678 -9 0
-3678 85 0
-3679 -10 0
-3679 84 0
-200 3677 3678 3679 0
-3680 -13 0
-3680 136 0
-3681 -18 0
-3681 121 0
-3682 -19 0
-3682 120 0
-200 3680 3681 3682 0
-3683 -21 0
-3683 164 0
-3684 -26 0
-3684 149 0
-3685 -27 0
-3685 148 0
-200 3683 3684 3685 0
-3686 -28 0
-3686 185 0
-3687 -33 0
-3687 170 0
-3688 -34 0
-3688 169 0
-200 3686 3687 3688 0
-3689 -35 0
-3689 210 0
-3690 -44 0
-3690 190 0
-3691 -45 0
-3691 189 0
-200 3689 3690 3691 0
-3692 -36 0
-3692 216 0
-3693 -48 0
-3693 194 0
-3694 -49 0
-3694 193 0
-200 3692 3693 3694 0
-3695 -37 0
-3695 219 0
-3696 -51 0
-3696 197 0
-3697 -52 0
-3697 196 0
-200 3695 3696 3697 0
-3698 -38 0
-3698 220 0
-3699 -53 0
-3699 199 0
-3700 -54 0
-3700 198 0
-200 3698 3699 3700 0
-3701 -5 0
-3701 91 0
-3702 -6 0
-3702 87 0
-3703 -7 0
-3703 86 0
-201 3701 3702 3703 0
-3704 -14 0
-3704 127 0
-3705 -15 0
-3705 123 0
-3706 -16 0
-3706 122 0
-201 3704 3705 3706 0
-3707 -22 0
-3707 155 0
-3708 -23 0
-3708 151 0
-3709 -24 0
-3709 150 0
-201 3707 3708 3709 0
-3710 -29 0
-3710 176 0
-3711 -30 0
-3711 172 0
-3712 -31 0
-3712 171 0
-201 3710 3711 3712 0
-3713 -35 0
-3713 191 0
-3714 -36 0
-3714 187 0
-3715 -37 0
-3715 186 0
-201 3713 3714 3715 0
-3716 -43 0
-3716 211 0
-3717 -47 0
-3717 205 0
-3718 -50 0
-3718 202 0
-201 3716 3717 3718 0
-3719 -44 0
-3719 212 0
-3720 -48 0
-3720 206 0
-3721 -51 0
-3721 203 0
-201 3719 3720 3721 0
-3722 -45 0
-3722 213 0
-3723 -49 0
-3723 207 0
-3724 -52 0
-3724 204 0
-201 3722 3723 3724 0
-3725 -5 0
-3725 92 0
-3726 -6 0
-3726 88 0
-3727 -8 0
-3727 86 0
-202 3725 3726 3727 0
-3728 -14 0
-3728 128 0
-3729 -15 0
-3729 124 0
-3730 -17 0
-3730 122 0
-202 3728 3729 3730 0
-3731 -22 0
-3731 156 0
-3732 -23 0
-3732 152 0
-3733 -25 0
-3733 150 0
-202 3731 3732 3733 0
-3734 -29 0
-3734 177 0
-3735 -30 0
-3735 173 0
-3736 -32 0
-3736 171 0
-202 3734 3735 3736 0
-3737 -35 0
-3737 192 0
-3738 -36 0
-3738 188 0
-3739 -38 0
-3739 186 0
-202 3737 3738 3739 0
-3740 -42 0
-3740 211 0
-3741 -46 0
-3741 205 0
-3742 -50 0
-3742 201 0
-202 3740 3741 3742 0
-3743 -44 0
-3743 214 0
-3744 -48 0
-3744 208 0
-3745 -53 0
-3745 203 0
-202 3743 3744 3745 0
-3746 -45 0
-3746 215 0
-3747 -49 0
-3747 209 0
-3748 -54 0
-3748 204 0
-202 3746 3747 3748 0
-3749 -5 0
-3749 93 0
-3750 -6 0
-3750 89 0
-3751 -9 0
-3751 86 0
-203 3749 3750 3751 0
-3752 -14 0
-3752 129 0
-3753 -15 0
-3753 125 0
-3754 -18 0
-3754 122 0
-203 3752 3753 3754 0
-3755 -22 0
-3755 157 0
-3756 -23 0
-3756 153 0
-3757 -26 0
-3757 150 0
-203 3755 3756 3757 0
-3758 -29 0
-3758 178 0
-3759 -30 0
-3759 174 0
-3760 -33 0
-3760 171 0
-203 3758 3759 3760 0
-3761 -35 0
-3761 193 0
-3762 -36 0
-3762 189 0
-3763 -39 0
-3763 186 0
-203 3761 3762 3763 0
-3764 -42 0
-3764 212 0
-3765 -46 0
-3765 206 0
-3766 -51 0
-3766 201 0
-203 3764 3765 3766 0
-3767 -43 0
-3767 214 0
-3768 -47 0
-3768 208 0
-3769 -53 0
-3769 202 0
-203 3767 3768 3769 0
-3770 -45 0
-3770 216 0
-3771 -49 0
-3771 210 0
-3772 -55 0
-3772 204 0
-203 3770 3771 3772 0
-3773 -5 0
-3773 94 0
-3774 -6 0
-3774 90 0
-3775 -10 0
-3775 86 0
-204 3773 3774 3775 0
-3776 -14 0
-3776 130 0
-3777 -15 0
-3777 126 0
-3778 -19 0
-3778 122 0
-204 3776 3777 3778 0
-3779 -22 0
-3779 158 0
-3780 -23 0
-3780 154 0
-3781 -27 0
-3781 150 0
-204 3779 3780 3781 0
-3782 -29 0
-3782 179 0
-3783 -30 0
-3783 175 0
-3784 -34 0
-3784 171 0
-204 3782 3783 3784 0
-3785 -35 0
-3785 194 0
-3786 -36 0
-3786 190 0
-3787 -40 0
-3787 186 0
-204 3785 3786 3787 0
-3788 -42 0
-3788 213 0
-3789 -46 0
-3789 207 0
-3790 -52 0
-3790 201 0
-204 3788 3789 3790 0
-3791 -43 0
-3791 215 0
-3792 -47 0
-3792 209 0
-3793 -54 0
-3793 202 0
-204 3791 3792 3793 0
-3794 -44 0
-3794 216 0
-3795 -48 0
-3795 210 0
-3796 -55 0
-3796 203 0
-204 3794 3795 3796 0
-3797 -5 0
-3797 95 0
-3798 -7 0
-3798 88 0
-3799 -8 0
-3799 87 0
-205 3797 3798 3799 0
-3800 -14 0
-3800 131 0
-3801 -16 0
-3801 124 0
-3802 -17 0
-3802 123 0
-205 3800 3801 3802 0
-3803 -22 0
-3803 159 0
-3804 -24 0
-3804 152 0
-3805 -25 0
-3805 151 0
-205 3803 3804 3805 0
-3806 -29 0
-3806 180 0
-3807 -31 0
-3807 173 0
-3808 -32 0
-3808 172 0
-205 3806 3807 3808 0
-3809 -35 0
-3809 195 0
-3810 -37 0
-3810 188 0
-3811 -38 0
-3811 187 0
-205 3809 3810 3811 0
-3812 -41 0
-3812 211 0
-3813 -46 0
-3813 202 0
-3814 -47 0
-3814 201 0
-205 3812 3813 3814 0
-3815 -44 0
-3815 217 0
-3816 -51 0
-3816 208 0
-3817 -53 0
-3817 206 0
-205 3815 3816 3817 0
-3818 -45 0
-3818 218 0
-3819 -52 0
-3819 209 0
-3820 -54 0
-3820 207 0
-205 3818 3819 3820 0
-3821 -5 0
-3821 96 0
-3822 -7 0
-3822 89 0
-3823 -9 0
-3823 87 0
-206 3821 3822 3823 0
-3824 -14 0
-3824 132 0
-3825 -16 0
-3825 125 0
-3826 -18 0
-3826 123 0
-206 3824 3825 3826 0
-3827 -22 0
-3827 160 0
-3828 -24 0
-3828 153 0
-3829 -26 0
-3829 151 0
-206 3827 3828 3829 0
-3830 -29 0
-3830 181 0
-3831 -31 0
-3831 174 0
-3832 -33 0
-3832 172 0
-206 3830 3831 3832 0
-3833 -35 0
-3833 196 0
-3834 -37 0
-3834 189 0
-3835 -39 0
-3835 187 0
-206 3833 3834 3835 0
-3836 -41 0
-3836 212 0
-3837 -46 0
-3837 203 0
-3838 -48 0
-3838 201 0
-206 3836 3837 3838 0
-3839 -43 0
-3839 217 0
-3840 -50 0
-3840 208 0
-3841 -53 0
-3841 205 0
-206 3839 3840 3841 0
-3842 -45 0
-3842 219 0
-3843 -52 0
-3843 210 0
-3844 -55 0
-3844 207 0
-206 3842 3843 3844 0
-3845 -5 0
-3845 97 0
-3846 -7 0
-3846 90 0
-3847 -10 0
-3847 87 0
-207 3845 3846 3847 0
-3848 -14 0
-3848 133 0
-3849 -16 0
-3849 126 0
-3850 -19 0
-3850 123 0
-207 3848 3849 3850 0
-3851 -22 0
-3851 161 0
-3852 -24 0
-3852 154 0
-3853 -27 0
-3853 151 0
-207 3851 3852 3853 0
-3854 -29 0
-3854 182 0
-3855 -31 0
-3855 175 0
-3856 -34 0
-3856 172 0
-207 3854 3855 3856 0
-3857 -35 0
-3857 197 0
-3858 -37 0
-3858 190 0
-3859 -40 0
-3859 187 0
-207 3857 3858 3859 0
-3860 -41 0
-3860 213 0
-3861 -46 0
-3861 204 0
-3862 -49 0
-3862 201 0
-207 3860 3861 3862 0
-3863 -43 0
-3863 218 0
-3864 -50 0
-3864 209 0
-3865 -54 0
-3865 205 0
-207 3863 3864 3865 0
-3866 -44 0
-3866 219 0
-3867 -51 0
-3867 210 0
-3868 -55 0
-3868 206 0
-207 3866 3867 3868 0
-3869 -5 0
-3869 98 0
-3870 -8 0
-3870 89 0
-3871 -9 0
-3871 88 0
-208 3869 3870 3871 0
-3872 -14 0
-3872 134 0
-3873 -17 0
-3873 125 0
-3874 -18 0
-3874 124 0
-208 3872 3873 3874 0
-3875 -22 0
-3875 162 0
-3876 -25 0
-3876 153 0
-3877 -26 0
-3877 152 0
-208 3875 3876 3877 0
-3878 -29 0
-3878 183 0
-3879 -32 0
-3879 174 0
-3880 -33 0
-3880 173 0
-208 3878 3879 3880 0
-3881 -35 0
-3881 198 0
-3882 -38 0
-3882 189 0
-3883 -39 0
-3883 188 0
-208 3881 3882 3883 0
-3884 -41 0
-3884 214 0
-3885 -47 0
-3885 203 0
-3886 -48 0
-3886 202 0
-208 3884 3885 3886 0
-3887 -42 0
-3887 217 0
-3888 -50 0
-3888 206 0
-3889 -51 0
-3889 205 0
-208 3887 3888 3889 0
-3890 -45 0
-3890 220 0
-3891 -54 0
-3891 210 0
-3892 -55 0
-3892 209 0
-208 3890 3891 3892 0
-3893 -5 0
-3893 99 0
-3894 -8 0
-3894 90 0
-3895 -10 0
-3895 88 0
-209 3893 3894 3895 0
-3896 -14 0
-3896 135 0
-3897 -17 0
-3897 126 0
-3898 -19 0
-3898 124 0
-209 3896 3897 3898 0
-3899 -22 0
-3899 163 0
-3900 -25 0
-3900 154 0
-3901 -27 0
-3901 152 0
-209 3899 3900 3901 0
-3902 -29 0
-3902 184 0
-3903 -32 0
-3903 175 0
-3904 -34 0
-3904 173 0
-209 3902 3903 3904 0
-3905 -35 0
-3905 199 0
-3906 -38 0
-3906 190 0
-3907 -40 0
-3907 188 0
-209 3905 3906 3907 0
-3908 -41 0
-3908 215 0
-3909 -47 0
-3909 204 0
-3910 -49 0
-3910 202 0
-209 3908 3909 3910 0
-3911 -42 0
-3911 218 0
-3912 -50 0
-3912 207 0
-3913 -52 0
-3913 205 0
-209 3911 3912 3913 0
-3914 -44 0
-3914 220 0
-3915 -53 0
-3915 210 0
-3916 -55 0
-3916 208 0
-209 3914 3915 3916 0
-3917 -5 0
-3917 100 0
-3918 -9 0
-3918 90 0
-3919 -10 0
-3919 89 0
-210 3917 3918 3919 0
-3920 -14 0
-3920 136 0
-3921 -18 0
-3921 126 0
-3922 -19 0
-3922 125 0
-210 3920 3921 3922 0
-3923 -22 0
-3923 164 0
-3924 -26 0
-3924 154 0
-3925 -27 0
-3925 153 0
-210 3923 3924 3925 0
-3926 -29 0
-3926 185 0
-3927 -33 0
-3927 175 0
-3928 -34 0
-3928 174 0
-210 3926 3927 3928 0
-3929 -35 0
-3929 200 0
-3930 -39 0
-3930 190 0
-3931 -40 0
-3931 189 0
-210 3929 3930 3931 0
-3932 -41 0
-3932 216 0
-3933 -48 0
-3933 204 0
-3934 -49 0
-3934 203 0
-210 3932 3933 3934 0
-3935 -42 0
-3935 219 0
-3936 -51 0
-3936 207 0
-3937 -52 0
-3937 206 0
-210 3935 3936 3937 0
-3938 -43 0
-3938 220 0
-3939 -53 0
-3939 209 0
-3940 -54 0
-3940 208 0
-210 3938 3939 3940 0
-3941 -6 0
-3941 95 0
-3942 -7 0
-3942 92 0
-3943 -8 0
-3943 91 0
-211 3941 3942 3943 0
-3944 -15 0
-3944 131 0
-3945 -16 0
-3945 128 0
-3946 -17 0
-3946 127 0
-211 3944 3945 3946 0
-3947 -23 0
-3947 159 0
-3948 -24 0
-3948 156 0
-3949 -25 0
-3949 155 0
-211 3947 3948 3949 0
-3950 -30 0
-3950 180 0
-3951 -31 0
-3951 177 0
-3952 -32 0
-3952 176 0
-211 3950 3951 3952 0
-3953 -36 0
-3953 195 0
-3954 -37 0
-3954 192 0
-3955 -38 0
-3955 191 0
-211 3953 3954 3955 0
-3956 -41 0
-3956 205 0
-3957 -42 0
-3957 202 0
-3958 -43 0
-3958 201 0
-211 3956 3957 3958 0
-3959 -48 0
-3959 217 0
-3960 -51 0
-3960 214 0
-3961 -53 0
-3961 212 0
-211 3959 3960 3961 0
-3962 -49 0
-3962 218 0
-3963 -52 0
-3963 215 0
-3964 -54 0
-3964 213 0
-211 3962 3963 3964 0
-3965 -6 0
-3965 96 0
-3966 -7 0
-3966 93 0
-3967 -9 0
-3967 91 0
-212 3965 3966 3967 0
-3968 -15 0
-3968 132 0
-3969 -16 0
-3969 129 0
-3970 -18 0
-3970 127 0
-212 3968 3969 3970 0
-3971 -23 0
-3971 160 0
-3972 -24 0
-3972 157 0
-3973 -26 0
-3973 155 0
-212 3971 3972 3973 0
-3974 -30 0
-3974 181 0
-3975 -31 0
-3975 178 0
-3976 -33 0
-3976 176 0
-212 3974 3975 3976 0
-3977 -36 0
-3977 196 0
-3978 -37 0
-3978 193 0
-3979 -39 0
-3979 191 0
-212 3977 3978 3979 0
-3980 -41 0
-3980 206 0
-3981 -42 0
-3981 203 0
-3982 -44 0
-3982 201 0
-212 3980 3981 3982 0
-3983 -47 0
-3983 217 0
-3984 -50 0
-3984 214 0
-3985 -53 0
-3985 211 0
-212 3983 3984 3985 0
-3986 -49 0
-3986 219 0
-3987 -52 0
-3987 216 0
-3988 -55 0
-3988 213 0
-212 3986 3987 3988 0
-3989 -6 0
-3989 97 0
-3990 -7 0
-3990 94 0
-3991 -10 0
-3991 91 0
-213 3989 3990 3991 0
-3992 -15 0
-3992 133 0
-3993 -16 0
-3993 130 0
-3994 -19 0
-3994 127 0
-213 3992 3993 3994 0
-3995 -23 0
-3995 161 0
-3996 -24 0
-3996 158 0
-3997 -27 0
-3997 155 0
-213 3995 3996 3997 0
-3998 -30 0
-3998 182 0
-3999 -31 0
-3999 179 0
-4000 -34 0
-4000 176 0
-213 3998 3999 4000 0
-4001 -36 0
-4001 197 0
-4002 -37 0
-4002 194 0
-4003 -40 0
-4003 191 0
-213 4001 4002 4003 0
-4004 -41 0
-4004 207 0
-4005 -42 0
-4005 204 0
-4006 -45 0
-4006 201 0
-213 4004 4005 4006 0
-4007 -47 0
-4007 218 0
-4008 -50 0
-4008 215 0
-4009 -54 0
-4009 211 0
-213 4007 4008 4009 0
-4010 -48 0
-4010 219 0
-4011 -51 0
-4011 216 0
-4012 -55 0
-4012 212 0
-213 4010 4011 4012 0
-4013 -6 0
-4013 98 0
-4014 -8 0
-4014 93 0
-4015 -9 0
-4015 92 0
-214 4013 4014 4015 0
-4016 -15 0
-4016 134 0
-4017 -17 0
-4017 129 0
-4018 -18 0
-4018 128 0
-214 4016 4017 4018 0
-4019 -23 0
-4019 162 0
-4020 -25 0
-4020 157 0
-4021 -26 0
-4021 156 0
-214 4019 4020 4021 0
-4022 -30 0
-4022 183 0
-4023 -32 0
-4023 178 0
-4024 -33 0
-4024 177 0
-214 4022 4023 4024 0
-4025 -36 0
-4025 198 0
-4026 -38 0
-4026 193 0
-4027 -39 0
-4027 192 0
-214 4025 4026 4027 0
-4028 -41 0
-4028 208 0
-4029 -43 0
-4029 203 0
-4030 -44 0
-4030 202 0
-214 4028 4029 4030 0
-4031 -46 0
-4031 217 0
-4032 -50 0
-4032 212 0
-4033 -51 0
-4033 211 0
-214 4031 4032 4033 0
-4034 -49 0
-4034 220 0
-4035 -54 0
-4035 216 0
-4036 -55 0
-4036 215 0
-214 4034 4035 4036 0
-4037 -6 0
-4037 99 0
-4038 -8 0
-4038 94 0
-4039 -10 0
-4039 92 0
-215 4037 4038 4039 0
-4040 -15 0
-4040 135 0
-4041 -17 0
-4041 130 0
-4042 -19 0
-4042 128 0
-215 4040 4041 4042 0
-4043 -23 0
-4043 163 0
-4044 -25 0
-4044 158 0
-4045 -27 0
-4045 156 0
-215 4043 4044 4045 0
-4046 -30 0
-4046 184 0
-4047 -32 0
-4047 179 0
-4048 -34 0
-4048 177 0
-215 4046 4047 4048 0
-4049 -36 0
-4049 199 0
-4050 -38 0
-4050 194 0
-4051 -40 0
-4051 192 0
-215 4049 4050 4051 0
-4052 -41 0
-4052 209 0
-4053 -43 0
-4053 204 0
-4054 -45 0
-4054 202 0
-215 4052 4053 4054 0
-4055 -46 0
-4055 218 0
-4056 -50 0
-4056 213 0
-4057 -52 0
-4057 211 0
-215 4055 4056 4057 0
-4058 -48 0
-4058 220 0
-4059 -53 0
-4059 216 0
-4060 -55 0
-4060 214 0
-215 4058 4059 4060 0
-4061 -6 0
-4061 100 0
-4062 -9 0
-4062 94 0
-4063 -10 0
-4063 93 0
-216 4061 4062 4063 0
-4064 -15 0
-4064 136 0
-4065 -18 0
-4065 130 0
-4066 -19 0
-4066 129 0
-216 4064 4065 4066 0
-4067 -23 0
-4067 164 0
-4068 -26 0
-4068 158 0
-4069 -27 0
-4069 157 0
-216 4067 4068 4069 0
-4070 -30 0
-4070 185 0
-4071 -33 0
-4071 179 0
-4072 -34 0
-4072 178 0
-216 4070 4071 4072 0
-4073 -36 0
-4073 200 0
-4074 -39 0
-4074 194 0
-4075 -40 0
-4075 193 0
-216 4073 4074 4075 0
-4076 -41 0
-4076 210 0
-4077 -44 0
-4077 204 0
-4078 -45 0
-4078 203 0
-216 4076 4077 4078 0
-4079 -46 0
-4079 219 0
-4080 -51 0
-4080 213 0
-4081 -52 0
-4081 212 0
-216 4079 4080 4081 0
-4082 -47 0
-4082 220 0
-4083 -53 0
-4083 215 0
-4084 -54 0
-4084 214 0
-216 4082 4083 4084 0
-4085 -7 0
-4085 98 0
-4086 -8 0
-4086 96 0
-4087 -9 0
-4087 95 0
-217 4085 4086 4087 0
-4088 -16 0
-4088 134 0
-4089 -17 0
-4089 132 0
-4090 -18 0
-4090 131 0
-217 4088 4089 4090 0
-4091 -24 0
-4091 162 0
-4092 -25 0
-4092 160 0
-4093 -26 0
-4093 159 0
-217 4091 4092 4093 0
-4094 -31 0
-4094 183 0
-4095 -32 0
-4095 181 0
-4096 -33 0
-4096 180 0
-217 4094 4095 4096 0
-4097 -37 0
-4097 198 0
-4098 -38 0
-4098 196 0
-4099 -39 0
-4099 195 0
-217 4097 4098 4099 0
-4100 -42 0
-4100 208 0
-4101 -43 0
-4101 206 0
-4102 -44 0
-4102 205 0
-217 4100 4101 4102 0
-4103 -46 0
-4103 214 0
-4104 -47 0
-4104 212 0
-4105 -48 0
-4105 211 0
-217 4103 4104 4105 0
-4106 -52 0
-4106 220 0
-4107 -54 0
-4107 219 0
-4108 -55 0
-4108 218 0
-217 4106 4107 4108 0
-4109 -7 0
-4109 99 0
-4110 -8 0
-4110 97 0
-4111 -10 0
-4111 95 0
-218 4109 4110 4111 0
-4112 -16 0
-4112 135 0
-4113 -17 0
-4113 133 0
-4114 -19 0
-4114 131 0
-218 4112 4113 4114 0
-4115 -24 0
-4115 163 0
-4116 -25 0
-4116 161 0
-4117 -27 0
-4117 159 0
-218 4115 4116 4117 0
-4118 -31 0
-4118 184 0
-4119 -32 0
-4119 182 0
-4120 -34 0
-4120 180 0
-218 4118 4119 4120 0
-4121 -37 0
-4121 199 0
-4122 -38 0
-4122 197 0
-4123 -40 0
-4123 195 0
-218 4121 4122 4123 0
-4124 -42 0
-4124 209 0
-4125 -43 0
-4125 207 0
-4126 -45 0
-4126 205 0
-218 4124 4125 4126 0
-4127 -46 0
-4127 215 0
-4128 -47 0
-4128 213 0
-4129 -49 0
-4129 211 0
-218 4127 4128 4129 0
-4130 -51 0
-4130 220 0
-4131 -53 0
-4131 219 0
-4132 -55 0
-4132 217 0
-218 4130 4131 4132 0
-4133 -7 0
-4133 100 0
-4134 -9 0
-4134 97 0
-4135 -10 0
-4135 96 0
-219 4133 4134 4135 0
-4136 -16 0
-4136 136 0
-4137 -18 0
-4137 133 0
-4138 -19 0
-4138 132 0
-219 4136 4137 4138 0
-4139 -24 0
-4139 164 0
-4140 -26 0
-4140 161 0
-4141 -27 0
-4141 160 0
-219 4139 4140 4141 0
-4142 -31 0
-4142 185 0
-4143 -33 0
-4143 182 0
-4144 -34 0
-4144 181 0
-219 4142 4143 4144 0
-4145 -37 0
-4145 200 0
-4146 -39 0
-4146 197 0
-4147 -40 0
-4147 196 0
-219 4145 4146 4147 0
-4148 -42 0
-4148 210 0
-4149 -44 0
-4149 207 0
-4150 -45 0
-4150 206 0
-219 4148 4149 4150 0
-4151 -46 0
-4151 216 0
-4152 -48 0
-4152 213 0
-4153 -49 0
-4153 212 0
-219 4151 4152 4153 0
-4154 -50 0
-4154 220 0
-4155 -53 0
-4155 218 0
-4156 -54 0
-4156 217 0
-219 4154 4155 4156 0
-4157 -8 0
-4157 100 0
-4158 -9 0
-4158 99 0
-4159 -10 0
-4159 98 0
-220 4157 4158 4159 0
-4160 -17 0
-4160 136 0
-4161 -18 0
-4161 135 0
-4162 -19 0
-4162 134 0
-220 4160 4161 4162 0
-4163 -25 0
-4163 164 0
-4164 -26 0
-4164 163 0
-4165 -27 0
-4165 162 0
-220 4163 4164 4165 0
-4166 -32 0
-4166 185 0
-4167 -33 0
-4167 184 0
-4168 -34 0
-4168 183 0
-220 4166 4167 4168 0
-4169 -38 0
-4169 200 0
-4170 -39 0
-4170 199 0
-4171 -40 0
-4171 198 0
-220 4169 4170 4171 0
-4172 -43 0
-4172 210 0
-4173 -44 0
-4173 209 0
-4174 -45 0
-4174 208 0
-220 4172 4173 4174 0
-4175 -47 0
-4175 216 0
-4176 -48 0
-4176 215 0
-4177 -49 0
-4177 214 0
-220 4175 4176 4177 0
-4178 -50 0
-4178 219 0
-4179 -51 0
-4179 218 0
-4180 -52 0
-4180 217 0
-220 4178 4179 4180 0
1 0
-2 0
-3 0
-4 0
-5 0
6 0
11 0
-12 0
-13 0
-14 0
-15 0
20 0
-21 0
-22 0
-23 0
28 0
-29 0
-30 0
35 0
-36 0
41 0
7 0
16 0
61 0
-133 0
-97 0
16 0
24 0
105 0
-161 0
-133 0
24 0
31 0
140 0
-182 0
-161 0
31 0
37 0
167 0
-197 0
-182 0
37 0
42 0
187 0
-207 0
-197 0
43 0
47 0
202 0
-215 0
-209 0
48 0
9 0
93 0
-100 0
-216 0
