p cnf 6226 15896
-67 -3 -13 -22 0
-67 -4 -14 -23 0
-67 -5 -15 -24 0
-67 -6 -16 -25 0
-67 -7 -17 -26 0
-67 -8 -18 -27 0
-67 -9 -19 -28 0
-67 -10 -20 -29 0
-67 -11 -21 -30 0
-68 -2 -12 -22 0
-68 -4 -14 -31 0
-68 -5 -15 -32 0
-68 -6 -16 -33 0
-68 -7 -17 -34 0
-68 -8 -18 -35 0
-68 -9 -19 -36 0
-68 -10 -20 -37 0
-68 -11 -21 -38 0
-69 -2 -12 -23 0
-69 -3 -13 -31 0
-69 -5 -15 -39 0
-69 -6 -16 -40 0
-69 -7 -17 -41 0
-69 -8 -18 -42 0
-69 -9 -19 -43 0
-69 -10 -20 -44 0
-69 -11 -21 -45 0
-70 -2 -12 -24 0
-70 -3 -13 -32 0
-70 -4 -14 -39 0
-70 -6 -16 -46 0
-70 -7 -17 -47 0
-70 -8 -18 -48 0
-70 -9 -19 -49 0
-70 -10 -20 -50 0
-70 -11 -21 -51 0
-71 -2 -12 -25 0
-71 -3 -13 -33 0
-71 -4 -14 -40 0
-71 -5 -15 -46 0
-71 -7 -17 -52 0
-71 -8 -18 -53 0
-71 -9 -19 -54 0
-71 -10 -20 -55 0
-71 -11 -21 -56 0
-72 -2 -12 -26 0
-72 -3 -13 -34 0
-72 -4 -14 -41 0
-72 -5 -15 -47 0
-72 -6 -16 -52 0
-72 -8 -18 -57 0
-72 -9 -19 -58 0
-72 -10 -20 -59 0
-72 -11 -21 -60 0
-73 -2 -12 -27 0
-73 -3 -13 -35 0
-73 -4 -14 -42 0
-73 -5 -15 -48 0
-73 -6 -16 -53 0
-73 -7 -17 -57 0
-73 -9 -19 -61 0
-73 -10 -20 -62 0
-73 -11 -21 -63 0
-74 -2 -12 -28 0
-74 -3 -13 -36 0
-74 -4 -14 -43 0
-74 -5 -15 -49 0
-74 -6 -16 -54 0
-74 -7 -17 -58 0
-74 -8 -18 -61 0
-74 -10 -20 -64 0
-74 -11 -21 -65 0
-75 -2 -12 -29 0
-75 -3 -13 -37 0
-75 -4 -14 -44 0
-75 -5 -15 -50 0
-75 -6 -16 -55 0
-75 -7 -17 -59 0
-75 -8 -18 -62 0
-75 -9 -19 -64 0
-75 -11 -21 -66 0
-76 -2 -12 -30 0
-76 -3 -13 -38 0
-76 -4 -14 -45 0
-76 -5 -15 -51 0
-76 -6 -16 -56 0
-76 -7 -17 -60 0
-76 -8 -18 -63 0
-76 -9 -19 -65 0
-76 -10 -20 -66 0
-77 -1 -12 -13 0
-77 -4 -23 -31 0
-77 -5 -24 -32 0
-77 -6 -25 -33 0
-77 -7 -26 -34 0
-77 -8 -27 -35 0
-77 -9 -28 -36 0
-77 -10 -29 -37 0
-77 -11 -30 -38 0
-78 -1 -12 -14 0
-78 -3 -22 -31 0
-78 -5 -24 -39 0
-78 -6 -25 -40 0
-78 -7 -26 -41 0
-78 -8 -27 -42 0
-78 -9 -28 -43 0
-78 -10 -29 -44 0
-78 -11 -30 -45 0
-79 -1 -12 -15 0
-79 -3 -22 -32 0
-79 -4 -23 -39 0
-79 -6 -25 -46 0
-79 -7 -26 -47 0
-79 -8 -27 -48 0
-79 -9 -28 -49 0
-79 -10 -29 -50 0
-79 -11 -30 -51 0
-80 -1 -12 -16 0
-80 -3 -22 -33 0
-80 -4 -23 -40 0
-80 -5 -24 -46 0
-80 -7 -26 -52 0
-80 -8 -27 -53 0
-80 -9 -28 -54 0
-80 -10 -29 -55 0
-80 -11 -30 -56 0
-81 -1 -12 -17 0
-81 -3 -22 -34 0
-81 -4 -23 -41 0
-81 -5 -24 -47 0
-81 -6 -25 -52 0
-81 -8 -27 -57 0
-81 -9 -28 -58 0
-81 -10 -29 -59 0
-81 -11 -30 -60 0
-82 -1 -12 -18 0
-82 -3 -22 -35 0
-82 -4 -23 -42 0
-82 -5 -24 -48 0
-82 -6 -25 -53 0
-82 -7 -26 -57 0
-82 -9 -28 -61 0
-82 -10 -29 -62 0
-82 -11 -30 -63 0
-83 -1 -12 -19 0
-83 -3 -22 -36 0
-83 -4 -23 -43 0
-83 -5 -24 -49 0
-83 -6 -25 -54 0
-83 -7 -26 -58 0
-83 -8 -27 -61 0
-83 -10 -29 -64 0
-83 -11 -30 -65 0
-84 -1 -12 -20 0
-84 -3 -22 -37 0
-84 -4 -23 -44 0
-84 -5 -24 -50 0
-84 -6 -25 -55 0
-84 -7 -26 -59 0
-84 -8 -27 -62 0
-84 -9 -28 -64 0
-84 -11 -30 -66 0
-85 -1 -12 -21 0
-85 -3 -22 -38 0
-85 -4 -23 -45 0
-85 -5 -24 -51 0
-85 -6 -25 -56 0
-85 -7 -26 -60 0
-85 -8 -27 -63 0
-85 -9 -28 -65 0
-85 -10 -29 -66 0
-86 -1 -13 -14 0
-86 -2 -22 -23 0
-86 -5 -32 -39 0
-86 -6 -33 -40 0
-86 -7 -34 -41 0
-86 -8 -35 -42 0
-86 -9 -36 -43 0
-86 -10 -37 -44 0
-86 -11 -38 -45 0
-87 -1 -13 -15 0
-87 -2 -22 -24 0
-87 -4 -31 -39 0
-87 -6 -33 -46 0
-87 -7 -34 -47 0
-87 -8 -35 -48 0
-87 -9 -36 -49 0
-87 -10 -37 -50 0
-87 -11 -38 -51 0
-88 -1 -13 -16 0
-88 -2 -22 -25 0
-88 -4 -31 -40 0
-88 -5 -32 -46 0
-88 -7 -34 -52 0
-88 -8 -35 -53 0
-88 -9 -36 -54 0
-88 -10 -37 -55 0
-88 -11 -38 -56 0
-89 -1 -13 -17 0
-89 -2 -22 -26 0
-89 -4 -31 -41 0
-89 -5 -32 -47 0
-89 -6 -33 -52 0
-89 -8 -35 -57 0
-89 -9 -36 -58 0
-89 -10 -37 -59 0
-89 -11 -38 -60 0
-90 -1 -13 -18 0
-90 -2 -22 -27 0
-90 -4 -31 -42 0
-90 -5 -32 -48 0
-90 -6 -33 -53 0
-90 -7 -34 -57 0
-90 -9 -36 -61 0
-90 -10 -37 -62 0
-90 -11 -38 -63 0
-91 -1 -13 -19 0
-91 -2 -22 -28 0
-91 -4 -31 -43 0
-91 -5 -32 -49 0
-91 -6 -33 -54 0
-91 -7 -34 -58 0
-91 -8 -35 -61 0
-91 -10 -37 -64 0
-91 -11 -38 -65 0
-92 -1 -13 -20 0
-92 -2 -22 -29 0
-92 -4 -31 -44 0
-92 -5 -32 -50 0
-92 -6 -33 -55 0
-92 -7 -34 -59 0
-92 -8 -35 -62 0
-92 -9 -36 -64 0
-92 -11 -38 -66 0
-93 -1 -13 -21 0
-93 -2 -22 -30 0
-93 -4 -31 -45 0
-93 -5 -32 -51 0
-93 -6 -33 -56 0
-93 -7 -34 -60 0
-93 -8 -35 -63 0
-93 -9 -36 -65 0
-93 -10 -37 -66 0
-94 -1 -14 -15 0
-94 -2 -23 -24 0
-94 -3 -31 -32 0
-94 -6 -40 -46 0
-94 -7 -41 -47 0
-94 -8 -42 -48 0
-94 -9 -43 -49 0
-94 -10 -44 -50 0
-94 -11 -45 -51 0
-95 -1 -14 -16 0
-95 -2 -23 -25 0
-95 -3 -31 -33 0
-95 -5 -39 -46 0
-95 -7 -41 -52 0
-95 -8 -42 -53 0
-95 -9 -43 -54 0
-95 -10 -44 -55 0
-95 -11 -45 -56 0
-96 -1 -14 -17 0
-96 -2 -23 -26 0
-96 -3 -31 -34 0
-96 -5 -39 -47 0
-96 -6 -40 -52 0
-96 -8 -42 -57 0
-96 -9 -43 -58 0
-96 -10 -44 -59 0
-96 -11 -45 -60 0
-97 -1 -14 -18 0
-97 -2 -23 -27 0
-97 -3 -31 -35 0
-97 -5 -39 -48 0
-97 -6 -40 -53 0
-97 -7 -41 -57 0
-97 -9 -43 -61 0
-97 -10 -44 -62 0
-97 -11 -45 -63 0
-98 -1 -14 -19 0
-98 -2 -23 -28 0
-98 -3 -31 -36 0
-98 -5 -39 -49 0
-98 -6 -40 -54 0
-98 -7 -41 -58 0
-98 -8 -42 -61 0
-98 -10 -44 -64 0
-98 -11 -45 -65 0
-99 -1 -14 -20 0
-99 -2 -23 -29 0
-99 -3 -31 -37 0
-99 -5 -39 -50 0
-99 -6 -40 -55 0
-99 -7 -41 -59 0
-99 -8 -42 -62 0
-99 -9 -43 -64 0
-99 -11 -45 -66 0
-100 -1 -14 -21 0
-100 -2 -23 -30 0
-100 -3 -31 -38 0
-100 -5 -39 -51 0
-100 -6 -40 -56 0
-100 -7 -41 -60 0
-100 -8 -42 -63 0
-100 -9 -43 -65 0
-100 -10 -44 -66 0
-101 -1 -15 -16 0
-101 -2 -24 -25 0
-101 -3 -32 -33 0
-101 -4 -39 -40 0
-101 -7 -47 -52 0
-101 -8 -48 -53 0
-101 -9 -49 -54 0
-101 -10 -50 -55 0
-101 -11 -51 -56 0
-102 -1 -15 -17 0
-102 -2 -24 -26 0
-102 -3 -32 -34 0
-102 -4 -39 -41 0
-102 -6 -46 -52 0
-102 -8 -48 -57 0
-102 -9 -49 -58 0
-102 -10 -50 -59 0
-102 -11 -51 -60 0
-103 -1 -15 -18 0
-103 -2 -24 -27 0
-103 -3 -32 -35 0
-103 -4 -39 -42 0
-103 -6 -46 -53 0
-103 -7 -47 -57 0
-103 -9 -49 -61 0
-103 -10 -50 -62 0
-103 -11 -51 -63 0
-104 -1 -15 -19 0
-104 -2 -24 -28 0
-104 -3 -32 -36 0
-104 -4 -39 -43 0
-104 -6 -46 -54 0
-104 -7 -47 -58 0
-104 -8 -48 -61 0
-104 -10 -50 -64 0
-104 -11 -51 -65 0
-105 -1 -15 -20 0
-105 -2 -24 -29 0
-105 -3 -32 -37 0
-105 -4 -39 -44 0
-105 -6 -46 -55 0
-105 -7 -47 -59 0
-105 -8 -48 -62 0
-105 -9 -49 -64 0
-105 -11 -51 -66 0
-106 -1 -15 -21 0
-106 -2 -24 -30 0
-106 -3 -32 -38 0
-106 -4 -39 -45 0
-106 -6 -46 -56 0
-106 -7 -47 -60 0
-106 -8 -48 -63 0
-106 -9 -49 -65 0
-106 -10 -50 -66 0
-107 -1 -16 -17 0
-107 -2 -25 -26 0
-107 -3 -33 -34 0
-107 -4 -40 -41 0
-107 -5 -46 -47 0
-107 -8 -53 -57 0
-107 -9 -54 -58 0
-107 -10 -55 -59 0
-107 -11 -56 -60 0
-108 -1 -16 -18 0
-108 -2 -25 -27 0
-108 -3 -33 -35 0
-108 -4 -40 -42 0
-108 -5 -46 -48 0
-108 -7 -52 -57 0
-108 -9 -54 -61 0
-108 -10 -55 -62 0
-108 -11 -56 -63 0
-109 -1 -16 -19 0
-109 -2 -25 -28 0
-109 -3 -33 -36 0
-109 -4 -40 -43 0
-109 -5 -46 -49 0
-109 -7 -52 -58 0
-109 -8 -53 -61 0
-109 -10 -55 -64 0
-109 -11 -56 -65 0
-110 -1 -16 -20 0
-110 -2 -25 -29 0
-110 -3 -33 -37 0
-110 -4 -40 -44 0
-110 -5 -46 -50 0
-110 -7 -52 -59 0
-110 -8 -53 -62 0
-110 -9 -54 -64 0
-110 -11 -56 -66 0
-111 -1 -16 -21 0
-111 -2 -25 -30 0
-111 -3 -33 -38 0
-111 -4 -40 -45 0
-111 -5 -46 -51 0
-111 -7 -52 -60 0
-111 -8 -53 -63 0
-111 -9 -54 -65 0
-111 -10 -55 -66 0
-112 -1 -17 -18 0
-112 -2 -26 -27 0
-112 -3 -34 -35 0
-112 -4 -41 -42 0
-112 -5 -47 -48 0
-112 -6 -52 -53 0
-112 -9 -58 -61 0
-112 -10 -59 -62 0
-112 -11 -60 -63 0
-113 -1 -17 -19 0
-113 -2 -26 -28 0
-113 -3 -34 -36 0
-113 -4 -41 -43 0
-113 -5 -47 -49 0
-113 -6 -52 -54 0
-113 -8 -57 -61 0
-113 -10 -59 -64 0
-113 -11 -60 -65 0
-114 -1 -17 -20 0
-114 -2 -26 -29 0
-114 -3 -34 -37 0
-114 -4 -41 -44 0
-114 -5 -47 -50 0
-114 -6 -52 -55 0
-114 -8 -57 -62 0
-114 -9 -58 -64 0
-114 -11 -60 -66 0
-115 -1 -17 -21 0
-115 -2 -26 -30 0
-115 -3 -34 -38 0
-115 -4 -41 -45 0
-115 -5 -47 -51 0
-115 -6 -52 -56 0
-115 -8 -57 -63 0
-115 -9 -58 -65 0
-115 -10 -59 -66 0
-116 -1 -18 -19 0
-116 -2 -27 -28 0
-116 -3 -35 -36 0
-116 -4 -42 -43 0
-116 -5 -48 -49 0
-116 -6 -53 -54 0
-116 -7 -57 -58 0
-116 -10 -62 -64 0
-116 -11 -63 -65 0
-117 -1 -18 -20 0
-117 -2 -27 -29 0
-117 -3 -35 -37 0
-117 -4 -42 -44 0
-117 -5 -48 -50 0
-117 -6 -53 -55 0
-117 -7 -57 -59 0
-117 -9 -61 -64 0
-117 -11 -63 -66 0
-118 -1 -18 -21 0
-118 -2 -27 -30 0
-118 -3 -35 -38 0
-118 -4 -42 -45 0
-118 -5 -48 -51 0
-118 -6 -53 -56 0
-118 -7 -57 -60 0
-118 -9 -61 -65 0
-118 -10 -62 -66 0
-119 -1 -19 -20 0
-119 -2 -28 -29 0
-119 -3 -36 -37 0
-119 -4 -43 -44 0
-119 -5 -49 -50 0
-119 -6 -54 -55 0
-119 -7 -58 -59 0
-119 -8 -61 -62 0
-119 -11 -65 -66 0
-120 -1 -19 -21 0
-120 -2 -28 -30 0
-120 -3 -36 -38 0
-120 -4 -43 -45 0
-120 -5 -49 -51 0
-120 -6 -54 -56 0
-120 -7 -58 -60 0
-120 -8 -61 -63 0
-120 -10 -64 -66 0
-121 -1 -20 -21 0
-121 -2 -29 -30 0
-121 -3 -37 -38 0
-121 -4 -44 -45 0
-121 -5 -50 -51 0
-121 -6 -55 -56 0
-121 -7 -59 -60 0
-121 -8 -62 -63 0
-121 -9 -64 -65 0
-122 -1 -2 -3 0
-122 -14 -23 -31 0
-122 -15 -24 -32 0
-122 -16 -25 -33 0
-122 -17 -26 -34 0
-122 -18 -27 -35 0
-122 -19 -28 -36 0
-122 -20 -29 -37 0
-122 -21 -30 -38 0
-123 -1 -2 -4 0
-123 -13 -22 -31 0
-123 -15 -24 -39 0
-123 -16 -25 -40 0
-123 -17 -26 -41 0
-123 -18 -27 -42 0
-123 -19 -28 -43 0
-123 -20 -29 -44 0
-123 -21 -30 -45 0
-124 -1 -2 -5 0
-124 -13 -22 -32 0
-124 -14 -23 -39 0
-124 -16 -25 -46 0
-124 -17 -26 -47 0
-124 -18 -27 -48 0
-124 -19 -28 -49 0
-124 -20 -29 -50 0
-124 -21 -30 -51 0
-125 -1 -2 -6 0
-125 -13 -22 -33 0
-125 -14 -23 -40 0
-125 -15 -24 -46 0
-125 -17 -26 -52 0
-125 -18 -27 -53 0
-125 -19 -28 -54 0
-125 -20 -29 -55 0
-125 -21 -30 -56 0
-126 -1 -2 -7 0
-126 -13 -22 -34 0
-126 -14 -23 -41 0
-126 -15 -24 -47 0
-126 -16 -25 -52 0
-126 -18 -27 -57 0
-126 -19 -28 -58 0
-126 -20 -29 -59 0
-126 -21 -30 -60 0
-127 -1 -2 -8 0
-127 -13 -22 -35 0
-127 -14 -23 -42 0
-127 -15 -24 -48 0
-127 -16 -25 -53 0
-127 -17 -26 -57 0
-127 -19 -28 -61 0
-127 -20 -29 -62 0
-127 -21 -30 -63 0
-128 -1 -2 -9 0
-128 -13 -22 -36 0
-128 -14 -23 -43 0
-128 -15 -24 -49 0
-128 -16 -25 -54 0
-128 -17 -26 -58 0
-128 -18 -27 -61 0
-128 -20 -29 -64 0
-128 -21 -30 -65 0
-129 -1 -2 -10 0
-129 -13 -22 -37 0
-129 -14 -23 -44 0
-129 -15 -24 -50 0
-129 -16 -25 -55 0
-129 -17 -26 -59 0
-129 -18 -27 -62 0
-129 -19 -28 -64 0
-129 -21 -30 -66 0
-130 -1 -2 -11 0
-130 -13 -22 -38 0
-130 -14 -23 -45 0
-130 -15 -24 -51 0
-130 -16 -25 -56 0
-130 -17 -26 -60 0
-130 -18 -27 -63 0
-130 -19 -28 -65 0
-130 -20 -29 -66 0
-131 -1 -3 -4 0
-131 -12 -22 -23 0
-131 -15 -32 -39 0
-131 -16 -33 -40 0
-131 -17 -34 -41 0
-131 -18 -35 -42 0
-131 -19 -36 -43 0
-131 -20 -37 -44 0
-131 -21 -38 -45 0
-132 -1 -3 -5 0
-132 -12 -22 -24 0
-132 -14 -31 -39 0
-132 -16 -33 -46 0
-132 -17 -34 -47 0
-132 -18 -35 -48 0
-132 -19 -36 -49 0
-132 -20 -37 -50 0
-132 -21 -38 -51 0
-133 -1 -3 -6 0
-133 -12 -22 -25 0
-133 -14 -31 -40 0
-133 -15 -32 -46 0
-133 -17 -34 -52 0
-133 -18 -35 -53 0
-133 -19 -36 -54 0
-133 -20 -37 -55 0
-133 -21 -38 -56 0
-134 -1 -3 -7 0
-134 -12 -22 -26 0
-134 -14 -31 -41 0
-134 -15 -32 -47 0
-134 -16 -33 -52 0
-134 -18 -35 -57 0
-134 -19 -36 -58 0
-134 -20 -37 -59 0
-134 -21 -38 -60 0
-135 -1 -3 -8 0
-135 -12 -22 -27 0
-135 -14 -31 -42 0
-135 -15 -32 -48 0
-135 -16 -33 -53 0
-135 -17 -34 -57 0
-135 -19 -36 -61 0
-135 -20 -37 -62 0
-135 -21 -38 -63 0
-136 -1 -3 -9 0
-136 -12 -22 -28 0
-136 -14 -31 -43 0
-136 -15 -32 -49 0
-136 -16 -33 -54 0
-136 -17 -34 -58 0
-136 -18 -35 -61 0
-136 -20 -37 -64 0
-136 -21 -38 -65 0
-137 -1 -3 -10 0
-137 -12 -22 -29 0
-137 -14 -31 -44 0
-137 -15 -32 -50 0
-137 -16 -33 -55 0
-137 -17 -34 -59 0
-137 -18 -35 -62 0
-137 -19 -36 -64 0
-137 -21 -38 -66 0
-138 -1 -3 -11 0
-138 -12 -22 -30 0
-138 -14 -31 -45 0
-138 -15 -32 -51 0
-138 -16 -33 -56 0
-138 -17 -34 -60 0
-138 -18 -35 -63 0
-138 -19 -36 -65 0
-138 -20 -37 -66 0
-139 -1 -4 -5 0
-139 -12 -23 -24 0
-139 -13 -31 -32 0
-139 -16 -40 -46 0
-139 -17 -41 -47 0
-139 -18 -42 -48 0
-139 -19 -43 -49 0
-139 -20 -44 -50 0
-139 -21 -45 -51 0
-140 -1 -4 -6 0
-140 -12 -23 -25 0
-140 -13 -31 -33 0
-140 -15 -39 -46 0
-140 -17 -41 -52 0
-140 -18 -42 -53 0
-140 -19 -43 -54 0
-140 -20 -44 -55 0
-140 -21 -45 -56 0
-141 -1 -4 -7 0
-141 -12 -23 -26 0
-141 -13 -31 -34 0
-141 -15 -39 -47 0
-141 -16 -40 -52 0
-141 -18 -42 -57 0
-141 -19 -43 -58 0
-141 -20 -44 -59 0
-141 -21 -45 -60 0
-142 -1 -4 -8 0
-142 -12 -23 -27 0
-142 -13 -31 -35 0
-142 -15 -39 -48 0
-142 -16 -40 -53 0
-142 -17 -41 -57 0
-142 -19 -43 -61 0
-142 -20 -44 -62 0
-142 -21 -45 -63 0
-143 -1 -4 -9 0
-143 -12 -23 -28 0
-143 -13 -31 -36 0
-143 -15 -39 -49 0
-143 -16 -40 -54 0
-143 -17 -41 -58 0
-143 -18 -42 -61 0
-143 -20 -44 -64 0
-143 -21 -45 -65 0
-144 -1 -4 -10 0
-144 -12 -23 -29 0
-144 -13 -31 -37 0
-144 -15 -39 -50 0
-144 -16 -40 -55 0
-144 -17 -41 -59 0
-144 -18 -42 -62 0
-144 -19 -43 -64 0
-144 -21 -45 -66 0
-145 -1 -4 -11 0
-145 -12 -23 -30 0
-145 -13 -31 -38 0
-145 -15 -39 -51 0
-145 -16 -40 -56 0
-145 -17 -41 -60 0
-145 -18 -42 -63 0
-145 -19 -43 -65 0
-145 -20 -44 -66 0
-146 -1 -5 -6 0
-146 -12 -24 -25 0
-146 -13 -32 -33 0
-146 -14 -39 -40 0
-146 -17 -47 -52 0
-146 -18 -48 -53 0
-146 -19 -49 -54 0
-146 -20 -50 -55 0
-146 -21 -51 -56 0
-147 -1 -5 -7 0
-147 -12 -24 -26 0
-147 -13 -32 -34 0
-147 -14 -39 -41 0
-147 -16 -46 -52 0
-147 -18 -48 -57 0
-147 -19 -49 -58 0
-147 -20 -50 -59 0
-147 -21 -51 -60 0
-148 -1 -5 -8 0
-148 -12 -24 -27 0
-148 -13 -32 -35 0
-148 -14 -39 -42 0
-148 -16 -46 -53 0
-148 -17 -47 -57 0
-148 -19 -49 -61 0
-148 -20 -50 -62 0
-148 -21 -51 -63 0
-149 -1 -5 -9 0
-149 -12 -24 -28 0
-149 -13 -32 -36 0
-149 -14 -39 -43 0
-149 -16 -46 -54 0
-149 -17 -47 -58 0
-149 -18 -48 -61 0
-149 -20 -50 -64 0
-149 -21 -51 -65 0
-150 -1 -5 -10 0
-150 -12 -24 -29 0
-150 -13 -32 -37 0
-150 -14 -39 -44 0
-150 -16 -46 -55 0
-150 -17 -47 -59 0
-150 -18 -48 -62 0
-150 -19 -49 -64 0
-150 -21 -51 -66 0
-151 -1 -5 -11 0
-151 -12 -24 -30 0
-151 -13 -32 -38 0
-151 -14 -39 -45 0
-151 -16 -46 -56 0
-151 -17 -47 -60 0
-151 -18 -48 -63 0
-151 -19 -49 -65 0
-151 -20 -50 -66 0
-152 -1 -6 -7 0
-152 -12 -25 -26 0
-152 -13 -33 -34 0
-152 -14 -40 -41 0
-152 -15 -46 -47 0
-152 -18 -53 -57 0
-152 -19 -54 -58 0
-152 -20 -55 -59 0
-152 -21 -56 -60 0
-153 -1 -6 -8 0
-153 -12 -25 -27 0
-153 -13 -33 -35 0
-153 -14 -40 -42 0
-153 -15 -46 -48 0
-153 -17 -52 -57 0
-153 -19 -54 -61 0
-153 -20 -55 -62 0
-153 -21 -56 -63 0
-154 -1 -6 -9 0
-154 -12 -25 -28 0
-154 -13 -33 -36 0
-154 -14 -40 -43 0
-154 -15 -46 -49 0
-154 -17 -52 -58 0
-154 -18 -53 -61 0
-154 -20 -55 -64 0
-154 -21 -56 -65 0
-155 -1 -6 -10 0
-155 -12 -25 -29 0
-155 -13 -33 -37 0
-155 -14 -40 -44 0
-155 -15 -46 -50 0
-155 -17 -52 -59 0
-155 -18 -53 -62 0
-155 -19 -54 -64 0
-155 -21 -56 -66 0
-156 -1 -6 -11 0
-156 -12 -25 -30 0
-156 -13 -33 -38 0
-156 -14 -40 -45 0
-156 -15 -46 -51 0
-156 -17 -52 -60 0
-156 -18 -53 -63 0
-156 -19 -54 -65 0
-156 -20 -55 -66 0
-157 -1 -7 -8 0
-157 -12 -26 -27 0
-157 -13 -34 -35 0
-157 -14 -41 -42 0
-157 -15 -47 -48 0
-157 -16 -52 -53 0
-157 -19 -58 -61 0
-157 -20 -59 -62 0
-157 -21 -60 -63 0
-158 -1 -7 -9 0
-158 -12 -26 -28 0
-158 -13 -34 -36 0
-158 -14 -41 -43 0
-158 -15 -47 -49 0
-158 -16 -52 -54 0
-158 -18 -57 -61 0
-158 -20 -59 -64 0
-158 -21 -60 -65 0
-159 -1 -7 -10 0
-159 -12 -26 -29 0
-159 -13 -34 -37 0
-159 -14 -41 -44 0
-159 -15 -47 -50 0
-159 -16 -52 -55 0
-159 -18 -57 -62 0
-159 -19 -58 -64 0
-159 -21 -60 -66 0
-160 -1 -7 -11 0
-160 -12 -26 -30 0
-160 -13 -34 -38 0
-160 -14 -41 -45 0
-160 -15 -47 -51 0
-160 -16 -52 -56 0
-160 -18 -57 -63 0
-160 -19 -58 -65 0
-160 -20 -59 -66 0
-161 -1 -8 -9 0
-161 -12 -27 -28 0
-161 -13 -35 -36 0
-161 -14 -42 -43 0
-161 -15 -48 -49 0
-161 -16 -53 -54 0
-161 -17 -57 -58 0
-161 -20 -62 -64 0
-161 -21 -63 -65 0
-162 -1 -8 -10 0
-162 -12 -27 -29 0
-162 -13 -35 -37 0
-162 -14 -42 -44 0
-162 -15 -48 -50 0
-162 -16 -53 -55 0
-162 -17 -57 -59 0
-162 -19 -61 -64 0
-162 -21 -63 -66 0
-163 -1 -8 -11 0
-163 -12 -27 -30 0
-163 -13 -35 -38 0
-163 -14 -42 -45 0
-163 -15 -48 -51 0
-163 -16 -53 -56 0
-163 -17 -57 -60 0
-163 -19 -61 -65 0
-163 -20 -62 -66 0
-164 -1 -9 -10 0
-164 -12 -28 -29 0
-164 -13 -36 -37 0
-164 -14 -43 -44 0
-164 -15 -49 -50 0
-164 -16 -54 -55 0
-164 -17 -58 -59 0
-164 -18 -61 -62 0
-164 -21 -65 -66 0
-165 -1 -9 -11 0
-165 -12 -28 -30 0
-165 -13 -36 -38 0
-165 -14 -43 -45 0
-165 -15 -49 -51 0
-165 -16 -54 -56 0
-165 -17 -58 -60 0
-165 -18 -61 -63 0
-165 -20 -64 -66 0
-166 -1 -10 -11 0
-166 -12 -29 -30 0
-166 -13 -37 -38 0
-166 -14 -44 -45 0
-166 -15 -50 -51 0
-166 -16 -55 -56 0
-166 -17 -59 -60 0
-166 -18 -62 -63 0
-166 -19 -64 -65 0
-167 -2 -3 -4 0
-167 -12 -13 -14 0
-167 -24 -32 -39 0
-167 -25 -33 -40 0
-167 -26 -34 -41 0
-167 -27 -35 -42 0
-167 -28 -36 -43 0
-167 -29 -37 -44 0
-167 -30 -38 -45 0
-168 -2 -3 -5 0
-168 -12 -13 -15 0
-168 -23 -31 -39 0
-168 -25 -33 -46 0
-168 -26 -34 -47 0
-168 -27 -35 -48 0
-168 -28 -36 -49 0
-168 -29 -37 -50 0
-168 -30 -38 -51 0
-169 -2 -3 -6 0
-169 -12 -13 -16 0
-169 -23 -31 -40 0
-169 -24 -32 -46 0
-169 -26 -34 -52 0
-169 -27 -35 -53 0
-169 -28 -36 -54 0
-169 -29 -37 -55 0
-169 -30 -38 -56 0
-170 -2 -3 -7 0
-170 -12 -13 -17 0
-170 -23 -31 -41 0
-170 -24 -32 -47 0
-170 -25 -33 -52 0
-170 -27 -35 -57 0
-170 -28 -36 -58 0
-170 -29 -37 -59 0
-170 -30 -38 -60 0
-171 -2 -3 -8 0
-171 -12 -13 -18 0
-171 -23 -31 -42 0
-171 -24 -32 -48 0
-171 -25 -33 -53 0
-171 -26 -34 -57 0
-171 -28 -36 -61 0
-171 -29 -37 -62 0
-171 -30 -38 -63 0
-172 -2 -3 -9 0
-172 -12 -13 -19 0
-172 -23 -31 -43 0
-172 -24 -32 -49 0
-172 -25 -33 -54 0
-172 -26 -34 -58 0
-172 -27 -35 -61 0
-172 -29 -37 -64 0
-172 -30 -38 -65 0
-173 -2 -3 -10 0
-173 -12 -13 -20 0
-173 -23 -31 -44 0
-173 -24 -32 -50 0
-173 -25 -33 -55 0
-173 -26 -34 -59 0
-173 -27 -35 -62 0
-173 -28 -36 -64 0
-173 -30 -38 -66 0
-174 -2 -3 -11 0
-174 -12 -13 -21 0
-174 -23 -31 -45 0
-174 -24 -32 -51 0
-174 -25 -33 -56 0
-174 -26 -34 -60 0
-174 -27 -35 -63 0
-174 -28 -36 -65 0
-174 -29 -37 -66 0
-175 -2 -4 -5 0
-175 -12 -14 -15 0
-175 -22 -31 -32 0
-175 -25 -40 -46 0
-175 -26 -41 -47 0
-175 -27 -42 -48 0
-175 -28 -43 -49 0
-175 -29 -44 -50 0
-175 -30 -45 -51 0
-176 -2 -4 -6 0
-176 -12 -14 -16 0
-176 -22 -31 -33 0
-176 -24 -39 -46 0
-176 -26 -41 -52 0
-176 -27 -42 -53 0
-176 -28 -43 -54 0
-176 -29 -44 -55 0
-176 -30 -45 -56 0
-177 -2 -4 -7 0
-177 -12 -14 -17 0
-177 -22 -31 -34 0
-177 -24 -39 -47 0
-177 -25 -40 -52 0
-177 -27 -42 -57 0
-177 -28 -43 -58 0
-177 -29 -44 -59 0
-177 -30 -45 -60 0
-178 -2 -4 -8 0
-178 -12 -14 -18 0
-178 -22 -31 -35 0
-178 -24 -39 -48 0
-178 -25 -40 -53 0
-178 -26 -41 -57 0
-178 -28 -43 -61 0
-178 -29 -44 -62 0
-178 -30 -45 -63 0
-179 -2 -4 -9 0
-179 -12 -14 -19 0
-179 -22 -31 -36 0
-179 -24 -39 -49 0
-179 -25 -40 -54 0
-179 -26 -41 -58 0
-179 -27 -42 -61 0
-179 -29 -44 -64 0
-179 -30 -45 -65 0
-180 -2 -4 -10 0
-180 -12 -14 -20 0
-180 -22 -31 -37 0
-180 -24 -39 -50 0
-180 -25 -40 -55 0
-180 -26 -41 -59 0
-180 -27 -42 -62 0
-180 -28 -43 -64 0
-180 -30 -45 -66 0
-181 -2 -4 -11 0
-181 -12 -14 -21 0
-181 -22 -31 -38 0
-181 -24 -39 -51 0
-181 -25 -40 -56 0
-181 -26 -41 -60 0
-181 -27 -42 -63 0
-181 -28 -43 -65 0
-181 -29 -44 -66 0
-182 -2 -5 -6 0
-182 -12 -15 -16 0
-182 -22 -32 -33 0
-182 -23 -39 -40 0
-182 -26 -47 -52 0
-182 -27 -48 -53 0
-182 -28 -49 -54 0
-182 -29 -50 -55 0
-182 -30 -51 -56 0
-183 -2 -5 -7 0
-183 -12 -15 -17 0
-183 -22 -32 -34 0
-183 -23 -39 -41 0
-183 -25 -46 -52 0
-183 -27 -48 -57 0
-183 -28 -49 -58 0
-183 -29 -50 -59 0
-183 -30 -51 -60 0
-184 -2 -5 -8 0
-184 -12 -15 -18 0
-184 -22 -32 -35 0
-184 -23 -39 -42 0
-184 -25 -46 -53 0
-184 -26 -47 -57 0
-184 -28 -49 -61 0
-184 -29 -50 -62 0
-184 -30 -51 -63 0
-185 -2 -5 -9 0
-185 -12 -15 -19 0
-185 -22 -32 -36 0
-185 -23 -39 -43 0
-185 -25 -46 -54 0
-185 -26 -47 -58 0
-185 -27 -48 -61 0
-185 -29 -50 -64 0
-185 -30 -51 -65 0
-186 -2 -5 -10 0
-186 -12 -15 -20 0
-186 -22 -32 -37 0
-186 -23 -39 -44 0
-186 -25 -46 -55 0
-186 -26 -47 -59 0
-186 -27 -48 -62 0
-186 -28 -49 -64 0
-186 -30 -51 -66 0
-187 -2 -5 -11 0
-187 -12 -15 -21 0
-187 -22 -32 -38 0
-187 -23 -39 -45 0
-187 -25 -46 -56 0
-187 -26 -47 -60 0
-187 -27 -48 -63 0
-187 -28 -49 -65 0
-187 -29 -50 -66 0
-188 -2 -6 -7 0
-188 -12 -16 -17 0
-188 -22 -33 -34 0
-188 -23 -40 -41 0
-188 -24 -46 -47 0
-188 -27 -53 -57 0
-188 -28 -54 -58 0
-188 -29 -55 -59 0
-188 -30 -56 -60 0
-189 -2 -6 -8 0
-189 -12 -16 -18 0
-189 -22 -33 -35 0
-189 -23 -40 -42 0
-189 -24 -46 -48 0
-189 -26 -52 -57 0
-189 -28 -54 -61 0
-189 -29 -55 -62 0
-189 -30 -56 -63 0
-190 -2 -6 -9 0
-190 -12 -16 -19 0
-190 -22 -33 -36 0
-190 -23 -40 -43 0
-190 -24 -46 -49 0
-190 -26 -52 -58 0
-190 -27 -53 -61 0
-190 -29 -55 -64 0
-190 -30 -56 -65 0
-191 -2 -6 -10 0
-191 -12 -16 -20 0
-191 -22 -33 -37 0
-191 -23 -40 -44 0
-191 -24 -46 -50 0
-191 -26 -52 -59 0
-191 -27 -53 -62 0
-191 -28 -54 -64 0
-191 -30 -56 -66 0
-192 -2 -6 -11 0
-192 -12 -16 -21 0
-192 -22 -33 -38 0
-192 -23 -40 -45 0
-192 -24 -46 -51 0
-192 -26 -52 -60 0
-192 -27 -53 -63 0
-192 -28 -54 -65 0
-192 -29 -55 -66 0
-193 -2 -7 -8 0
-193 -12 -17 -18 0
-193 -22 -34 -35 0
-193 -23 -41 -42 0
-193 -24 -47 -48 0
-193 -25 -52 -53 0
-193 -28 -58 -61 0
-193 -29 -59 -62 0
-193 -30 -60 -63 0
-194 -2 -7 -9 0
-194 -12 -17 -19 0
-194 -22 -34 -36 0
-194 -23 -41 -43 0
-194 -24 -47 -49 0
-194 -25 -52 -54 0
-194 -27 -57 -61 0
-194 -29 -59 -64 0
-194 -30 -60 -65 0
-195 -2 -7 -10 0
-195 -12 -17 -20 0
-195 -22 -34 -37 0
-195 -23 -41 -44 0
-195 -24 -47 -50 0
-195 -25 -52 -55 0
-195 -27 -57 -62 0
-195 -28 -58 -64 0
-195 -30 -60 -66 0
-196 -2 -7 -11 0
-196 -12 -17 -21 0
-196 -22 -34 -38 0
-196 -23 -41 -45 0
-196 -24 -47 -51 0
-196 -25 -52 -56 0
-196 -27 -57 -63 0
-196 -28 -58 -65 0
-196 -29 -59 -66 0
-197 -2 -8 -9 0
-197 -12 -18 -19 0
-197 -22 -35 -36 0
-197 -23 -42 -43 0
-197 -24 -48 -49 0
-197 -25 -53 -54 0
-197 -26 -57 -58 0
-197 -29 -62 -64 0
-197 -30 -63 -65 0
-198 -2 -8 -10 0
-198 -12 -18 -20 0
-198 -22 -35 -37 0
-198 -23 -42 -44 0
-198 -24 -48 -50 0
-198 -25 -53 -55 0
-198 -26 -57 -59 0
-198 -28 -61 -64 0
-198 -30 -63 -66 0
-199 -2 -8 -11 0
-199 -12 -18 -21 0
-199 -22 -35 -38 0
-199 -23 -42 -45 0
-199 -24 -48 -51 0
-199 -25 -53 -56 0
-199 -26 -57 -60 0
-199 -28 -61 -65 0
-199 -29 -62 -66 0
-200 -2 -9 -10 0
-200 -12 -19 -20 0
-200 -22 -36 -37 0
-200 -23 -43 -44 0
-200 -24 -49 -50 0
-200 -25 -54 -55 0
-200 -26 -58 -59 0
-200 -27 -61 -62 0
-200 -30 -65 -66 0
-201 -2 -9 -11 0
-201 -12 -19 -21 0
-201 -22 -36 -38 0
-201 -23 -43 -45 0
-201 -24 -49 -51 0
-201 -25 -54 -56 0
-201 -26 -58 -60 0
-201 -27 -61 -63 0
-201 -29 -64 -66 0
-202 -2 -10 -11 0
-202 -12 -20 -21 0
-202 -22 -37 -38 0
-202 -23 -44 -45 0
-202 -24 -50 -51 0
-202 -25 -55 -56 0
-202 -26 -59 -60 0
-202 -27 -62 -63 0
-202 -28 -64 -65 0
-203 -3 -4 -5 0
-203 -13 -14 -15 0
-203 -22 -23 -24 0
-203 -33 -40 -46 0
-203 -34 -41 -47 0
-203 -35 -42 -48 0
-203 -36 -43 -49 0
-203 -37 -44 -50 0
-203 -38 -45 -51 0
-204 -3 -4 -6 0
-204 -13 -14 -16 0
-204 -22 -23 -25 0
-204 -32 -39 -46 0
-204 -34 -41 -52 0
-204 -35 -42 -53 0
-204 -36 -43 -54 0
-204 -37 -44 -55 0
-204 -38 -45 -56 0
-205 -3 -4 -7 0
-205 -13 -14 -17 0
-205 -22 -23 -26 0
-205 -32 -39 -47 0
-205 -33 -40 -52 0
-205 -35 -42 -57 0
-205 -36 -43 -58 0
-205 -37 -44 -59 0
-205 -38 -45 -60 0
-206 -3 -4 -8 0
-206 -13 -14 -18 0
-206 -22 -23 -27 0
-206 -32 -39 -48 0
-206 -33 -40 -53 0
-206 -34 -41 -57 0
-206 -36 -43 -61 0
-206 -37 -44 -62 0
-206 -38 -45 -63 0
-207 -3 -4 -9 0
-207 -13 -14 -19 0
-207 -22 -23 -28 0
-207 -32 -39 -49 0
-207 -33 -40 -54 0
-207 -34 -41 -58 0
-207 -35 -42 -61 0
-207 -37 -44 -64 0
-207 -38 -45 -65 0
-208 -3 -4 -10 0
-208 -13 -14 -20 0
-208 -22 -23 -29 0
-208 -32 -39 -50 0
-208 -33 -40 -55 0
-208 -34 -41 -59 0
-208 -35 -42 -62 0
-208 -36 -43 -64 0
-208 -38 -45 -66 0
-209 -3 -4 -11 0
-209 -13 -14 -21 0
-209 -22 -23 -30 0
-209 -32 -39 -51 0
-209 -33 -40 -56 0
-209 -34 -41 -60 0
-209 -35 -42 -63 0
-209 -36 -43 -65 0
-209 -37 -44 -66 0
-210 -3 -5 -6 0
-210 -13 -15 -16 0
-210 -22 -24 -25 0
-210 -31 -39 -40 0
-210 -34 -47 -52 0
-210 -35 -48 -53 0
-210 -36 -49 -54 0
-210 -37 -50 -55 0
-210 -38 -51 -56 0
-211 -3 -5 -7 0
-211 -13 -15 -17 0
-211 -22 -24 -26 0
-211 -31 -39 -41 0
-211 -33 -46 -52 0
-211 -35 -48 -57 0
-211 -36 -49 -58 0
-211 -37 -50 -59 0
-211 -38 -51 -60 0
-212 -3 -5 -8 0
-212 -13 -15 -18 0
-212 -22 -24 -27 0
-212 -31 -39 -42 0
-212 -33 -46 -53 0
-212 -34 -47 -57 0
-212 -36 -49 -61 0
-212 -37 -50 -62 0
-212 -38 -51 -63 0
-213 -3 -5 -9 0
-213 -13 -15 -19 0
-213 -22 -24 -28 0
-213 -31 -39 -43 0
-213 -33 -46 -54 0
-213 -34 -47 -58 0
-213 -35 -48 -61 0
-213 -37 -50 -64 0
-213 -38 -51 -65 0
-214 -3 -5 -10 0
-214 -13 -15 -20 0
-214 -22 -24 -29 0
-214 -31 -39 -44 0
-214 -33 -46 -55 0
-214 -34 -47 -59 0
-214 -35 -48 -62 0
-214 -36 -49 -64 0
-214 -38 -51 -66 0
-215 -3 -5 -11 0
-215 -13 -15 -21 0
-215 -22 -24 -30 0
-215 -31 -39 -45 0
-215 -33 -46 -56 0
-215 -34 -47 -60 0
-215 -35 -48 -63 0
-215 -36 -49 -65 0
-215 -37 -50 -66 0
-216 -3 -6 -7 0
-216 -13 -16 -17 0
-216 -22 -25 -26 0
-216 -31 -40 -41 0
-216 -32 -46 -47 0
-216 -35 -53 -57 0
-216 -36 -54 -58 0
-216 -37 -55 -59 0
-216 -38 -56 -60 0
-217 -3 -6 -8 0
-217 -13 -16 -18 0
-217 -22 -25 -27 0
-217 -31 -40 -42 0
-217 -32 -46 -48 0
-217 -34 -52 -57 0
-217 -36 -54 -61 0
-217 -37 -55 -62 0
-217 -38 -56 -63 0
-218 -3 -6 -9 0
-218 -13 -16 -19 0
-218 -22 -25 -28 0
-218 -31 -40 -43 0
-218 -32 -46 -49 0
-218 -34 -52 -58 0
-218 -35 -53 -61 0
-218 -37 -55 -64 0
-218 -38 -56 -65 0
-219 -3 -6 -10 0
-219 -13 -16 -20 0
-219 -22 -25 -29 0
-219 -31 -40 -44 0
-219 -32 -46 -50 0
-219 -34 -52 -59 0
-219 -35 -53 -62 0
-219 -36 -54 -64 0
-219 -38 -56 -66 0
-220 -3 -6 -11 0
-220 -13 -16 -21 0
-220 -22 -25 -30 0
-220 -31 -40 -45 0
-220 -32 -46 -51 0
-220 -34 -52 -60 0
-220 -35 -53 -63 0
-220 -36 -54 -65 0
-220 -37 -55 -66 0
-221 -3 -7 -8 0
-221 -13 -17 -18 0
-221 -22 -26 -27 0
-221 -31 -41 -42 0
-221 -32 -47 -48 0
-221 -33 -52 -53 0
-221 -36 -58 -61 0
-221 -37 -59 -62 0
-221 -38 -60 -63 0
-222 -3 -7 -9 0
-222 -13 -17 -19 0
-222 -22 -26 -28 0
-222 -31 -41 -43 0
-222 -32 -47 -49 0
-222 -33 -52 -54 0
-222 -35 -57 -61 0
-222 -37 -59 -64 0
-222 -38 -60 -65 0
-223 -3 -7 -10 0
-223 -13 -17 -20 0
-223 -22 -26 -29 0
-223 -31 -41 -44 0
-223 -32 -47 -50 0
-223 -33 -52 -55 0
-223 -35 -57 -62 0
-223 -36 -58 -64 0
-223 -38 -60 -66 0
-224 -3 -7 -11 0
-224 -13 -17 -21 0
-224 -22 -26 -30 0
-224 -31 -41 -45 0
-224 -32 -47 -51 0
-224 -33 -52 -56 0
-224 -35 -57 -63 0
-224 -36 -58 -65 0
-224 -37 -59 -66 0
-225 -3 -8 -9 0
-225 -13 -18 -19 0
-225 -22 -27 -28 0
-225 -31 -42 -43 0
-225 -32 -48 -49 0
-225 -33 -53 -54 0
-225 -34 -57 -58 0
-225 -37 -62 -64 0
-225 -38 -63 -65 0
-226 -3 -8 -10 0
-226 -13 -18 -20 0
-226 -22 -27 -29 0
-226 -31 -42 -44 0
-226 -32 -48 -50 0
-226 -33 -53 -55 0
-226 -34 -57 -59 0
-226 -36 -61 -64 0
-226 -38 -63 -66 0
-227 -3 -8 -11 0
-227 -13 -18 -21 0
-227 -22 -27 -30 0
-227 -31 -42 -45 0
-227 -32 -48 -51 0
-227 -33 -53 -56 0
-227 -34 -57 -60 0
-227 -36 -61 -65 0
-227 -37 -62 -66 0
-228 -3 -9 -10 0
-228 -13 -19 -20 0
-228 -22 -28 -29 0
-228 -31 -43 -44 0
-228 -32 -49 -50 0
-228 -33 -54 -55 0
-228 -34 -58 -59 0
-228 -35 -61 -62 0
-228 -38 -65 -66 0
-229 -3 -9 -11 0
-229 -13 -19 -21 0
-229 -22 -28 -30 0
-229 -31 -43 -45 0
-229 -32 -49 -51 0
-229 -33 -54 -56 0
-229 -34 -58 -60 0
-229 -35 -61 -63 0
-229 -37 -64 -66 0
-230 -3 -10 -11 0
-230 -13 -20 -21 0
-230 -22 -29 -30 0
-230 -31 -44 -45 0
-230 -32 -50 -51 0
-230 -33 -55 -56 0
-230 -34 -59 -60 0
-230 -35 -62 -63 0
-230 -36 -64 -65 0
-231 -4 -5 -6 0
-231 -14 -15 -16 0
-231 -23 -24 -25 0
-231 -31 -32 -33 0
-231 -41 -47 -52 0
-231 -42 -48 -53 0
-231 -43 -49 -54 0
-231 -44 -50 -55 0
-231 -45 -51 -56 0
-232 -4 -5 -7 0
-232 -14 -15 -17 0
-232 -23 -24 -26 0
-232 -31 -32 -34 0
-232 -40 -46 -52 0
-232 -42 -48 -57 0
-232 -43 -49 -58 0
-232 -44 -50 -59 0
-232 -45 -51 -60 0
-233 -4 -5 -8 0
-233 -14 -15 -18 0
-233 -23 -24 -27 0
-233 -31 -32 -35 0
-233 -40 -46 -53 0
-233 -41 -47 -57 0
-233 -43 -49 -61 0
-233 -44 -50 -62 0
-233 -45 -51 -63 0
-234 -4 -5 -9 0
-234 -14 -15 -19 0
-234 -23 -24 -28 0
-234 -31 -32 -36 0
-234 -40 -46 -54 0
-234 -41 -47 -58 0
-234 -42 -48 -61 0
-234 -44 -50 -64 0
-234 -45 -51 -65 0
-235 -4 -5 -10 0
-235 -14 -15 -20 0
-235 -23 -24 -29 0
-235 -31 -32 -37 0
-235 -40 -46 -55 0
-235 -41 -47 -59 0
-235 -42 -48 -62 0
-235 -43 -49 -64 0
-235 -45 -51 -66 0
-236 -4 -5 -11 0
-236 -14 -15 -21 0
-236 -23 -24 -30 0
-236 -31 -32 -38 0
-236 -40 -46 -56 0
-236 -41 -47 -60 0
-236 -42 -48 -63 0
-236 -43 -49 -65 0
-236 -44 -50 -66 0
-237 -4 -6 -7 0
-237 -14 -16 -17 0
-237 -23 -25 -26 0
-237 -31 -33 -34 0
-237 -39 -46 -47 0
-237 -42 -53 -57 0
-237 -43 -54 -58 0
-237 -44 -55 -59 0
-237 -45 -56 -60 0
-238 -4 -6 -8 0
-238 -14 -16 -18 0
-238 -23 -25 -27 0
-238 -31 -33 -35 0
-238 -39 -46 -48 0
-238 -41 -52 -57 0
-238 -43 -54 -61 0
-238 -44 -55 -62 0
-238 -45 -56 -63 0
-239 -4 -6 -9 0
-239 -14 -16 -19 0
-239 -23 -25 -28 0
-239 -31 -33 -36 0
-239 -39 -46 -49 0
-239 -41 -52 -58 0
-239 -42 -53 -61 0
-239 -44 -55 -64 0
-239 -45 -56 -65 0
-240 -4 -6 -10 0
-240 -14 -16 -20 0
-240 -23 -25 -29 0
-240 -31 -33 -37 0
-240 -39 -46 -50 0
-240 -41 -52 -59 0
-240 -42 -53 -62 0
-240 -43 -54 -64 0
-240 -45 -56 -66 0
-241 -4 -6 -11 0
-241 -14 -16 -21 0
-241 -23 -25 -30 0
-241 -31 -33 -38 0
-241 -39 -46 -51 0
-241 -41 -52 -60 0
-241 -42 -53 -63 0
-241 -43 -54 -65 0
-241 -44 -55 -66 0
-242 -4 -7 -8 0
-242 -14 -17 -18 0
-242 -23 -26 -27 0
-242 -31 -34 -35 0
-242 -39 -47 -48 0
-242 -40 -52 -53 0
-242 -43 -58 -61 0
-242 -44 -59 -62 0
-242 -45 -60 -63 0
-243 -4 -7 -9 0
-243 -14 -17 -19 0
-243 -23 -26 -28 0
-243 -31 -34 -36 0
-243 -39 -47 -49 0
-243 -40 -52 -54 0
-243 -42 -57 -61 0
-243 -44 -59 -64 0
-243 -45 -60 -65 0
-244 -4 -7 -10 0
-244 -14 -17 -20 0
-244 -23 -26 -29 0
-244 -31 -34 -37 0
-244 -39 -47 -50 0
-244 -40 -52 -55 0
-244 -42 -57 -62 0
-244 -43 -58 -64 0
-244 -45 -60 -66 0
-245 -4 -7 -11 0
-245 -14 -17 -21 0
-245 -23 -26 -30 0
-245 -31 -34 -38 0
-245 -39 -47 -51 0
-245 -40 -52 -56 0
-245 -42 -57 -63 0
-245 -43 -58 -65 0
-245 -44 -59 -66 0
-246 -4 -8 -9 0
-246 -14 -18 -19 0
-246 -23 -27 -28 0
-246 -31 -35 -36 0
-246 -39 -48 -49 0
-246 -40 -53 -54 0
-246 -41 -57 -58 0
-246 -44 -62 -64 0
-246 -45 -63 -65 0
-247 -4 -8 -10 0
-247 -14 -18 -20 0
-247 -23 -27 -29 0
-247 -31 -35 -37 0
-247 -39 -48 -50 0
-247 -40 -53 -55 0
-247 -41 -57 -59 0
-247 -43 -61 -64 0
-247 -45 -63 -66 0
-248 -4 -8 -11 0
-248 -14 -18 -21 0
-248 -23 -27 -30 0
-248 -31 -35 -38 0
-248 -39 -48 -51 0
-248 -40 -53 -56 0
-248 -41 -57 -60 0
-248 -43 -61 -65 0
-248 -44 -62 -66 0
-249 -4 -9 -10 0
-249 -14 -19 -20 0
-249 -23 -28 -29 0
-249 -31 -36 -37 0
-249 -39 -49 -50 0
-249 -40 -54 -55 0
-249 -41 -58 -59 0
-249 -42 -61 -62 0
-249 -45 -65 -66 0
-250 -4 -9 -11 0
-250 -14 -19 -21 0
-250 -23 -28 -30 0
-250 -31 -36 -38 0
-250 -39 -49 -51 0
-250 -40 -54 -56 0
-250 -41 -58 -60 0
-250 -42 -61 -63 0
-250 -44 -64 -66 0
-251 -4 -10 -11 0
-251 -14 -20 -21 0
-251 -23 -29 -30 0
-251 -31 -37 -38 0
-251 -39 -50 -51 0
-251 -40 -55 -56 0
-251 -41 -59 -60 0
-251 -42 -62 -63 0
-251 -43 -64 -65 0
-252 -5 -6 -7 0
-252 -15 -16 -17 0
-252 -24 -25 -26 0
-252 -32 -33 -34 0
-252 -39 -40 -41 0
-252 -48 -53 -57 0
-252 -49 -54 -58 0
-252 -50 -55 -59 0
-252 -51 -56 -60 0
-253 -5 -6 -8 0
-253 -15 -16 -18 0
-253 -24 -25 -27 0
-253 -32 -33 -35 0
-253 -39 -40 -42 0
-253 -47 -52 -57 0
-253 -49 -54 -61 0
-253 -50 -55 -62 0
-253 -51 -56 -63 0
-254 -5 -6 -9 0
-254 -15 -16 -19 0
-254 -24 -25 -28 0
-254 -32 -33 -36 0
-254 -39 -40 -43 0
-254 -47 -52 -58 0
-254 -48 -53 -61 0
-254 -50 -55 -64 0
-254 -51 -56 -65 0
-255 -5 -6 -10 0
-255 -15 -16 -20 0
-255 -24 -25 -29 0
-255 -32 -33 -37 0
-255 -39 -40 -44 0
-255 -47 -52 -59 0
-255 -48 -53 -62 0
-255 -49 -54 -64 0
-255 -51 -56 -66 0
-256 -5 -6 -11 0
-256 -15 -16 -21 0
-256 -24 -25 -30 0
-256 -32 -33 -38 0
-256 -39 -40 -45 0
-256 -47 -52 -60 0
-256 -48 -53 -63 0
-256 -49 -54 -65 0
-256 -50 -55 -66 0
-257 -5 -7 -8 0
-257 -15 -17 -18 0
-257 -24 -26 -27 0
-257 -32 -34 -35 0
-257 -39 -41 -42 0
-257 -46 -52 -53 0
-257 -49 -58 -61 0
-257 -50 -59 -62 0
-257 -51 -60 -63 0
-258 -5 -7 -9 0
-258 -15 -17 -19 0
-258 -24 -26 -28 0
-258 -32 -34 -36 0
-258 -39 -41 -43 0
-258 -46 -52 -54 0
-258 -48 -57 -61 0
-258 -50 -59 -64 0
-258 -51 -60 -65 0
-259 -5 -7 -10 0
-259 -15 -17 -20 0
-259 -24 -26 -29 0
-259 -32 -34 -37 0
-259 -39 -41 -44 0
-259 -46 -52 -55 0
-259 -48 -57 -62 0
-259 -49 -58 -64 0
-259 -51 -60 -66 0
-260 -5 -7 -11 0
-260 -15 -17 -21 0
-260 -24 -26 -30 0
-260 -32 -34 -38 0
-260 -39 -41 -45 0
-260 -46 -52 -56 0
-260 -48 -57 -63 0
-260 -49 -58 -65 0
-260 -50 -59 -66 0
-261 -5 -8 -9 0
-261 -15 -18 -19 0
-261 -24 -27 -28 0
-261 -32 -35 -36 0
-261 -39 -42 -43 0
-261 -46 -53 -54 0
-261 -47 -57 -58 0
-261 -50 -62 -64 0
-261 -51 -63 -65 0
-262 -5 -8 -10 0
-262 -15 -18 -20 0
-262 -24 -27 -29 0
-262 -32 -35 -37 0
-262 -39 -42 -44 0
-262 -46 -53 -55 0
-262 -47 -57 -59 0
-262 -49 -61 -64 0
-262 -51 -63 -66 0
-263 -5 -8 -11 0
-263 -15 -18 -21 0
-263 -24 -27 -30 0
-263 -32 -35 -38 0
-263 -39 -42 -45 0
-263 -46 -53 -56 0
-263 -47 -57 -60 0
-263 -49 -61 -65 0
-263 -50 -62 -66 0
-264 -5 -9 -10 0
-264 -15 -19 -20 0
-264 -24 -28 -29 0
-264 -32 -36 -37 0
-264 -39 -43 -44 0
-264 -46 -54 -55 0
-264 -47 -58 -59 0
-264 -48 -61 -62 0
-264 -51 -65 -66 0
-265 -5 -9 -11 0
-265 -15 -19 -21 0
-265 -24 -28 -30 0
-265 -32 -36 -38 0
-265 -39 -43 -45 0
-265 -46 -54 -56 0
-265 -47 -58 -60 0
-265 -48 -61 -63 0
-265 -50 -64 -66 0
-266 -5 -10 -11 0
-266 -15 -20 -21 0
-266 -24 -29 -30 0
-266 -32 -37 -38 0
-266 -39 -44 -45 0
-266 -46 -55 -56 0
-266 -47 -59 -60 0
-266 -48 -62 -63 0
-266 -49 -64 -65 0
-267 -6 -7 -8 0
-267 -16 -17 -18 0
-267 -25 -26 -27 0
-267 -33 -34 -35 0
-267 -40 -41 -42 0
-267 -46 -47 -48 0
-267 -54 -58 -61 0
-267 -55 -59 -62 0
-267 -56 -60 -63 0
-268 -6 -7 -9 0
-268 -16 -17 -19 0
-268 -25 -26 -28 0
-268 -33 -34 -36 0
-268 -40 -41 -43 0
-268 -46 -47 -49 0
-268 -53 -57 -61 0
-268 -55 -59 -64 0
-268 -56 -60 -65 0
-269 -6 -7 -10 0
-269 -16 -17 -20 0
-269 -25 -26 -29 0
-269 -33 -34 -37 0
-269 -40 -41 -44 0
-269 -46 -47 -50 0
-269 -53 -57 -62 0
-269 -54 -58 -64 0
-269 -56 -60 -66 0
-270 -6 -7 -11 0
-270 -16 -17 -21 0
-270 -25 -26 -30 0
-270 -33 -34 -38 0
-270 -40 -41 -45 0
-270 -46 -47 -51 0
-270 -53 -57 -63 0
-270 -54 -58 -65 0
-270 -55 -59 -66 0
-271 -6 -8 -9 0
-271 -16 -18 -19 0
-271 -25 -27 -28 0
-271 -33 -35 -36 0
-271 -40 -42 -43 0
-271 -46 -48 -49 0
-271 -52 -57 -58 0
-271 -55 -62 -64 0
-271 -56 -63 -65 0
-272 -6 -8 -10 0
-272 -16 -18 -20 0
-272 -25 -27 -29 0
-272 -33 -35 -37 0
-272 -40 -42 -44 0
-272 -46 -48 -50 0
-272 -52 -57 -59 0
-272 -54 -61 -64 0
-272 -56 -63 -66 0
-273 -6 -8 -11 0
-273 -16 -18 -21 0
-273 -25 -27 -30 0
-273 -33 -35 -38 0
-273 -40 -42 -45 0
-273 -46 -48 -51 0
-273 -52 -57 -60 0
-273 -54 -61 -65 0
-273 -55 -62 -66 0
-274 -6 -9 -10 0
-274 -16 -19 -20 0
-274 -25 -28 -29 0
-274 -33 -36 -37 0
-274 -40 -43 -44 0
-274 -46 -49 -50 0
-274 -52 -58 -59 0
-274 -53 -61 -62 0
-274 -56 -65 -66 0
-275 -6 -9 -11 0
-275 -16 -19 -21 0
-275 -25 -28 -30 0
-275 -33 -36 -38 0
-275 -40 -43 -45 0
-275 -46 -49 -51 0
-275 -52 -58 -60 0
-275 -53 -61 -63 0
-275 -55 -64 -66 0
-276 -6 -10 -11 0
-276 -16 -20 -21 0
-276 -25 -29 -30 0
-276 -33 -37 -38 0
-276 -40 -44 -45 0
-276 -46 -50 -51 0
-276 -52 -59 -60 0
-276 -53 -62 -63 0
-276 -54 -64 -65 0
-277 -7 -8 -9 0
-277 -17 -18 -19 0
-277 -26 -27 -28 0
-277 -34 -35 -36 0
-277 -41 -42 -43 0
-277 -47 -48 -49 0
-277 -52 -53 -54 0
-277 -59 -62 -64 0
-277 -60 -63 -65 0
-278 -7 -8 -10 0
-278 -17 -18 -20 0
-278 -26 -27 -29 0
-278 -34 -35 -37 0
-278 -41 -42 -44 0
-278 -47 -48 -50 0
-278 -52 -53 -55 0
-278 -58 -61 -64 0
-278 -60 -63 -66 0
-279 -7 -8 -11 0
-279 -17 -18 -21 0
-279 -26 -27 -30 0
-279 -34 -35 -38 0
-279 -41 -42 -45 0
-279 -47 -48 -51 0
-279 -52 -53 -56 0
-279 -58 -61 -65 0
-279 -59 -62 -66 0
-280 -7 -9 -10 0
-280 -17 -19 -20 0
-280 -26 -28 -29 0
-280 -34 -36 -37 0
-280 -41 -43 -44 0
-280 -47 -49 -50 0
-280 -52 -54 -55 0
-280 -57 -61 -62 0
-280 -60 -65 -66 0
-281 -7 -9 -11 0
-281 -17 -19 -21 0
-281 -26 -28 -30 0
-281 -34 -36 -38 0
-281 -41 -43 -45 0
-281 -47 -49 -51 0
-281 -52 -54 -56 0
-281 -57 -61 -63 0
-281 -59 -64 -66 0
-282 -7 -10 -11 0
-282 -17 -20 -21 0
-282 -26 -29 -30 0
-282 -34 -37 -38 0
-282 -41 -44 -45 0
-282 -47 -50 -51 0
-282 -52 -55 -56 0
-282 -57 -62 -63 0
-282 -58 -64 -65 0
-283 -8 -9 -10 0
-283 -18 -19 -20 0
-283 -27 -28 -29 0
-283 -35 -36 -37 0
-283 -42 -43 -44 0
-283 -48 -49 -50 0
-283 -53 -54 -55 0
-283 -57 -58 -59 0
-283 -63 -65 -66 0
-284 -8 -9 -11 0
-284 -18 -19 -21 0
-284 -27 -28 -30 0
-284 -35 -36 -38 0
-284 -42 -43 -45 0
-284 -48 -49 -51 0
-284 -53 -54 -56 0
-284 -57 -58 -60 0
-284 -62 -64 -66 0
-285 -8 -10 -11 0
-285 -18 -20 -21 0
-285 -27 -29 -30 0
-285 -35 -37 -38 0
-285 -42 -44 -45 0
-285 -48 -50 -51 0
-285 -53 -55 -56 0
-285 -57 -59 -60 0
-285 -61 -64 -65 0
-286 -9 -10 -11 0
-286 -19 -20 -21 0
-286 -28 -29 -30 0
-286 -36 -37 -38 0
-286 -43 -44 -45 0
-286 -49 -50 -51 0
-286 -54 -55 -56 0
-286 -58 -59 -60 0
-286 -61 -62 -63 0
-287 -3 0
-287 122 0
-288 -13 0
-288 77 0
-289 -22 0
-289 68 0
-67 287 288 289 0
-290 -4 0
-290 123 0
-291 -14 0
-291 78 0
-292 -23 0
-292 69 0
-67 290 291 292 0
-293 -5 0
-293 124 0
-294 -15 0
-294 79 0
-295 -24 0
-295 70 0
-67 293 294 295 0
-296 -6 0
-296 125 0
-297 -16 0
-297 80 0
-298 -25 0
-298 71 0
-67 296 297 298 0
-299 -7 0
-299 126 0
-300 -17 0
-300 81 0
-301 -26 0
-301 72 0
-67 299 300 301 0
-302 -8 0
-302 127 0
-303 -18 0
-303 82 0
-304 -27 0
-304 73 0
-67 302 303 304 0
-305 -9 0
-305 128 0
-306 -19 0
-306 83 0
-307 -28 0
-307 74 0
-67 305 306 307 0
-308 -10 0
-308 129 0
-309 -20 0
-309 84 0
-310 -29 0
-310 75 0
-67 308 309 310 0
-311 -11 0
-311 130 0
-312 -21 0
-312 85 0
-313 -30 0
-313 76 0
-67 311 312 313 0
-314 -2 0
-314 122 0
-315 -12 0
-315 77 0
-316 -22 0
-316 67 0
-68 314 315 316 0
-317 -4 0
-317 131 0
-318 -14 0
-318 86 0
-319 -31 0
-319 69 0
-68 317 318 319 0
-320 -5 0
-320 132 0
-321 -15 0
-321 87 0
-322 -32 0
-322 70 0
-68 320 321 322 0
-323 -6 0
-323 133 0
-324 -16 0
-324 88 0
-325 -33 0
-325 71 0
-68 323 324 325 0
-326 -7 0
-326 134 0
-327 -17 0
-327 89 0
-328 -34 0
-328 72 0
-68 326 327 328 0
-329 -8 0
-329 135 0
-330 -18 0
-330 90 0
-331 -35 0
-331 73 0
-68 329 330 331 0
-332 -9 0
-332 136 0
-333 -19 0
-333 91 0
-334 -36 0
-334 74 0
-68 332 333 334 0
-335 -10 0
-335 137 0
-336 -20 0
-336 92 0
-337 -37 0
-337 75 0
-68 335 336 337 0
-338 -11 0
-338 138 0
-339 -21 0
-339 93 0
-340 -38 0
-340 76 0
-68 338 339 340 0
-341 -2 0
-341 123 0
-342 -12 0
-342 78 0
-343 -23 0
-343 67 0
-69 341 342 343 0
-344 -3 0
-344 131 0
-345 -13 0
-345 86 0
-346 -31 0
-346 68 0
-69 344 345 346 0
-347 -5 0
-347 139 0
-348 -15 0
-348 94 0
-349 -39 0
-349 70 0
-69 347 348 349 0
-350 -6 0
-350 140 0
-351 -16 0
-351 95 0
-352 -40 0
-352 71 0
-69 350 351 352 0
-353 -7 0
-353 141 0
-354 -17 0
-354 96 0
-355 -41 0
-355 72 0
-69 353 354 355 0
-356 -8 0
-356 142 0
-357 -18 0
-357 97 0
-358 -42 0
-358 73 0
-69 356 357 358 0
-359 -9 0
-359 143 0
-360 -19 0
-360 98 0
-361 -43 0
-361 74 0
-69 359 360 361 0
-362 -10 0
-362 144 0
-363 -20 0
-363 99 0
-364 -44 0
-364 75 0
-69 362 363 364 0
-365 -11 0
-365 145 0
-366 -21 0
-366 100 0
-367 -45 0
-367 76 0
-69 365 366 367 0
-368 -2 0
-368 124 0
-369 -12 0
-369 79 0
-370 -24 0
-370 67 0
-70 368 369 370 0
-371 -3 0
-371 132 0
-372 -13 0
-372 87 0
-373 -32 0
-373 68 0
-70 371 372 373 0
-374 -4 0
-374 139 0
-375 -14 0
-375 94 0
-376 -39 0
-376 69 0
-70 374 375 376 0
-377 -6 0
-377 146 0
-378 -16 0
-378 101 0
-379 -46 0
-379 71 0
-70 377 378 379 0
-380 -7 0
-380 147 0
-381 -17 0
-381 102 0
-382 -47 0
-382 72 0
-70 380 381 382 0
-383 -8 0
-383 148 0
-384 -18 0
-384 103 0
-385 -48 0
-385 73 0
-70 383 384 385 0
-386 -9 0
-386 149 0
-387 -19 0
-387 104 0
-388 -49 0
-388 74 0
-70 386 387 388 0
-389 -10 0
-389 150 0
-390 -20 0
-390 105 0
-391 -50 0
-391 75 0
-70 389 390 391 0
-392 -11 0
-392 151 0
-393 -21 0
-393 106 0
-394 -51 0
-394 76 0
-70 392 393 394 0
-395 -2 0
-395 125 0
-396 -12 0
-396 80 0
-397 -25 0
-397 67 0
-71 395 396 397 0
-398 -3 0
-398 133 0
-399 -13 0
-399 88 0
-400 -33 0
-400 68 0
-71 398 399 400 0
-401 -4 0
-401 140 0
-402 -14 0
-402 95 0
-403 -40 0
-403 69 0
-71 401 402 403 0
-404 -5 0
-404 146 0
-405 -15 0
-405 101 0
-406 -46 0
-406 70 0
-71 404 405 406 0
-407 -7 0
-407 152 0
-408 -17 0
-408 107 0
-409 -52 0
-409 72 0
-71 407 408 409 0
-410 -8 0
-410 153 0
-411 -18 0
-411 108 0
-412 -53 0
-412 73 0
-71 410 411 412 0
-413 -9 0
-413 154 0
-414 -19 0
-414 109 0
-415 -54 0
-415 74 0
-71 413 414 415 0
-416 -10 0
-416 155 0
-417 -20 0
-417 110 0
-418 -55 0
-418 75 0
-71 416 417 418 0
-419 -11 0
-419 156 0
-420 -21 0
-420 111 0
-421 -56 0
-421 76 0
-71 419 420 421 0
-422 -2 0
-422 126 0
-423 -12 0
-423 81 0
-424 -26 0
-424 67 0
-72 422 423 424 0
-425 -3 0
-425 134 0
-426 -13 0
-426 89 0
-427 -34 0
-427 68 0
-72 425 426 427 0
-428 -4 0
-428 141 0
-429 -14 0
-429 96 0
-430 -41 0
-430 69 0
-72 428 429 430 0
-431 -5 0
-431 147 0
-432 -15 0
-432 102 0
-433 -47 0
-433 70 0
-72 431 432 433 0
-434 -6 0
-434 152 0
-435 -16 0
-435 107 0
-436 -52 0
-436 71 0
-72 434 435 436 0
-437 -8 0
-437 157 0
-438 -18 0
-438 112 0
-439 -57 0
-439 73 0
-72 437 438 439 0
-440 -9 0
-440 158 0
-441 -19 0
-441 113 0
-442 -58 0
-442 74 0
-72 440 441 442 0
-443 -10 0
-443 159 0
-444 -20 0
-444 114 0
-445 -59 0
-445 75 0
-72 443 444 445 0
-446 -11 0
-446 160 0
-447 -21 0
-447 115 0
-448 -60 0
-448 76 0
-72 446 447 448 0
-449 -2 0
-449 127 0
-450 -12 0
-450 82 0
-451 -27 0
-451 67 0
-73 449 450 451 0
-452 -3 0
-452 135 0
-453 -13 0
-453 90 0
-454 -35 0
-454 68 0
-73 452 453 454 0
-455 -4 0
-455 142 0
-456 -14 0
-456 97 0
-457 -42 0
-457 69 0
-73 455 456 457 0
-458 -5 0
-458 148 0
-459 -15 0
-459 103 0
-460 -48 0
-460 70 0
-73 458 459 460 0
-461 -6 0
-461 153 0
-462 -16 0
-462 108 0
-463 -53 0
-463 71 0
-73 461 462 463 0
-464 -7 0
-464 157 0
-465 -17 0
-465 112 0
-466 -57 0
-466 72 0
-73 464 465 466 0
-467 -9 0
-467 161 0
-468 -19 0
-468 116 0
-469 -61 0
-469 74 0
-73 467 468 469 0
-470 -10 0
-470 162 0
-471 -20 0
-471 117 0
-472 -62 0
-472 75 0
-73 470 471 472 0
-473 -11 0
-473 163 0
-474 -21 0
-474 118 0
-475 -63 0
-475 76 0
-73 473 474 475 0
-476 -2 0
-476 128 0
-477 -12 0
-477 83 0
-478 -28 0
-478 67 0
-74 476 477 478 0
-479 -3 0
-479 136 0
-480 -13 0
-480 91 0
-481 -36 0
-481 68 0
-74 479 480 481 0
-482 -4 0
-482 143 0
-483 -14 0
-483 98 0
-484 -43 0
-484 69 0
-74 482 483 484 0
-485 -5 0
-485 149 0
-486 -15 0
-486 104 0
-487 -49 0
-487 70 0
-74 485 486 487 0
-488 -6 0
-488 154 0
-489 -16 0
-489 109 0
-490 -54 0
-490 71 0
-74 488 489 490 0
-491 -7 0
-491 158 0
-492 -17 0
-492 113 0
-493 -58 0
-493 72 0
-74 491 492 493 0
-494 -8 0
-494 161 0
-495 -18 0
-495 116 0
-496 -61 0
-496 73 0
-74 494 495 496 0
-497 -10 0
-497 164 0
-498 -20 0
-498 119 0
-499 -64 0
-499 75 0
-74 497 498 499 0
-500 -11 0
-500 165 0
-501 -21 0
-501 120 0
-502 -65 0
-502 76 0
-74 500 501 502 0
-503 -2 0
-503 129 0
-504 -12 0
-504 84 0
-505 -29 0
-505 67 0
-75 503 504 505 0
-506 -3 0
-506 137 0
-507 -13 0
-507 92 0
-508 -37 0
-508 68 0
-75 506 507 508 0
-509 -4 0
-509 144 0
-510 -14 0
-510 99 0
-511 -44 0
-511 69 0
-75 509 510 511 0
-512 -5 0
-512 150 0
-513 -15 0
-513 105 0
-514 -50 0
-514 70 0
-75 512 513 514 0
-515 -6 0
-515 155 0
-516 -16 0
-516 110 0
-517 -55 0
-517 71 0
-75 515 516 517 0
-518 -7 0
-518 159 0
-519 -17 0
-519 114 0
-520 -59 0
-520 72 0
-75 518 519 520 0
-521 -8 0
-521 162 0
-522 -18 0
-522 117 0
-523 -62 0
-523 73 0
-75 521 522 523 0
-524 -9 0
-524 164 0
-525 -19 0
-525 119 0
-526 -64 0
-526 74 0
-75 524 525 526 0
-527 -11 0
-527 166 0
-528 -21 0
-528 121 0
-529 -66 0
-529 76 0
-75 527 528 529 0
-530 -2 0
-530 130 0
-531 -12 0
-531 85 0
-532 -30 0
-532 67 0
-76 530 531 532 0
-533 -3 0
-533 138 0
-534 -13 0
-534 93 0
-535 -38 0
-535 68 0
-76 533 534 535 0
-536 -4 0
-536 145 0
-537 -14 0
-537 100 0
-538 -45 0
-538 69 0
-76 536 537 538 0
-539 -5 0
-539 151 0
-540 -15 0
-540 106 0
-541 -51 0
-541 70 0
-76 539 540 541 0
-542 -6 0
-542 156 0
-543 -16 0
-543 111 0
-544 -56 0
-544 71 0
-76 542 543 544 0
-545 -7 0
-545 160 0
-546 -17 0
-546 115 0
-547 -60 0
-547 72 0
-76 545 546 547 0
-548 -8 0
-548 163 0
-549 -18 0
-549 118 0
-550 -63 0
-550 73 0
-76 548 549 550 0
-551 -9 0
-551 165 0
-552 -19 0
-552 120 0
-553 -65 0
-553 74 0
-76 551 552 553 0
-554 -10 0
-554 166 0
-555 -20 0
-555 121 0
-556 -66 0
-556 75 0
-76 554 555 556 0
-557 -1 0
-557 122 0
-558 -12 0
-558 68 0
-559 -13 0
-559 67 0
-77 557 558 559 0
-560 -4 0
-560 167 0
-561 -23 0
-561 86 0
-562 -31 0
-562 78 0
-77 560 561 562 0
-563 -5 0
-563 168 0
-564 -24 0
-564 87 0
-565 -32 0
-565 79 0
-77 563 564 565 0
-566 -6 0
-566 169 0
-567 -25 0
-567 88 0
-568 -33 0
-568 80 0
-77 566 567 568 0
-569 -7 0
-569 170 0
-570 -26 0
-570 89 0
-571 -34 0
-571 81 0
-77 569 570 571 0
-572 -8 0
-572 171 0
-573 -27 0
-573 90 0
-574 -35 0
-574 82 0
-77 572 573 574 0
-575 -9 0
-575 172 0
-576 -28 0
-576 91 0
-577 -36 0
-577 83 0
-77 575 576 577 0
-578 -10 0
-578 173 0
-579 -29 0
-579 92 0
-580 -37 0
-580 84 0
-77 578 579 580 0
-581 -11 0
-581 174 0
-582 -30 0
-582 93 0
-583 -38 0
-583 85 0
-77 581 582 583 0
-584 -1 0
-584 123 0
-585 -12 0
-585 69 0
-586 -14 0
-586 67 0
-78 584 585 586 0
-587 -3 0
-587 167 0
-588 -22 0
-588 86 0
-589 -31 0
-589 77 0
-78 587 588 589 0
-590 -5 0
-590 175 0
-591 -24 0
-591 94 0
-592 -39 0
-592 79 0
-78 590 591 592 0
-593 -6 0
-593 176 0
-594 -25 0
-594 95 0
-595 -40 0
-595 80 0
-78 593 594 595 0
-596 -7 0
-596 177 0
-597 -26 0
-597 96 0
-598 -41 0
-598 81 0
-78 596 597 598 0
-599 -8 0
-599 178 0
-600 -27 0
-600 97 0
-601 -42 0
-601 82 0
-78 599 600 601 0
-602 -9 0
-602 179 0
-603 -28 0
-603 98 0
-604 -43 0
-604 83 0
-78 602 603 604 0
-605 -10 0
-605 180 0
-606 -29 0
-606 99 0
-607 -44 0
-607 84 0
-78 605 606 607 0
-608 -11 0
-608 181 0
-609 -30 0
-609 100 0
-610 -45 0
-610 85 0
-78 608 609 610 0
-611 -1 0
-611 124 0
-612 -12 0
-612 70 0
-613 -15 0
-613 67 0
-79 611 612 613 0
-614 -3 0
-614 168 0
-615 -22 0
-615 87 0
-616 -32 0
-616 77 0
-79 614 615 616 0
-617 -4 0
-617 175 0
-618 -23 0
-618 94 0
-619 -39 0
-619 78 0
-79 617 618 619 0
-620 -6 0
-620 182 0
-621 -25 0
-621 101 0
-622 -46 0
-622 80 0
-79 620 621 622 0
-623 -7 0
-623 183 0
-624 -26 0
-624 102 0
-625 -47 0
-625 81 0
-79 623 624 625 0
-626 -8 0
-626 184 0
-627 -27 0
-627 103 0
-628 -48 0
-628 82 0
-79 626 627 628 0
-629 -9 0
-629 185 0
-630 -28 0
-630 104 0
-631 -49 0
-631 83 0
-79 629 630 631 0
-632 -10 0
-632 186 0
-633 -29 0
-633 105 0
-634 -50 0
-634 84 0
-79 632 633 634 0
-635 -11 0
-635 187 0
-636 -30 0
-636 106 0
-637 -51 0
-637 85 0
-79 635 636 637 0
-638 -1 0
-638 125 0
-639 -12 0
-639 71 0
-640 -16 0
-640 67 0
-80 638 639 640 0
-641 -3 0
-641 169 0
-642 -22 0
-642 88 0
-643 -33 0
-643 77 0
-80 641 642 643 0
-644 -4 0
-644 176 0
-645 -23 0
-645 95 0
-646 -40 0
-646 78 0
-80 644 645 646 0
-647 -5 0
-647 182 0
-648 -24 0
-648 101 0
-649 -46 0
-649 79 0
-80 647 648 649 0
-650 -7 0
-650 188 0
-651 -26 0
-651 107 0
-652 -52 0
-652 81 0
-80 650 651 652 0
-653 -8 0
-653 189 0
-654 -27 0
-654 108 0
-655 -53 0
-655 82 0
-80 653 654 655 0
-656 -9 0
-656 190 0
-657 -28 0
-657 109 0
-658 -54 0
-658 83 0
-80 656 657 658 0
-659 -10 0
-659 191 0
-660 -29 0
-660 110 0
-661 -55 0
-661 84 0
-80 659 660 661 0
-662 -11 0
-662 192 0
-663 -30 0
-663 111 0
-664 -56 0
-664 85 0
-80 662 663 664 0
-665 -1 0
-665 126 0
-666 -12 0
-666 72 0
-667 -17 0
-667 67 0
-81 665 666 667 0
-668 -3 0
-668 170 0
-669 -22 0
-669 89 0
-670 -34 0
-670 77 0
-81 668 669 670 0
-671 -4 0
-671 177 0
-672 -23 0
-672 96 0
-673 -41 0
-673 78 0
-81 671 672 673 0
-674 -5 0
-674 183 0
-675 -24 0
-675 102 0
-676 -47 0
-676 79 0
-81 674 675 676 0
-677 -6 0
-677 188 0
-678 -25 0
-678 107 0
-679 -52 0
-679 80 0
-81 677 678 679 0
-680 -8 0
-680 193 0
-681 -27 0
-681 112 0
-682 -57 0
-682 82 0
-81 680 681 682 0
-683 -9 0
-683 194 0
-684 -28 0
-684 113 0
-685 -58 0
-685 83 0
-81 683 684 685 0
-686 -10 0
-686 195 0
-687 -29 0
-687 114 0
-688 -59 0
-688 84 0
-81 686 687 688 0
-689 -11 0
-689 196 0
-690 -30 0
-690 115 0
-691 -60 0
-691 85 0
-81 689 690 691 0
-692 -1 0
-692 127 0
-693 -12 0
-693 73 0
-694 -18 0
-694 67 0
-82 692 693 694 0
-695 -3 0
-695 171 0
-696 -22 0
-696 90 0
-697 -35 0
-697 77 0
-82 695 696 697 0
-698 -4 0
-698 178 0
-699 -23 0
-699 97 0
-700 -42 0
-700 78 0
-82 698 699 700 0
-701 -5 0
-701 184 0
-702 -24 0
-702 103 0
-703 -48 0
-703 79 0
-82 701 702 703 0
-704 -6 0
-704 189 0
-705 -25 0
-705 108 0
-706 -53 0
-706 80 0
-82 704 705 706 0
-707 -7 0
-707 193 0
-708 -26 0
-708 112 0
-709 -57 0
-709 81 0
-82 707 708 709 0
-710 -9 0
-710 197 0
-711 -28 0
-711 116 0
-712 -61 0
-712 83 0
-82 710 711 712 0
-713 -10 0
-713 198 0
-714 -29 0
-714 117 0
-715 -62 0
-715 84 0
-82 713 714 715 0
-716 -11 0
-716 199 0
-717 -30 0
-717 118 0
-718 -63 0
-718 85 0
-82 716 717 718 0
-719 -1 0
-719 128 0
-720 -12 0
-720 74 0
-721 -19 0
-721 67 0
-83 719 720 721 0
-722 -3 0
-722 172 0
-723 -22 0
-723 91 0
-724 -36 0
-724 77 0
-83 722 723 724 0
-725 -4 0
-725 179 0
-726 -23 0
-726 98 0
-727 -43 0
-727 78 0
-83 725 726 727 0
-728 -5 0
-728 185 0
-729 -24 0
-729 104 0
-730 -49 0
-730 79 0
-83 728 729 730 0
-731 -6 0
-731 190 0
-732 -25 0
-732 109 0
-733 -54 0
-733 80 0
-83 731 732 733 0
-734 -7 0
-734 194 0
-735 -26 0
-735 113 0
-736 -58 0
-736 81 0
-83 734 735 736 0
-737 -8 0
-737 197 0
-738 -27 0
-738 116 0
-739 -61 0
-739 82 0
-83 737 738 739 0
-740 -10 0
-740 200 0
-741 -29 0
-741 119 0
-742 -64 0
-742 84 0
-83 740 741 742 0
-743 -11 0
-743 201 0
-744 -30 0
-744 120 0
-745 -65 0
-745 85 0
-83 743 744 745 0
-746 -1 0
-746 129 0
-747 -12 0
-747 75 0
-748 -20 0
-748 67 0
-84 746 747 748 0
-749 -3 0
-749 173 0
-750 -22 0
-750 92 0
-751 -37 0
-751 77 0
-84 749 750 751 0
-752 -4 0
-752 180 0
-753 -23 0
-753 99 0
-754 -44 0
-754 78 0
-84 752 753 754 0
-755 -5 0
-755 186 0
-756 -24 0
-756 105 0
-757 -50 0
-757 79 0
-84 755 756 757 0
-758 -6 0
-758 191 0
-759 -25 0
-759 110 0
-760 -55 0
-760 80 0
-84 758 759 760 0
-761 -7 0
-761 195 0
-762 -26 0
-762 114 0
-763 -59 0
-763 81 0
-84 761 762 763 0
-764 -8 0
-764 198 0
-765 -27 0
-765 117 0
-766 -62 0
-766 82 0
-84 764 765 766 0
-767 -9 0
-767 200 0
-768 -28 0
-768 119 0
-769 -64 0
-769 83 0
-84 767 768 769 0
-770 -11 0
-770 202 0
-771 -30 0
-771 121 0
-772 -66 0
-772 85 0
-84 770 771 772 0
-773 -1 0
-773 130 0
-774 -12 0
-774 76 0
-775 -21 0
-775 67 0
-85 773 774 775 0
-776 -3 0
-776 174 0
-777 -22 0
-777 93 0
-778 -38 0
-778 77 0
-85 776 777 778 0
-779 -4 0
-779 181 0
-780 -23 0
-780 100 0
-781 -45 0
-781 78 0
-85 779 780 781 0
-782 -5 0
-782 187 0
-783 -24 0
-783 106 0
-784 -51 0
-784 79 0
-85 782 783 784 0
-785 -6 0
-785 192 0
-786 -25 0
-786 111 0
-787 -56 0
-787 80 0
-85 785 786 787 0
-788 -7 0
-788 196 0
-789 -26 0
-789 115 0
-790 -60 0
-790 81 0
-85 788 789 790 0
-791 -8 0
-791 199 0
-792 -27 0
-792 118 0
-793 -63 0
-793 82 0
-85 791 792 793 0
-794 -9 0
-794 201 0
-795 -28 0
-795 120 0
-796 -65 0
-796 83 0
-85 794 795 796 0
-797 -10 0
-797 202 0
-798 -29 0
-798 121 0
-799 -66 0
-799 84 0
-85 797 798 799 0
-800 -1 0
-800 131 0
-801 -13 0
-801 69 0
-802 -14 0
-802 68 0
-86 800 801 802 0
-803 -2 0
-803 167 0
-804 -22 0
-804 78 0
-805 -23 0
-805 77 0
-86 803 804 805 0
-806 -5 0
-806 203 0
-807 -32 0
-807 94 0
-808 -39 0
-808 87 0
-86 806 807 808 0
-809 -6 0
-809 204 0
-810 -33 0
-810 95 0
-811 -40 0
-811 88 0
-86 809 810 811 0
-812 -7 0
-812 205 0
-813 -34 0
-813 96 0
-814 -41 0
-814 89 0
-86 812 813 814 0
-815 -8 0
-815 206 0
-816 -35 0
-816 97 0
-817 -42 0
-817 90 0
-86 815 816 817 0
-818 -9 0
-818 207 0
-819 -36 0
-819 98 0
-820 -43 0
-820 91 0
-86 818 819 820 0
-821 -10 0
-821 208 0
-822 -37 0
-822 99 0
-823 -44 0
-823 92 0
-86 821 822 823 0
-824 -11 0
-824 209 0
-825 -38 0
-825 100 0
-826 -45 0
-826 93 0
-86 824 825 826 0
-827 -1 0
-827 132 0
-828 -13 0
-828 70 0
-829 -15 0
-829 68 0
-87 827 828 829 0
-830 -2 0
-830 168 0
-831 -22 0
-831 79 0
-832 -24 0
-832 77 0
-87 830 831 832 0
-833 -4 0
-833 203 0
-834 -31 0
-834 94 0
-835 -39 0
-835 86 0
-87 833 834 835 0
-836 -6 0
-836 210 0
-837 -33 0
-837 101 0
-838 -46 0
-838 88 0
-87 836 837 838 0
-839 -7 0
-839 211 0
-840 -34 0
-840 102 0
-841 -47 0
-841 89 0
-87 839 840 841 0
-842 -8 0
-842 212 0
-843 -35 0
-843 103 0
-844 -48 0
-844 90 0
-87 842 843 844 0
-845 -9 0
-845 213 0
-846 -36 0
-846 104 0
-847 -49 0
-847 91 0
-87 845 846 847 0
-848 -10 0
-848 214 0
-849 -37 0
-849 105 0
-850 -50 0
-850 92 0
-87 848 849 850 0
-851 -11 0
-851 215 0
-852 -38 0
-852 106 0
-853 -51 0
-853 93 0
-87 851 852 853 0
-854 -1 0
-854 133 0
-855 -13 0
-855 71 0
-856 -16 0
-856 68 0
-88 854 855 856 0
-857 -2 0
-857 169 0
-858 -22 0
-858 80 0
-859 -25 0
-859 77 0
-88 857 858 859 0
-860 -4 0
-860 204 0
-861 -31 0
-861 95 0
-862 -40 0
-862 86 0
-88 860 861 862 0
-863 -5 0
-863 210 0
-864 -32 0
-864 101 0
-865 -46 0
-865 87 0
-88 863 864 865 0
-866 -7 0
-866 216 0
-867 -34 0
-867 107 0
-868 -52 0
-868 89 0
-88 866 867 868 0
-869 -8 0
-869 217 0
-870 -35 0
-870 108 0
-871 -53 0
-871 90 0
-88 869 870 871 0
-872 -9 0
-872 218 0
-873 -36 0
-873 109 0
-874 -54 0
-874 91 0
-88 872 873 874 0
-875 -10 0
-875 219 0
-876 -37 0
-876 110 0
-877 -55 0
-877 92 0
-88 875 876 877 0
-878 -11 0
-878 220 0
-879 -38 0
-879 111 0
-880 -56 0
-880 93 0
-88 878 879 880 0
-881 -1 0
-881 134 0
-882 -13 0
-882 72 0
-883 -17 0
-883 68 0
-89 881 882 883 0
-884 -2 0
-884 170 0
-885 -22 0
-885 81 0
-886 -26 0
-886 77 0
-89 884 885 886 0
-887 -4 0
-887 205 0
-888 -31 0
-888 96 0
-889 -41 0
-889 86 0
-89 887 888 889 0
-890 -5 0
-890 211 0
-891 -32 0
-891 102 0
-892 -47 0
-892 87 0
-89 890 891 892 0
-893 -6 0
-893 216 0
-894 -33 0
-894 107 0
-895 -52 0
-895 88 0
-89 893 894 895 0
-896 -8 0
-896 221 0
-897 -35 0
-897 112 0
-898 -57 0
-898 90 0
-89 896 897 898 0
-899 -9 0
-899 222 0
-900 -36 0
-900 113 0
-901 -58 0
-901 91 0
-89 899 900 901 0
-902 -10 0
-902 223 0
-903 -37 0
-903 114 0
-904 -59 0
-904 92 0
-89 902 903 904 0
-905 -11 0
-905 224 0
-906 -38 0
-906 115 0
-907 -60 0
-907 93 0
-89 905 906 907 0
-908 -1 0
-908 135 0
-909 -13 0
-909 73 0
-910 -18 0
-910 68 0
-90 908 909 910 0
-911 -2 0
-911 171 0
-912 -22 0
-912 82 0
-913 -27 0
-913 77 0
-90 911 912 913 0
-914 -4 0
-914 206 0
-915 -31 0
-915 97 0
-916 -42 0
-916 86 0
-90 914 915 916 0
-917 -5 0
-917 212 0
-918 -32 0
-918 103 0
-919 -48 0
-919 87 0
-90 917 918 919 0
-920 -6 0
-920 217 0
-921 -33 0
-921 108 0
-922 -53 0
-922 88 0
-90 920 921 922 0
-923 -7 0
-923 221 0
-924 -34 0
-924 112 0
-925 -57 0
-925 89 0
-90 923 924 925 0
-926 -9 0
-926 225 0
-927 -36 0
-927 116 0
-928 -61 0
-928 91 0
-90 926 927 928 0
-929 -10 0
-929 226 0
-930 -37 0
-930 117 0
-931 -62 0
-931 92 0
-90 929 930 931 0
-932 -11 0
-932 227 0
-933 -38 0
-933 118 0
-934 -63 0
-934 93 0
-90 932 933 934 0
-935 -1 0
-935 136 0
-936 -13 0
-936 74 0
-937 -19 0
-937 68 0
-91 935 936 937 0
-938 -2 0
-938 172 0
-939 -22 0
-939 83 0
-940 -28 0
-940 77 0
-91 938 939 940 0
-941 -4 0
-941 207 0
-942 -31 0
-942 98 0
-943 -43 0
-943 86 0
-91 941 942 943 0
-944 -5 0
-944 213 0
-945 -32 0
-945 104 0
-946 -49 0
-946 87 0
-91 944 945 946 0
-947 -6 0
-947 218 0
-948 -33 0
-948 109 0
-949 -54 0
-949 88 0
-91 947 948 949 0
-950 -7 0
-950 222 0
-951 -34 0
-951 113 0
-952 -58 0
-952 89 0
-91 950 951 952 0
-953 -8 0
-953 225 0
-954 -35 0
-954 116 0
-955 -61 0
-955 90 0
-91 953 954 955 0
-956 -10 0
-956 228 0
-957 -37 0
-957 119 0
-958 -64 0
-958 92 0
-91 956 957 958 0
-959 -11 0
-959 229 0
-960 -38 0
-960 120 0
-961 -65 0
-961 93 0
-91 959 960 961 0
-962 -1 0
-962 137 0
-963 -13 0
-963 75 0
-964 -20 0
-964 68 0
-92 962 963 964 0
-965 -2 0
-965 173 0
-966 -22 0
-966 84 0
-967 -29 0
-967 77 0
-92 965 966 967 0
-968 -4 0
-968 208 0
-969 -31 0
-969 99 0
-970 -44 0
-970 86 0
-92 968 969 970 0
-971 -5 0
-971 214 0
-972 -32 0
-972 105 0
-973 -50 0
-973 87 0
-92 971 972 973 0
-974 -6 0
-974 219 0
-975 -33 0
-975 110 0
-976 -55 0
-976 88 0
-92 974 975 976 0
-977 -7 0
-977 223 0
-978 -34 0
-978 114 0
-979 -59 0
-979 89 0
-92 977 978 979 0
-980 -8 0
-980 226 0
-981 -35 0
-981 117 0
-982 -62 0
-982 90 0
-92 980 981 982 0
-983 -9 0
-983 228 0
-984 -36 0
-984 119 0
-985 -64 0
-985 91 0
-92 983 984 985 0
-986 -11 0
-986 230 0
-987 -38 0
-987 121 0
-988 -66 0
-988 93 0
-92 986 987 988 0
-989 -1 0
-989 138 0
-990 -13 0
-990 76 0
-991 -21 0
-991 68 0
-93 989 990 991 0
-992 -2 0
-992 174 0
-993 -22 0
-993 85 0
-994 -30 0
-994 77 0
-93 992 993 994 0
-995 -4 0
-995 209 0
-996 -31 0
-996 100 0
-997 -45 0
-997 86 0
-93 995 996 997 0
-998 -5 0
-998 215 0
-999 -32 0
-999 106 0
-1000 -51 0
-1000 87 0
-93 998 999 1000 0
-1001 -6 0
-1001 220 0
-1002 -33 0
-1002 111 0
-1003 -56 0
-1003 88 0
-93 1001 1002 1003 0
-1004 -7 0
-1004 224 0
-1005 -34 0
-1005 115 0
-1006 -60 0
-1006 89 0
-93 1004 1005 1006 0
-1007 -8 0
-1007 227 0
-1008 -35 0
-1008 118 0
-1009 -63 0
-1009 90 0
-93 1007 1008 1009 0
-1010 -9 0
-1010 229 0
-1011 -36 0
-1011 120 0
-1012 -65 0
-1012 91 0
-93 1010 1011 1012 0
-1013 -10 0
-1013 230 0
-1014 -37 0
-1014 121 0
-1015 -66 0
-1015 92 0
-93 1013 1014 1015 0
-1016 -1 0
-1016 139 0
-1017 -14 0
-1017 70 0
-1018 -15 0
-1018 69 0
-94 1016 1017 1018 0
-1019 -2 0
-1019 175 0
-1020 -23 0
-1020 79 0
-1021 -24 0
-1021 78 0
-94 1019 1020 1021 0
-1022 -3 0
-1022 203 0
-1023 -31 0
-1023 87 0
-1024 -32 0
-1024 86 0
-94 1022 1023 1024 0
-1025 -6 0
-1025 231 0
-1026 -40 0
-1026 101 0
-1027 -46 0
-1027 95 0
-94 1025 1026 1027 0
-1028 -7 0
-1028 232 0
-1029 -41 0
-1029 102 0
-1030 -47 0
-1030 96 0
-94 1028 1029 1030 0
-1031 -8 0
-1031 233 0
-1032 -42 0
-1032 103 0
-1033 -48 0
-1033 97 0
-94 1031 1032 1033 0
-1034 -9 0
-1034 234 0
-1035 -43 0
-1035 104 0
-1036 -49 0
-1036 98 0
-94 1034 1035 1036 0
-1037 -10 0
-1037 235 0
-1038 -44 0
-1038 105 0
-1039 -50 0
-1039 99 0
-94 1037 1038 1039 0
-1040 -11 0
-1040 236 0
-1041 -45 0
-1041 106 0
-1042 -51 0
-1042 100 0
-94 1040 1041 1042 0
-1043 -1 0
-1043 140 0
-1044 -14 0
-1044 71 0
-1045 -16 0
-1045 69 0
-95 1043 1044 1045 0
-1046 -2 0
-1046 176 0
-1047 -23 0
-1047 80 0
-1048 -25 0
-1048 78 0
-95 1046 1047 1048 0
-1049 -3 0
-1049 204 0
-1050 -31 0
-1050 88 0
-1051 -33 0
-1051 86 0
-95 1049 1050 1051 0
-1052 -5 0
-1052 231 0
-1053 -39 0
-1053 101 0
-1054 -46 0
-1054 94 0
-95 1052 1053 1054 0
-1055 -7 0
-1055 237 0
-1056 -41 0
-1056 107 0
-1057 -52 0
-1057 96 0
-95 1055 1056 1057 0
-1058 -8 0
-1058 238 0
-1059 -42 0
-1059 108 0
-1060 -53 0
-1060 97 0
-95 1058 1059 1060 0
-1061 -9 0
-1061 239 0
-1062 -43 0
-1062 109 0
-1063 -54 0
-1063 98 0
-95 1061 1062 1063 0
-1064 -10 0
-1064 240 0
-1065 -44 0
-1065 110 0
-1066 -55 0
-1066 99 0
-95 1064 1065 1066 0
-1067 -11 0
-1067 241 0
-1068 -45 0
-1068 111 0
-1069 -56 0
-1069 100 0
-95 1067 1068 1069 0
-1070 -1 0
-1070 141 0
-1071 -14 0
-1071 72 0
-1072 -17 0
-1072 69 0
-96 1070 1071 1072 0
-1073 -2 0
-1073 177 0
-1074 -23 0
-1074 81 0
-1075 -26 0
-1075 78 0
-96 1073 1074 1075 0
-1076 -3 0
-1076 205 0
-1077 -31 0
-1077 89 0
-1078 -34 0
-1078 86 0
-96 1076 1077 1078 0
-1079 -5 0
-1079 232 0
-1080 -39 0
-1080 102 0
-1081 -47 0
-1081 94 0
-96 1079 1080 1081 0
-1082 -6 0
-1082 237 0
-1083 -40 0
-1083 107 0
-1084 -52 0
-1084 95 0
-96 1082 1083 1084 0
-1085 -8 0
-1085 242 0
-1086 -42 0
-1086 112 0
-1087 -57 0
-1087 97 0
-96 1085 1086 1087 0
-1088 -9 0
-1088 243 0
-1089 -43 0
-1089 113 0
-1090 -58 0
-1090 98 0
-96 1088 1089 1090 0
-1091 -10 0
-1091 244 0
-1092 -44 0
-1092 114 0
-1093 -59 0
-1093 99 0
-96 1091 1092 1093 0
-1094 -11 0
-1094 245 0
-1095 -45 0
-1095 115 0
-1096 -60 0
-1096 100 0
-96 1094 1095 1096 0
-1097 -1 0
-1097 142 0
-1098 -14 0
-1098 73 0
-1099 -18 0
-1099 69 0
-97 1097 1098 1099 0
-1100 -2 0
-1100 178 0
-1101 -23 0
-1101 82 0
-1102 -27 0
-1102 78 0
-97 1100 1101 1102 0
-1103 -3 0
-1103 206 0
-1104 -31 0
-1104 90 0
-1105 -35 0
-1105 86 0
-97 1103 1104 1105 0
-1106 -5 0
-1106 233 0
-1107 -39 0
-1107 103 0
-1108 -48 0
-1108 94 0
-97 1106 1107 1108 0
-1109 -6 0
-1109 238 0
-1110 -40 0
-1110 108 0
-1111 -53 0
-1111 95 0
-97 1109 1110 1111 0
-1112 -7 0
-1112 242 0
-1113 -41 0
-1113 112 0
-1114 -57 0
-1114 96 0
-97 1112 1113 1114 0
-1115 -9 0
-1115 246 0
-1116 -43 0
-1116 116 0
-1117 -61 0
-1117 98 0
-97 1115 1116 1117 0
-1118 -10 0
-1118 247 0
-1119 -44 0
-1119 117 0
-1120 -62 0
-1120 99 0
-97 1118 1119 1120 0
-1121 -11 0
-1121 248 0
-1122 -45 0
-1122 118 0
-1123 -63 0
-1123 100 0
-97 1121 1122 1123 0
-1124 -1 0
-1124 143 0
-1125 -14 0
-1125 74 0
-1126 -19 0
-1126 69 0
-98 1124 1125 1126 0
-1127 -2 0
-1127 179 0
-1128 -23 0
-1128 83 0
-1129 -28 0
-1129 78 0
-98 1127 1128 1129 0
-1130 -3 0
-1130 207 0
-1131 -31 0
-1131 91 0
-1132 -36 0
-1132 86 0
-98 1130 1131 1132 0
-1133 -5 0
-1133 234 0
-1134 -39 0
-1134 104 0
-1135 -49 0
-1135 94 0
-98 1133 1134 1135 0
-1136 -6 0
-1136 239 0
-1137 -40 0
-1137 109 0
-1138 -54 0
-1138 95 0
-98 1136 1137 1138 0
-1139 -7 0
-1139 243 0
-1140 -41 0
-1140 113 0
-1141 -58 0
-1141 96 0
-98 1139 1140 1141 0
-1142 -8 0
-1142 246 0
-1143 -42 0
-1143 116 0
-1144 -61 0
-1144 97 0
-98 1142 1143 1144 0
-1145 -10 0
-1145 249 0
-1146 -44 0
-1146 119 0
-1147 -64 0
-1147 99 0
-98 1145 1146 1147 0
-1148 -11 0
-1148 250 0
-1149 -45 0
-1149 120 0
-1150 -65 0
-1150 100 0
-98 1148 1149 1150 0
-1151 -1 0
-1151 144 0
-1152 -14 0
-1152 75 0
-1153 -20 0
-1153 69 0
-99 1151 1152 1153 0
-1154 -2 0
-1154 180 0
-1155 -23 0
-1155 84 0
-1156 -29 0
-1156 78 0
-99 1154 1155 1156 0
-1157 -3 0
-1157 208 0
-1158 -31 0
-1158 92 0
-1159 -37 0
-1159 86 0
-99 1157 1158 1159 0
-1160 -5 0
-1160 235 0
-1161 -39 0
-1161 105 0
-1162 -50 0
-1162 94 0
-99 1160 1161 1162 0
-1163 -6 0
-1163 240 0
-1164 -40 0
-1164 110 0
-1165 -55 0
-1165 95 0
-99 1163 1164 1165 0
-1166 -7 0
-1166 244 0
-1167 -41 0
-1167 114 0
-1168 -59 0
-1168 96 0
-99 1166 1167 1168 0
-1169 -8 0
-1169 247 0
-1170 -42 0
-1170 117 0
-1171 -62 0
-1171 97 0
-99 1169 1170 1171 0
-1172 -9 0
-1172 249 0
-1173 -43 0
-1173 119 0
-1174 -64 0
-1174 98 0
-99 1172 1173 1174 0
-1175 -11 0
-1175 251 0
-1176 -45 0
-1176 121 0
-1177 -66 0
-1177 100 0
-99 1175 1176 1177 0
-1178 -1 0
-1178 145 0
-1179 -14 0
-1179 76 0
-1180 -21 0
-1180 69 0
-100 1178 1179 1180 0
-1181 -2 0
-1181 181 0
-1182 -23 0
-1182 85 0
-1183 -30 0
-1183 78 0
-100 1181 1182 1183 0
-1184 -3 0
-1184 209 0
-1185 -31 0
-1185 93 0
-1186 -38 0
-1186 86 0
-100 1184 1185 1186 0
-1187 -5 0
-1187 236 0
-1188 -39 0
-1188 106 0
-1189 -51 0
-1189 94 0
-100 1187 1188 1189 0
-1190 -6 0
-1190 241 0
-1191 -40 0
-1191 111 0
-1192 -56 0
-1192 95 0
-100 1190 1191 1192 0
-1193 -7 0
-1193 245 0
-1194 -41 0
-1194 115 0
-1195 -60 0
-1195 96 0
-100 1193 1194 1195 0
-1196 -8 0
-1196 248 0
-1197 -42 0
-1197 118 0
-1198 -63 0
-1198 97 0
-100 1196 1197 1198 0
-1199 -9 0
-1199 250 0
-1200 -43 0
-1200 120 0
-1201 -65 0
-1201 98 0
-100 1199 1200 1201 0
-1202 -10 0
-1202 251 0
-1203 -44 0
-1203 121 0
-1204 -66 0
-1204 99 0
-100 1202 1203 1204 0
-1205 -1 0
-1205 146 0
-1206 -15 0
-1206 71 0
-1207 -16 0
-1207 70 0
-101 1205 1206 1207 0
-1208 -2 0
-1208 182 0
-1209 -24 0
-1209 80 0
-1210 -25 0
-1210 79 0
-101 1208 1209 1210 0
-1211 -3 0
-1211 210 0
-1212 -32 0
-1212 88 0
-1213 -33 0
-1213 87 0
-101 1211 1212 1213 0
-1214 -4 0
-1214 231 0
-1215 -39 0
-1215 95 0
-1216 -40 0
-1216 94 0
-101 1214 1215 1216 0
-1217 -7 0
-1217 252 0
-1218 -47 0
-1218 107 0
-1219 -52 0
-1219 102 0
-101 1217 1218 1219 0
-1220 -8 0
-1220 253 0
-1221 -48 0
-1221 108 0
-1222 -53 0
-1222 103 0
-101 1220 1221 1222 0
-1223 -9 0
-1223 254 0
-1224 -49 0
-1224 109 0
-1225 -54 0
-1225 104 0
-101 1223 1224 1225 0
-1226 -10 0
-1226 255 0
-1227 -50 0
-1227 110 0
-1228 -55 0
-1228 105 0
-101 1226 1227 1228 0
-1229 -11 0
-1229 256 0
-1230 -51 0
-1230 111 0
-1231 -56 0
-1231 106 0
-101 1229 1230 1231 0
-1232 -1 0
-1232 147 0
-1233 -15 0
-1233 72 0
-1234 -17 0
-1234 70 0
-102 1232 1233 1234 0
-1235 -2 0
-1235 183 0
-1236 -24 0
-1236 81 0
-1237 -26 0
-1237 79 0
-102 1235 1236 1237 0
-1238 -3 0
-1238 211 0
-1239 -32 0
-1239 89 0
-1240 -34 0
-1240 87 0
-102 1238 1239 1240 0
-1241 -4 0
-1241 232 0
-1242 -39 0
-1242 96 0
-1243 -41 0
-1243 94 0
-102 1241 1242 1243 0
-1244 -6 0
-1244 252 0
-1245 -46 0
-1245 107 0
-1246 -52 0
-1246 101 0
-102 1244 1245 1246 0
-1247 -8 0
-1247 257 0
-1248 -48 0
-1248 112 0
-1249 -57 0
-1249 103 0
-102 1247 1248 1249 0
-1250 -9 0
-1250 258 0
-1251 -49 0
-1251 113 0
-1252 -58 0
-1252 104 0
-102 1250 1251 1252 0
-1253 -10 0
-1253 259 0
-1254 -50 0
-1254 114 0
-1255 -59 0
-1255 105 0
-102 1253 1254 1255 0
-1256 -11 0
-1256 260 0
-1257 -51 0
-1257 115 0
-1258 -60 0
-1258 106 0
-102 1256 1257 1258 0
-1259 -1 0
-1259 148 0
-1260 -15 0
-1260 73 0
-1261 -18 0
-1261 70 0
-103 1259 1260 1261 0
-1262 -2 0
-1262 184 0
-1263 -24 0
-1263 82 0
-1264 -27 0
-1264 79 0
-103 1262 1263 1264 0
-1265 -3 0
-1265 212 0
-1266 -32 0
-1266 90 0
-1267 -35 0
-1267 87 0
-103 1265 1266 1267 0
-1268 -4 0
-1268 233 0
-1269 -39 0
-1269 97 0
-1270 -42 0
-1270 94 0
-103 1268 1269 1270 0
-1271 -6 0
-1271 253 0
-1272 -46 0
-1272 108 0
-1273 -53 0
-1273 101 0
-103 1271 1272 1273 0
-1274 -7 0
-1274 257 0
-1275 -47 0
-1275 112 0
-1276 -57 0
-1276 102 0
-103 1274 1275 1276 0
-1277 -9 0
-1277 261 0
-1278 -49 0
-1278 116 0
-1279 -61 0
-1279 104 0
-103 1277 1278 1279 0
-1280 -10 0
-1280 262 0
-1281 -50 0
-1281 117 0
-1282 -62 0
-1282 105 0
-103 1280 1281 1282 0
-1283 -11 0
-1283 263 0
-1284 -51 0
-1284 118 0
-1285 -63 0
-1285 106 0
-103 1283 1284 1285 0
-1286 -1 0
-1286 149 0
-1287 -15 0
-1287 74 0
-1288 -19 0
-1288 70 0
-104 1286 1287 1288 0
-1289 -2 0
-1289 185 0
-1290 -24 0
-1290 83 0
-1291 -28 0
-1291 79 0
-104 1289 1290 1291 0
-1292 -3 0
-1292 213 0
-1293 -32 0
-1293 91 0
-1294 -36 0
-1294 87 0
-104 1292 1293 1294 0
-1295 -4 0
-1295 234 0
-1296 -39 0
-1296 98 0
-1297 -43 0
-1297 94 0
-104 1295 1296 1297 0
-1298 -6 0
-1298 254 0
-1299 -46 0
-1299 109 0
-1300 -54 0
-1300 101 0
-104 1298 1299 1300 0
-1301 -7 0
-1301 258 0
-1302 -47 0
-1302 113 0
-1303 -58 0
-1303 102 0
-104 1301 1302 1303 0
-1304 -8 0
-1304 261 0
-1305 -48 0
-1305 116 0
-1306 -61 0
-1306 103 0
-104 1304 1305 1306 0
-1307 -10 0
-1307 264 0
-1308 -50 0
-1308 119 0
-1309 -64 0
-1309 105 0
-104 1307 1308 1309 0
-1310 -11 0
-1310 265 0
-1311 -51 0
-1311 120 0
-1312 -65 0
-1312 106 0
-104 1310 1311 1312 0
-1313 -1 0
-1313 150 0
-1314 -15 0
-1314 75 0
-1315 -20 0
-1315 70 0
-105 1313 1314 1315 0
-1316 -2 0
-1316 186 0
-1317 -24 0
-1317 84 0
-1318 -29 0
-1318 79 0
-105 1316 1317 1318 0
-1319 -3 0
-1319 214 0
-1320 -32 0
-1320 92 0
-1321 -37 0
-1321 87 0
-105 1319 1320 1321 0
-1322 -4 0
-1322 235 0
-1323 -39 0
-1323 99 0
-1324 -44 0
-1324 94 0
-105 1322 1323 1324 0
-1325 -6 0
-1325 255 0
-1326 -46 0
-1326 110 0
-1327 -55 0
-1327 101 0
-105 1325 1326 1327 0
-1328 -7 0
-1328 259 0
-1329 -47 0
-1329 114 0
-1330 -59 0
-1330 102 0
-105 1328 1329 1330 0
-1331 -8 0
-1331 262 0
-1332 -48 0
-1332 117 0
-1333 -62 0
-1333 103 0
-105 1331 1332 1333 0
-1334 -9 0
-1334 264 0
-1335 -49 0
-1335 119 0
-1336 -64 0
-1336 104 0
-105 1334 1335 1336 0
-1337 -11 0
-1337 266 0
-1338 -51 0
-1338 121 0
-1339 -66 0
-1339 106 0
-105 1337 1338 1339 0
-1340 -1 0
-1340 151 0
-1341 -15 0
-1341 76 0
-1342 -21 0
-1342 70 0
-106 1340 1341 1342 0
-1343 -2 0
-1343 187 0
-1344 -24 0
-1344 85 0
-1345 -30 0
-1345 79 0
-106 1343 1344 1345 0
-1346 -3 0
-1346 215 0
-1347 -32 0
-1347 93 0
-1348 -38 0
-1348 87 0
-106 1346 1347 1348 0
-1349 -4 0
-1349 236 0
-1350 -39 0
-1350 100 0
-1351 -45 0
-1351 94 0
-106 1349 1350 1351 0
-1352 -6 0
-1352 256 0
-1353 -46 0
-1353 111 0
-1354 -56 0
-1354 101 0
-106 1352 1353 1354 0
-1355 -7 0
-1355 260 0
-1356 -47 0
-1356 115 0
-1357 -60 0
-1357 102 0
-106 1355 1356 1357 0
-1358 -8 0
-1358 263 0
-1359 -48 0
-1359 118 0
-1360 -63 0
-1360 103 0
-106 1358 1359 1360 0
-1361 -9 0
-1361 265 0
-1362 -49 0
-1362 120 0
-1363 -65 0
-1363 104 0
-106 1361 1362 1363 0
-1364 -10 0
-1364 266 0
-1365 -50 0
-1365 121 0
-1366 -66 0
-1366 105 0
-106 1364 1365 1366 0
-1367 -1 0
-1367 152 0
-1368 -16 0
-1368 72 0
-1369 -17 0
-1369 71 0
-107 1367 1368 1369 0
-1370 -2 0
-1370 188 0
-1371 -25 0
-1371 81 0
-1372 -26 0
-1372 80 0
-107 1370 1371 1372 0
-1373 -3 0
-1373 216 0
-1374 -33 0
-1374 89 0
-1375 -34 0
-1375 88 0
-107 1373 1374 1375 0
-1376 -4 0
-1376 237 0
-1377 -40 0
-1377 96 0
-1378 -41 0
-1378 95 0
-107 1376 1377 1378 0
-1379 -5 0
-1379 252 0
-1380 -46 0
-1380 102 0
-1381 -47 0
-1381 101 0
-107 1379 1380 1381 0
-1382 -8 0
-1382 267 0
-1383 -53 0
-1383 112 0
-1384 -57 0
-1384 108 0
-107 1382 1383 1384 0
-1385 -9 0
-1385 268 0
-1386 -54 0
-1386 113 0
-1387 -58 0
-1387 109 0
-107 1385 1386 1387 0
-1388 -10 0
-1388 269 0
-1389 -55 0
-1389 114 0
-1390 -59 0
-1390 110 0
-107 1388 1389 1390 0
-1391 -11 0
-1391 270 0
-1392 -56 0
-1392 115 0
-1393 -60 0
-1393 111 0
-107 1391 1392 1393 0
-1394 -1 0
-1394 153 0
-1395 -16 0
-1395 73 0
-1396 -18 0
-1396 71 0
-108 1394 1395 1396 0
-1397 -2 0
-1397 189 0
-1398 -25 0
-1398 82 0
-1399 -27 0
-1399 80 0
-108 1397 1398 1399 0
-1400 -3 0
-1400 217 0
-1401 -33 0
-1401 90 0
-1402 -35 0
-1402 88 0
-108 1400 1401 1402 0
-1403 -4 0
-1403 238 0
-1404 -40 0
-1404 97 0
-1405 -42 0
-1405 95 0
-108 1403 1404 1405 0
-1406 -5 0
-1406 253 0
-1407 -46 0
-1407 103 0
-1408 -48 0
-1408 101 0
-108 1406 1407 1408 0
-1409 -7 0
-1409 267 0
-1410 -52 0
-1410 112 0
-1411 -57 0
-1411 107 0
-108 1409 1410 1411 0
-1412 -9 0
-1412 271 0
-1413 -54 0
-1413 116 0
-1414 -61 0
-1414 109 0
-108 1412 1413 1414 0
-1415 -10 0
-1415 272 0
-1416 -55 0
-1416 117 0
-1417 -62 0
-1417 110 0
-108 1415 1416 1417 0
-1418 -11 0
-1418 273 0
-1419 -56 0
-1419 118 0
-1420 -63 0
-1420 111 0
-108 1418 1419 1420 0
-1421 -1 0
-1421 154 0
-1422 -16 0
-1422 74 0
-1423 -19 0
-1423 71 0
-109 1421 1422 1423 0
-1424 -2 0
-1424 190 0
-1425 -25 0
-1425 83 0
-1426 -28 0
-1426 80 0
-109 1424 1425 1426 0
-1427 -3 0
-1427 218 0
-1428 -33 0
-1428 91 0
-1429 -36 0
-1429 88 0
-109 1427 1428 1429 0
-1430 -4 0
-1430 239 0
-1431 -40 0
-1431 98 0
-1432 -43 0
-1432 95 0
-109 1430 1431 1432 0
-1433 -5 0
-1433 254 0
-1434 -46 0
-1434 104 0
-1435 -49 0
-1435 101 0
-109 1433 1434 1435 0
-1436 -7 0
-1436 268 0
-1437 -52 0
-1437 113 0
-1438 -58 0
-1438 107 0
-109 1436 1437 1438 0
-1439 -8 0
-1439 271 0
-1440 -53 0
-1440 116 0
-1441 -61 0
-1441 108 0
-109 1439 1440 1441 0
-1442 -10 0
-1442 274 0
-1443 -55 0
-1443 119 0
-1444 -64 0
-1444 110 0
-109 1442 1443 1444 0
-1445 -11 0
-1445 275 0
-1446 -56 0
-1446 120 0
-1447 -65 0
-1447 111 0
-109 1445 1446 1447 0
-1448 -1 0
-1448 155 0
-1449 -16 0
-1449 75 0
-1450 -20 0
-1450 71 0
-110 1448 1449 1450 0
-1451 -2 0
-1451 191 0
-1452 -25 0
-1452 84 0
-1453 -29 0
-1453 80 0
-110 1451 1452 1453 0
-1454 -3 0
-1454 219 0
-1455 -33 0
-1455 92 0
-1456 -37 0
-1456 88 0
-110 1454 1455 1456 0
-1457 -4 0
-1457 240 0
-1458 -40 0
-1458 99 0
-1459 -44 0
-1459 95 0
-110 1457 1458 1459 0
-1460 -5 0
-1460 255 0
-1461 -46 0
-1461 105 0
-1462 -50 0
-1462 101 0
-110 1460 1461 1462 0
-1463 -7 0
-1463 269 0
-1464 -52 0
-1464 114 0
-1465 -59 0
-1465 107 0
-110 1463 1464 1465 0
-1466 -8 0
-1466 272 0
-1467 -53 0
-1467 117 0
-1468 -62 0
-1468 108 0
-110 1466 1467 1468 0
-1469 -9 0
-1469 274 0
-1470 -54 0
-1470 119 0
-1471 -64 0
-1471 109 0
-110 1469 1470 1471 0
-1472 -11 0
-1472 276 0
-1473 -56 0
-1473 121 0
-1474 -66 0
-1474 111 0
-110 1472 1473 1474 0
-1475 -1 0
-1475 156 0
-1476 -16 0
-1476 76 0
-1477 -21 0
-1477 71 0
-111 1475 1476 1477 0
-1478 -2 0
-1478 192 0
-1479 -25 0
-1479 85 0
-1480 -30 0
-1480 80 0
-111 1478 1479 1480 0
-1481 -3 0
-1481 220 0
-1482 -33 0
-1482 93 0
-1483 -38 0
-1483 88 0
-111 1481 1482 1483 0
-1484 -4 0
-1484 241 0
-1485 -40 0
-1485 100 0
-1486 -45 0
-1486 95 0
-111 1484 1485 1486 0
-1487 -5 0
-1487 256 0
-1488 -46 0
-1488 106 0
-1489 -51 0
-1489 101 0
-111 1487 1488 1489 0
-1490 -7 0
-1490 270 0
-1491 -52 0
-1491 115 0
-1492 -60 0
-1492 107 0
-111 1490 1491 1492 0
-1493 -8 0
-1493 273 0
-1494 -53 0
-1494 118 0
-1495 -63 0
-1495 108 0
-111 1493 1494 1495 0
-1496 -9 0
-1496 275 0
-1497 -54 0
-1497 120 0
-1498 -65 0
-1498 109 0
-111 1496 1497 1498 0
-1499 -10 0
-1499 276 0
-1500 -55 0
-1500 121 0
-1501 -66 0
-1501 110 0
-111 1499 1500 1501 0
-1502 -1 0
-1502 157 0
-1503 -17 0
-1503 73 0
-1504 -18 0
-1504 72 0
-112 1502 1503 1504 0
-1505 -2 0
-1505 193 0
-1506 -26 0
-1506 82 0
-1507 -27 0
-1507 81 0
-112 1505 1506 1507 0
-1508 -3 0
-1508 221 0
-1509 -34 0
-1509 90 0
-1510 -35 0
-1510 89 0
-112 1508 1509 1510 0
-1511 -4 0
-1511 242 0
-1512 -41 0
-1512 97 0
-1513 -42 0
-1513 96 0
-112 1511 1512 1513 0
-1514 -5 0
-1514 257 0
-1515 -47 0
-1515 103 0
-1516 -48 0
-1516 102 0
-112 1514 1515 1516 0
-1517 -6 0
-1517 267 0
-1518 -52 0
-1518 108 0
-1519 -53 0
-1519 107 0
-112 1517 1518 1519 0
-1520 -9 0
-1520 277 0
-1521 -58 0
-1521 116 0
-1522 -61 0
-1522 113 0
-112 1520 1521 1522 0
-1523 -10 0
-1523 278 0
-1524 -59 0
-1524 117 0
-1525 -62 0
-1525 114 0
-112 1523 1524 1525 0
-1526 -11 0
-1526 279 0
-1527 -60 0
-1527 118 0
-1528 -63 0
-1528 115 0
-112 1526 1527 1528 0
-1529 -1 0
-1529 158 0
-1530 -17 0
-1530 74 0
-1531 -19 0
-1531 72 0
-113 1529 1530 1531 0
-1532 -2 0
-1532 194 0
-1533 -26 0
-1533 83 0
-1534 -28 0
-1534 81 0
-113 1532 1533 1534 0
-1535 -3 0
-1535 222 0
-1536 -34 0
-1536 91 0
-1537 -36 0
-1537 89 0
-113 1535 1536 1537 0
-1538 -4 0
-1538 243 0
-1539 -41 0
-1539 98 0
-1540 -43 0
-1540 96 0
-113 1538 1539 1540 0
-1541 -5 0
-1541 258 0
-1542 -47 0
-1542 104 0
-1543 -49 0
-1543 102 0
-113 1541 1542 1543 0
-1544 -6 0
-1544 268 0
-1545 -52 0
-1545 109 0
-1546 -54 0
-1546 107 0
-113 1544 1545 1546 0
-1547 -8 0
-1547 277 0
-1548 -57 0
-1548 116 0
-1549 -61 0
-1549 112 0
-113 1547 1548 1549 0
-1550 -10 0
-1550 280 0
-1551 -59 0
-1551 119 0
-1552 -64 0
-1552 114 0
-113 1550 1551 1552 0
-1553 -11 0
-1553 281 0
-1554 -60 0
-1554 120 0
-1555 -65 0
-1555 115 0
-113 1553 1554 1555 0
-1556 -1 0
-1556 159 0
-1557 -17 0
-1557 75 0
-1558 -20 0
-1558 72 0
-114 1556 1557 1558 0
-1559 -2 0
-1559 195 0
-1560 -26 0
-1560 84 0
-1561 -29 0
-1561 81 0
-114 1559 1560 1561 0
-1562 -3 0
-1562 223 0
-1563 -34 0
-1563 92 0
-1564 -37 0
-1564 89 0
-114 1562 1563 1564 0
-1565 -4 0
-1565 244 0
-1566 -41 0
-1566 99 0
-1567 -44 0
-1567 96 0
-114 1565 1566 1567 0
-1568 -5 0
-1568 259 0
-1569 -47 0
-1569 105 0
-1570 -50 0
-1570 102 0
-114 1568 1569 1570 0
-1571 -6 0
-1571 269 0
-1572 -52 0
-1572 110 0
-1573 -55 0
-1573 107 0
-114 1571 1572 1573 0
-1574 -8 0
-1574 278 0
-1575 -57 0
-1575 117 0
-1576 -62 0
-1576 112 0
-114 1574 1575 1576 0
-1577 -9 0
-1577 280 0
-1578 -58 0
-1578 119 0
-1579 -64 0
-1579 113 0
-114 1577 1578 1579 0
-1580 -11 0
-1580 282 0
-1581 -60 0
-1581 121 0
-1582 -66 0
-1582 115 0
-114 1580 1581 1582 0
-1583 -1 0
-1583 160 0
-1584 -17 0
-1584 76 0
-1585 -21 0
-1585 72 0
-115 1583 1584 1585 0
-1586 -2 0
-1586 196 0
-1587 -26 0
-1587 85 0
-1588 -30 0
-1588 81 0
-115 1586 1587 1588 0
-1589 -3 0
-1589 224 0
-1590 -34 0
-1590 93 0
-1591 -38 0
-1591 89 0
-115 1589 1590 1591 0
-1592 -4 0
-1592 245 0
-1593 -41 0
-1593 100 0
-1594 -45 0
-1594 96 0
-115 1592 1593 1594 0
-1595 -5 0
-1595 260 0
-1596 -47 0
-1596 106 0
-1597 -51 0
-1597 102 0
-115 1595 1596 1597 0
-1598 -6 0
-1598 270 0
-1599 -52 0
-1599 111 0
-1600 -56 0
-1600 107 0
-115 1598 1599 1600 0
-1601 -8 0
-1601 279 0
-1602 -57 0
-1602 118 0
-1603 -63 0
-1603 112 0
-115 1601 1602 1603 0
-1604 -9 0
-1604 281 0
-1605 -58 0
-1605 120 0
-1606 -65 0
-1606 113 0
-115 1604 1605 1606 0
-1607 -10 0
-1607 282 0
-1608 -59 0
-1608 121 0
-1609 -66 0
-1609 114 0
-115 1607 1608 1609 0
-1610 -1 0
-1610 161 0
-1611 -18 0
-1611 74 0
-1612 -19 0
-1612 73 0
-116 1610 1611 1612 0
-1613 -2 0
-1613 197 0
-1614 -27 0
-1614 83 0
-1615 -28 0
-1615 82 0
-116 1613 1614 1615 0
-1616 -3 0
-1616 225 0
-1617 -35 0
-1617 91 0
-1618 -36 0
-1618 90 0
-116 1616 1617 1618 0
-1619 -4 0
-1619 246 0
-1620 -42 0
-1620 98 0
-1621 -43 0
-1621 97 0
-116 1619 1620 1621 0
-1622 -5 0
-1622 261 0
-1623 -48 0
-1623 104 0
-1624 -49 0
-1624 103 0
-116 1622 1623 1624 0
-1625 -6 0
-1625 271 0
-1626 -53 0
-1626 109 0
-1627 -54 0
-1627 108 0
-116 1625 1626 1627 0
-1628 -7 0
-1628 277 0
-1629 -57 0
-1629 113 0
-1630 -58 0
-1630 112 0
-116 1628 1629 1630 0
-1631 -10 0
-1631 283 0
-1632 -62 0
-1632 119 0
-1633 -64 0
-1633 117 0
-116 1631 1632 1633 0
-1634 -11 0
-1634 284 0
-1635 -63 0
-1635 120 0
-1636 -65 0
-1636 118 0
-116 1634 1635 1636 0
-1637 -1 0
-1637 162 0
-1638 -18 0
-1638 75 0
-1639 -20 0
-1639 73 0
-117 1637 1638 1639 0
-1640 -2 0
-1640 198 0
-1641 -27 0
-1641 84 0
-1642 -29 0
-1642 82 0
-117 1640 1641 1642 0
-1643 -3 0
-1643 226 0
-1644 -35 0
-1644 92 0
-1645 -37 0
-1645 90 0
-117 1643 1644 1645 0
-1646 -4 0
-1646 247 0
-1647 -42 0
-1647 99 0
-1648 -44 0
-1648 97 0
-117 1646 1647 1648 0
-1649 -5 0
-1649 262 0
-1650 -48 0
-1650 105 0
-1651 -50 0
-1651 103 0
-117 1649 1650 1651 0
-1652 -6 0
-1652 272 0
-1653 -53 0
-1653 110 0
-1654 -55 0
-1654 108 0
-117 1652 1653 1654 0
-1655 -7 0
-1655 278 0
-1656 -57 0
-1656 114 0
-1657 -59 0
-1657 112 0
-117 1655 1656 1657 0
-1658 -9 0
-1658 283 0
-1659 -61 0
-1659 119 0
-1660 -64 0
-1660 116 0
-117 1658 1659 1660 0
-1661 -11 0
-1661 285 0
-1662 -63 0
-1662 121 0
-1663 -66 0
-1663 118 0
-117 1661 1662 1663 0
-1664 -1 0
-1664 163 0
-1665 -18 0
-1665 76 0
-1666 -21 0
-1666 73 0
-118 1664 1665 1666 0
-1667 -2 0
-1667 199 0
-1668 -27 0
-1668 85 0
-1669 -30 0
-1669 82 0
-118 1667 1668 1669 0
-1670 -3 0
-1670 227 0
-1671 -35 0
-1671 93 0
-1672 -38 0
-1672 90 0
-118 1670 1671 1672 0
-1673 -4 0
-1673 248 0
-1674 -42 0
-1674 100 0
-1675 -45 0
-1675 97 0
-118 1673 1674 1675 0
-1676 -5 0
-1676 263 0
-1677 -48 0
-1677 106 0
-1678 -51 0
-1678 103 0
-118 1676 1677 1678 0
-1679 -6 0
-1679 273 0
-1680 -53 0
-1680 111 0
-1681 -56 0
-1681 108 0
-118 1679 1680 1681 0
-1682 -7 0
-1682 279 0
-1683 -57 0
-1683 115 0
-1684 -60 0
-1684 112 0
-118 1682 1683 1684 0
-1685 -9 0
-1685 284 0
-1686 -61 0
-1686 120 0
-1687 -65 0
-1687 116 0
-118 1685 1686 1687 0
-1688 -10 0
-1688 285 0
-1689 -62 0
-1689 121 0
-1690 -66 0
-1690 117 0
-118 1688 1689 1690 0
-1691 -1 0
-1691 164 0
-1692 -19 0
-1692 75 0
-1693 -20 0
-1693 74 0
-119 1691 1692 1693 0
-1694 -2 0
-1694 200 0
-1695 -28 0
-1695 84 0
-1696 -29 0
-1696 83 0
-119 1694 1695 1696 0
-1697 -3 0
-1697 228 0
-1698 -36 0
-1698 92 0
-1699 -37 0
-1699 91 0
-119 1697 1698 1699 0
-1700 -4 0
-1700 249 0
-1701 -43 0
-1701 99 0
-1702 -44 0
-1702 98 0
-119 1700 1701 1702 0
-1703 -5 0
-1703 264 0
-1704 -49 0
-1704 105 0
-1705 -50 0
-1705 104 0
-119 1703 1704 1705 0
-1706 -6 0
-1706 274 0
-1707 -54 0
-1707 110 0
-1708 -55 0
-1708 109 0
-119 1706 1707 1708 0
-1709 -7 0
-1709 280 0
-1710 -58 0
-1710 114 0
-1711 -59 0
-1711 113 0
-119 1709 1710 1711 0
-1712 -8 0
-1712 283 0
-1713 -61 0
-1713 117 0
-1714 -62 0
-1714 116 0
-119 1712 1713 1714 0
-1715 -11 0
-1715 286 0
-1716 -65 0
-1716 121 0
-1717 -66 0
-1717 120 0
-119 1715 1716 1717 0
-1718 -1 0
-1718 165 0
-1719 -19 0
-1719 76 0
-1720 -21 0
-1720 74 0
-120 1718 1719 1720 0
-1721 -2 0
-1721 201 0
-1722 -28 0
-1722 85 0
-1723 -30 0
-1723 83 0
-120 1721 1722 1723 0
-1724 -3 0
-1724 229 0
-1725 -36 0
-1725 93 0
-1726 -38 0
-1726 91 0
-120 1724 1725 1726 0
-1727 -4 0
-1727 250 0
-1728 -43 0
-1728 100 0
-1729 -45 0
-1729 98 0
-120 1727 1728 1729 0
-1730 -5 0
-1730 265 0
-1731 -49 0
-1731 106 0
-1732 -51 0
-1732 104 0
-120 1730 1731 1732 0
-1733 -6 0
-1733 275 0
-1734 -54 0
-1734 111 0
-1735 -56 0
-1735 109 0
-120 1733 1734 1735 0
-1736 -7 0
-1736 281 0
-1737 -58 0
-1737 115 0
-1738 -60 0
-1738 113 0
-120 1736 1737 1738 0
-1739 -8 0
-1739 284 0
-1740 -61 0
-1740 118 0
-1741 -63 0
-1741 116 0
-120 1739 1740 1741 0
-1742 -10 0
-1742 286 0
-1743 -64 0
-1743 121 0
-1744 -66 0
-1744 119 0
-120 1742 1743 1744 0
-1745 -1 0
-1745 166 0
-1746 -20 0
-1746 76 0
-1747 -21 0
-1747 75 0
-121 1745 1746 1747 0
-1748 -2 0
-1748 202 0
-1749 -29 0
-1749 85 0
-1750 -30 0
-1750 84 0
-121 1748 1749 1750 0
-1751 -3 0
-1751 230 0
-1752 -37 0
-1752 93 0
-1753 -38 0
-1753 92 0
-121 1751 1752 1753 0
-1754 -4 0
-1754 251 0
-1755 -44 0
-1755 100 0
-1756 -45 0
-1756 99 0
-121 1754 1755 1756 0
-1757 -5 0
-1757 266 0
-1758 -50 0
-1758 106 0
-1759 -51 0
-1759 105 0
-121 1757 1758 1759 0
-1760 -6 0
-1760 276 0
-1761 -55 0
-1761 111 0
-1762 -56 0
-1762 110 0
-121 1760 1761 1762 0
-1763 -7 0
-1763 282 0
-1764 -59 0
-1764 115 0
-1765 -60 0
-1765 114 0
-121 1763 1764 1765 0
-1766 -8 0
-1766 285 0
-1767 -62 0
-1767 118 0
-1768 -63 0
-1768 117 0
-121 1766 1767 1768 0
-1769 -9 0
-1769 286 0
-1770 -64 0
-1770 120 0
-1771 -65 0
-1771 119 0
-121 1769 1770 1771 0
-1772 -1 0
-1772 77 0
-1773 -2 0
-1773 68 0
-1774 -3 0
-1774 67 0
-122 1772 1773 1774 0
-1775 -14 0
-1775 167 0
-1776 -23 0
-1776 131 0
-1777 -31 0
-1777 123 0
-122 1775 1776 1777 0
-1778 -15 0
-1778 168 0
-1779 -24 0
-1779 132 0
-1780 -32 0
-1780 124 0
-122 1778 1779 1780 0
-1781 -16 0
-1781 169 0
-1782 -25 0
-1782 133 0
-1783 -33 0
-1783 125 0
-122 1781 1782 1783 0
-1784 -17 0
-1784 170 0
-1785 -26 0
-1785 134 0
-1786 -34 0
-1786 126 0
-122 1784 1785 1786 0
-1787 -18 0
-1787 171 0
-1788 -27 0
-1788 135 0
-1789 -35 0
-1789 127 0
-122 1787 1788 1789 0
-1790 -19 0
-1790 172 0
-1791 -28 0
-1791 136 0
-1792 -36 0
-1792 128 0
-122 1790 1791 1792 0
-1793 -20 0
-1793 173 0
-1794 -29 0
-1794 137 0
-1795 -37 0
-1795 129 0
-122 1793 1794 1795 0
-1796 -21 0
-1796 174 0
-1797 -30 0
-1797 138 0
-1798 -38 0
-1798 130 0
-122 1796 1797 1798 0
-1799 -1 0
-1799 78 0
-1800 -2 0
-1800 69 0
-1801 -4 0
-1801 67 0
-123 1799 1800 1801 0
-1802 -13 0
-1802 167 0
-1803 -22 0
-1803 131 0
-1804 -31 0
-1804 122 0
-123 1802 1803 1804 0
-1805 -15 0
-1805 175 0
-1806 -24 0
-1806 139 0
-1807 -39 0
-1807 124 0
-123 1805 1806 1807 0
-1808 -16 0
-1808 176 0
-1809 -25 0
-1809 140 0
-1810 -40 0
-1810 125 0
-123 1808 1809 1810 0
-1811 -17 0
-1811 177 0
-1812 -26 0
-1812 141 0
-1813 -41 0
-1813 126 0
-123 1811 1812 1813 0
-1814 -18 0
-1814 178 0
-1815 -27 0
-1815 142 0
-1816 -42 0
-1816 127 0
-123 1814 1815 1816 0
-1817 -19 0
-1817 179 0
-1818 -28 0
-1818 143 0
-1819 -43 0
-1819 128 0
-123 1817 1818 1819 0
-1820 -20 0
-1820 180 0
-1821 -29 0
-1821 144 0
-1822 -44 0
-1822 129 0
-123 1820 1821 1822 0
-1823 -21 0
-1823 181 0
-1824 -30 0
-1824 145 0
-1825 -45 0
-1825 130 0
-123 1823 1824 1825 0
-1826 -1 0
-1826 79 0
-1827 -2 0
-1827 70 0
-1828 -5 0
-1828 67 0
-124 1826 1827 1828 0
-1829 -13 0
-1829 168 0
-1830 -22 0
-1830 132 0
-1831 -32 0
-1831 122 0
-124 1829 1830 1831 0
-1832 -14 0
-1832 175 0
-1833 -23 0
-1833 139 0
-1834 -39 0
-1834 123 0
-124 1832 1833 1834 0
-1835 -16 0
-1835 182 0
-1836 -25 0
-1836 146 0
-1837 -46 0
-1837 125 0
-124 1835 1836 1837 0
-1838 -17 0
-1838 183 0
-1839 -26 0
-1839 147 0
-1840 -47 0
-1840 126 0
-124 1838 1839 1840 0
-1841 -18 0
-1841 184 0
-1842 -27 0
-1842 148 0
-1843 -48 0
-1843 127 0
-124 1841 1842 1843 0
-1844 -19 0
-1844 185 0
-1845 -28 0
-1845 149 0
-1846 -49 0
-1846 128 0
-124 1844 1845 1846 0
-1847 -20 0
-1847 186 0
-1848 -29 0
-1848 150 0
-1849 -50 0
-1849 129 0
-124 1847 1848 1849 0
-1850 -21 0
-1850 187 0
-1851 -30 0
-1851 151 0
-1852 -51 0
-1852 130 0
-124 1850 1851 1852 0
-1853 -1 0
-1853 80 0
-1854 -2 0
-1854 71 0
-1855 -6 0
-1855 67 0
-125 1853 1854 1855 0
-1856 -13 0
-1856 169 0
-1857 -22 0
-1857 133 0
-1858 -33 0
-1858 122 0
-125 1856 1857 1858 0
-1859 -14 0
-1859 176 0
-1860 -23 0
-1860 140 0
-1861 -40 0
-1861 123 0
-125 1859 1860 1861 0
-1862 -15 0
-1862 182 0
-1863 -24 0
-1863 146 0
-1864 -46 0
-1864 124 0
-125 1862 1863 1864 0
-1865 -17 0
-1865 188 0
-1866 -26 0
-1866 152 0
-1867 -52 0
-1867 126 0
-125 1865 1866 1867 0
-1868 -18 0
-1868 189 0
-1869 -27 0
-1869 153 0
-1870 -53 0
-1870 127 0
-125 1868 1869 1870 0
-1871 -19 0
-1871 190 0
-1872 -28 0
-1872 154 0
-1873 -54 0
-1873 128 0
-125 1871 1872 1873 0
-1874 -20 0
-1874 191 0
-1875 -29 0
-1875 155 0
-1876 -55 0
-1876 129 0
-125 1874 1875 1876 0
-1877 -21 0
-1877 192 0
-1878 -30 0
-1878 156 0
-1879 -56 0
-1879 130 0
-125 1877 1878 1879 0
-1880 -1 0
-1880 81 0
-1881 -2 0
-1881 72 0
-1882 -7 0
-1882 67 0
-126 1880 1881 1882 0
-1883 -13 0
-1883 170 0
-1884 -22 0
-1884 134 0
-1885 -34 0
-1885 122 0
-126 1883 1884 1885 0
-1886 -14 0
-1886 177 0
-1887 -23 0
-1887 141 0
-1888 -41 0
-1888 123 0
-126 1886 1887 1888 0
-1889 -15 0
-1889 183 0
-1890 -24 0
-1890 147 0
-1891 -47 0
-1891 124 0
-126 1889 1890 1891 0
-1892 -16 0
-1892 188 0
-1893 -25 0
-1893 152 0
-1894 -52 0
-1894 125 0
-126 1892 1893 1894 0
-1895 -18 0
-1895 193 0
-1896 -27 0
-1896 157 0
-1897 -57 0
-1897 127 0
-126 1895 1896 1897 0
-1898 -19 0
-1898 194 0
-1899 -28 0
-1899 158 0
-1900 -58 0
-1900 128 0
-126 1898 1899 1900 0
-1901 -20 0
-1901 195 0
-1902 -29 0
-1902 159 0
-1903 -59 0
-1903 129 0
-126 1901 1902 1903 0
-1904 -21 0
-1904 196 0
-1905 -30 0
-1905 160 0
-1906 -60 0
-1906 130 0
-126 1904 1905 1906 0
-1907 -1 0
-1907 82 0
-1908 -2 0
-1908 73 0
-1909 -8 0
-1909 67 0
-127 1907 1908 1909 0
-1910 -13 0
-1910 171 0
-1911 -22 0
-1911 135 0
-1912 -35 0
-1912 122 0
-127 1910 1911 1912 0
-1913 -14 0
-1913 178 0
-1914 -23 0
-1914 142 0
-1915 -42 0
-1915 123 0
-127 1913 1914 1915 0
-1916 -15 0
-1916 184 0
-1917 -24 0
-1917 148 0
-1918 -48 0
-1918 124 0
-127 1916 1917 1918 0
-1919 -16 0
-1919 189 0
-1920 -25 0
-1920 153 0
-1921 -53 0
-1921 125 0
-127 1919 1920 1921 0
-1922 -17 0
-1922 193 0
-1923 -26 0
-1923 157 0
-1924 -57 0
-1924 126 0
-127 1922 1923 1924 0
-1925 -19 0
-1925 197 0
-1926 -28 0
-1926 161 0
-1927 -61 0
-1927 128 0
-127 1925 1926 1927 0
-1928 -20 0
-1928 198 0
-1929 -29 0
-1929 162 0
-1930 -62 0
-1930 129 0
-127 1928 1929 1930 0
-1931 -21 0
-1931 199 0
-1932 -30 0
-1932 163 0
-1933 -63 0
-1933 130 0
-127 1931 1932 1933 0
-1934 -1 0
-1934 83 0
-1935 -2 0
-1935 74 0
-1936 -9 0
-1936 67 0
-128 1934 1935 1936 0
-1937 -13 0
-1937 172 0
-1938 -22 0
-1938 136 0
-1939 -36 0
-1939 122 0
-128 1937 1938 1939 0
-1940 -14 0
-1940 179 0
-1941 -23 0
-1941 143 0
-1942 -43 0
-1942 123 0
-128 1940 1941 1942 0
-1943 -15 0
-1943 185 0
-1944 -24 0
-1944 149 0
-1945 -49 0
-1945 124 0
-128 1943 1944 1945 0
-1946 -16 0
-1946 190 0
-1947 -25 0
-1947 154 0
-1948 -54 0
-1948 125 0
-128 1946 1947 1948 0
-1949 -17 0
-1949 194 0
-1950 -26 0
-1950 158 0
-1951 -58 0
-1951 126 0
-128 1949 1950 1951 0
-1952 -18 0
-1952 197 0
-1953 -27 0
-1953 161 0
-1954 -61 0
-1954 127 0
-128 1952 1953 1954 0
-1955 -20 0
-1955 200 0
-1956 -29 0
-1956 164 0
-1957 -64 0
-1957 129 0
-128 1955 1956 1957 0
-1958 -21 0
-1958 201 0
-1959 -30 0
-1959 165 0
-1960 -65 0
-1960 130 0
-128 1958 1959 1960 0
-1961 -1 0
-1961 84 0
-1962 -2 0
-1962 75 0
-1963 -10 0
-1963 67 0
-129 1961 1962 1963 0
-1964 -13 0
-1964 173 0
-1965 -22 0
-1965 137 0
-1966 -37 0
-1966 122 0
-129 1964 1965 1966 0
-1967 -14 0
-1967 180 0
-1968 -23 0
-1968 144 0
-1969 -44 0
-1969 123 0
-129 1967 1968 1969 0
-1970 -15 0
-1970 186 0
-1971 -24 0
-1971 150 0
-1972 -50 0
-1972 124 0
-129 1970 1971 1972 0
-1973 -16 0
-1973 191 0
-1974 -25 0
-1974 155 0
-1975 -55 0
-1975 125 0
-129 1973 1974 1975 0
-1976 -17 0
-1976 195 0
-1977 -26 0
-1977 159 0
-1978 -59 0
-1978 126 0
-129 1976 1977 1978 0
-1979 -18 0
-1979 198 0
-1980 -27 0
-1980 162 0
-1981 -62 0
-1981 127 0
-129 1979 1980 1981 0
-1982 -19 0
-1982 200 0
-1983 -28 0
-1983 164 0
-1984 -64 0
-1984 128 0
-129 1982 1983 1984 0
-1985 -21 0
-1985 202 0
-1986 -30 0
-1986 166 0
-1987 -66 0
-1987 130 0
-129 1985 1986 1987 0
-1988 -1 0
-1988 85 0
-1989 -2 0
-1989 76 0
-1990 -11 0
-1990 67 0
-130 1988 1989 1990 0
-1991 -13 0
-1991 174 0
-1992 -22 0
-1992 138 0
-1993 -38 0
-1993 122 0
-130 1991 1992 1993 0
-1994 -14 0
-1994 181 0
-1995 -23 0
-1995 145 0
-1996 -45 0
-1996 123 0
-130 1994 1995 1996 0
-1997 -15 0
-1997 187 0
-1998 -24 0
-1998 151 0
-1999 -51 0
-1999 124 0
-130 1997 1998 1999 0
-2000 -16 0
-2000 192 0
-2001 -25 0
-2001 156 0
-2002 -56 0
-2002 125 0
-130 2000 2001 2002 0
-2003 -17 0
-2003 196 0
-2004 -26 0
-2004 160 0
-2005 -60 0
-2005 126 0
-130 2003 2004 2005 0
-2006 -18 0
-2006 199 0
-2007 -27 0
-2007 163 0
-2008 -63 0
-2008 127 0
-130 2006 2007 2008 0
-2009 -19 0
-2009 201 0
-2010 -28 0
-2010 165 0
-2011 -65 0
-2011 128 0
-130 2009 2010 2011 0
-2012 -20 0
-2012 202 0
-2013 -29 0
-2013 166 0
-2014 -66 0
-2014 129 0
-130 2012 2013 2014 0
-2015 -1 0
-2015 86 0
-2016 -3 0
-2016 69 0
-2017 -4 0
-2017 68 0
-131 2015 2016 2017 0
-2018 -12 0
-2018 167 0
-2019 -22 0
-2019 123 0
-2020 -23 0
-2020 122 0
-131 2018 2019 2020 0
-2021 -15 0
-2021 203 0
-2022 -32 0
-2022 139 0
-2023 -39 0
-2023 132 0
-131 2021 2022 2023 0
-2024 -16 0
-2024 204 0
-2025 -33 0
-2025 140 0
-2026 -40 0
-2026 133 0
-131 2024 2025 2026 0
-2027 -17 0
-2027 205 0
-2028 -34 0
-2028 141 0
-2029 -41 0
-2029 134 0
-131 2027 2028 2029 0
-2030 -18 0
-2030 206 0
-2031 -35 0
-2031 142 0
-2032 -42 0
-2032 135 0
-131 2030 2031 2032 0
-2033 -19 0
-2033 207 0
-2034 -36 0
-2034 143 0
-2035 -43 0
-2035 136 0
-131 2033 2034 2035 0
-2036 -20 0
-2036 208 0
-2037 -37 0
-2037 144 0
-2038 -44 0
-2038 137 0
-131 2036 2037 2038 0
-2039 -21 0
-2039 209 0
-2040 -38 0
-2040 145 0
-2041 -45 0
-2041 138 0
-131 2039 2040 2041 0
-2042 -1 0
-2042 87 0
-2043 -3 0
-2043 70 0
-2044 -5 0
-2044 68 0
-132 2042 2043 2044 0
-2045 -12 0
-2045 168 0
-2046 -22 0
-2046 124 0
-2047 -24 0
-2047 122 0
-132 2045 2046 2047 0
-2048 -14 0
-2048 203 0
-2049 -31 0
-2049 139 0
-2050 -39 0
-2050 131 0
-132 2048 2049 2050 0
-2051 -16 0
-2051 210 0
-2052 -33 0
-2052 146 0
-2053 -46 0
-2053 133 0
-132 2051 2052 2053 0
-2054 -17 0
-2054 211 0
-2055 -34 0
-2055 147 0
-2056 -47 0
-2056 134 0
-132 2054 2055 2056 0
-2057 -18 0
-2057 212 0
-2058 -35 0
-2058 148 0
-2059 -48 0
-2059 135 0
-132 2057 2058 2059 0
-2060 -19 0
-2060 213 0
-2061 -36 0
-2061 149 0
-2062 -49 0
-2062 136 0
-132 2060 2061 2062 0
-2063 -20 0
-2063 214 0
-2064 -37 0
-2064 150 0
-2065 -50 0
-2065 137 0
-132 2063 2064 2065 0
-2066 -21 0
-2066 215 0
-2067 -38 0
-2067 151 0
-2068 -51 0
-2068 138 0
-132 2066 2067 2068 0
-2069 -1 0
-2069 88 0
-2070 -3 0
-2070 71 0
-2071 -6 0
-2071 68 0
-133 2069 2070 2071 0
-2072 -12 0
-2072 169 0
-2073 -22 0
-2073 125 0
-2074 -25 0
-2074 122 0
-133 2072 2073 2074 0
-2075 -14 0
-2075 204 0
-2076 -31 0
-2076 140 0
-2077 -40 0
-2077 131 0
-133 2075 2076 2077 0
-2078 -15 0
-2078 210 0
-2079 -32 0
-2079 146 0
-2080 -46 0
-2080 132 0
-133 2078 2079 2080 0
-2081 -17 0
-2081 216 0
-2082 -34 0
-2082 152 0
-2083 -52 0
-2083 134 0
-133 2081 2082 2083 0
-2084 -18 0
-2084 217 0
-2085 -35 0
-2085 153 0
-2086 -53 0
-2086 135 0
-133 2084 2085 2086 0
-2087 -19 0
-2087 218 0
-2088 -36 0
-2088 154 0
-2089 -54 0
-2089 136 0
-133 2087 2088 2089 0
-2090 -20 0
-2090 219 0
-2091 -37 0
-2091 155 0
-2092 -55 0
-2092 137 0
-133 2090 2091 2092 0
-2093 -21 0
-2093 220 0
-2094 -38 0
-2094 156 0
-2095 -56 0
-2095 138 0
-133 2093 2094 2095 0
-2096 -1 0
-2096 89 0
-2097 -3 0
-2097 72 0
-2098 -7 0
-2098 68 0
-134 2096 2097 2098 0
-2099 -12 0
-2099 170 0
-2100 -22 0
-2100 126 0
-2101 -26 0
-2101 122 0
-134 2099 2100 2101 0
-2102 -14 0
-2102 205 0
-2103 -31 0
-2103 141 0
-2104 -41 0
-2104 131 0
-134 2102 2103 2104 0
-2105 -15 0
-2105 211 0
-2106 -32 0
-2106 147 0
-2107 -47 0
-2107 132 0
-134 2105 2106 2107 0
-2108 -16 0
-2108 216 0
-2109 -33 0
-2109 152 0
-2110 -52 0
-2110 133 0
-134 2108 2109 2110 0
-2111 -18 0
-2111 221 0
-2112 -35 0
-2112 157 0
-2113 -57 0
-2113 135 0
-134 2111 2112 2113 0
-2114 -19 0
-2114 222 0
-2115 -36 0
-2115 158 0
-2116 -58 0
-2116 136 0
-134 2114 2115 2116 0
-2117 -20 0
-2117 223 0
-2118 -37 0
-2118 159 0
-2119 -59 0
-2119 137 0
-134 2117 2118 2119 0
-2120 -21 0
-2120 224 0
-2121 -38 0
-2121 160 0
-2122 -60 0
-2122 138 0
-134 2120 2121 2122 0
-2123 -1 0
-2123 90 0
-2124 -3 0
-2124 73 0
-2125 -8 0
-2125 68 0
-135 2123 2124 2125 0
-2126 -12 0
-2126 171 0
-2127 -22 0
-2127 127 0
-2128 -27 0
-2128 122 0
-135 2126 2127 2128 0
-2129 -14 0
-2129 206 0
-2130 -31 0
-2130 142 0
-2131 -42 0
-2131 131 0
-135 2129 2130 2131 0
-2132 -15 0
-2132 212 0
-2133 -32 0
-2133 148 0
-2134 -48 0
-2134 132 0
-135 2132 2133 2134 0
-2135 -16 0
-2135 217 0
-2136 -33 0
-2136 153 0
-2137 -53 0
-2137 133 0
-135 2135 2136 2137 0
-2138 -17 0
-2138 221 0
-2139 -34 0
-2139 157 0
-2140 -57 0
-2140 134 0
-135 2138 2139 2140 0
-2141 -19 0
-2141 225 0
-2142 -36 0
-2142 161 0
-2143 -61 0
-2143 136 0
-135 2141 2142 2143 0
-2144 -20 0
-2144 226 0
-2145 -37 0
-2145 162 0
-2146 -62 0
-2146 137 0
-135 2144 2145 2146 0
-2147 -21 0
-2147 227 0
-2148 -38 0
-2148 163 0
-2149 -63 0
-2149 138 0
-135 2147 2148 2149 0
-2150 -1 0
-2150 91 0
-2151 -3 0
-2151 74 0
-2152 -9 0
-2152 68 0
-136 2150 2151 2152 0
-2153 -12 0
-2153 172 0
-2154 -22 0
-2154 128 0
-2155 -28 0
-2155 122 0
-136 2153 2154 2155 0
-2156 -14 0
-2156 207 0
-2157 -31 0
-2157 143 0
-2158 -43 0
-2158 131 0
-136 2156 2157 2158 0
-2159 -15 0
-2159 213 0
-2160 -32 0
-2160 149 0
-2161 -49 0
-2161 132 0
-136 2159 2160 2161 0
-2162 -16 0
-2162 218 0
-2163 -33 0
-2163 154 0
-2164 -54 0
-2164 133 0
-136 2162 2163 2164 0
-2165 -17 0
-2165 222 0
-2166 -34 0
-2166 158 0
-2167 -58 0
-2167 134 0
-136 2165 2166 2167 0
-2168 -18 0
-2168 225 0
-2169 -35 0
-2169 161 0
-2170 -61 0
-2170 135 0
-136 2168 2169 2170 0
-2171 -20 0
-2171 228 0
-2172 -37 0
-2172 164 0
-2173 -64 0
-2173 137 0
-136 2171 2172 2173 0
-2174 -21 0
-2174 229 0
-2175 -38 0
-2175 165 0
-2176 -65 0
-2176 138 0
-136 2174 2175 2176 0
-2177 -1 0
-2177 92 0
-2178 -3 0
-2178 75 0
-2179 -10 0
-2179 68 0
-137 2177 2178 2179 0
-2180 -12 0
-2180 173 0
-2181 -22 0
-2181 129 0
-2182 -29 0
-2182 122 0
-137 2180 2181 2182 0
-2183 -14 0
-2183 208 0
-2184 -31 0
-2184 144 0
-2185 -44 0
-2185 131 0
-137 2183 2184 2185 0
-2186 -15 0
-2186 214 0
-2187 -32 0
-2187 150 0
-2188 -50 0
-2188 132 0
-137 2186 2187 2188 0
-2189 -16 0
-2189 219 0
-2190 -33 0
-2190 155 0
-2191 -55 0
-2191 133 0
-137 2189 2190 2191 0
-2192 -17 0
-2192 223 0
-2193 -34 0
-2193 159 0
-2194 -59 0
-2194 134 0
-137 2192 2193 2194 0
-2195 -18 0
-2195 226 0
-2196 -35 0
-2196 162 0
-2197 -62 0
-2197 135 0
-137 2195 2196 2197 0
-2198 -19 0
-2198 228 0
-2199 -36 0
-2199 164 0
-2200 -64 0
-2200 136 0
-137 2198 2199 2200 0
-2201 -21 0
-2201 230 0
-2202 -38 0
-2202 166 0
-2203 -66 0
-2203 138 0
-137 2201 2202 2203 0
-2204 -1 0
-2204 93 0
-2205 -3 0
-2205 76 0
-2206 -11 0
-2206 68 0
-138 2204 2205 2206 0
-2207 -12 0
-2207 174 0
-2208 -22 0
-2208 130 0
-2209 -30 0
-2209 122 0
-138 2207 2208 2209 0
-2210 -14 0
-2210 209 0
-2211 -31 0
-2211 145 0
-2212 -45 0
-2212 131 0
-138 2210 2211 2212 0
-2213 -15 0
-2213 215 0
-2214 -32 0
-2214 151 0
-2215 -51 0
-2215 132 0
-138 2213 2214 2215 0
-2216 -16 0
-2216 220 0
-2217 -33 0
-2217 156 0
-2218 -56 0
-2218 133 0
-138 2216 2217 2218 0
-2219 -17 0
-2219 224 0
-2220 -34 0
-2220 160 0
-2221 -60 0
-2221 134 0
-138 2219 2220 2221 0
-2222 -18 0
-2222 227 0
-2223 -35 0
-2223 163 0
-2224 -63 0
-2224 135 0
-138 2222 2223 2224 0
-2225 -19 0
-2225 229 0
-2226 -36 0
-2226 165 0
-2227 -65 0
-2227 136 0
-138 2225 2226 2227 0
-2228 -20 0
-2228 230 0
-2229 -37 0
-2229 166 0
-2230 -66 0
-2230 137 0
-138 2228 2229 2230 0
-2231 -1 0
-2231 94 0
-2232 -4 0
-2232 70 0
-2233 -5 0
-2233 69 0
-139 2231 2232 2233 0
-2234 -12 0
-2234 175 0
-2235 -23 0
-2235 124 0
-2236 -24 0
-2236 123 0
-139 2234 2235 2236 0
-2237 -13 0
-2237 203 0
-2238 -31 0
-2238 132 0
-2239 -32 0
-2239 131 0
-139 2237 2238 2239 0
-2240 -16 0
-2240 231 0
-2241 -40 0
-2241 146 0
-2242 -46 0
-2242 140 0
-139 2240 2241 2242 0
-2243 -17 0
-2243 232 0
-2244 -41 0
-2244 147 0
-2245 -47 0
-2245 141 0
-139 2243 2244 2245 0
-2246 -18 0
-2246 233 0
-2247 -42 0
-2247 148 0
-2248 -48 0
-2248 142 0
-139 2246 2247 2248 0
-2249 -19 0
-2249 234 0
-2250 -43 0
-2250 149 0
-2251 -49 0
-2251 143 0
-139 2249 2250 2251 0
-2252 -20 0
-2252 235 0
-2253 -44 0
-2253 150 0
-2254 -50 0
-2254 144 0
-139 2252 2253 2254 0
-2255 -21 0
-2255 236 0
-2256 -45 0
-2256 151 0
-2257 -51 0
-2257 145 0
-139 2255 2256 2257 0
-2258 -1 0
-2258 95 0
-2259 -4 0
-2259 71 0
-2260 -6 0
-2260 69 0
-140 2258 2259 2260 0
-2261 -12 0
-2261 176 0
-2262 -23 0
-2262 125 0
-2263 -25 0
-2263 123 0
-140 2261 2262 2263 0
-2264 -13 0
-2264 204 0
-2265 -31 0
-2265 133 0
-2266 -33 0
-2266 131 0
-140 2264 2265 2266 0
-2267 -15 0
-2267 231 0
-2268 -39 0
-2268 146 0
-2269 -46 0
-2269 139 0
-140 2267 2268 2269 0
-2270 -17 0
-2270 237 0
-2271 -41 0
-2271 152 0
-2272 -52 0
-2272 141 0
-140 2270 2271 2272 0
-2273 -18 0
-2273 238 0
-2274 -42 0
-2274 153 0
-2275 -53 0
-2275 142 0
-140 2273 2274 2275 0
-2276 -19 0
-2276 239 0
-2277 -43 0
-2277 154 0
-2278 -54 0
-2278 143 0
-140 2276 2277 2278 0
-2279 -20 0
-2279 240 0
-2280 -44 0
-2280 155 0
-2281 -55 0
-2281 144 0
-140 2279 2280 2281 0
-2282 -21 0
-2282 241 0
-2283 -45 0
-2283 156 0
-2284 -56 0
-2284 145 0
-140 2282 2283 2284 0
-2285 -1 0
-2285 96 0
-2286 -4 0
-2286 72 0
-2287 -7 0
-2287 69 0
-141 2285 2286 2287 0
-2288 -12 0
-2288 177 0
-2289 -23 0
-2289 126 0
-2290 -26 0
-2290 123 0
-141 2288 2289 2290 0
-2291 -13 0
-2291 205 0
-2292 -31 0
-2292 134 0
-2293 -34 0
-2293 131 0
-141 2291 2292 2293 0
-2294 -15 0
-2294 232 0
-2295 -39 0
-2295 147 0
-2296 -47 0
-2296 139 0
-141 2294 2295 2296 0
-2297 -16 0
-2297 237 0
-2298 -40 0
-2298 152 0
-2299 -52 0
-2299 140 0
-141 2297 2298 2299 0
-2300 -18 0
-2300 242 0
-2301 -42 0
-2301 157 0
-2302 -57 0
-2302 142 0
-141 2300 2301 2302 0
-2303 -19 0
-2303 243 0
-2304 -43 0
-2304 158 0
-2305 -58 0
-2305 143 0
-141 2303 2304 2305 0
-2306 -20 0
-2306 244 0
-2307 -44 0
-2307 159 0
-2308 -59 0
-2308 144 0
-141 2306 2307 2308 0
-2309 -21 0
-2309 245 0
-2310 -45 0
-2310 160 0
-2311 -60 0
-2311 145 0
-141 2309 2310 2311 0
-2312 -1 0
-2312 97 0
-2313 -4 0
-2313 73 0
-2314 -8 0
-2314 69 0
-142 2312 2313 2314 0
-2315 -12 0
-2315 178 0
-2316 -23 0
-2316 127 0
-2317 -27 0
-2317 123 0
-142 2315 2316 2317 0
-2318 -13 0
-2318 206 0
-2319 -31 0
-2319 135 0
-2320 -35 0
-2320 131 0
-142 2318 2319 2320 0
-2321 -15 0
-2321 233 0
-2322 -39 0
-2322 148 0
-2323 -48 0
-2323 139 0
-142 2321 2322 2323 0
-2324 -16 0
-2324 238 0
-2325 -40 0
-2325 153 0
-2326 -53 0
-2326 140 0
-142 2324 2325 2326 0
-2327 -17 0
-2327 242 0
-2328 -41 0
-2328 157 0
-2329 -57 0
-2329 141 0
-142 2327 2328 2329 0
-2330 -19 0
-2330 246 0
-2331 -43 0
-2331 161 0
-2332 -61 0
-2332 143 0
-142 2330 2331 2332 0
-2333 -20 0
-2333 247 0
-2334 -44 0
-2334 162 0
-2335 -62 0
-2335 144 0
-142 2333 2334 2335 0
-2336 -21 0
-2336 248 0
-2337 -45 0
-2337 163 0
-2338 -63 0
-2338 145 0
-142 2336 2337 2338 0
-2339 -1 0
-2339 98 0
-2340 -4 0
-2340 74 0
-2341 -9 0
-2341 69 0
-143 2339 2340 2341 0
-2342 -12 0
-2342 179 0
-2343 -23 0
-2343 128 0
-2344 -28 0
-2344 123 0
-143 2342 2343 2344 0
-2345 -13 0
-2345 207 0
-2346 -31 0
-2346 136 0
-2347 -36 0
-2347 131 0
-143 2345 2346 2347 0
-2348 -15 0
-2348 234 0
-2349 -39 0
-2349 149 0
-2350 -49 0
-2350 139 0
-143 2348 2349 2350 0
-2351 -16 0
-2351 239 0
-2352 -40 0
-2352 154 0
-2353 -54 0
-2353 140 0
-143 2351 2352 2353 0
-2354 -17 0
-2354 243 0
-2355 -41 0
-2355 158 0
-2356 -58 0
-2356 141 0
-143 2354 2355 2356 0
-2357 -18 0
-2357 246 0
-2358 -42 0
-2358 161 0
-2359 -61 0
-2359 142 0
-143 2357 2358 2359 0
-2360 -20 0
-2360 249 0
-2361 -44 0
-2361 164 0
-2362 -64 0
-2362 144 0
-143 2360 2361 2362 0
-2363 -21 0
-2363 250 0
-2364 -45 0
-2364 165 0
-2365 -65 0
-2365 145 0
-143 2363 2364 2365 0
-2366 -1 0
-2366 99 0
-2367 -4 0
-2367 75 0
-2368 -10 0
-2368 69 0
-144 2366 2367 2368 0
-2369 -12 0
-2369 180 0
-2370 -23 0
-2370 129 0
-2371 -29 0
-2371 123 0
-144 2369 2370 2371 0
-2372 -13 0
-2372 208 0
-2373 -31 0
-2373 137 0
-2374 -37 0
-2374 131 0
-144 2372 2373 2374 0
-2375 -15 0
-2375 235 0
-2376 -39 0
-2376 150 0
-2377 -50 0
-2377 139 0
-144 2375 2376 2377 0
-2378 -16 0
-2378 240 0
-2379 -40 0
-2379 155 0
-2380 -55 0
-2380 140 0
-144 2378 2379 2380 0
-2381 -17 0
-2381 244 0
-2382 -41 0
-2382 159 0
-2383 -59 0
-2383 141 0
-144 2381 2382 2383 0
-2384 -18 0
-2384 247 0
-2385 -42 0
-2385 162 0
-2386 -62 0
-2386 142 0
-144 2384 2385 2386 0
-2387 -19 0
-2387 249 0
-2388 -43 0
-2388 164 0
-2389 -64 0
-2389 143 0
-144 2387 2388 2389 0
-2390 -21 0
-2390 251 0
-2391 -45 0
-2391 166 0
-2392 -66 0
-2392 145 0
-144 2390 2391 2392 0
-2393 -1 0
-2393 100 0
-2394 -4 0
-2394 76 0
-2395 -11 0
-2395 69 0
-145 2393 2394 2395 0
-2396 -12 0
-2396 181 0
-2397 -23 0
-2397 130 0
-2398 -30 0
-2398 123 0
-145 2396 2397 2398 0
-2399 -13 0
-2399 209 0
-2400 -31 0
-2400 138 0
-2401 -38 0
-2401 131 0
-145 2399 2400 2401 0
-2402 -15 0
-2402 236 0
-2403 -39 0
-2403 151 0
-2404 -51 0
-2404 139 0
-145 2402 2403 2404 0
-2405 -16 0
-2405 241 0
-2406 -40 0
-2406 156 0
-2407 -56 0
-2407 140 0
-145 2405 2406 2407 0
-2408 -17 0
-2408 245 0
-2409 -41 0
-2409 160 0
-2410 -60 0
-2410 141 0
-145 2408 2409 2410 0
-2411 -18 0
-2411 248 0
-2412 -42 0
-2412 163 0
-2413 -63 0
-2413 142 0
-145 2411 2412 2413 0
-2414 -19 0
-2414 250 0
-2415 -43 0
-2415 165 0
-2416 -65 0
-2416 143 0
-145 2414 2415 2416 0
-2417 -20 0
-2417 251 0
-2418 -44 0
-2418 166 0
-2419 -66 0
-2419 144 0
-145 2417 2418 2419 0
-2420 -1 0
-2420 101 0
-2421 -5 0
-2421 71 0
-2422 -6 0
-2422 70 0
-146 2420 2421 2422 0
-2423 -12 0
-2423 182 0
-2424 -24 0
-2424 125 0
-2425 -25 0
-2425 124 0
-146 2423 2424 2425 0
-2426 -13 0
-2426 210 0
-2427 -32 0
-2427 133 0
-2428 -33 0
-2428 132 0
-146 2426 2427 2428 0
-2429 -14 0
-2429 231 0
-2430 -39 0
-2430 140 0
-2431 -40 0
-2431 139 0
-146 2429 2430 2431 0
-2432 -17 0
-2432 252 0
-2433 -47 0
-2433 152 0
-2434 -52 0
-2434 147 0
-146 2432 2433 2434 0
-2435 -18 0
-2435 253 0
-2436 -48 0
-2436 153 0
-2437 -53 0
-2437 148 0
-146 2435 2436 2437 0
-2438 -19 0
-2438 254 0
-2439 -49 0
-2439 154 0
-2440 -54 0
-2440 149 0
-146 2438 2439 2440 0
-2441 -20 0
-2441 255 0
-2442 -50 0
-2442 155 0
-2443 -55 0
-2443 150 0
-146 2441 2442 2443 0
-2444 -21 0
-2444 256 0
-2445 -51 0
-2445 156 0
-2446 -56 0
-2446 151 0
-146 2444 2445 2446 0
-2447 -1 0
-2447 102 0
-2448 -5 0
-2448 72 0
-2449 -7 0
-2449 70 0
-147 2447 2448 2449 0
-2450 -12 0
-2450 183 0
-2451 -24 0
-2451 126 0
-2452 -26 0
-2452 124 0
-147 2450 2451 2452 0
-2453 -13 0
-2453 211 0
-2454 -32 0
-2454 134 0
-2455 -34 0
-2455 132 0
-147 2453 2454 2455 0
-2456 -14 0
-2456 232 0
-2457 -39 0
-2457 141 0
-2458 -41 0
-2458 139 0
-147 2456 2457 2458 0
-2459 -16 0
-2459 252 0
-2460 -46 0
-2460 152 0
-2461 -52 0
-2461 146 0
-147 2459 2460 2461 0
-2462 -18 0
-2462 257 0
-2463 -48 0
-2463 157 0
-2464 -57 0
-2464 148 0
-147 2462 2463 2464 0
-2465 -19 0
-2465 258 0
-2466 -49 0
-2466 158 0
-2467 -58 0
-2467 149 0
-147 2465 2466 2467 0
-2468 -20 0
-2468 259 0
-2469 -50 0
-2469 159 0
-2470 -59 0
-2470 150 0
-147 2468 2469 2470 0
-2471 -21 0
-2471 260 0
-2472 -51 0
-2472 160 0
-2473 -60 0
-2473 151 0
-147 2471 2472 2473 0
-2474 -1 0
-2474 103 0
-2475 -5 0
-2475 73 0
-2476 -8 0
-2476 70 0
-148 2474 2475 2476 0
-2477 -12 0
-2477 184 0
-2478 -24 0
-2478 127 0
-2479 -27 0
-2479 124 0
-148 2477 2478 2479 0
-2480 -13 0
-2480 212 0
-2481 -32 0
-2481 135 0
-2482 -35 0
-2482 132 0
-148 2480 2481 2482 0
-2483 -14 0
-2483 233 0
-2484 -39 0
-2484 142 0
-2485 -42 0
-2485 139 0
-148 2483 2484 2485 0
-2486 -16 0
-2486 253 0
-2487 -46 0
-2487 153 0
-2488 -53 0
-2488 146 0
-148 2486 2487 2488 0
-2489 -17 0
-2489 257 0
-2490 -47 0
-2490 157 0
-2491 -57 0
-2491 147 0
-148 2489 2490 2491 0
-2492 -19 0
-2492 261 0
-2493 -49 0
-2493 161 0
-2494 -61 0
-2494 149 0
-148 2492 2493 2494 0
-2495 -20 0
-2495 262 0
-2496 -50 0
-2496 162 0
-2497 -62 0
-2497 150 0
-148 2495 2496 2497 0
-2498 -21 0
-2498 263 0
-2499 -51 0
-2499 163 0
-2500 -63 0
-2500 151 0
-148 2498 2499 2500 0
-2501 -1 0
-2501 104 0
-2502 -5 0
-2502 74 0
-2503 -9 0
-2503 70 0
-149 2501 2502 2503 0
-2504 -12 0
-2504 185 0
-2505 -24 0
-2505 128 0
-2506 -28 0
-2506 124 0
-149 2504 2505 2506 0
-2507 -13 0
-2507 213 0
-2508 -32 0
-2508 136 0
-2509 -36 0
-2509 132 0
-149 2507 2508 2509 0
-2510 -14 0
-2510 234 0
-2511 -39 0
-2511 143 0
-2512 -43 0
-2512 139 0
-149 2510 2511 2512 0
-2513 -16 0
-2513 254 0
-2514 -46 0
-2514 154 0
-2515 -54 0
-2515 146 0
-149 2513 2514 2515 0
-2516 -17 0
-2516 258 0
-2517 -47 0
-2517 158 0
-2518 -58 0
-2518 147 0
-149 2516 2517 2518 0
-2519 -18 0
-2519 261 0
-2520 -48 0
-2520 161 0
-2521 -61 0
-2521 148 0
-149 2519 2520 2521 0
-2522 -20 0
-2522 264 0
-2523 -50 0
-2523 164 0
-2524 -64 0
-2524 150 0
-149 2522 2523 2524 0
-2525 -21 0
-2525 265 0
-2526 -51 0
-2526 165 0
-2527 -65 0
-2527 151 0
-149 2525 2526 2527 0
-2528 -1 0
-2528 105 0
-2529 -5 0
-2529 75 0
-2530 -10 0
-2530 70 0
-150 2528 2529 2530 0
-2531 -12 0
-2531 186 0
-2532 -24 0
-2532 129 0
-2533 -29 0
-2533 124 0
-150 2531 2532 2533 0
-2534 -13 0
-2534 214 0
-2535 -32 0
-2535 137 0
-2536 -37 0
-2536 132 0
-150 2534 2535 2536 0
-2537 -14 0
-2537 235 0
-2538 -39 0
-2538 144 0
-2539 -44 0
-2539 139 0
-150 2537 2538 2539 0
-2540 -16 0
-2540 255 0
-2541 -46 0
-2541 155 0
-2542 -55 0
-2542 146 0
-150 2540 2541 2542 0
-2543 -17 0
-2543 259 0
-2544 -47 0
-2544 159 0
-2545 -59 0
-2545 147 0
-150 2543 2544 2545 0
-2546 -18 0
-2546 262 0
-2547 -48 0
-2547 162 0
-2548 -62 0
-2548 148 0
-150 2546 2547 2548 0
-2549 -19 0
-2549 264 0
-2550 -49 0
-2550 164 0
-2551 -64 0
-2551 149 0
-150 2549 2550 2551 0
-2552 -21 0
-2552 266 0
-2553 -51 0
-2553 166 0
-2554 -66 0
-2554 151 0
-150 2552 2553 2554 0
-2555 -1 0
-2555 106 0
-2556 -5 0
-2556 76 0
-2557 -11 0
-2557 70 0
-151 2555 2556 2557 0
-2558 -12 0
-2558 187 0
-2559 -24 0
-2559 130 0
-2560 -30 0
-2560 124 0
-151 2558 2559 2560 0
-2561 -13 0
-2561 215 0
-2562 -32 0
-2562 138 0
-2563 -38 0
-2563 132 0
-151 2561 2562 2563 0
-2564 -14 0
-2564 236 0
-2565 -39 0
-2565 145 0
-2566 -45 0
-2566 139 0
-151 2564 2565 2566 0
-2567 -16 0
-2567 256 0
-2568 -46 0
-2568 156 0
-2569 -56 0
-2569 146 0
-151 2567 2568 2569 0
-2570 -17 0
-2570 260 0
-2571 -47 0
-2571 160 0
-2572 -60 0
-2572 147 0
-151 2570 2571 2572 0
-2573 -18 0
-2573 263 0
-2574 -48 0
-2574 163 0
-2575 -63 0
-2575 148 0
-151 2573 2574 2575 0
-2576 -19 0
-2576 265 0
-2577 -49 0
-2577 165 0
-2578 -65 0
-2578 149 0
-151 2576 2577 2578 0
-2579 -20 0
-2579 266 0
-2580 -50 0
-2580 166 0
-2581 -66 0
-2581 150 0
-151 2579 2580 2581 0
-2582 -1 0
-2582 107 0
-2583 -6 0
-2583 72 0
-2584 -7 0
-2584 71 0
-152 2582 2583 2584 0
-2585 -12 0
-2585 188 0
-2586 -25 0
-2586 126 0
-2587 -26 0
-2587 125 0
-152 2585 2586 2587 0
-2588 -13 0
-2588 216 0
-2589 -33 0
-2589 134 0
-2590 -34 0
-2590 133 0
-152 2588 2589 2590 0
-2591 -14 0
-2591 237 0
-2592 -40 0
-2592 141 0
-2593 -41 0
-2593 140 0
-152 2591 2592 2593 0
-2594 -15 0
-2594 252 0
-2595 -46 0
-2595 147 0
-2596 -47 0
-2596 146 0
-152 2594 2595 2596 0
-2597 -18 0
-2597 267 0
-2598 -53 0
-2598 157 0
-2599 -57 0
-2599 153 0
-152 2597 2598 2599 0
-2600 -19 0
-2600 268 0
-2601 -54 0
-2601 158 0
-2602 -58 0
-2602 154 0
-152 2600 2601 2602 0
-2603 -20 0
-2603 269 0
-2604 -55 0
-2604 159 0
-2605 -59 0
-2605 155 0
-152 2603 2604 2605 0
-2606 -21 0
-2606 270 0
-2607 -56 0
-2607 160 0
-2608 -60 0
-2608 156 0
-152 2606 2607 2608 0
-2609 -1 0
-2609 108 0
-2610 -6 0
-2610 73 0
-2611 -8 0
-2611 71 0
-153 2609 2610 2611 0
-2612 -12 0
-2612 189 0
-2613 -25 0
-2613 127 0
-2614 -27 0
-2614 125 0
-153 2612 2613 2614 0
-2615 -13 0
-2615 217 0
-2616 -33 0
-2616 135 0
-2617 -35 0
-2617 133 0
-153 2615 2616 2617 0
-2618 -14 0
-2618 238 0
-2619 -40 0
-2619 142 0
-2620 -42 0
-2620 140 0
-153 2618 2619 2620 0
-2621 -15 0
-2621 253 0
-2622 -46 0
-2622 148 0
-2623 -48 0
-2623 146 0
-153 2621 2622 2623 0
-2624 -17 0
-2624 267 0
-2625 -52 0
-2625 157 0
-2626 -57 0
-2626 152 0
-153 2624 2625 2626 0
-2627 -19 0
-2627 271 0
-2628 -54 0
-2628 161 0
-2629 -61 0
-2629 154 0
-153 2627 2628 2629 0
-2630 -20 0
-2630 272 0
-2631 -55 0
-2631 162 0
-2632 -62 0
-2632 155 0
-153 2630 2631 2632 0
-2633 -21 0
-2633 273 0
-2634 -56 0
-2634 163 0
-2635 -63 0
-2635 156 0
-153 2633 2634 2635 0
-2636 -1 0
-2636 109 0
-2637 -6 0
-2637 74 0
-2638 -9 0
-2638 71 0
-154 2636 2637 2638 0
-2639 -12 0
-2639 190 0
-2640 -25 0
-2640 128 0
-2641 -28 0
-2641 125 0
-154 2639 2640 2641 0
-2642 -13 0
-2642 218 0
-2643 -33 0
-2643 136 0
-2644 -36 0
-2644 133 0
-154 2642 2643 2644 0
-2645 -14 0
-2645 239 0
-2646 -40 0
-2646 143 0
-2647 -43 0
-2647 140 0
-154 2645 2646 2647 0
-2648 -15 0
-2648 254 0
-2649 -46 0
-2649 149 0
-2650 -49 0
-2650 146 0
-154 2648 2649 2650 0
-2651 -17 0
-2651 268 0
-2652 -52 0
-2652 158 0
-2653 -58 0
-2653 152 0
-154 2651 2652 2653 0
-2654 -18 0
-2654 271 0
-2655 -53 0
-2655 161 0
-2656 -61 0
-2656 153 0
-154 2654 2655 2656 0
-2657 -20 0
-2657 274 0
-2658 -55 0
-2658 164 0
-2659 -64 0
-2659 155 0
-154 2657 2658 2659 0
-2660 -21 0
-2660 275 0
-2661 -56 0
-2661 165 0
-2662 -65 0
-2662 156 0
-154 2660 2661 2662 0
-2663 -1 0
-2663 110 0
-2664 -6 0
-2664 75 0
-2665 -10 0
-2665 71 0
-155 2663 2664 2665 0
-2666 -12 0
-2666 191 0
-2667 -25 0
-2667 129 0
-2668 -29 0
-2668 125 0
-155 2666 2667 2668 0
-2669 -13 0
-2669 219 0
-2670 -33 0
-2670 137 0
-2671 -37 0
-2671 133 0
-155 2669 2670 2671 0
-2672 -14 0
-2672 240 0
-2673 -40 0
-2673 144 0
-2674 -44 0
-2674 140 0
-155 2672 2673 2674 0
-2675 -15 0
-2675 255 0
-2676 -46 0
-2676 150 0
-2677 -50 0
-2677 146 0
-155 2675 2676 2677 0
-2678 -17 0
-2678 269 0
-2679 -52 0
-2679 159 0
-2680 -59 0
-2680 152 0
-155 2678 2679 2680 0
-2681 -18 0
-2681 272 0
-2682 -53 0
-2682 162 0
-2683 -62 0
-2683 153 0
-155 2681 2682 2683 0
-2684 -19 0
-2684 274 0
-2685 -54 0
-2685 164 0
-2686 -64 0
-2686 154 0
-155 2684 2685 2686 0
-2687 -21 0
-2687 276 0
-2688 -56 0
-2688 166 0
-2689 -66 0
-2689 156 0
-155 2687 2688 2689 0
-2690 -1 0
-2690 111 0
-2691 -6 0
-2691 76 0
-2692 -11 0
-2692 71 0
-156 2690 2691 2692 0
-2693 -12 0
-2693 192 0
-2694 -25 0
-2694 130 0
-2695 -30 0
-2695 125 0
-156 2693 2694 2695 0
-2696 -13 0
-2696 220 0
-2697 -33 0
-2697 138 0
-2698 -38 0
-2698 133 0
-156 2696 2697 2698 0
-2699 -14 0
-2699 241 0
-2700 -40 0
-2700 145 0
-2701 -45 0
-2701 140 0
-156 2699 2700 2701 0
-2702 -15 0
-2702 256 0
-2703 -46 0
-2703 151 0
-2704 -51 0
-2704 146 0
-156 2702 2703 2704 0
-2705 -17 0
-2705 270 0
-2706 -52 0
-2706 160 0
-2707 -60 0
-2707 152 0
-156 2705 2706 2707 0
-2708 -18 0
-2708 273 0
-2709 -53 0
-2709 163 0
-2710 -63 0
-2710 153 0
-156 2708 2709 2710 0
-2711 -19 0
-2711 275 0
-2712 -54 0
-2712 165 0
-2713 -65 0
-2713 154 0
-156 2711 2712 2713 0
-2714 -20 0
-2714 276 0
-2715 -55 0
-2715 166 0
-2716 -66 0
-2716 155 0
-156 2714 2715 2716 0
-2717 -1 0
-2717 112 0
-2718 -7 0
-2718 73 0
-2719 -8 0
-2719 72 0
-157 2717 2718 2719 0
-2720 -12 0
-2720 193 0
-2721 -26 0
-2721 127 0
-2722 -27 0
-2722 126 0
-157 2720 2721 2722 0
-2723 -13 0
-2723 221 0
-2724 -34 0
-2724 135 0
-2725 -35 0
-2725 134 0
-157 2723 2724 2725 0
-2726 -14 0
-2726 242 0
-2727 -41 0
-2727 142 0
-2728 -42 0
-2728 141 0
-157 2726 2727 2728 0
-2729 -15 0
-2729 257 0
-2730 -47 0
-2730 148 0
-2731 -48 0
-2731 147 0
-157 2729 2730 2731 0
-2732 -16 0
-2732 267 0
-2733 -52 0
-2733 153 0
-2734 -53 0
-2734 152 0
-157 2732 2733 2734 0
-2735 -19 0
-2735 277 0
-2736 -58 0
-2736 161 0
-2737 -61 0
-2737 158 0
-157 2735 2736 2737 0
-2738 -20 0
-2738 278 0
-2739 -59 0
-2739 162 0
-2740 -62 0
-2740 159 0
-157 2738 2739 2740 0
-2741 -21 0
-2741 279 0
-2742 -60 0
-2742 163 0
-2743 -63 0
-2743 160 0
-157 2741 2742 2743 0
-2744 -1 0
-2744 113 0
-2745 -7 0
-2745 74 0
-2746 -9 0
-2746 72 0
-158 2744 2745 2746 0
-2747 -12 0
-2747 194 0
-2748 -26 0
-2748 128 0
-2749 -28 0
-2749 126 0
-158 2747 2748 2749 0
-2750 -13 0
-2750 222 0
-2751 -34 0
-2751 136 0
-2752 -36 0
-2752 134 0
-158 2750 2751 2752 0
-2753 -14 0
-2753 243 0
-2754 -41 0
-2754 143 0
-2755 -43 0
-2755 141 0
-158 2753 2754 2755 0
-2756 -15 0
-2756 258 0
-2757 -47 0
-2757 149 0
-2758 -49 0
-2758 147 0
-158 2756 2757 2758 0
-2759 -16 0
-2759 268 0
-2760 -52 0
-2760 154 0
-2761 -54 0
-2761 152 0
-158 2759 2760 2761 0
-2762 -18 0
-2762 277 0
-2763 -57 0
-2763 161 0
-2764 -61 0
-2764 157 0
-158 2762 2763 2764 0
-2765 -20 0
-2765 280 0
-2766 -59 0
-2766 164 0
-2767 -64 0
-2767 159 0
-158 2765 2766 2767 0
-2768 -21 0
-2768 281 0
-2769 -60 0
-2769 165 0
-2770 -65 0
-2770 160 0
-158 2768 2769 2770 0
-2771 -1 0
-2771 114 0
-2772 -7 0
-2772 75 0
-2773 -10 0
-2773 72 0
-159 2771 2772 2773 0
-2774 -12 0
-2774 195 0
-2775 -26 0
-2775 129 0
-2776 -29 0
-2776 126 0
-159 2774 2775 2776 0
-2777 -13 0
-2777 223 0
-2778 -34 0
-2778 137 0
-2779 -37 0
-2779 134 0
-159 2777 2778 2779 0
-2780 -14 0
-2780 244 0
-2781 -41 0
-2781 144 0
-2782 -44 0
-2782 141 0
-159 2780 2781 2782 0
-2783 -15 0
-2783 259 0
-2784 -47 0
-2784 150 0
-2785 -50 0
-2785 147 0
-159 2783 2784 2785 0
-2786 -16 0
-2786 269 0
-2787 -52 0
-2787 155 0
-2788 -55 0
-2788 152 0
-159 2786 2787 2788 0
-2789 -18 0
-2789 278 0
-2790 -57 0
-2790 162 0
-2791 -62 0
-2791 157 0
-159 2789 2790 2791 0
-2792 -19 0
-2792 280 0
-2793 -58 0
-2793 164 0
-2794 -64 0
-2794 158 0
-159 2792 2793 2794 0
-2795 -21 0
-2795 282 0
-2796 -60 0
-2796 166 0
-2797 -66 0
-2797 160 0
-159 2795 2796 2797 0
-2798 -1 0
-2798 115 0
-2799 -7 0
-2799 76 0
-2800 -11 0
-2800 72 0
-160 2798 2799 2800 0
-2801 -12 0
-2801 196 0
-2802 -26 0
-2802 130 0
-2803 -30 0
-2803 126 0
-160 2801 2802 2803 0
-2804 -13 0
-2804 224 0
-2805 -34 0
-2805 138 0
-2806 -38 0
-2806 134 0
-160 2804 2805 2806 0
-2807 -14 0
-2807 245 0
-2808 -41 0
-2808 145 0
-2809 -45 0
-2809 141 0
-160 2807 2808 2809 0
-2810 -15 0
-2810 260 0
-2811 -47 0
-2811 151 0
-2812 -51 0
-2812 147 0
-160 2810 2811 2812 0
-2813 -16 0
-2813 270 0
-2814 -52 0
-2814 156 0
-2815 -56 0
-2815 152 0
-160 2813 2814 2815 0
-2816 -18 0
-2816 279 0
-2817 -57 0
-2817 163 0
-2818 -63 0
-2818 157 0
-160 2816 2817 2818 0
-2819 -19 0
-2819 281 0
-2820 -58 0
-2820 165 0
-2821 -65 0
-2821 158 0
-160 2819 2820 2821 0
-2822 -20 0
-2822 282 0
-2823 -59 0
-2823 166 0
-2824 -66 0
-2824 159 0
-160 2822 2823 2824 0
-2825 -1 0
-2825 116 0
-2826 -8 0
-2826 74 0
-2827 -9 0
-2827 73 0
-161 2825 2826 2827 0
-2828 -12 0
-2828 197 0
-2829 -27 0
-2829 128 0
-2830 -28 0
-2830 127 0
-161 2828 2829 2830 0
-2831 -13 0
-2831 225 0
-2832 -35 0
-2832 136 0
-2833 -36 0
-2833 135 0
-161 2831 2832 2833 0
-2834 -14 0
-2834 246 0
-2835 -42 0
-2835 143 0
-2836 -43 0
-2836 142 0
-161 2834 2835 2836 0
-2837 -15 0
-2837 261 0
-2838 -48 0
-2838 149 0
-2839 -49 0
-2839 148 0
-161 2837 2838 2839 0
-2840 -16 0
-2840 271 0
-2841 -53 0
-2841 154 0
-2842 -54 0
-2842 153 0
-161 2840 2841 2842 0
-2843 -17 0
-2843 277 0
-2844 -57 0
-2844 158 0
-2845 -58 0
-2845 157 0
-161 2843 2844 2845 0
-2846 -20 0
-2846 283 0
-2847 -62 0
-2847 164 0
-2848 -64 0
-2848 162 0
-161 2846 2847 2848 0
-2849 -21 0
-2849 284 0
-2850 -63 0
-2850 165 0
-2851 -65 0
-2851 163 0
-161 2849 2850 2851 0
-2852 -1 0
-2852 117 0
-2853 -8 0
-2853 75 0
-2854 -10 0
-2854 73 0
-162 2852 2853 2854 0
-2855 -12 0
-2855 198 0
-2856 -27 0
-2856 129 0
-2857 -29 0
-2857 127 0
-162 2855 2856 2857 0
-2858 -13 0
-2858 226 0
-2859 -35 0
-2859 137 0
-2860 -37 0
-2860 135 0
-162 2858 2859 2860 0
-2861 -14 0
-2861 247 0
-2862 -42 0
-2862 144 0
-2863 -44 0
-2863 142 0
-162 2861 2862 2863 0
-2864 -15 0
-2864 262 0
-2865 -48 0
-2865 150 0
-2866 -50 0
-2866 148 0
-162 2864 2865 2866 0
-2867 -16 0
-2867 272 0
-2868 -53 0
-2868 155 0
-2869 -55 0
-2869 153 0
-162 2867 2868 2869 0
-2870 -17 0
-2870 278 0
-2871 -57 0
-2871 159 0
-2872 -59 0
-2872 157 0
-162 2870 2871 2872 0
-2873 -19 0
-2873 283 0
-2874 -61 0
-2874 164 0
-2875 -64 0
-2875 161 0
-162 2873 2874 2875 0
-2876 -21 0
-2876 285 0
-2877 -63 0
-2877 166 0
-2878 -66 0
-2878 163 0
-162 2876 2877 2878 0
-2879 -1 0
-2879 118 0
-2880 -8 0
-2880 76 0
-2881 -11 0
-2881 73 0
-163 2879 2880 2881 0
-2882 -12 0
-2882 199 0
-2883 -27 0
-2883 130 0
-2884 -30 0
-2884 127 0
-163 2882 2883 2884 0
-2885 -13 0
-2885 227 0
-2886 -35 0
-2886 138 0
-2887 -38 0
-2887 135 0
-163 2885 2886 2887 0
-2888 -14 0
-2888 248 0
-2889 -42 0
-2889 145 0
-2890 -45 0
-2890 142 0
-163 2888 2889 2890 0
-2891 -15 0
-2891 263 0
-2892 -48 0
-2892 151 0
-2893 -51 0
-2893 148 0
-163 2891 2892 2893 0
-2894 -16 0
-2894 273 0
-2895 -53 0
-2895 156 0
-2896 -56 0
-2896 153 0
-163 2894 2895 2896 0
-2897 -17 0
-2897 279 0
-2898 -57 0
-2898 160 0
-2899 -60 0
-2899 157 0
-163 2897 2898 2899 0
-2900 -19 0
-2900 284 0
-2901 -61 0
-2901 165 0
-2902 -65 0
-2902 161 0
-163 2900 2901 2902 0
-2903 -20 0
-2903 285 0
-2904 -62 0
-2904 166 0
-2905 -66 0
-2905 162 0
-163 2903 2904 2905 0
-2906 -1 0
-2906 119 0
-2907 -9 0
-2907 75 0
-2908 -10 0
-2908 74 0
-164 2906 2907 2908 0
-2909 -12 0
-2909 200 0
-2910 -28 0
-2910 129 0
-2911 -29 0
-2911 128 0
-164 2909 2910 2911 0
-2912 -13 0
-2912 228 0
-2913 -36 0
-2913 137 0
-2914 -37 0
-2914 136 0
-164 2912 2913 2914 0
-2915 -14 0
-2915 249 0
-2916 -43 0
-2916 144 0
-2917 -44 0
-2917 143 0
-164 2915 2916 2917 0
-2918 -15 0
-2918 264 0
-2919 -49 0
-2919 150 0
-2920 -50 0
-2920 149 0
-164 2918 2919 2920 0
-2921 -16 0
-2921 274 0
-2922 -54 0
-2922 155 0
-2923 -55 0
-2923 154 0
-164 2921 2922 2923 0
-2924 -17 0
-2924 280 0
-2925 -58 0
-2925 159 0
-2926 -59 0
-2926 158 0
-164 2924 2925 2926 0
-2927 -18 0
-2927 283 0
-2928 -61 0
-2928 162 0
-2929 -62 0
-2929 161 0
-164 2927 2928 2929 0
-2930 -21 0
-2930 286 0
-2931 -65 0
-2931 166 0
-2932 -66 0
-2932 165 0
-164 2930 2931 2932 0
-2933 -1 0
-2933 120 0
-2934 -9 0
-2934 76 0
-2935 -11 0
-2935 74 0
-165 2933 2934 2935 0
-2936 -12 0
-2936 201 0
-2937 -28 0
-2937 130 0
-2938 -30 0
-2938 128 0
-165 2936 2937 2938 0
-2939 -13 0
-2939 229 0
-2940 -36 0
-2940 138 0
-2941 -38 0
-2941 136 0
-165 2939 2940 2941 0
-2942 -14 0
-2942 250 0
-2943 -43 0
-2943 145 0
-2944 -45 0
-2944 143 0
-165 2942 2943 2944 0
-2945 -15 0
-2945 265 0
-2946 -49 0
-2946 151 0
-2947 -51 0
-2947 149 0
-165 2945 2946 2947 0
-2948 -16 0
-2948 275 0
-2949 -54 0
-2949 156 0
-2950 -56 0
-2950 154 0
-165 2948 2949 2950 0
-2951 -17 0
-2951 281 0
-2952 -58 0
-2952 160 0
-2953 -60 0
-2953 158 0
-165 2951 2952 2953 0
-2954 -18 0
-2954 284 0
-2955 -61 0
-2955 163 0
-2956 -63 0
-2956 161 0
-165 2954 2955 2956 0
-2957 -20 0
-2957 286 0
-2958 -64 0
-2958 166 0
-2959 -66 0
-2959 164 0
-165 2957 2958 2959 0
-2960 -1 0
-2960 121 0
-2961 -10 0
-2961 76 0
-2962 -11 0
-2962 75 0
-166 2960 2961 2962 0
-2963 -12 0
-2963 202 0
-2964 -29 0
-2964 130 0
-2965 -30 0
-2965 129 0
-166 2963 2964 2965 0
-2966 -13 0
-2966 230 0
-2967 -37 0
-2967 138 0
-2968 -38 0
-2968 137 0
-166 2966 2967 2968 0
-2969 -14 0
-2969 251 0
-2970 -44 0
-2970 145 0
-2971 -45 0
-2971 144 0
-166 2969 2970 2971 0
-2972 -15 0
-2972 266 0
-2973 -50 0
-2973 151 0
-2974 -51 0
-2974 150 0
-166 2972 2973 2974 0
-2975 -16 0
-2975 276 0
-2976 -55 0
-2976 156 0
-2977 -56 0
-2977 155 0
-166 2975 2976 2977 0
-2978 -17 0
-2978 282 0
-2979 -59 0
-2979 160 0
-2980 -60 0
-2980 159 0
-166 2978 2979 2980 0
-2981 -18 0
-2981 285 0
-2982 -62 0
-2982 163 0
-2983 -63 0
-2983 162 0
-166 2981 2982 2983 0
-2984 -19 0
-2984 286 0
-2985 -64 0
-2985 165 0
-2986 -65 0
-2986 164 0
-166 2984 2985 2986 0
-2987 -2 0
-2987 86 0
-2988 -3 0
-2988 78 0
-2989 -4 0
-2989 77 0
-167 2987 2988 2989 0
-2990 -12 0
-2990 131 0
-2991 -13 0
-2991 123 0
-2992 -14 0
-2992 122 0
-167 2990 2991 2992 0
-2993 -24 0
-2993 203 0
-2994 -32 0
-2994 175 0
-2995 -39 0
-2995 168 0
-167 2993 2994 2995 0
-2996 -25 0
-2996 204 0
-2997 -33 0
-2997 176 0
-2998 -40 0
-2998 169 0
-167 2996 2997 2998 0
-2999 -26 0
-2999 205 0
-3000 -34 0
-3000 177 0
-3001 -41 0
-3001 170 0
-167 2999 3000 3001 0
-3002 -27 0
-3002 206 0
-3003 -35 0
-3003 178 0
-3004 -42 0
-3004 171 0
-167 3002 3003 3004 0
-3005 -28 0
-3005 207 0
-3006 -36 0
-3006 179 0
-3007 -43 0
-3007 172 0
-167 3005 3006 3007 0
-3008 -29 0
-3008 208 0
-3009 -37 0
-3009 180 0
-3010 -44 0
-3010 173 0
-167 3008 3009 3010 0
-3011 -30 0
-3011 209 0
-3012 -38 0
-3012 181 0
-3013 -45 0
-3013 174 0
-167 3011 3012 3013 0
-3014 -2 0
-3014 87 0
-3015 -3 0
-3015 79 0
-3016 -5 0
-3016 77 0
-168 3014 3015 3016 0
-3017 -12 0
-3017 132 0
-3018 -13 0
-3018 124 0
-3019 -15 0
-3019 122 0
-168 3017 3018 3019 0
-3020 -23 0
-3020 203 0
-3021 -31 0
-3021 175 0
-3022 -39 0
-3022 167 0
-168 3020 3021 3022 0
-3023 -25 0
-3023 210 0
-3024 -33 0
-3024 182 0
-3025 -46 0
-3025 169 0
-168 3023 3024 3025 0
-3026 -26 0
-3026 211 0
-3027 -34 0
-3027 183 0
-3028 -47 0
-3028 170 0
-168 3026 3027 3028 0
-3029 -27 0
-3029 212 0
-3030 -35 0
-3030 184 0
-3031 -48 0
-3031 171 0
-168 3029 3030 3031 0
-3032 -28 0
-3032 213 0
-3033 -36 0
-3033 185 0
-3034 -49 0
-3034 172 0
-168 3032 3033 3034 0
-3035 -29 0
-3035 214 0
-3036 -37 0
-3036 186 0
-3037 -50 0
-3037 173 0
-168 3035 3036 3037 0
-3038 -30 0
-3038 215 0
-3039 -38 0
-3039 187 0
-3040 -51 0
-3040 174 0
-168 3038 3039 3040 0
-3041 -2 0
-3041 88 0
-3042 -3 0
-3042 80 0
-3043 -6 0
-3043 77 0
-169 3041 3042 3043 0
-3044 -12 0
-3044 133 0
-3045 -13 0
-3045 125 0
-3046 -16 0
-3046 122 0
-169 3044 3045 3046 0
-3047 -23 0
-3047 204 0
-3048 -31 0
-3048 176 0
-3049 -40 0
-3049 167 0
-169 3047 3048 3049 0
-3050 -24 0
-3050 210 0
-3051 -32 0
-3051 182 0
-3052 -46 0
-3052 168 0
-169 3050 3051 3052 0
-3053 -26 0
-3053 216 0
-3054 -34 0
-3054 188 0
-3055 -52 0
-3055 170 0
-169 3053 3054 3055 0
-3056 -27 0
-3056 217 0
-3057 -35 0
-3057 189 0
-3058 -53 0
-3058 171 0
-169 3056 3057 3058 0
-3059 -28 0
-3059 218 0
-3060 -36 0
-3060 190 0
-3061 -54 0
-3061 172 0
-169 3059 3060 3061 0
-3062 -29 0
-3062 219 0
-3063 -37 0
-3063 191 0
-3064 -55 0
-3064 173 0
-169 3062 3063 3064 0
-3065 -30 0
-3065 220 0
-3066 -38 0
-3066 192 0
-3067 -56 0
-3067 174 0
-169 3065 3066 3067 0
-3068 -2 0
-3068 89 0
-3069 -3 0
-3069 81 0
-3070 -7 0
-3070 77 0
-170 3068 3069 3070 0
-3071 -12 0
-3071 134 0
-3072 -13 0
-3072 126 0
-3073 -17 0
-3073 122 0
-170 3071 3072 3073 0
-3074 -23 0
-3074 205 0
-3075 -31 0
-3075 177 0
-3076 -41 0
-3076 167 0
-170 3074 3075 3076 0
-3077 -24 0
-3077 211 0
-3078 -32 0
-3078 183 0
-3079 -47 0
-3079 168 0
-170 3077 3078 3079 0
-3080 -25 0
-3080 216 0
-3081 -33 0
-3081 188 0
-3082 -52 0
-3082 169 0
-170 3080 3081 3082 0
-3083 -27 0
-3083 221 0
-3084 -35 0
-3084 193 0
-3085 -57 0
-3085 171 0
-170 3083 3084 3085 0
-3086 -28 0
-3086 222 0
-3087 -36 0
-3087 194 0
-3088 -58 0
-3088 172 0
-170 3086 3087 3088 0
-3089 -29 0
-3089 223 0
-3090 -37 0
-3090 195 0
-3091 -59 0
-3091 173 0
-170 3089 3090 3091 0
-3092 -30 0
-3092 224 0
-3093 -38 0
-3093 196 0
-3094 -60 0
-3094 174 0
-170 3092 3093 3094 0
-3095 -2 0
-3095 90 0
-3096 -3 0
-3096 82 0
-3097 -8 0
-3097 77 0
-171 3095 3096 3097 0
-3098 -12 0
-3098 135 0
-3099 -13 0
-3099 127 0
-3100 -18 0
-3100 122 0
-171 3098 3099 3100 0
-3101 -23 0
-3101 206 0
-3102 -31 0
-3102 178 0
-3103 -42 0
-3103 167 0
-171 3101 3102 3103 0
-3104 -24 0
-3104 212 0
-3105 -32 0
-3105 184 0
-3106 -48 0
-3106 168 0
-171 3104 3105 3106 0
-3107 -25 0
-3107 217 0
-3108 -33 0
-3108 189 0
-3109 -53 0
-3109 169 0
-171 3107 3108 3109 0
-3110 -26 0
-3110 221 0
-3111 -34 0
-3111 193 0
-3112 -57 0
-3112 170 0
-171 3110 3111 3112 0
-3113 -28 0
-3113 225 0
-3114 -36 0
-3114 197 0
-3115 -61 0
-3115 172 0
-171 3113 3114 3115 0
-3116 -29 0
-3116 226 0
-3117 -37 0
-3117 198 0
-3118 -62 0
-3118 173 0
-171 3116 3117 3118 0
-3119 -30 0
-3119 227 0
-3120 -38 0
-3120 199 0
-3121 -63 0
-3121 174 0
-171 3119 3120 3121 0
-3122 -2 0
-3122 91 0
-3123 -3 0
-3123 83 0
-3124 -9 0
-3124 77 0
-172 3122 3123 3124 0
-3125 -12 0
-3125 136 0
-3126 -13 0
-3126 128 0
-3127 -19 0
-3127 122 0
-172 3125 3126 3127 0
-3128 -23 0
-3128 207 0
-3129 -31 0
-3129 179 0
-3130 -43 0
-3130 167 0
-172 3128 3129 3130 0
-3131 -24 0
-3131 213 0
-3132 -32 0
-3132 185 0
-3133 -49 0
-3133 168 0
-172 3131 3132 3133 0
-3134 -25 0
-3134 218 0
-3135 -33 0
-3135 190 0
-3136 -54 0
-3136 169 0
-172 3134 3135 3136 0
-3137 -26 0
-3137 222 0
-3138 -34 0
-3138 194 0
-3139 -58 0
-3139 170 0
-172 3137 3138 3139 0
-3140 -27 0
-3140 225 0
-3141 -35 0
-3141 197 0
-3142 -61 0
-3142 171 0
-172 3140 3141 3142 0
-3143 -29 0
-3143 228 0
-3144 -37 0
-3144 200 0
-3145 -64 0
-3145 173 0
-172 3143 3144 3145 0
-3146 -30 0
-3146 229 0
-3147 -38 0
-3147 201 0
-3148 -65 0
-3148 174 0
-172 3146 3147 3148 0
-3149 -2 0
-3149 92 0
-3150 -3 0
-3150 84 0
-3151 -10 0
-3151 77 0
-173 3149 3150 3151 0
-3152 -12 0
-3152 137 0
-3153 -13 0
-3153 129 0
-3154 -20 0
-3154 122 0
-173 3152 3153 3154 0
-3155 -23 0
-3155 208 0
-3156 -31 0
-3156 180 0
-3157 -44 0
-3157 167 0
-173 3155 3156 3157 0
-3158 -24 0
-3158 214 0
-3159 -32 0
-3159 186 0
-3160 -50 0
-3160 168 0
-173 3158 3159 3160 0
-3161 -25 0
-3161 219 0
-3162 -33 0
-3162 191 0
-3163 -55 0
-3163 169 0
-173 3161 3162 3163 0
-3164 -26 0
-3164 223 0
-3165 -34 0
-3165 195 0
-3166 -59 0
-3166 170 0
-173 3164 3165 3166 0
-3167 -27 0
-3167 226 0
-3168 -35 0
-3168 198 0
-3169 -62 0
-3169 171 0
-173 3167 3168 3169 0
-3170 -28 0
-3170 228 0
-3171 -36 0
-3171 200 0
-3172 -64 0
-3172 172 0
-173 3170 3171 3172 0
-3173 -30 0
-3173 230 0
-3174 -38 0
-3174 202 0
-3175 -66 0
-3175 174 0
-173 3173 3174 3175 0
-3176 -2 0
-3176 93 0
-3177 -3 0
-3177 85 0
-3178 -11 0
-3178 77 0
-174 3176 3177 3178 0
-3179 -12 0
-3179 138 0
-3180 -13 0
-3180 130 0
-3181 -21 0
-3181 122 0
-174 3179 3180 3181 0
-3182 -23 0
-3182 209 0
-3183 -31 0
-3183 181 0
-3184 -45 0
-3184 167 0
-174 3182 3183 3184 0
-3185 -24 0
-3185 215 0
-3186 -32 0
-3186 187 0
-3187 -51 0
-3187 168 0
-174 3185 3186 3187 0
-3188 -25 0
-3188 220 0
-3189 -33 0
-3189 192 0
-3190 -56 0
-3190 169 0
-174 3188 3189 3190 0
-3191 -26 0
-3191 224 0
-3192 -34 0
-3192 196 0
-3193 -60 0
-3193 170 0
-174 3191 3192 3193 0
-3194 -27 0
-3194 227 0
-3195 -35 0
-3195 199 0
-3196 -63 0
-3196 171 0
-174 3194 3195 3196 0
-3197 -28 0
-3197 229 0
-3198 -36 0
-3198 201 0
-3199 -65 0
-3199 172 0
-174 3197 3198 3199 0
-3200 -29 0
-3200 230 0
-3201 -37 0
-3201 202 0
-3202 -66 0
-3202 173 0
-174 3200 3201 3202 0
-3203 -2 0
-3203 94 0
-3204 -4 0
-3204 79 0
-3205 -5 0
-3205 78 0
-175 3203 3204 3205 0
-3206 -12 0
-3206 139 0
-3207 -14 0
-3207 124 0
-3208 -15 0
-3208 123 0
-175 3206 3207 3208 0
-3209 -22 0
-3209 203 0
-3210 -31 0
-3210 168 0
-3211 -32 0
-3211 167 0
-175 3209 3210 3211 0
-3212 -25 0
-3212 231 0
-3213 -40 0
-3213 182 0
-3214 -46 0
-3214 176 0
-175 3212 3213 3214 0
-3215 -26 0
-3215 232 0
-3216 -41 0
-3216 183 0
-3217 -47 0
-3217 177 0
-175 3215 3216 3217 0
-3218 -27 0
-3218 233 0
-3219 -42 0
-3219 184 0
-3220 -48 0
-3220 178 0
-175 3218 3219 3220 0
-3221 -28 0
-3221 234 0
-3222 -43 0
-3222 185 0
-3223 -49 0
-3223 179 0
-175 3221 3222 3223 0
-3224 -29 0
-3224 235 0
-3225 -44 0
-3225 186 0
-3226 -50 0
-3226 180 0
-175 3224 3225 3226 0
-3227 -30 0
-3227 236 0
-3228 -45 0
-3228 187 0
-3229 -51 0
-3229 181 0
-175 3227 3228 3229 0
-3230 -2 0
-3230 95 0
-3231 -4 0
-3231 80 0
-3232 -6 0
-3232 78 0
-176 3230 3231 3232 0
-3233 -12 0
-3233 140 0
-3234 -14 0
-3234 125 0
-3235 -16 0
-3235 123 0
-176 3233 3234 3235 0
-3236 -22 0
-3236 204 0
-3237 -31 0
-3237 169 0
-3238 -33 0
-3238 167 0
-176 3236 3237 3238 0
-3239 -24 0
-3239 231 0
-3240 -39 0
-3240 182 0
-3241 -46 0
-3241 175 0
-176 3239 3240 3241 0
-3242 -26 0
-3242 237 0
-3243 -41 0
-3243 188 0
-3244 -52 0
-3244 177 0
-176 3242 3243 3244 0
-3245 -27 0
-3245 238 0
-3246 -42 0
-3246 189 0
-3247 -53 0
-3247 178 0
-176 3245 3246 3247 0
-3248 -28 0
-3248 239 0
-3249 -43 0
-3249 190 0
-3250 -54 0
-3250 179 0
-176 3248 3249 3250 0
-3251 -29 0
-3251 240 0
-3252 -44 0
-3252 191 0
-3253 -55 0
-3253 180 0
-176 3251 3252 3253 0
-3254 -30 0
-3254 241 0
-3255 -45 0
-3255 192 0
-3256 -56 0
-3256 181 0
-176 3254 3255 3256 0
-3257 -2 0
-3257 96 0
-3258 -4 0
-3258 81 0
-3259 -7 0
-3259 78 0
-177 3257 3258 3259 0
-3260 -12 0
-3260 141 0
-3261 -14 0
-3261 126 0
-3262 -17 0
-3262 123 0
-177 3260 3261 3262 0
-3263 -22 0
-3263 205 0
-3264 -31 0
-3264 170 0
-3265 -34 0
-3265 167 0
-177 3263 3264 3265 0
-3266 -24 0
-3266 232 0
-3267 -39 0
-3267 183 0
-3268 -47 0
-3268 175 0
-177 3266 3267 3268 0
-3269 -25 0
-3269 237 0
-3270 -40 0
-3270 188 0
-3271 -52 0
-3271 176 0
-177 3269 3270 3271 0
-3272 -27 0
-3272 242 0
-3273 -42 0
-3273 193 0
-3274 -57 0
-3274 178 0
-177 3272 3273 3274 0
-3275 -28 0
-3275 243 0
-3276 -43 0
-3276 194 0
-3277 -58 0
-3277 179 0
-177 3275 3276 3277 0
-3278 -29 0
-3278 244 0
-3279 -44 0
-3279 195 0
-3280 -59 0
-3280 180 0
-177 3278 3279 3280 0
-3281 -30 0
-3281 245 0
-3282 -45 0
-3282 196 0
-3283 -60 0
-3283 181 0
-177 3281 3282 3283 0
-3284 -2 0
-3284 97 0
-3285 -4 0
-3285 82 0
-3286 -8 0
-3286 78 0
-178 3284 3285 3286 0
-3287 -12 0
-3287 142 0
-3288 -14 0
-3288 127 0
-3289 -18 0
-3289 123 0
-178 3287 3288 3289 0
-3290 -22 0
-3290 206 0
-3291 -31 0
-3291 171 0
-3292 -35 0
-3292 167 0
-178 3290 3291 3292 0
-3293 -24 0
-3293 233 0
-3294 -39 0
-3294 184 0
-3295 -48 0
-3295 175 0
-178 3293 3294 3295 0
-3296 -25 0
-3296 238 0
-3297 -40 0
-3297 189 0
-3298 -53 0
-3298 176 0
-178 3296 3297 3298 0
-3299 -26 0
-3299 242 0
-3300 -41 0
-3300 193 0
-3301 -57 0
-3301 177 0
-178 3299 3300 3301 0
-3302 -28 0
-3302 246 0
-3303 -43 0
-3303 197 0
-3304 -61 0
-3304 179 0
-178 3302 3303 3304 0
-3305 -29 0
-3305 247 0
-3306 -44 0
-3306 198 0
-3307 -62 0
-3307 180 0
-178 3305 3306 3307 0
-3308 -30 0
-3308 248 0
-3309 -45 0
-3309 199 0
-3310 -63 0
-3310 181 0
-178 3308 3309 3310 0
-3311 -2 0
-3311 98 0
-3312 -4 0
-3312 83 0
-3313 -9 0
-3313 78 0
-179 3311 3312 3313 0
-3314 -12 0
-3314 143 0
-3315 -14 0
-3315 128 0
-3316 -19 0
-3316 123 0
-179 3314 3315 3316 0
-3317 -22 0
-3317 207 0
-3318 -31 0
-3318 172 0
-3319 -36 0
-3319 167 0
-179 3317 3318 3319 0
-3320 -24 0
-3320 234 0
-3321 -39 0
-3321 185 0
-3322 -49 0
-3322 175 0
-179 3320 3321 3322 0
-3323 -25 0
-3323 239 0
-3324 -40 0
-3324 190 0
-3325 -54 0
-3325 176 0
-179 3323 3324 3325 0
-3326 -26 0
-3326 243 0
-3327 -41 0
-3327 194 0
-3328 -58 0
-3328 177 0
-179 3326 3327 3328 0
-3329 -27 0
-3329 246 0
-3330 -42 0
-3330 197 0
-3331 -61 0
-3331 178 0
-179 3329 3330 3331 0
-3332 -29 0
-3332 249 0
-3333 -44 0
-3333 200 0
-3334 -64 0
-3334 180 0
-179 3332 3333 3334 0
-3335 -30 0
-3335 250 0
-3336 -45 0
-3336 201 0
-3337 -65 0
-3337 181 0
-179 3335 3336 3337 0
-3338 -2 0
-3338 99 0
-3339 -4 0
-3339 84 0
-3340 -10 0
-3340 78 0
-180 3338 3339 3340 0
-3341 -12 0
-3341 144 0
-3342 -14 0
-3342 129 0
-3343 -20 0
-3343 123 0
-180 3341 3342 3343 0
-3344 -22 0
-3344 208 0
-3345 -31 0
-3345 173 0
-3346 -37 0
-3346 167 0
-180 3344 3345 3346 0
-3347 -24 0
-3347 235 0
-3348 -39 0
-3348 186 0
-3349 -50 0
-3349 175 0
-180 3347 3348 3349 0
-3350 -25 0
-3350 240 0
-3351 -40 0
-3351 191 0
-3352 -55 0
-3352 176 0
-180 3350 3351 3352 0
-3353 -26 0
-3353 244 0
-3354 -41 0
-3354 195 0
-3355 -59 0
-3355 177 0
-180 3353 3354 3355 0
-3356 -27 0
-3356 247 0
-3357 -42 0
-3357 198 0
-3358 -62 0
-3358 178 0
-180 3356 3357 3358 0
-3359 -28 0
-3359 249 0
-3360 -43 0
-3360 200 0
-3361 -64 0
-3361 179 0
-180 3359 3360 3361 0
-3362 -30 0
-3362 251 0
-3363 -45 0
-3363 202 0
-3364 -66 0
-3364 181 0
-180 3362 3363 3364 0
-3365 -2 0
-3365 100 0
-3366 -4 0
-3366 85 0
-3367 -11 0
-3367 78 0
-181 3365 3366 3367 0
-3368 -12 0
-3368 145 0
-3369 -14 0
-3369 130 0
-3370 -21 0
-3370 123 0
-181 3368 3369 3370 0
-3371 -22 0
-3371 209 0
-3372 -31 0
-3372 174 0
-3373 -38 0
-3373 167 0
-181 3371 3372 3373 0
-3374 -24 0
-3374 236 0
-3375 -39 0
-3375 187 0
-3376 -51 0
-3376 175 0
-181 3374 3375 3376 0
-3377 -25 0
-3377 241 0
-3378 -40 0
-3378 192 0
-3379 -56 0
-3379 176 0
-181 3377 3378 3379 0
-3380 -26 0
-3380 245 0
-3381 -41 0
-3381 196 0
-3382 -60 0
-3382 177 0
-181 3380 3381 3382 0
-3383 -27 0
-3383 248 0
-3384 -42 0
-3384 199 0
-3385 -63 0
-3385 178 0
-181 3383 3384 3385 0
-3386 -28 0
-3386 250 0
-3387 -43 0
-3387 201 0
-3388 -65 0
-3388 179 0
-181 3386 3387 3388 0
-3389 -29 0
-3389 251 0
-3390 -44 0
-3390 202 0
-3391 -66 0
-3391 180 0
-181 3389 3390 3391 0
-3392 -2 0
-3392 101 0
-3393 -5 0
-3393 80 0
-3394 -6 0
-3394 79 0
-182 3392 3393 3394 0
-3395 -12 0
-3395 146 0
-3396 -15 0
-3396 125 0
-3397 -16 0
-3397 124 0
-182 3395 3396 3397 0
-3398 -22 0
-3398 210 0
-3399 -32 0
-3399 169 0
-3400 -33 0
-3400 168 0
-182 3398 3399 3400 0
-3401 -23 0
-3401 231 0
-3402 -39 0
-3402 176 0
-3403 -40 0
-3403 175 0
-182 3401 3402 3403 0
-3404 -26 0
-3404 252 0
-3405 -47 0
-3405 188 0
-3406 -52 0
-3406 183 0
-182 3404 3405 3406 0
-3407 -27 0
-3407 253 0
-3408 -48 0
-3408 189 0
-3409 -53 0
-3409 184 0
-182 3407 3408 3409 0
-3410 -28 0
-3410 254 0
-3411 -49 0
-3411 190 0
-3412 -54 0
-3412 185 0
-182 3410 3411 3412 0
-3413 -29 0
-3413 255 0
-3414 -50 0
-3414 191 0
-3415 -55 0
-3415 186 0
-182 3413 3414 3415 0
-3416 -30 0
-3416 256 0
-3417 -51 0
-3417 192 0
-3418 -56 0
-3418 187 0
-182 3416 3417 3418 0
-3419 -2 0
-3419 102 0
-3420 -5 0
-3420 81 0
-3421 -7 0
-3421 79 0
-183 3419 3420 3421 0
-3422 -12 0
-3422 147 0
-3423 -15 0
-3423 126 0
-3424 -17 0
-3424 124 0
-183 3422 3423 3424 0
-3425 -22 0
-3425 211 0
-3426 -32 0
-3426 170 0
-3427 -34 0
-3427 168 0
-183 3425 3426 3427 0
-3428 -23 0
-3428 232 0
-3429 -39 0
-3429 177 0
-3430 -41 0
-3430 175 0
-183 3428 3429 3430 0
-3431 -25 0
-3431 252 0
-3432 -46 0
-3432 188 0
-3433 -52 0
-3433 182 0
-183 3431 3432 3433 0
-3434 -27 0
-3434 257 0
-3435 -48 0
-3435 193 0
-3436 -57 0
-3436 184 0
-183 3434 3435 3436 0
-3437 -28 0
-3437 258 0
-3438 -49 0
-3438 194 0
-3439 -58 0
-3439 185 0
-183 3437 3438 3439 0
-3440 -29 0
-3440 259 0
-3441 -50 0
-3441 195 0
-3442 -59 0
-3442 186 0
-183 3440 3441 3442 0
-3443 -30 0
-3443 260 0
-3444 -51 0
-3444 196 0
-3445 -60 0
-3445 187 0
-183 3443 3444 3445 0
-3446 -2 0
-3446 103 0
-3447 -5 0
-3447 82 0
-3448 -8 0
-3448 79 0
-184 3446 3447 3448 0
-3449 -12 0
-3449 148 0
-3450 -15 0
-3450 127 0
-3451 -18 0
-3451 124 0
-184 3449 3450 3451 0
-3452 -22 0
-3452 212 0
-3453 -32 0
-3453 171 0
-3454 -35 0
-3454 168 0
-184 3452 3453 3454 0
-3455 -23 0
-3455 233 0
-3456 -39 0
-3456 178 0
-3457 -42 0
-3457 175 0
-184 3455 3456 3457 0
-3458 -25 0
-3458 253 0
-3459 -46 0
-3459 189 0
-3460 -53 0
-3460 182 0
-184 3458 3459 3460 0
-3461 -26 0
-3461 257 0
-3462 -47 0
-3462 193 0
-3463 -57 0
-3463 183 0
-184 3461 3462 3463 0
-3464 -28 0
-3464 261 0
-3465 -49 0
-3465 197 0
-3466 -61 0
-3466 185 0
-184 3464 3465 3466 0
-3467 -29 0
-3467 262 0
-3468 -50 0
-3468 198 0
-3469 -62 0
-3469 186 0
-184 3467 3468 3469 0
-3470 -30 0
-3470 263 0
-3471 -51 0
-3471 199 0
-3472 -63 0
-3472 187 0
-184 3470 3471 3472 0
-3473 -2 0
-3473 104 0
-3474 -5 0
-3474 83 0
-3475 -9 0
-3475 79 0
-185 3473 3474 3475 0
-3476 -12 0
-3476 149 0
-3477 -15 0
-3477 128 0
-3478 -19 0
-3478 124 0
-185 3476 3477 3478 0
-3479 -22 0
-3479 213 0
-3480 -32 0
-3480 172 0
-3481 -36 0
-3481 168 0
-185 3479 3480 3481 0
-3482 -23 0
-3482 234 0
-3483 -39 0
-3483 179 0
-3484 -43 0
-3484 175 0
-185 3482 3483 3484 0
-3485 -25 0
-3485 254 0
-3486 -46 0
-3486 190 0
-3487 -54 0
-3487 182 0
-185 3485 3486 3487 0
-3488 -26 0
-3488 258 0
-3489 -47 0
-3489 194 0
-3490 -58 0
-3490 183 0
-185 3488 3489 3490 0
-3491 -27 0
-3491 261 0
-3492 -48 0
-3492 197 0
-3493 -61 0
-3493 184 0
-185 3491 3492 3493 0
-3494 -29 0
-3494 264 0
-3495 -50 0
-3495 200 0
-3496 -64 0
-3496 186 0
-185 3494 3495 3496 0
-3497 -30 0
-3497 265 0
-3498 -51 0
-3498 201 0
-3499 -65 0
-3499 187 0
-185 3497 3498 3499 0
-3500 -2 0
-3500 105 0
-3501 -5 0
-3501 84 0
-3502 -10 0
-3502 79 0
-186 3500 3501 3502 0
-3503 -12 0
-3503 150 0
-3504 -15 0
-3504 129 0
-3505 -20 0
-3505 124 0
-186 3503 3504 3505 0
-3506 -22 0
-3506 214 0
-3507 -32 0
-3507 173 0
-3508 -37 0
-3508 168 0
-186 3506 3507 3508 0
-3509 -23 0
-3509 235 0
-3510 -39 0
-3510 180 0
-3511 -44 0
-3511 175 0
-186 3509 3510 3511 0
-3512 -25 0
-3512 255 0
-3513 -46 0
-3513 191 0
-3514 -55 0
-3514 182 0
-186 3512 3513 3514 0
-3515 -26 0
-3515 259 0
-3516 -47 0
-3516 195 0
-3517 -59 0
-3517 183 0
-186 3515 3516 3517 0
-3518 -27 0
-3518 262 0
-3519 -48 0
-3519 198 0
-3520 -62 0
-3520 184 0
-186 3518 3519 3520 0
-3521 -28 0
-3521 264 0
-3522 -49 0
-3522 200 0
-3523 -64 0
-3523 185 0
-186 3521 3522 3523 0
-3524 -30 0
-3524 266 0
-3525 -51 0
-3525 202 0
-3526 -66 0
-3526 187 0
-186 3524 3525 3526 0
-3527 -2 0
-3527 106 0
-3528 -5 0
-3528 85 0
-3529 -11 0
-3529 79 0
-187 3527 3528 3529 0
-3530 -12 0
-3530 151 0
-3531 -15 0
-3531 130 0
-3532 -21 0
-3532 124 0
-187 3530 3531 3532 0
-3533 -22 0
-3533 215 0
-3534 -32 0
-3534 174 0
-3535 -38 0
-3535 168 0
-187 3533 3534 3535 0
-3536 -23 0
-3536 236 0
-3537 -39 0
-3537 181 0
-3538 -45 0
-3538 175 0
-187 3536 3537 3538 0
-3539 -25 0
-3539 256 0
-3540 -46 0
-3540 192 0
-3541 -56 0
-3541 182 0
-187 3539 3540 3541 0
-3542 -26 0
-3542 260 0
-3543 -47 0
-3543 196 0
-3544 -60 0
-3544 183 0
-187 3542 3543 3544 0
-3545 -27 0
-3545 263 0
-3546 -48 0
-3546 199 0
-3547 -63 0
-3547 184 0
-187 3545 3546 3547 0
-3548 -28 0
-3548 265 0
-3549 -49 0
-3549 201 0
-3550 -65 0
-3550 185 0
-187 3548 3549 3550 0
-3551 -29 0
-3551 266 0
-3552 -50 0
-3552 202 0
-3553 -66 0
-3553 186 0
-187 3551 3552 3553 0
-3554 -2 0
-3554 107 0
-3555 -6 0
-3555 81 0
-3556 -7 0
-3556 80 0
-188 3554 3555 3556 0
-3557 -12 0
-3557 152 0
-3558 -16 0
-3558 126 0
-3559 -17 0
-3559 125 0
-188 3557 3558 3559 0
-3560 -22 0
-3560 216 0
-3561 -33 0
-3561 170 0
-3562 -34 0
-3562 169 0
-188 3560 3561 3562 0
-3563 -23 0
-3563 237 0
-3564 -40 0
-3564 177 0
-3565 -41 0
-3565 176 0
-188 3563 3564 3565 0
-3566 -24 0
-3566 252 0
-3567 -46 0
-3567 183 0
-3568 -47 0
-3568 182 0
-188 3566 3567 3568 0
-3569 -27 0
-3569 267 0
-3570 -53 0
-3570 193 0
-3571 -57 0
-3571 189 0
-188 3569 3570 3571 0
-3572 -28 0
-3572 268 0
-3573 -54 0
-3573 194 0
-3574 -58 0
-3574 190 0
-188 3572 3573 3574 0
-3575 -29 0
-3575 269 0
-3576 -55 0
-3576 195 0
-3577 -59 0
-3577 191 0
-188 3575 3576 3577 0
-3578 -30 0
-3578 270 0
-3579 -56 0
-3579 196 0
-3580 -60 0
-3580 192 0
-188 3578 3579 3580 0
-3581 -2 0
-3581 108 0
-3582 -6 0
-3582 82 0
-3583 -8 0
-3583 80 0
-189 3581 3582 3583 0
-3584 -12 0
-3584 153 0
-3585 -16 0
-3585 127 0
-3586 -18 0
-3586 125 0
-189 3584 3585 3586 0
-3587 -22 0
-3587 217 0
-3588 -33 0
-3588 171 0
-3589 -35 0
-3589 169 0
-189 3587 3588 3589 0
-3590 -23 0
-3590 238 0
-3591 -40 0
-3591 178 0
-3592 -42 0
-3592 176 0
-189 3590 3591 3592 0
-3593 -24 0
-3593 253 0
-3594 -46 0
-3594 184 0
-3595 -48 0
-3595 182 0
-189 3593 3594 3595 0
-3596 -26 0
-3596 267 0
-3597 -52 0
-3597 193 0
-3598 -57 0
-3598 188 0
-189 3596 3597 3598 0
-3599 -28 0
-3599 271 0
-3600 -54 0
-3600 197 0
-3601 -61 0
-3601 190 0
-189 3599 3600 3601 0
-3602 -29 0
-3602 272 0
-3603 -55 0
-3603 198 0
-3604 -62 0
-3604 191 0
-189 3602 3603 3604 0
-3605 -30 0
-3605 273 0
-3606 -56 0
-3606 199 0
-3607 -63 0
-3607 192 0
-189 3605 3606 3607 0
-3608 -2 0
-3608 109 0
-3609 -6 0
-3609 83 0
-3610 -9 0
-3610 80 0
-190 3608 3609 3610 0
-3611 -12 0
-3611 154 0
-3612 -16 0
-3612 128 0
-3613 -19 0
-3613 125 0
-190 3611 3612 3613 0
-3614 -22 0
-3614 218 0
-3615 -33 0
-3615 172 0
-3616 -36 0
-3616 169 0
-190 3614 3615 3616 0
-3617 -23 0
-3617 239 0
-3618 -40 0
-3618 179 0
-3619 -43 0
-3619 176 0
-190 3617 3618 3619 0
-3620 -24 0
-3620 254 0
-3621 -46 0
-3621 185 0
-3622 -49 0
-3622 182 0
-190 3620 3621 3622 0
-3623 -26 0
-3623 268 0
-3624 -52 0
-3624 194 0
-3625 -58 0
-3625 188 0
-190 3623 3624 3625 0
-3626 -27 0
-3626 271 0
-3627 -53 0
-3627 197 0
-3628 -61 0
-3628 189 0
-190 3626 3627 3628 0
-3629 -29 0
-3629 274 0
-3630 -55 0
-3630 200 0
-3631 -64 0
-3631 191 0
-190 3629 3630 3631 0
-3632 -30 0
-3632 275 0
-3633 -56 0
-3633 201 0
-3634 -65 0
-3634 192 0
-190 3632 3633 3634 0
-3635 -2 0
-3635 110 0
-3636 -6 0
-3636 84 0
-3637 -10 0
-3637 80 0
-191 3635 3636 3637 0
-3638 -12 0
-3638 155 0
-3639 -16 0
-3639 129 0
-3640 -20 0
-3640 125 0
-191 3638 3639 3640 0
-3641 -22 0
-3641 219 0
-3642 -33 0
-3642 173 0
-3643 -37 0
-3643 169 0
-191 3641 3642 3643 0
-3644 -23 0
-3644 240 0
-3645 -40 0
-3645 180 0
-3646 -44 0
-3646 176 0
-191 3644 3645 3646 0
-3647 -24 0
-3647 255 0
-3648 -46 0
-3648 186 0
-3649 -50 0
-3649 182 0
-191 3647 3648 3649 0
-3650 -26 0
-3650 269 0
-3651 -52 0
-3651 195 0
-3652 -59 0
-3652 188 0
-191 3650 3651 3652 0
-3653 -27 0
-3653 272 0
-3654 -53 0
-3654 198 0
-3655 -62 0
-3655 189 0
-191 3653 3654 3655 0
-3656 -28 0
-3656 274 0
-3657 -54 0
-3657 200 0
-3658 -64 0
-3658 190 0
-191 3656 3657 3658 0
-3659 -30 0
-3659 276 0
-3660 -56 0
-3660 202 0
-3661 -66 0
-3661 192 0
-191 3659 3660 3661 0
-3662 -2 0
-3662 111 0
-3663 -6 0
-3663 85 0
-3664 -11 0
-3664 80 0
-192 3662 3663 3664 0
-3665 -12 0
-3665 156 0
-3666 -16 0
-3666 130 0
-3667 -21 0
-3667 125 0
-192 3665 3666 3667 0
-3668 -22 0
-3668 220 0
-3669 -33 0
-3669 174 0
-3670 -38 0
-3670 169 0
-192 3668 3669 3670 0
-3671 -23 0
-3671 241 0
-3672 -40 0
-3672 181 0
-3673 -45 0
-3673 176 0
-192 3671 3672 3673 0
-3674 -24 0
-3674 256 0
-3675 -46 0
-3675 187 0
-3676 -51 0
-3676 182 0
-192 3674 3675 3676 0
-3677 -26 0
-3677 270 0
-3678 -52 0
-3678 196 0
-3679 -60 0
-3679 188 0
-192 3677 3678 3679 0
-3680 -27 0
-3680 273 0
-3681 -53 0
-3681 199 0
-3682 -63 0
-3682 189 0
-192 3680 3681 3682 0
-3683 -28 0
-3683 275 0
-3684 -54 0
-3684 201 0
-3685 -65 0
-3685 190 0
-192 3683 3684 3685 0
-3686 -29 0
-3686 276 0
-3687 -55 0
-3687 202 0
-3688 -66 0
-3688 191 0
-192 3686 3687 3688 0
-3689 -2 0
-3689 112 0
-3690 -7 0
-3690 82 0
-3691 -8 0
-3691 81 0
-193 3689 3690 3691 0
-3692 -12 0
-3692 157 0
-3693 -17 0
-3693 127 0
-3694 -18 0
-3694 126 0
-193 3692 3693 3694 0
-3695 -22 0
-3695 221 0
-3696 -34 0
-3696 171 0
-3697 -35 0
-3697 170 0
-193 3695 3696 3697 0
-3698 -23 0
-3698 242 0
-3699 -41 0
-3699 178 0
-3700 -42 0
-3700 177 0
-193 3698 3699 3700 0
-3701 -24 0
-3701 257 0
-3702 -47 0
-3702 184 0
-3703 -48 0
-3703 183 0
-193 3701 3702 3703 0
-3704 -25 0
-3704 267 0
-3705 -52 0
-3705 189 0
-3706 -53 0
-3706 188 0
-193 3704 3705 3706 0
-3707 -28 0
-3707 277 0
-3708 -58 0
-3708 197 0
-3709 -61 0
-3709 194 0
-193 3707 3708 3709 0
-3710 -29 0
-3710 278 0
-3711 -59 0
-3711 198 0
-3712 -62 0
-3712 195 0
-193 3710 3711 3712 0
-3713 -30 0
-3713 279 0
-3714 -60 0
-3714 199 0
-3715 -63 0
-3715 196 0
-193 3713 3714 3715 0
-3716 -2 0
-3716 113 0
-3717 -7 0
-3717 83 0
-3718 -9 0
-3718 81 0
-194 3716 3717 3718 0
-3719 -12 0
-3719 158 0
-3720 -17 0
-3720 128 0
-3721 -19 0
-3721 126 0
-194 3719 3720 3721 0
-3722 -22 0
-3722 222 0
-3723 -34 0
-3723 172 0
-3724 -36 0
-3724 170 0
-194 3722 3723 3724 0
-3725 -23 0
-3725 243 0
-3726 -41 0
-3726 179 0
-3727 -43 0
-3727 177 0
-194 3725 3726 3727 0
-3728 -24 0
-3728 258 0
-3729 -47 0
-3729 185 0
-3730 -49 0
-3730 183 0
-194 3728 3729 3730 0
-3731 -25 0
-3731 268 0
-3732 -52 0
-3732 190 0
-3733 -54 0
-3733 188 0
-194 3731 3732 3733 0
-3734 -27 0
-3734 277 0
-3735 -57 0
-3735 197 0
-3736 -61 0
-3736 193 0
-194 3734 3735 3736 0
-3737 -29 0
-3737 280 0
-3738 -59 0
-3738 200 0
-3739 -64 0
-3739 195 0
-194 3737 3738 3739 0
-3740 -30 0
-3740 281 0
-3741 -60 0
-3741 201 0
-3742 -65 0
-3742 196 0
-194 3740 3741 3742 0
-3743 -2 0
-3743 114 0
-3744 -7 0
-3744 84 0
-3745 -10 0
-3745 81 0
-195 3743 3744 3745 0
-3746 -12 0
-3746 159 0
-3747 -17 0
-3747 129 0
-3748 -20 0
-3748 126 0
-195 3746 3747 3748 0
-3749 -22 0
-3749 223 0
-3750 -34 0
-3750 173 0
-3751 -37 0
-3751 170 0
-195 3749 3750 3751 0
-3752 -23 0
-3752 244 0
-3753 -41 0
-3753 180 0
-3754 -44 0
-3754 177 0
-195 3752 3753 3754 0
-3755 -24 0
-3755 259 0
-3756 -47 0
-3756 186 0
-3757 -50 0
-3757 183 0
-195 3755 3756 3757 0
-3758 -25 0
-3758 269 0
-3759 -52 0
-3759 191 0
-3760 -55 0
-3760 188 0
-195 3758 3759 3760 0
-3761 -27 0
-3761 278 0
-3762 -57 0
-3762 198 0
-3763 -62 0
-3763 193 0
-195 3761 3762 3763 0
-3764 -28 0
-3764 280 0
-3765 -58 0
-3765 200 0
-3766 -64 0
-3766 194 0
-195 3764 3765 3766 0
-3767 -30 0
-3767 282 0
-3768 -60 0
-3768 202 0
-3769 -66 0
-3769 196 0
-195 3767 3768 3769 0
-3770 -2 0
-3770 115 0
-3771 -7 0
-3771 85 0
-3772 -11 0
-3772 81 0
-196 3770 3771 3772 0
-3773 -12 0
-3773 160 0
-3774 -17 0
-3774 130 0
-3775 -21 0
-3775 126 0
-196 3773 3774 3775 0
-3776 -22 0
-3776 224 0
-3777 -34 0
-3777 174 0
-3778 -38 0
-3778 170 0
-196 3776 3777 3778 0
-3779 -23 0
-3779 245 0
-3780 -41 0
-3780 181 0
-3781 -45 0
-3781 177 0
-196 3779 3780 3781 0
-3782 -24 0
-3782 260 0
-3783 -47 0
-3783 187 0
-3784 -51 0
-3784 183 0
-196 3782 3783 3784 0
-3785 -25 0
-3785 270 0
-3786 -52 0
-3786 192 0
-3787 -56 0
-3787 188 0
-196 3785 3786 3787 0
-3788 -27 0
-3788 279 0
-3789 -57 0
-3789 199 0
-3790 -63 0
-3790 193 0
-196 3788 3789 3790 0
-3791 -28 0
-3791 281 0
-3792 -58 0
-3792 201 0
-3793 -65 0
-3793 194 0
-196 3791 3792 3793 0
-3794 -29 0
-3794 282 0
-3795 -59 0
-3795 202 0
-3796 -66 0
-3796 195 0
-196 3794 3795 3796 0
-3797 -2 0
-3797 116 0
-3798 -8 0
-3798 83 0
-3799 -9 0
-3799 82 0
-197 3797 3798 3799 0
-3800 -12 0
-3800 161 0
-3801 -18 0
-3801 128 0
-3802 -19 0
-3802 127 0
-197 3800 3801 3802 0
-3803 -22 0
-3803 225 0
-3804 -35 0
-3804 172 0
-3805 -36 0
-3805 171 0
-197 3803 3804 3805 0
-3806 -23 0
-3806 246 0
-3807 -42 0
-3807 179 0
-3808 -43 0
-3808 178 0
-197 3806 3807 3808 0
-3809 -24 0
-3809 261 0
-3810 -48 0
-3810 185 0
-3811 -49 0
-3811 184 0
-197 3809 3810 3811 0
-3812 -25 0
-3812 271 0
-3813 -53 0
-3813 190 0
-3814 -54 0
-3814 189 0
-197 3812 3813 3814 0
-3815 -26 0
-3815 277 0
-3816 -57 0
-3816 194 0
-3817 -58 0
-3817 193 0
-197 3815 3816 3817 0
-3818 -29 0
-3818 283 0
-3819 -62 0
-3819 200 0
-3820 -64 0
-3820 198 0
-197 3818 3819 3820 0
-3821 -30 0
-3821 284 0
-3822 -63 0
-3822 201 0
-3823 -65 0
-3823 199 0
-197 3821 3822 3823 0
-3824 -2 0
-3824 117 0
-3825 -8 0
-3825 84 0
-3826 -10 0
-3826 82 0
-198 3824 3825 3826 0
-3827 -12 0
-3827 162 0
-3828 -18 0
-3828 129 0
-3829 -20 0
-3829 127 0
-198 3827 3828 3829 0
-3830 -22 0
-3830 226 0
-3831 -35 0
-3831 173 0
-3832 -37 0
-3832 171 0
-198 3830 3831 3832 0
-3833 -23 0
-3833 247 0
-3834 -42 0
-3834 180 0
-3835 -44 0
-3835 178 0
-198 3833 3834 3835 0
-3836 -24 0
-3836 262 0
-3837 -48 0
-3837 186 0
-3838 -50 0
-3838 184 0
-198 3836 3837 3838 0
-3839 -25 0
-3839 272 0
-3840 -53 0
-3840 191 0
-3841 -55 0
-3841 189 0
-198 3839 3840 3841 0
-3842 -26 0
-3842 278 0
-3843 -57 0
-3843 195 0
-3844 -59 0
-3844 193 0
-198 3842 3843 3844 0
-3845 -28 0
-3845 283 0
-3846 -61 0
-3846 200 0
-3847 -64 0
-3847 197 0
-198 3845 3846 3847 0
-3848 -30 0
-3848 285 0
-3849 -63 0
-3849 202 0
-3850 -66 0
-3850 199 0
-198 3848 3849 3850 0
-3851 -2 0
-3851 118 0
-3852 -8 0
-3852 85 0
-3853 -11 0
-3853 82 0
-199 3851 3852 3853 0
-3854 -12 0
-3854 163 0
-3855 -18 0
-3855 130 0
-3856 -21 0
-3856 127 0
-199 3854 3855 3856 0
-3857 -22 0
-3857 227 0
-3858 -35 0
-3858 174 0
-3859 -38 0
-3859 171 0
-199 3857 3858 3859 0
-3860 -23 0
-3860 248 0
-3861 -42 0
-3861 181 0
-3862 -45 0
-3862 178 0
-199 3860 3861 3862 0
-3863 -24 0
-3863 263 0
-3864 -48 0
-3864 187 0
-3865 -51 0
-3865 184 0
-199 3863 3864 3865 0
-3866 -25 0
-3866 273 0
-3867 -53 0
-3867 192 0
-3868 -56 0
-3868 189 0
-199 3866 3867 3868 0
-3869 -26 0
-3869 279 0
-3870 -57 0
-3870 196 0
-3871 -60 0
-3871 193 0
-199 3869 3870 3871 0
-3872 -28 0
-3872 284 0
-3873 -61 0
-3873 201 0
-3874 -65 0
-3874 197 0
-199 3872 3873 3874 0
-3875 -29 0
-3875 285 0
-3876 -62 0
-3876 202 0
-3877 -66 0
-3877 198 0
-199 3875 3876 3877 0
-3878 -2 0
-3878 119 0
-3879 -9 0
-3879 84 0
-3880 -10 0
-3880 83 0
-200 3878 3879 3880 0
-3881 -12 0
-3881 164 0
-3882 -19 0
-3882 129 0
-3883 -20 0
-3883 128 0
-200 3881 3882 3883 0
-3884 -22 0
-3884 228 0
-3885 -36 0
-3885 173 0
-3886 -37 0
-3886 172 0
-200 3884 3885 3886 0
-3887 -23 0
-3887 249 0
-3888 -43 0
-3888 180 0
-3889 -44 0
-3889 179 0
-200 3887 3888 3889 0
-3890 -24 0
-3890 264 0
-3891 -49 0
-3891 186 0
-3892 -50 0
-3892 185 0
-200 3890 3891 3892 0
-3893 -25 0
-3893 274 0
-3894 -54 0
-3894 191 0
-3895 -55 0
-3895 190 0
-200 3893 3894 3895 0
-3896 -26 0
-3896 280 0
-3897 -58 0
-3897 195 0
-3898 -59 0
-3898 194 0
-200 3896 3897 3898 0
-3899 -27 0
-3899 283 0
-3900 -61 0
-3900 198 0
-3901 -62 0
-3901 197 0
-200 3899 3900 3901 0
-3902 -30 0
-3902 286 0
-3903 -65 0
-3903 202 0
-3904 -66 0
-3904 201 0
-200 3902 3903 3904 0
-3905 -2 0
-3905 120 0
-3906 -9 0
-3906 85 0
-3907 -11 0
-3907 83 0
-201 3905 3906 3907 0
-3908 -12 0
-3908 165 0
-3909 -19 0
-3909 130 0
-3910 -21 0
-3910 128 0
-201 3908 3909 3910 0
-3911 -22 0
-3911 229 0
-3912 -36 0
-3912 174 0
-3913 -38 0
-3913 172 0
-201 3911 3912 3913 0
-3914 -23 0
-3914 250 0
-3915 -43 0
-3915 181 0
-3916 -45 0
-3916 179 0
-201 3914 3915 3916 0
-3917 -24 0
-3917 265 0
-3918 -49 0
-3918 187 0
-3919 -51 0
-3919 185 0
-201 3917 3918 3919 0
-3920 -25 0
-3920 275 0
-3921 -54 0
-3921 192 0
-3922 -56 0
-3922 190 0
-201 3920 3921 3922 0
-3923 -26 0
-3923 281 0
-3924 -58 0
-3924 196 0
-3925 -60 0
-3925 194 0
-201 3923 3924 3925 0
-3926 -27 0
-3926 284 0
-3927 -61 0
-3927 199 0
-3928 -63 0
-3928 197 0
-201 3926 3927 3928 0
-3929 -29 0
-3929 286 0
-3930 -64 0
-3930 202 0
-3931 -66 0
-3931 200 0
-201 3929 3930 3931 0
-3932 -2 0
-3932 121 0
-3933 -10 0
-3933 85 0
-3934 -11 0
-3934 84 0
-202 3932 3933 3934 0
-3935 -12 0
-3935 166 0
-3936 -20 0
-3936 130 0
-3937 -21 0
-3937 129 0
-202 3935 3936 3937 0
-3938 -22 0
-3938 230 0
-3939 -37 0
-3939 174 0
-3940 -38 0
-3940 173 0
-202 3938 3939 3940 0
-3941 -23 0
-3941 251 0
-3942 -44 0
-3942 181 0
-3943 -45 0
-3943 180 0
-202 3941 3942 3943 0
-3944 -24 0
-3944 266 0
-3945 -50 0
-3945 187 0
-3946 -51 0
-3946 186 0
-202 3944 3945 3946 0
-3947 -25 0
-3947 276 0
-3948 -55 0
-3948 192 0
-3949 -56 0
-3949 191 0
-202 3947 3948 3949 0
-3950 -26 0
-3950 282 0
-3951 -59 0
-3951 196 0
-3952 -60 0
-3952 195 0
-202 3950 3951 3952 0
-3953 -27 0
-3953 285 0
-3954 -62 0
-3954 199 0
-3955 -63 0
-3955 198 0
-202 3953 3954 3955 0
-3956 -28 0
-3956 286 0
-3957 -64 0
-3957 201 0
-3958 -65 0
-3958 200 0
-202 3956 3957 3958 0
-3959 -3 0
-3959 94 0
-3960 -4 0
-3960 87 0
-3961 -5 0
-3961 86 0
-203 3959 3960 3961 0
-3962 -13 0
-3962 139 0
-3963 -14 0
-3963 132 0
-3964 -15 0
-3964 131 0
-203 3962 3963 3964 0
-3965 -22 0
-3965 175 0
-3966 -23 0
-3966 168 0
-3967 -24 0
-3967 167 0
-203 3965 3966 3967 0
-3968 -33 0
-3968 231 0
-3969 -40 0
-3969 210 0
-3970 -46 0
-3970 204 0
-203 3968 3969 3970 0
-3971 -34 0
-3971 232 0
-3972 -41 0
-3972 211 0
-3973 -47 0
-3973 205 0
-203 3971 3972 3973 0
-3974 -35 0
-3974 233 0
-3975 -42 0
-3975 212 0
-3976 -48 0
-3976 206 0
-203 3974 3975 3976 0
-3977 -36 0
-3977 234 0
-3978 -43 0
-3978 213 0
-3979 -49 0
-3979 207 0
-203 3977 3978 3979 0
-3980 -37 0
-3980 235 0
-3981 -44 0
-3981 214 0
-3982 -50 0
-3982 208 0
-203 3980 3981 3982 0
-3983 -38 0
-3983 236 0
-3984 -45 0
-3984 215 0
-3985 -51 0
-3985 209 0
-203 3983 3984 3985 0
-3986 -3 0
-3986 95 0
-3987 -4 0
-3987 88 0
-3988 -6 0
-3988 86 0
-204 3986 3987 3988 0
-3989 -13 0
-3989 140 0
-3990 -14 0
-3990 133 0
-3991 -16 0
-3991 131 0
-204 3989 3990 3991 0
-3992 -22 0
-3992 176 0
-3993 -23 0
-3993 169 0
-3994 -25 0
-3994 167 0
-204 3992 3993 3994 0
-3995 -32 0
-3995 231 0
-3996 -39 0
-3996 210 0
-3997 -46 0
-3997 203 0
-204 3995 3996 3997 0
-3998 -34 0
-3998 237 0
-3999 -41 0
-3999 216 0
-4000 -52 0
-4000 205 0
-204 3998 3999 4000 0
-4001 -35 0
-4001 238 0
-4002 -42 0
-4002 217 0
-4003 -53 0
-4003 206 0
-204 4001 4002 4003 0
-4004 -36 0
-4004 239 0
-4005 -43 0
-4005 218 0
-4006 -54 0
-4006 207 0
-204 4004 4005 4006 0
-4007 -37 0
-4007 240 0
-4008 -44 0
-4008 219 0
-4009 -55 0
-4009 208 0
-204 4007 4008 4009 0
-4010 -38 0
-4010 241 0
-4011 -45 0
-4011 220 0
-4012 -56 0
-4012 209 0
-204 4010 4011 4012 0
-4013 -3 0
-4013 96 0
-4014 -4 0
-4014 89 0
-4015 -7 0
-4015 86 0
-205 4013 4014 4015 0
-4016 -13 0
-4016 141 0
-4017 -14 0
-4017 134 0
-4018 -17 0
-4018 131 0
-205 4016 4017 4018 0
-4019 -22 0
-4019 177 0
-4020 -23 0
-4020 170 0
-4021 -26 0
-4021 167 0
-205 4019 4020 4021 0
-4022 -32 0
-4022 232 0
-4023 -39 0
-4023 211 0
-4024 -47 0
-4024 203 0
-205 4022 4023 4024 0
-4025 -33 0
-4025 237 0
-4026 -40 0
-4026 216 0
-4027 -52 0
-4027 204 0
-205 4025 4026 4027 0
-4028 -35 0
-4028 242 0
-4029 -42 0
-4029 221 0
-4030 -57 0
-4030 206 0
-205 4028 4029 4030 0
-4031 -36 0
-4031 243 0
-4032 -43 0
-4032 222 0
-4033 -58 0
-4033 207 0
-205 4031 4032 4033 0
-4034 -37 0
-4034 244 0
-4035 -44 0
-4035 223 0
-4036 -59 0
-4036 208 0
-205 4034 4035 4036 0
-4037 -38 0
-4037 245 0
-4038 -45 0
-4038 224 0
-4039 -60 0
-4039 209 0
-205 4037 4038 4039 0
-4040 -3 0
-4040 97 0
-4041 -4 0
-4041 90 0
-4042 -8 0
-4042 86 0
-206 4040 4041 4042 0
-4043 -13 0
-4043 142 0
-4044 -14 0
-4044 135 0
-4045 -18 0
-4045 131 0
-206 4043 4044 4045 0
-4046 -22 0
-4046 178 0
-4047 -23 0
-4047 171 0
-4048 -27 0
-4048 167 0
-206 4046 4047 4048 0
-4049 -32 0
-4049 233 0
-4050 -39 0
-4050 212 0
-4051 -48 0
-4051 203 0
-206 4049 4050 4051 0
-4052 -33 0
-4052 238 0
-4053 -40 0
-4053 217 0
-4054 -53 0
-4054 204 0
-206 4052 4053 4054 0
-4055 -34 0
-4055 242 0
-4056 -41 0
-4056 221 0
-4057 -57 0
-4057 205 0
-206 4055 4056 4057 0
-4058 -36 0
-4058 246 0
-4059 -43 0
-4059 225 0
-4060 -61 0
-4060 207 0
-206 4058 4059 4060 0
-4061 -37 0
-4061 247 0
-4062 -44 0
-4062 226 0
-4063 -62 0
-4063 208 0
-206 4061 4062 4063 0
-4064 -38 0
-4064 248 0
-4065 -45 0
-4065 227 0
-4066 -63 0
-4066 209 0
-206 4064 4065 4066 0
-4067 -3 0
-4067 98 0
-4068 -4 0
-4068 91 0
-4069 -9 0
-4069 86 0
-207 4067 4068 4069 0
-4070 -13 0
-4070 143 0
-4071 -14 0
-4071 136 0
-4072 -19 0
-4072 131 0
-207 4070 4071 4072 0
-4073 -22 0
-4073 179 0
-4074 -23 0
-4074 172 0
-4075 -28 0
-4075 167 0
-207 4073 4074 4075 0
-4076 -32 0
-4076 234 0
-4077 -39 0
-4077 213 0
-4078 -49 0
-4078 203 0
-207 4076 4077 4078 0
-4079 -33 0
-4079 239 0
-4080 -40 0
-4080 218 0
-4081 -54 0
-4081 204 0
-207 4079 4080 4081 0
-4082 -34 0
-4082 243 0
-4083 -41 0
-4083 222 0
-4084 -58 0
-4084 205 0
-207 4082 4083 4084 0
-4085 -35 0
-4085 246 0
-4086 -42 0
-4086 225 0
-4087 -61 0
-4087 206 0
-207 4085 4086 4087 0
-4088 -37 0
-4088 249 0
-4089 -44 0
-4089 228 0
-4090 -64 0
-4090 208 0
-207 4088 4089 4090 0
-4091 -38 0
-4091 250 0
-4092 -45 0
-4092 229 0
-4093 -65 0
-4093 209 0
-207 4091 4092 4093 0
-4094 -3 0
-4094 99 0
-4095 -4 0
-4095 92 0
-4096 -10 0
-4096 86 0
-208 4094 4095 4096 0
-4097 -13 0
-4097 144 0
-4098 -14 0
-4098 137 0
-4099 -20 0
-4099 131 0
-208 4097 4098 4099 0
-4100 -22 0
-4100 180 0
-4101 -23 0
-4101 173 0
-4102 -29 0
-4102 167 0
-208 4100 4101 4102 0
-4103 -32 0
-4103 235 0
-4104 -39 0
-4104 214 0
-4105 -50 0
-4105 203 0
-208 4103 4104 4105 0
-4106 -33 0
-4106 240 0
-4107 -40 0
-4107 219 0
-4108 -55 0
-4108 204 0
-208 4106 4107 4108 0
-4109 -34 0
-4109 244 0
-4110 -41 0
-4110 223 0
-4111 -59 0
-4111 205 0
-208 4109 4110 4111 0
-4112 -35 0
-4112 247 0
-4113 -42 0
-4113 226 0
-4114 -62 0
-4114 206 0
-208 4112 4113 4114 0
-4115 -36 0
-4115 249 0
-4116 -43 0
-4116 228 0
-4117 -64 0
-4117 207 0
-208 4115 4116 4117 0
-4118 -38 0
-4118 251 0
-4119 -45 0
-4119 230 0
-4120 -66 0
-4120 209 0
-208 4118 4119 4120 0
-4121 -3 0
-4121 100 0
-4122 -4 0
-4122 93 0
-4123 -11 0
-4123 86 0
-209 4121 4122 4123 0
-4124 -13 0
-4124 145 0
-4125 -14 0
-4125 138 0
-4126 -21 0
-4126 131 0
-209 4124 4125 4126 0
-4127 -22 0
-4127 181 0
-4128 -23 0
-4128 174 0
-4129 -30 0
-4129 167 0
-209 4127 4128 4129 0
-4130 -32 0
-4130 236 0
-4131 -39 0
-4131 215 0
-4132 -51 0
-4132 203 0
-209 4130 4131 4132 0
-4133 -33 0
-4133 241 0
-4134 -40 0
-4134 220 0
-4135 -56 0
-4135 204 0
-209 4133 4134 4135 0
-4136 -34 0
-4136 245 0
-4137 -41 0
-4137 224 0
-4138 -60 0
-4138 205 0
-209 4136 4137 4138 0
-4139 -35 0
-4139 248 0
-4140 -42 0
-4140 227 0
-4141 -63 0
-4141 206 0
-209 4139 4140 4141 0
-4142 -36 0
-4142 250 0
-4143 -43 0
-4143 229 0
-4144 -65 0
-4144 207 0
-209 4142 4143 4144 0
-4145 -37 0
-4145 251 0
-4146 -44 0
-4146 230 0
-4147 -66 0
-4147 208 0
-209 4145 4146 4147 0
-4148 -3 0
-4148 101 0
-4149 -5 0
-4149 88 0
-4150 -6 0
-4150 87 0
-210 4148 4149 4150 0
-4151 -13 0
-4151 146 0
-4152 -15 0
-4152 133 0
-4153 -16 0
-4153 132 0
-210 4151 4152 4153 0
-4154 -22 0
-4154 182 0
-4155 -24 0
-4155 169 0
-4156 -25 0
-4156 168 0
-210 4154 4155 4156 0
-4157 -31 0
-4157 231 0
-4158 -39 0
-4158 204 0
-4159 -40 0
-4159 203 0
-210 4157 4158 4159 0
-4160 -34 0
-4160 252 0
-4161 -47 0
-4161 216 0
-4162 -52 0
-4162 211 0
-210 4160 4161 4162 0
-4163 -35 0
-4163 253 0
-4164 -48 0
-4164 217 0
-4165 -53 0
-4165 212 0
-210 4163 4164 4165 0
-4166 -36 0
-4166 254 0
-4167 -49 0
-4167 218 0
-4168 -54 0
-4168 213 0
-210 4166 4167 4168 0
-4169 -37 0
-4169 255 0
-4170 -50 0
-4170 219 0
-4171 -55 0
-4171 214 0
-210 4169 4170 4171 0
-4172 -38 0
-4172 256 0
-4173 -51 0
-4173 220 0
-4174 -56 0
-4174 215 0
-210 4172 4173 4174 0
-4175 -3 0
-4175 102 0
-4176 -5 0
-4176 89 0
-4177 -7 0
-4177 87 0
-211 4175 4176 4177 0
-4178 -13 0
-4178 147 0
-4179 -15 0
-4179 134 0
-4180 -17 0
-4180 132 0
-211 4178 4179 4180 0
-4181 -22 0
-4181 183 0
-4182 -24 0
-4182 170 0
-4183 -26 0
-4183 168 0
-211 4181 4182 4183 0
-4184 -31 0
-4184 232 0
-4185 -39 0
-4185 205 0
-4186 -41 0
-4186 203 0
-211 4184 4185 4186 0
-4187 -33 0
-4187 252 0
-4188 -46 0
-4188 216 0
-4189 -52 0
-4189 210 0
-211 4187 4188 4189 0
-4190 -35 0
-4190 257 0
-4191 -48 0
-4191 221 0
-4192 -57 0
-4192 212 0
-211 4190 4191 4192 0
-4193 -36 0
-4193 258 0
-4194 -49 0
-4194 222 0
-4195 -58 0
-4195 213 0
-211 4193 4194 4195 0
-4196 -37 0
-4196 259 0
-4197 -50 0
-4197 223 0
-4198 -59 0
-4198 214 0
-211 4196 4197 4198 0
-4199 -38 0
-4199 260 0
-4200 -51 0
-4200 224 0
-4201 -60 0
-4201 215 0
-211 4199 4200 4201 0
-4202 -3 0
-4202 103 0
-4203 -5 0
-4203 90 0
-4204 -8 0
-4204 87 0
-212 4202 4203 4204 0
-4205 -13 0
-4205 148 0
-4206 -15 0
-4206 135 0
-4207 -18 0
-4207 132 0
-212 4205 4206 4207 0
-4208 -22 0
-4208 184 0
-4209 -24 0
-4209 171 0
-4210 -27 0
-4210 168 0
-212 4208 4209 4210 0
-4211 -31 0
-4211 233 0
-4212 -39 0
-4212 206 0
-4213 -42 0
-4213 203 0
-212 4211 4212 4213 0
-4214 -33 0
-4214 253 0
-4215 -46 0
-4215 217 0
-4216 -53 0
-4216 210 0
-212 4214 4215 4216 0
-4217 -34 0
-4217 257 0
-4218 -47 0
-4218 221 0
-4219 -57 0
-4219 211 0
-212 4217 4218 4219 0
-4220 -36 0
-4220 261 0
-4221 -49 0
-4221 225 0
-4222 -61 0
-4222 213 0
-212 4220 4221 4222 0
-4223 -37 0
-4223 262 0
-4224 -50 0
-4224 226 0
-4225 -62 0
-4225 214 0
-212 4223 4224 4225 0
-4226 -38 0
-4226 263 0
-4227 -51 0
-4227 227 0
-4228 -63 0
-4228 215 0
-212 4226 4227 4228 0
-4229 -3 0
-4229 104 0
-4230 -5 0
-4230 91 0
-4231 -9 0
-4231 87 0
-213 4229 4230 4231 0
-4232 -13 0
-4232 149 0
-4233 -15 0
-4233 136 0
-4234 -19 0
-4234 132 0
-213 4232 4233 4234 0
-4235 -22 0
-4235 185 0
-4236 -24 0
-4236 172 0
-4237 -28 0
-4237 168 0
-213 4235 4236 4237 0
-4238 -31 0
-4238 234 0
-4239 -39 0
-4239 207 0
-4240 -43 0
-4240 203 0
-213 4238 4239 4240 0
-4241 -33 0
-4241 254 0
-4242 -46 0
-4242 218 0
-4243 -54 0
-4243 210 0
-213 4241 4242 4243 0
-4244 -34 0
-4244 258 0
-4245 -47 0
-4245 222 0
-4246 -58 0
-4246 211 0
-213 4244 4245 4246 0
-4247 -35 0
-4247 261 0
-4248 -48 0
-4248 225 0
-4249 -61 0
-4249 212 0
-213 4247 4248 4249 0
-4250 -37 0
-4250 264 0
-4251 -50 0
-4251 228 0
-4252 -64 0
-4252 214 0
-213 4250 4251 4252 0
-4253 -38 0
-4253 265 0
-4254 -51 0
-4254 229 0
-4255 -65 0
-4255 215 0
-213 4253 4254 4255 0
-4256 -3 0
-4256 105 0
-4257 -5 0
-4257 92 0
-4258 -10 0
-4258 87 0
-214 4256 4257 4258 0
-4259 -13 0
-4259 150 0
-4260 -15 0
-4260 137 0
-4261 -20 0
-4261 132 0
-214 4259 4260 4261 0
-4262 -22 0
-4262 186 0
-4263 -24 0
-4263 173 0
-4264 -29 0
-4264 168 0
-214 4262 4263 4264 0
-4265 -31 0
-4265 235 0
-4266 -39 0
-4266 208 0
-4267 -44 0
-4267 203 0
-214 4265 4266 4267 0
-4268 -33 0
-4268 255 0
-4269 -46 0
-4269 219 0
-4270 -55 0
-4270 210 0
-214 4268 4269 4270 0
-4271 -34 0
-4271 259 0
-4272 -47 0
-4272 223 0
-4273 -59 0
-4273 211 0
-214 4271 4272 4273 0
-4274 -35 0
-4274 262 0
-4275 -48 0
-4275 226 0
-4276 -62 0
-4276 212 0
-214 4274 4275 4276 0
-4277 -36 0
-4277 264 0
-4278 -49 0
-4278 228 0
-4279 -64 0
-4279 213 0
-214 4277 4278 4279 0
-4280 -38 0
-4280 266 0
-4281 -51 0
-4281 230 0
-4282 -66 0
-4282 215 0
-214 4280 4281 4282 0
-4283 -3 0
-4283 106 0
-4284 -5 0
-4284 93 0
-4285 -11 0
-4285 87 0
-215 4283 4284 4285 0
-4286 -13 0
-4286 151 0
-4287 -15 0
-4287 138 0
-4288 -21 0
-4288 132 0
-215 4286 4287 4288 0
-4289 -22 0
-4289 187 0
-4290 -24 0
-4290 174 0
-4291 -30 0
-4291 168 0
-215 4289 4290 4291 0
-4292 -31 0
-4292 236 0
-4293 -39 0
-4293 209 0
-4294 -45 0
-4294 203 0
-215 4292 4293 4294 0
-4295 -33 0
-4295 256 0
-4296 -46 0
-4296 220 0
-4297 -56 0
-4297 210 0
-215 4295 4296 4297 0
-4298 -34 0
-4298 260 0
-4299 -47 0
-4299 224 0
-4300 -60 0
-4300 211 0
-215 4298 4299 4300 0
-4301 -35 0
-4301 263 0
-4302 -48 0
-4302 227 0
-4303 -63 0
-4303 212 0
-215 4301 4302 4303 0
-4304 -36 0
-4304 265 0
-4305 -49 0
-4305 229 0
-4306 -65 0
-4306 213 0
-215 4304 4305 4306 0
-4307 -37 0
-4307 266 0
-4308 -50 0
-4308 230 0
-4309 -66 0
-4309 214 0
-215 4307 4308 4309 0
-4310 -3 0
-4310 107 0
-4311 -6 0
-4311 89 0
-4312 -7 0
-4312 88 0
-216 4310 4311 4312 0
-4313 -13 0
-4313 152 0
-4314 -16 0
-4314 134 0
-4315 -17 0
-4315 133 0
-216 4313 4314 4315 0
-4316 -22 0
-4316 188 0
-4317 -25 0
-4317 170 0
-4318 -26 0
-4318 169 0
-216 4316 4317 4318 0
-4319 -31 0
-4319 237 0
-4320 -40 0
-4320 205 0
-4321 -41 0
-4321 204 0
-216 4319 4320 4321 0
-4322 -32 0
-4322 252 0
-4323 -46 0
-4323 211 0
-4324 -47 0
-4324 210 0
-216 4322 4323 4324 0
-4325 -35 0
-4325 267 0
-4326 -53 0
-4326 221 0
-4327 -57 0
-4327 217 0
-216 4325 4326 4327 0
-4328 -36 0
-4328 268 0
-4329 -54 0
-4329 222 0
-4330 -58 0
-4330 218 0
-216 4328 4329 4330 0
-4331 -37 0
-4331 269 0
-4332 -55 0
-4332 223 0
-4333 -59 0
-4333 219 0
-216 4331 4332 4333 0
-4334 -38 0
-4334 270 0
-4335 -56 0
-4335 224 0
-4336 -60 0
-4336 220 0
-216 4334 4335 4336 0
-4337 -3 0
-4337 108 0
-4338 -6 0
-4338 90 0
-4339 -8 0
-4339 88 0
-217 4337 4338 4339 0
-4340 -13 0
-4340 153 0
-4341 -16 0
-4341 135 0
-4342 -18 0
-4342 133 0
-217 4340 4341 4342 0
-4343 -22 0
-4343 189 0
-4344 -25 0
-4344 171 0
-4345 -27 0
-4345 169 0
-217 4343 4344 4345 0
-4346 -31 0
-4346 238 0
-4347 -40 0
-4347 206 0
-4348 -42 0
-4348 204 0
-217 4346 4347 4348 0
-4349 -32 0
-4349 253 0
-4350 -46 0
-4350 212 0
-4351 -48 0
-4351 210 0
-217 4349 4350 4351 0
-4352 -34 0
-4352 267 0
-4353 -52 0
-4353 221 0
-4354 -57 0
-4354 216 0
-217 4352 4353 4354 0
-4355 -36 0
-4355 271 0
-4356 -54 0
-4356 225 0
-4357 -61 0
-4357 218 0
-217 4355 4356 4357 0
-4358 -37 0
-4358 272 0
-4359 -55 0
-4359 226 0
-4360 -62 0
-4360 219 0
-217 4358 4359 4360 0
-4361 -38 0
-4361 273 0
-4362 -56 0
-4362 227 0
-4363 -63 0
-4363 220 0
-217 4361 4362 4363 0
-4364 -3 0
-4364 109 0
-4365 -6 0
-4365 91 0
-4366 -9 0
-4366 88 0
-218 4364 4365 4366 0
-4367 -13 0
-4367 154 0
-4368 -16 0
-4368 136 0
-4369 -19 0
-4369 133 0
-218 4367 4368 4369 0
-4370 -22 0
-4370 190 0
-4371 -25 0
-4371 172 0
-4372 -28 0
-4372 169 0
-218 4370 4371 4372 0
-4373 -31 0
-4373 239 0
-4374 -40 0
-4374 207 0
-4375 -43 0
-4375 204 0
-218 4373 4374 4375 0
-4376 -32 0
-4376 254 0
-4377 -46 0
-4377 213 0
-4378 -49 0
-4378 210 0
-218 4376 4377 4378 0
-4379 -34 0
-4379 268 0
-4380 -52 0
-4380 222 0
-4381 -58 0
-4381 216 0
-218 4379 4380 4381 0
-4382 -35 0
-4382 271 0
-4383 -53 0
-4383 225 0
-4384 -61 0
-4384 217 0
-218 4382 4383 4384 0
-4385 -37 0
-4385 274 0
-4386 -55 0
-4386 228 0
-4387 -64 0
-4387 219 0
-218 4385 4386 4387 0
-4388 -38 0
-4388 275 0
-4389 -56 0
-4389 229 0
-4390 -65 0
-4390 220 0
-218 4388 4389 4390 0
-4391 -3 0
-4391 110 0
-4392 -6 0
-4392 92 0
-4393 -10 0
-4393 88 0
-219 4391 4392 4393 0
-4394 -13 0
-4394 155 0
-4395 -16 0
-4395 137 0
-4396 -20 0
-4396 133 0
-219 4394 4395 4396 0
-4397 -22 0
-4397 191 0
-4398 -25 0
-4398 173 0
-4399 -29 0
-4399 169 0
-219 4397 4398 4399 0
-4400 -31 0
-4400 240 0
-4401 -40 0
-4401 208 0
-4402 -44 0
-4402 204 0
-219 4400 4401 4402 0
-4403 -32 0
-4403 255 0
-4404 -46 0
-4404 214 0
-4405 -50 0
-4405 210 0
-219 4403 4404 4405 0
-4406 -34 0
-4406 269 0
-4407 -52 0
-4407 223 0
-4408 -59 0
-4408 216 0
-219 4406 4407 4408 0
-4409 -35 0
-4409 272 0
-4410 -53 0
-4410 226 0
-4411 -62 0
-4411 217 0
-219 4409 4410 4411 0
-4412 -36 0
-4412 274 0
-4413 -54 0
-4413 228 0
-4414 -64 0
-4414 218 0
-219 4412 4413 4414 0
-4415 -38 0
-4415 276 0
-4416 -56 0
-4416 230 0
-4417 -66 0
-4417 220 0
-219 4415 4416 4417 0
-4418 -3 0
-4418 111 0
-4419 -6 0
-4419 93 0
-4420 -11 0
-4420 88 0
-220 4418 4419 4420 0
-4421 -13 0
-4421 156 0
-4422 -16 0
-4422 138 0
-4423 -21 0
-4423 133 0
-220 4421 4422 4423 0
-4424 -22 0
-4424 192 0
-4425 -25 0
-4425 174 0
-4426 -30 0
-4426 169 0
-220 4424 4425 4426 0
-4427 -31 0
-4427 241 0
-4428 -40 0
-4428 209 0
-4429 -45 0
-4429 204 0
-220 4427 4428 4429 0
-4430 -32 0
-4430 256 0
-4431 -46 0
-4431 215 0
-4432 -51 0
-4432 210 0
-220 4430 4431 4432 0
-4433 -34 0
-4433 270 0
-4434 -52 0
-4434 224 0
-4435 -60 0
-4435 216 0
-220 4433 4434 4435 0
-4436 -35 0
-4436 273 0
-4437 -53 0
-4437 227 0
-4438 -63 0
-4438 217 0
-220 4436 4437 4438 0
-4439 -36 0
-4439 275 0
-4440 -54 0
-4440 229 0
-4441 -65 0
-4441 218 0
-220 4439 4440 4441 0
-4442 -37 0
-4442 276 0
-4443 -55 0
-4443 230 0
-4444 -66 0
-4444 219 0
-220 4442 4443 4444 0
-4445 -3 0
-4445 112 0
-4446 -7 0
-4446 90 0
-4447 -8 0
-4447 89 0
-221 4445 4446 4447 0
-4448 -13 0
-4448 157 0
-4449 -17 0
-4449 135 0
-4450 -18 0
-4450 134 0
-221 4448 4449 4450 0
-4451 -22 0
-4451 193 0
-4452 -26 0
-4452 171 0
-4453 -27 0
-4453 170 0
-221 4451 4452 4453 0
-4454 -31 0
-4454 242 0
-4455 -41 0
-4455 206 0
-4456 -42 0
-4456 205 0
-221 4454 4455 4456 0
-4457 -32 0
-4457 257 0
-4458 -47 0
-4458 212 0
-4459 -48 0
-4459 211 0
-221 4457 4458 4459 0
-4460 -33 0
-4460 267 0
-4461 -52 0
-4461 217 0
-4462 -53 0
-4462 216 0
-221 4460 4461 4462 0
-4463 -36 0
-4463 277 0
-4464 -58 0
-4464 225 0
-4465 -61 0
-4465 222 0
-221 4463 4464 4465 0
-4466 -37 0
-4466 278 0
-4467 -59 0
-4467 226 0
-4468 -62 0
-4468 223 0
-221 4466 4467 4468 0
-4469 -38 0
-4469 279 0
-4470 -60 0
-4470 227 0
-4471 -63 0
-4471 224 0
-221 4469 4470 4471 0
-4472 -3 0
-4472 113 0
-4473 -7 0
-4473 91 0
-4474 -9 0
-4474 89 0
-222 4472 4473 4474 0
-4475 -13 0
-4475 158 0
-4476 -17 0
-4476 136 0
-4477 -19 0
-4477 134 0
-222 4475 4476 4477 0
-4478 -22 0
-4478 194 0
-4479 -26 0
-4479 172 0
-4480 -28 0
-4480 170 0
-222 4478 4479 4480 0
-4481 -31 0
-4481 243 0
-4482 -41 0
-4482 207 0
-4483 -43 0
-4483 205 0
-222 4481 4482 4483 0
-4484 -32 0
-4484 258 0
-4485 -47 0
-4485 213 0
-4486 -49 0
-4486 211 0
-222 4484 4485 4486 0
-4487 -33 0
-4487 268 0
-4488 -52 0
-4488 218 0
-4489 -54 0
-4489 216 0
-222 4487 4488 4489 0
-4490 -35 0
-4490 277 0
-4491 -57 0
-4491 225 0
-4492 -61 0
-4492 221 0
-222 4490 4491 4492 0
-4493 -37 0
-4493 280 0
-4494 -59 0
-4494 228 0
-4495 -64 0
-4495 223 0
-222 4493 4494 4495 0
-4496 -38 0
-4496 281 0
-4497 -60 0
-4497 229 0
-4498 -65 0
-4498 224 0
-222 4496 4497 4498 0
-4499 -3 0
-4499 114 0
-4500 -7 0
-4500 92 0
-4501 -10 0
-4501 89 0
-223 4499 4500 4501 0
-4502 -13 0
-4502 159 0
-4503 -17 0
-4503 137 0
-4504 -20 0
-4504 134 0
-223 4502 4503 4504 0
-4505 -22 0
-4505 195 0
-4506 -26 0
-4506 173 0
-4507 -29 0
-4507 170 0
-223 4505 4506 4507 0
-4508 -31 0
-4508 244 0
-4509 -41 0
-4509 208 0
-4510 -44 0
-4510 205 0
-223 4508 4509 4510 0
-4511 -32 0
-4511 259 0
-4512 -47 0
-4512 214 0
-4513 -50 0
-4513 211 0
-223 4511 4512 4513 0
-4514 -33 0
-4514 269 0
-4515 -52 0
-4515 219 0
-4516 -55 0
-4516 216 0
-223 4514 4515 4516 0
-4517 -35 0
-4517 278 0
-4518 -57 0
-4518 226 0
-4519 -62 0
-4519 221 0
-223 4517 4518 4519 0
-4520 -36 0
-4520 280 0
-4521 -58 0
-4521 228 0
-4522 -64 0
-4522 222 0
-223 4520 4521 4522 0
-4523 -38 0
-4523 282 0
-4524 -60 0
-4524 230 0
-4525 -66 0
-4525 224 0
-223 4523 4524 4525 0
-4526 -3 0
-4526 115 0
-4527 -7 0
-4527 93 0
-4528 -11 0
-4528 89 0
-224 4526 4527 4528 0
-4529 -13 0
-4529 160 0
-4530 -17 0
-4530 138 0
-4531 -21 0
-4531 134 0
-224 4529 4530 4531 0
-4532 -22 0
-4532 196 0
-4533 -26 0
-4533 174 0
-4534 -30 0
-4534 170 0
-224 4532 4533 4534 0
-4535 -31 0
-4535 245 0
-4536 -41 0
-4536 209 0
-4537 -45 0
-4537 205 0
-224 4535 4536 4537 0
-4538 -32 0
-4538 260 0
-4539 -47 0
-4539 215 0
-4540 -51 0
-4540 211 0
-224 4538 4539 4540 0
-4541 -33 0
-4541 270 0
-4542 -52 0
-4542 220 0
-4543 -56 0
-4543 216 0
-224 4541 4542 4543 0
-4544 -35 0
-4544 279 0
-4545 -57 0
-4545 227 0
-4546 -63 0
-4546 221 0
-224 4544 4545 4546 0
-4547 -36 0
-4547 281 0
-4548 -58 0
-4548 229 0
-4549 -65 0
-4549 222 0
-224 4547 4548 4549 0
-4550 -37 0
-4550 282 0
-4551 -59 0
-4551 230 0
-4552 -66 0
-4552 223 0
-224 4550 4551 4552 0
-4553 -3 0
-4553 116 0
-4554 -8 0
-4554 91 0
-4555 -9 0
-4555 90 0
-225 4553 4554 4555 0
-4556 -13 0
-4556 161 0
-4557 -18 0
-4557 136 0
-4558 -19 0
-4558 135 0
-225 4556 4557 4558 0
-4559 -22 0
-4559 197 0
-4560 -27 0
-4560 172 0
-4561 -28 0
-4561 171 0
-225 4559 4560 4561 0
-4562 -31 0
-4562 246 0
-4563 -42 0
-4563 207 0
-4564 -43 0
-4564 206 0
-225 4562 4563 4564 0
-4565 -32 0
-4565 261 0
-4566 -48 0
-4566 213 0
-4567 -49 0
-4567 212 0
-225 4565 4566 4567 0
-4568 -33 0
-4568 271 0
-4569 -53 0
-4569 218 0
-4570 -54 0
-4570 217 0
-225 4568 4569 4570 0
-4571 -34 0
-4571 277 0
-4572 -57 0
-4572 222 0
-4573 -58 0
-4573 221 0
-225 4571 4572 4573 0
-4574 -37 0
-4574 283 0
-4575 -62 0
-4575 228 0
-4576 -64 0
-4576 226 0
-225 4574 4575 4576 0
-4577 -38 0
-4577 284 0
-4578 -63 0
-4578 229 0
-4579 -65 0
-4579 227 0
-225 4577 4578 4579 0
-4580 -3 0
-4580 117 0
-4581 -8 0
-4581 92 0
-4582 -10 0
-4582 90 0
-226 4580 4581 4582 0
-4583 -13 0
-4583 162 0
-4584 -18 0
-4584 137 0
-4585 -20 0
-4585 135 0
-226 4583 4584 4585 0
-4586 -22 0
-4586 198 0
-4587 -27 0
-4587 173 0
-4588 -29 0
-4588 171 0
-226 4586 4587 4588 0
-4589 -31 0
-4589 247 0
-4590 -42 0
-4590 208 0
-4591 -44 0
-4591 206 0
-226 4589 4590 4591 0
-4592 -32 0
-4592 262 0
-4593 -48 0
-4593 214 0
-4594 -50 0
-4594 212 0
-226 4592 4593 4594 0
-4595 -33 0
-4595 272 0
-4596 -53 0
-4596 219 0
-4597 -55 0
-4597 217 0
-226 4595 4596 4597 0
-4598 -34 0
-4598 278 0
-4599 -57 0
-4599 223 0
-4600 -59 0
-4600 221 0
-226 4598 4599 4600 0
-4601 -36 0
-4601 283 0
-4602 -61 0
-4602 228 0
-4603 -64 0
-4603 225 0
-226 4601 4602 4603 0
-4604 -38 0
-4604 285 0
-4605 -63 0
-4605 230 0
-4606 -66 0
-4606 227 0
-226 4604 4605 4606 0
-4607 -3 0
-4607 118 0
-4608 -8 0
-4608 93 0
-4609 -11 0
-4609 90 0
-227 4607 4608 4609 0
-4610 -13 0
-4610 163 0
-4611 -18 0
-4611 138 0
-4612 -21 0
-4612 135 0
-227 4610 4611 4612 0
-4613 -22 0
-4613 199 0
-4614 -27 0
-4614 174 0
-4615 -30 0
-4615 171 0
-227 4613 4614 4615 0
-4616 -31 0
-4616 248 0
-4617 -42 0
-4617 209 0
-4618 -45 0
-4618 206 0
-227 4616 4617 4618 0
-4619 -32 0
-4619 263 0
-4620 -48 0
-4620 215 0
-4621 -51 0
-4621 212 0
-227 4619 4620 4621 0
-4622 -33 0
-4622 273 0
-4623 -53 0
-4623 220 0
-4624 -56 0
-4624 217 0
-227 4622 4623 4624 0
-4625 -34 0
-4625 279 0
-4626 -57 0
-4626 224 0
-4627 -60 0
-4627 221 0
-227 4625 4626 4627 0
-4628 -36 0
-4628 284 0
-4629 -61 0
-4629 229 0
-4630 -65 0
-4630 225 0
-227 4628 4629 4630 0
-4631 -37 0
-4631 285 0
-4632 -62 0
-4632 230 0
-4633 -66 0
-4633 226 0
-227 4631 4632 4633 0
-4634 -3 0
-4634 119 0
-4635 -9 0
-4635 92 0
-4636 -10 0
-4636 91 0
-228 4634 4635 4636 0
-4637 -13 0
-4637 164 0
-4638 -19 0
-4638 137 0
-4639 -20 0
-4639 136 0
-228 4637 4638 4639 0
-4640 -22 0
-4640 200 0
-4641 -28 0
-4641 173 0
-4642 -29 0
-4642 172 0
-228 4640 4641 4642 0
-4643 -31 0
-4643 249 0
-4644 -43 0
-4644 208 0
-4645 -44 0
-4645 207 0
-228 4643 4644 4645 0
-4646 -32 0
-4646 264 0
-4647 -49 0
-4647 214 0
-4648 -50 0
-4648 213 0
-228 4646 4647 4648 0
-4649 -33 0
-4649 274 0
-4650 -54 0
-4650 219 0
-4651 -55 0
-4651 218 0
-228 4649 4650 4651 0
-4652 -34 0
-4652 280 0
-4653 -58 0
-4653 223 0
-4654 -59 0
-4654 222 0
-228 4652 4653 4654 0
-4655 -35 0
-4655 283 0
-4656 -61 0
-4656 226 0
-4657 -62 0
-4657 225 0
-228 4655 4656 4657 0
-4658 -38 0
-4658 286 0
-4659 -65 0
-4659 230 0
-4660 -66 0
-4660 229 0
-228 4658 4659 4660 0
-4661 -3 0
-4661 120 0
-4662 -9 0
-4662 93 0
-4663 -11 0
-4663 91 0
-229 4661 4662 4663 0
-4664 -13 0
-4664 165 0
-4665 -19 0
-4665 138 0
-4666 -21 0
-4666 136 0
-229 4664 4665 4666 0
-4667 -22 0
-4667 201 0
-4668 -28 0
-4668 174 0
-4669 -30 0
-4669 172 0
-229 4667 4668 4669 0
-4670 -31 0
-4670 250 0
-4671 -43 0
-4671 209 0
-4672 -45 0
-4672 207 0
-229 4670 4671 4672 0
-4673 -32 0
-4673 265 0
-4674 -49 0
-4674 215 0
-4675 -51 0
-4675 213 0
-229 4673 4674 4675 0
-4676 -33 0
-4676 275 0
-4677 -54 0
-4677 220 0
-4678 -56 0
-4678 218 0
-229 4676 4677 4678 0
-4679 -34 0
-4679 281 0
-4680 -58 0
-4680 224 0
-4681 -60 0
-4681 222 0
-229 4679 4680 4681 0
-4682 -35 0
-4682 284 0
-4683 -61 0
-4683 227 0
-4684 -63 0
-4684 225 0
-229 4682 4683 4684 0
-4685 -37 0
-4685 286 0
-4686 -64 0
-4686 230 0
-4687 -66 0
-4687 228 0
-229 4685 4686 4687 0
-4688 -3 0
-4688 121 0
-4689 -10 0
-4689 93 0
-4690 -11 0
-4690 92 0
-230 4688 4689 4690 0
-4691 -13 0
-4691 166 0
-4692 -20 0
-4692 138 0
-4693 -21 0
-4693 137 0
-230 4691 4692 4693 0
-4694 -22 0
-4694 202 0
-4695 -29 0
-4695 174 0
-4696 -30 0
-4696 173 0
-230 4694 4695 4696 0
-4697 -31 0
-4697 251 0
-4698 -44 0
-4698 209 0
-4699 -45 0
-4699 208 0
-230 4697 4698 4699 0
-4700 -32 0
-4700 266 0
-4701 -50 0
-4701 215 0
-4702 -51 0
-4702 214 0
-230 4700 4701 4702 0
-4703 -33 0
-4703 276 0
-4704 -55 0
-4704 220 0
-4705 -56 0
-4705 219 0
-230 4703 4704 4705 0
-4706 -34 0
-4706 282 0
-4707 -59 0
-4707 224 0
-4708 -60 0
-4708 223 0
-230 4706 4707 4708 0
-4709 -35 0
-4709 285 0
-4710 -62 0
-4710 227 0
-4711 -63 0
-4711 226 0
-230 4709 4710 4711 0
-4712 -36 0
-4712 286 0
-4713 -64 0
-4713 229 0
-4714 -65 0
-4714 228 0
-230 4712 4713 4714 0
-4715 -4 0
-4715 101 0
-4716 -5 0
-4716 95 0
-4717 -6 0
-4717 94 0
-231 4715 4716 4717 0
-4718 -14 0
-4718 146 0
-4719 -15 0
-4719 140 0
-4720 -16 0
-4720 139 0
-231 4718 4719 4720 0
-4721 -23 0
-4721 182 0
-4722 -24 0
-4722 176 0
-4723 -25 0
-4723 175 0
-231 4721 4722 4723 0
-4724 -31 0
-4724 210 0
-4725 -32 0
-4725 204 0
-4726 -33 0
-4726 203 0
-231 4724 4725 4726 0
-4727 -41 0
-4727 252 0
-4728 -47 0
-4728 237 0
-4729 -52 0
-4729 232 0
-231 4727 4728 4729 0
-4730 -42 0
-4730 253 0
-4731 -48 0
-4731 238 0
-4732 -53 0
-4732 233 0
-231 4730 4731 4732 0
-4733 -43 0
-4733 254 0
-4734 -49 0
-4734 239 0
-4735 -54 0
-4735 234 0
-231 4733 4734 4735 0
-4736 -44 0
-4736 255 0
-4737 -50 0
-4737 240 0
-4738 -55 0
-4738 235 0
-231 4736 4737 4738 0
-4739 -45 0
-4739 256 0
-4740 -51 0
-4740 241 0
-4741 -56 0
-4741 236 0
-231 4739 4740 4741 0
-4742 -4 0
-4742 102 0
-4743 -5 0
-4743 96 0
-4744 -7 0
-4744 94 0
-232 4742 4743 4744 0
-4745 -14 0
-4745 147 0
-4746 -15 0
-4746 141 0
-4747 -17 0
-4747 139 0
-232 4745 4746 4747 0
-4748 -23 0
-4748 183 0
-4749 -24 0
-4749 177 0
-4750 -26 0
-4750 175 0
-232 4748 4749 4750 0
-4751 -31 0
-4751 211 0
-4752 -32 0
-4752 205 0
-4753 -34 0
-4753 203 0
-232 4751 4752 4753 0
-4754 -40 0
-4754 252 0
-4755 -46 0
-4755 237 0
-4756 -52 0
-4756 231 0
-232 4754 4755 4756 0
-4757 -42 0
-4757 257 0
-4758 -48 0
-4758 242 0
-4759 -57 0
-4759 233 0
-232 4757 4758 4759 0
-4760 -43 0
-4760 258 0
-4761 -49 0
-4761 243 0
-4762 -58 0
-4762 234 0
-232 4760 4761 4762 0
-4763 -44 0
-4763 259 0
-4764 -50 0
-4764 244 0
-4765 -59 0
-4765 235 0
-232 4763 4764 4765 0
-4766 -45 0
-4766 260 0
-4767 -51 0
-4767 245 0
-4768 -60 0
-4768 236 0
-232 4766 4767 4768 0
-4769 -4 0
-4769 103 0
-4770 -5 0
-4770 97 0
-4771 -8 0
-4771 94 0
-233 4769 4770 4771 0
-4772 -14 0
-4772 148 0
-4773 -15 0
-4773 142 0
-4774 -18 0
-4774 139 0
-233 4772 4773 4774 0
-4775 -23 0
-4775 184 0
-4776 -24 0
-4776 178 0
-4777 -27 0
-4777 175 0
-233 4775 4776 4777 0
-4778 -31 0
-4778 212 0
-4779 -32 0
-4779 206 0
-4780 -35 0
-4780 203 0
-233 4778 4779 4780 0
-4781 -40 0
-4781 253 0
-4782 -46 0
-4782 238 0
-4783 -53 0
-4783 231 0
-233 4781 4782 4783 0
-4784 -41 0
-4784 257 0
-4785 -47 0
-4785 242 0
-4786 -57 0
-4786 232 0
-233 4784 4785 4786 0
-4787 -43 0
-4787 261 0
-4788 -49 0
-4788 246 0
-4789 -61 0
-4789 234 0
-233 4787 4788 4789 0
-4790 -44 0
-4790 262 0
-4791 -50 0
-4791 247 0
-4792 -62 0
-4792 235 0
-233 4790 4791 4792 0
-4793 -45 0
-4793 263 0
-4794 -51 0
-4794 248 0
-4795 -63 0
-4795 236 0
-233 4793 4794 4795 0
-4796 -4 0
-4796 104 0
-4797 -5 0
-4797 98 0
-4798 -9 0
-4798 94 0
-234 4796 4797 4798 0
-4799 -14 0
-4799 149 0
-4800 -15 0
-4800 143 0
-4801 -19 0
-4801 139 0
-234 4799 4800 4801 0
-4802 -23 0
-4802 185 0
-4803 -24 0
-4803 179 0
-4804 -28 0
-4804 175 0
-234 4802 4803 4804 0
-4805 -31 0
-4805 213 0
-4806 -32 0
-4806 207 0
-4807 -36 0
-4807 203 0
-234 4805 4806 4807 0
-4808 -40 0
-4808 254 0
-4809 -46 0
-4809 239 0
-4810 -54 0
-4810 231 0
-234 4808 4809 4810 0
-4811 -41 0
-4811 258 0
-4812 -47 0
-4812 243 0
-4813 -58 0
-4813 232 0
-234 4811 4812 4813 0
-4814 -42 0
-4814 261 0
-4815 -48 0
-4815 246 0
-4816 -61 0
-4816 233 0
-234 4814 4815 4816 0
-4817 -44 0
-4817 264 0
-4818 -50 0
-4818 249 0
-4819 -64 0
-4819 235 0
-234 4817 4818 4819 0
-4820 -45 0
-4820 265 0
-4821 -51 0
-4821 250 0
-4822 -65 0
-4822 236 0
-234 4820 4821 4822 0
-4823 -4 0
-4823 105 0
-4824 -5 0
-4824 99 0
-4825 -10 0
-4825 94 0
-235 4823 4824 4825 0
-4826 -14 0
-4826 150 0
-4827 -15 0
-4827 144 0
-4828 -20 0
-4828 139 0
-235 4826 4827 4828 0
-4829 -23 0
-4829 186 0
-4830 -24 0
-4830 180 0
-4831 -29 0
-4831 175 0
-235 4829 4830 4831 0
-4832 -31 0
-4832 214 0
-4833 -32 0
-4833 208 0
-4834 -37 0
-4834 203 0
-235 4832 4833 4834 0
-4835 -40 0
-4835 255 0
-4836 -46 0
-4836 240 0
-4837 -55 0
-4837 231 0
-235 4835 4836 4837 0
-4838 -41 0
-4838 259 0
-4839 -47 0
-4839 244 0
-4840 -59 0
-4840 232 0
-235 4838 4839 4840 0
-4841 -42 0
-4841 262 0
-4842 -48 0
-4842 247 0
-4843 -62 0
-4843 233 0
-235 4841 4842 4843 0
-4844 -43 0
-4844 264 0
-4845 -49 0
-4845 249 0
-4846 -64 0
-4846 234 0
-235 4844 4845 4846 0
-4847 -45 0
-4847 266 0
-4848 -51 0
-4848 251 0
-4849 -66 0
-4849 236 0
-235 4847 4848 4849 0
-4850 -4 0
-4850 106 0
-4851 -5 0
-4851 100 0
-4852 -11 0
-4852 94 0
-236 4850 4851 4852 0
-4853 -14 0
-4853 151 0
-4854 -15 0
-4854 145 0
-4855 -21 0
-4855 139 0
-236 4853 4854 4855 0
-4856 -23 0
-4856 187 0
-4857 -24 0
-4857 181 0
-4858 -30 0
-4858 175 0
-236 4856 4857 4858 0
-4859 -31 0
-4859 215 0
-4860 -32 0
-4860 209 0
-4861 -38 0
-4861 203 0
-236 4859 4860 4861 0
-4862 -40 0
-4862 256 0
-4863 -46 0
-4863 241 0
-4864 -56 0
-4864 231 0
-236 4862 4863 4864 0
-4865 -41 0
-4865 260 0
-4866 -47 0
-4866 245 0
-4867 -60 0
-4867 232 0
-236 4865 4866 4867 0
-4868 -42 0
-4868 263 0
-4869 -48 0
-4869 248 0
-4870 -63 0
-4870 233 0
-236 4868 4869 4870 0
-4871 -43 0
-4871 265 0
-4872 -49 0
-4872 250 0
-4873 -65 0
-4873 234 0
-236 4871 4872 4873 0
-4874 -44 0
-4874 266 0
-4875 -50 0
-4875 251 0
-4876 -66 0
-4876 235 0
-236 4874 4875 4876 0
-4877 -4 0
-4877 107 0
-4878 -6 0
-4878 96 0
-4879 -7 0
-4879 95 0
-237 4877 4878 4879 0
-4880 -14 0
-4880 152 0
-4881 -16 0
-4881 141 0
-4882 -17 0
-4882 140 0
-237 4880 4881 4882 0
-4883 -23 0
-4883 188 0
-4884 -25 0
-4884 177 0
-4885 -26 0
-4885 176 0
-237 4883 4884 4885 0
-4886 -31 0
-4886 216 0
-4887 -33 0
-4887 205 0
-4888 -34 0
-4888 204 0
-237 4886 4887 4888 0
-4889 -39 0
-4889 252 0
-4890 -46 0
-4890 232 0
-4891 -47 0
-4891 231 0
-237 4889 4890 4891 0
-4892 -42 0
-4892 267 0
-4893 -53 0
-4893 242 0
-4894 -57 0
-4894 238 0
-237 4892 4893 4894 0
-4895 -43 0
-4895 268 0
-4896 -54 0
-4896 243 0
-4897 -58 0
-4897 239 0
-237 4895 4896 4897 0
-4898 -44 0
-4898 269 0
-4899 -55 0
-4899 244 0
-4900 -59 0
-4900 240 0
-237 4898 4899 4900 0
-4901 -45 0
-4901 270 0
-4902 -56 0
-4902 245 0
-4903 -60 0
-4903 241 0
-237 4901 4902 4903 0
-4904 -4 0
-4904 108 0
-4905 -6 0
-4905 97 0
-4906 -8 0
-4906 95 0
-238 4904 4905 4906 0
-4907 -14 0
-4907 153 0
-4908 -16 0
-4908 142 0
-4909 -18 0
-4909 140 0
-238 4907 4908 4909 0
-4910 -23 0
-4910 189 0
-4911 -25 0
-4911 178 0
-4912 -27 0
-4912 176 0
-238 4910 4911 4912 0
-4913 -31 0
-4913 217 0
-4914 -33 0
-4914 206 0
-4915 -35 0
-4915 204 0
-238 4913 4914 4915 0
-4916 -39 0
-4916 253 0
-4917 -46 0
-4917 233 0
-4918 -48 0
-4918 231 0
-238 4916 4917 4918 0
-4919 -41 0
-4919 267 0
-4920 -52 0
-4920 242 0
-4921 -57 0
-4921 237 0
-238 4919 4920 4921 0
-4922 -43 0
-4922 271 0
-4923 -54 0
-4923 246 0
-4924 -61 0
-4924 239 0
-238 4922 4923 4924 0
-4925 -44 0
-4925 272 0
-4926 -55 0
-4926 247 0
-4927 -62 0
-4927 240 0
-238 4925 4926 4927 0
-4928 -45 0
-4928 273 0
-4929 -56 0
-4929 248 0
-4930 -63 0
-4930 241 0
-238 4928 4929 4930 0
-4931 -4 0
-4931 109 0
-4932 -6 0
-4932 98 0
-4933 -9 0
-4933 95 0
-239 4931 4932 4933 0
-4934 -14 0
-4934 154 0
-4935 -16 0
-4935 143 0
-4936 -19 0
-4936 140 0
-239 4934 4935 4936 0
-4937 -23 0
-4937 190 0
-4938 -25 0
-4938 179 0
-4939 -28 0
-4939 176 0
-239 4937 4938 4939 0
-4940 -31 0
-4940 218 0
-4941 -33 0
-4941 207 0
-4942 -36 0
-4942 204 0
-239 4940 4941 4942 0
-4943 -39 0
-4943 254 0
-4944 -46 0
-4944 234 0
-4945 -49 0
-4945 231 0
-239 4943 4944 4945 0
-4946 -41 0
-4946 268 0
-4947 -52 0
-4947 243 0
-4948 -58 0
-4948 237 0
-239 4946 4947 4948 0
-4949 -42 0
-4949 271 0
-4950 -53 0
-4950 246 0
-4951 -61 0
-4951 238 0
-239 4949 4950 4951 0
-4952 -44 0
-4952 274 0
-4953 -55 0
-4953 249 0
-4954 -64 0
-4954 240 0
-239 4952 4953 4954 0
-4955 -45 0
-4955 275 0
-4956 -56 0
-4956 250 0
-4957 -65 0
-4957 241 0
-239 4955 4956 4957 0
-4958 -4 0
-4958 110 0
-4959 -6 0
-4959 99 0
-4960 -10 0
-4960 95 0
-240 4958 4959 4960 0
-4961 -14 0
-4961 155 0
-4962 -16 0
-4962 144 0
-4963 -20 0
-4963 140 0
-240 4961 4962 4963 0
-4964 -23 0
-4964 191 0
-4965 -25 0
-4965 180 0
-4966 -29 0
-4966 176 0
-240 4964 4965 4966 0
-4967 -31 0
-4967 219 0
-4968 -33 0
-4968 208 0
-4969 -37 0
-4969 204 0
-240 4967 4968 4969 0
-4970 -39 0
-4970 255 0
-4971 -46 0
-4971 235 0
-4972 -50 0
-4972 231 0
-240 4970 4971 4972 0
-4973 -41 0
-4973 269 0
-4974 -52 0
-4974 244 0
-4975 -59 0
-4975 237 0
-240 4973 4974 4975 0
-4976 -42 0
-4976 272 0
-4977 -53 0
-4977 247 0
-4978 -62 0
-4978 238 0
-240 4976 4977 4978 0
-4979 -43 0
-4979 274 0
-4980 -54 0
-4980 249 0
-4981 -64 0
-4981 239 0
-240 4979 4980 4981 0
-4982 -45 0
-4982 276 0
-4983 -56 0
-4983 251 0
-4984 -66 0
-4984 241 0
-240 4982 4983 4984 0
-4985 -4 0
-4985 111 0
-4986 -6 0
-4986 100 0
-4987 -11 0
-4987 95 0
-241 4985 4986 4987 0
-4988 -14 0
-4988 156 0
-4989 -16 0
-4989 145 0
-4990 -21 0
-4990 140 0
-241 4988 4989 4990 0
-4991 -23 0
-4991 192 0
-4992 -25 0
-4992 181 0
-4993 -30 0
-4993 176 0
-241 4991 4992 4993 0
-4994 -31 0
-4994 220 0
-4995 -33 0
-4995 209 0
-4996 -38 0
-4996 204 0
-241 4994 4995 4996 0
-4997 -39 0
-4997 256 0
-4998 -46 0
-4998 236 0
-4999 -51 0
-4999 231 0
-241 4997 4998 4999 0
-5000 -41 0
-5000 270 0
-5001 -52 0
-5001 245 0
-5002 -60 0
-5002 237 0
-241 5000 5001 5002 0
-5003 -42 0
-5003 273 0
-5004 -53 0
-5004 248 0
-5005 -63 0
-5005 238 0
-241 5003 5004 5005 0
-5006 -43 0
-5006 275 0
-5007 -54 0
-5007 250 0
-5008 -65 0
-5008 239 0
-241 5006 5007 5008 0
-5009 -44 0
-5009 276 0
-5010 -55 0
-5010 251 0
-5011 -66 0
-5011 240 0
-241 5009 5010 5011 0
-5012 -4 0
-5012 112 0
-5013 -7 0
-5013 97 0
-5014 -8 0
-5014 96 0
-242 5012 5013 5014 0
-5015 -14 0
-5015 157 0
-5016 -17 0
-5016 142 0
-5017 -18 0
-5017 141 0
-242 5015 5016 5017 0
-5018 -23 0
-5018 193 0
-5019 -26 0
-5019 178 0
-5020 -27 0
-5020 177 0
-242 5018 5019 5020 0
-5021 -31 0
-5021 221 0
-5022 -34 0
-5022 206 0
-5023 -35 0
-5023 205 0
-242 5021 5022 5023 0
-5024 -39 0
-5024 257 0
-5025 -47 0
-5025 233 0
-5026 -48 0
-5026 232 0
-242 5024 5025 5026 0
-5027 -40 0
-5027 267 0
-5028 -52 0
-5028 238 0
-5029 -53 0
-5029 237 0
-242 5027 5028 5029 0
-5030 -43 0
-5030 277 0
-5031 -58 0
-5031 246 0
-5032 -61 0
-5032 243 0
-242 5030 5031 5032 0
-5033 -44 0
-5033 278 0
-5034 -59 0
-5034 247 0
-5035 -62 0
-5035 244 0
-242 5033 5034 5035 0
-5036 -45 0
-5036 279 0
-5037 -60 0
-5037 248 0
-5038 -63 0
-5038 245 0
-242 5036 5037 5038 0
-5039 -4 0
-5039 113 0
-5040 -7 0
-5040 98 0
-5041 -9 0
-5041 96 0
-243 5039 5040 5041 0
-5042 -14 0
-5042 158 0
-5043 -17 0
-5043 143 0
-5044 -19 0
-5044 141 0
-243 5042 5043 5044 0
-5045 -23 0
-5045 194 0
-5046 -26 0
-5046 179 0
-5047 -28 0
-5047 177 0
-243 5045 5046 5047 0
-5048 -31 0
-5048 222 0
-5049 -34 0
-5049 207 0
-5050 -36 0
-5050 205 0
-243 5048 5049 5050 0
-5051 -39 0
-5051 258 0
-5052 -47 0
-5052 234 0
-5053 -49 0
-5053 232 0
-243 5051 5052 5053 0
-5054 -40 0
-5054 268 0
-5055 -52 0
-5055 239 0
-5056 -54 0
-5056 237 0
-243 5054 5055 5056 0
-5057 -42 0
-5057 277 0
-5058 -57 0
-5058 246 0
-5059 -61 0
-5059 242 0
-243 5057 5058 5059 0
-5060 -44 0
-5060 280 0
-5061 -59 0
-5061 249 0
-5062 -64 0
-5062 244 0
-243 5060 5061 5062 0
-5063 -45 0
-5063 281 0
-5064 -60 0
-5064 250 0
-5065 -65 0
-5065 245 0
-243 5063 5064 5065 0
-5066 -4 0
-5066 114 0
-5067 -7 0
-5067 99 0
-5068 -10 0
-5068 96 0
-244 5066 5067 5068 0
-5069 -14 0
-5069 159 0
-5070 -17 0
-5070 144 0
-5071 -20 0
-5071 141 0
-244 5069 5070 5071 0
-5072 -23 0
-5072 195 0
-5073 -26 0
-5073 180 0
-5074 -29 0
-5074 177 0
-244 5072 5073 5074 0
-5075 -31 0
-5075 223 0
-5076 -34 0
-5076 208 0
-5077 -37 0
-5077 205 0
-244 5075 5076 5077 0
-5078 -39 0
-5078 259 0
-5079 -47 0
-5079 235 0
-5080 -50 0
-5080 232 0
-244 5078 5079 5080 0
-5081 -40 0
-5081 269 0
-5082 -52 0
-5082 240 0
-5083 -55 0
-5083 237 0
-244 5081 5082 5083 0
-5084 -42 0
-5084 278 0
-5085 -57 0
-5085 247 0
-5086 -62 0
-5086 242 0
-244 5084 5085 5086 0
-5087 -43 0
-5087 280 0
-5088 -58 0
-5088 249 0
-5089 -64 0
-5089 243 0
-244 5087 5088 5089 0
-5090 -45 0
-5090 282 0
-5091 -60 0
-5091 251 0
-5092 -66 0
-5092 245 0
-244 5090 5091 5092 0
-5093 -4 0
-5093 115 0
-5094 -7 0
-5094 100 0
-5095 -11 0
-5095 96 0
-245 5093 5094 5095 0
-5096 -14 0
-5096 160 0
-5097 -17 0
-5097 145 0
-5098 -21 0
-5098 141 0
-245 5096 5097 5098 0
-5099 -23 0
-5099 196 0
-5100 -26 0
-5100 181 0
-5101 -30 0
-5101 177 0
-245 5099 5100 5101 0
-5102 -31 0
-5102 224 0
-5103 -34 0
-5103 209 0
-5104 -38 0
-5104 205 0
-245 5102 5103 5104 0
-5105 -39 0
-5105 260 0
-5106 -47 0
-5106 236 0
-5107 -51 0
-5107 232 0
-245 5105 5106 5107 0
-5108 -40 0
-5108 270 0
-5109 -52 0
-5109 241 0
-5110 -56 0
-5110 237 0
-245 5108 5109 5110 0
-5111 -42 0
-5111 279 0
-5112 -57 0
-5112 248 0
-5113 -63 0
-5113 242 0
-245 5111 5112 5113 0
-5114 -43 0
-5114 281 0
-5115 -58 0
-5115 250 0
-5116 -65 0
-5116 243 0
-245 5114 5115 5116 0
-5117 -44 0
-5117 282 0
-5118 -59 0
-5118 251 0
-5119 -66 0
-5119 244 0
-245 5117 5118 5119 0
-5120 -4 0
-5120 116 0
-5121 -8 0
-5121 98 0
-5122 -9 0
-5122 97 0
-246 5120 5121 5122 0
-5123 -14 0
-5123 161 0
-5124 -18 0
-5124 143 0
-5125 -19 0
-5125 142 0
-246 5123 5124 5125 0
-5126 -23 0
-5126 197 0
-5127 -27 0
-5127 179 0
-5128 -28 0
-5128 178 0
-246 5126 5127 5128 0
-5129 -31 0
-5129 225 0
-5130 -35 0
-5130 207 0
-5131 -36 0
-5131 206 0
-246 5129 5130 5131 0
-5132 -39 0
-5132 261 0
-5133 -48 0
-5133 234 0
-5134 -49 0
-5134 233 0
-246 5132 5133 5134 0
-5135 -40 0
-5135 271 0
-5136 -53 0
-5136 239 0
-5137 -54 0
-5137 238 0
-246 5135 5136 5137 0
-5138 -41 0
-5138 277 0
-5139 -57 0
-5139 243 0
-5140 -58 0
-5140 242 0
-246 5138 5139 5140 0
-5141 -44 0
-5141 283 0
-5142 -62 0
-5142 249 0
-5143 -64 0
-5143 247 0
-246 5141 5142 5143 0
-5144 -45 0
-5144 284 0
-5145 -63 0
-5145 250 0
-5146 -65 0
-5146 248 0
-246 5144 5145 5146 0
-5147 -4 0
-5147 117 0
-5148 -8 0
-5148 99 0
-5149 -10 0
-5149 97 0
-247 5147 5148 5149 0
-5150 -14 0
-5150 162 0
-5151 -18 0
-5151 144 0
-5152 -20 0
-5152 142 0
-247 5150 5151 5152 0
-5153 -23 0
-5153 198 0
-5154 -27 0
-5154 180 0
-5155 -29 0
-5155 178 0
-247 5153 5154 5155 0
-5156 -31 0
-5156 226 0
-5157 -35 0
-5157 208 0
-5158 -37 0
-5158 206 0
-247 5156 5157 5158 0
-5159 -39 0
-5159 262 0
-5160 -48 0
-5160 235 0
-5161 -50 0
-5161 233 0
-247 5159 5160 5161 0
-5162 -40 0
-5162 272 0
-5163 -53 0
-5163 240 0
-5164 -55 0
-5164 238 0
-247 5162 5163 5164 0
-5165 -41 0
-5165 278 0
-5166 -57 0
-5166 244 0
-5167 -59 0
-5167 242 0
-247 5165 5166 5167 0
-5168 -43 0
-5168 283 0
-5169 -61 0
-5169 249 0
-5170 -64 0
-5170 246 0
-247 5168 5169 5170 0
-5171 -45 0
-5171 285 0
-5172 -63 0
-5172 251 0
-5173 -66 0
-5173 248 0
-247 5171 5172 5173 0
-5174 -4 0
-5174 118 0
-5175 -8 0
-5175 100 0
-5176 -11 0
-5176 97 0
-248 5174 5175 5176 0
-5177 -14 0
-5177 163 0
-5178 -18 0
-5178 145 0
-5179 -21 0
-5179 142 0
-248 5177 5178 5179 0
-5180 -23 0
-5180 199 0
-5181 -27 0
-5181 181 0
-5182 -30 0
-5182 178 0
-248 5180 5181 5182 0
-5183 -31 0
-5183 227 0
-5184 -35 0
-5184 209 0
-5185 -38 0
-5185 206 0
-248 5183 5184 5185 0
-5186 -39 0
-5186 263 0
-5187 -48 0
-5187 236 0
-5188 -51 0
-5188 233 0
-248 5186 5187 5188 0
-5189 -40 0
-5189 273 0
-5190 -53 0
-5190 241 0
-5191 -56 0
-5191 238 0
-248 5189 5190 5191 0
-5192 -41 0
-5192 279 0
-5193 -57 0
-5193 245 0
-5194 -60 0
-5194 242 0
-248 5192 5193 5194 0
-5195 -43 0
-5195 284 0
-5196 -61 0
-5196 250 0
-5197 -65 0
-5197 246 0
-248 5195 5196 5197 0
-5198 -44 0
-5198 285 0
-5199 -62 0
-5199 251 0
-5200 -66 0
-5200 247 0
-248 5198 5199 5200 0
-5201 -4 0
-5201 119 0
-5202 -9 0
-5202 99 0
-5203 -10 0
-5203 98 0
-249 5201 5202 5203 0
-5204 -14 0
-5204 164 0
-5205 -19 0
-5205 144 0
-5206 -20 0
-5206 143 0
-249 5204 5205 5206 0
-5207 -23 0
-5207 200 0
-5208 -28 0
-5208 180 0
-5209 -29 0
-5209 179 0
-249 5207 5208 5209 0
-5210 -31 0
-5210 228 0
-5211 -36 0
-5211 208 0
-5212 -37 0
-5212 207 0
-249 5210 5211 5212 0
-5213 -39 0
-5213 264 0
-5214 -49 0
-5214 235 0
-5215 -50 0
-5215 234 0
-249 5213 5214 5215 0
-5216 -40 0
-5216 274 0
-5217 -54 0
-5217 240 0
-5218 -55 0
-5218 239 0
-249 5216 5217 5218 0
-5219 -41 0
-5219 280 0
-5220 -58 0
-5220 244 0
-5221 -59 0
-5221 243 0
-249 5219 5220 5221 0
-5222 -42 0
-5222 283 0
-5223 -61 0
-5223 247 0
-5224 -62 0
-5224 246 0
-249 5222 5223 5224 0
-5225 -45 0
-5225 286 0
-5226 -65 0
-5226 251 0
-5227 -66 0
-5227 250 0
-249 5225 5226 5227 0
-5228 -4 0
-5228 120 0
-5229 -9 0
-5229 100 0
-5230 -11 0
-5230 98 0
-250 5228 5229 5230 0
-5231 -14 0
-5231 165 0
-5232 -19 0
-5232 145 0
-5233 -21 0
-5233 143 0
-250 5231 5232 5233 0
-5234 -23 0
-5234 201 0
-5235 -28 0
-5235 181 0
-5236 -30 0
-5236 179 0
-250 5234 5235 5236 0
-5237 -31 0
-5237 229 0
-5238 -36 0
-5238 209 0
-5239 -38 0
-5239 207 0
-250 5237 5238 5239 0
-5240 -39 0
-5240 265 0
-5241 -49 0
-5241 236 0
-5242 -51 0
-5242 234 0
-250 5240 5241 5242 0
-5243 -40 0
-5243 275 0
-5244 -54 0
-5244 241 0
-5245 -56 0
-5245 239 0
-250 5243 5244 5245 0
-5246 -41 0
-5246 281 0
-5247 -58 0
-5247 245 0
-5248 -60 0
-5248 243 0
-250 5246 5247 5248 0
-5249 -42 0
-5249 284 0
-5250 -61 0
-5250 248 0
-5251 -63 0
-5251 246 0
-250 5249 5250 5251 0
-5252 -44 0
-5252 286 0
-5253 -64 0
-5253 251 0
-5254 -66 0
-5254 249 0
-250 5252 5253 5254 0
-5255 -4 0
-5255 121 0
-5256 -10 0
-5256 100 0
-5257 -11 0
-5257 99 0
-251 5255 5256 5257 0
-5258 -14 0
-5258 166 0
-5259 -20 0
-5259 145 0
-5260 -21 0
-5260 144 0
-251 5258 5259 5260 0
-5261 -23 0
-5261 202 0
-5262 -29 0
-5262 181 0
-5263 -30 0
-5263 180 0
-251 5261 5262 5263 0
-5264 -31 0
-5264 230 0
-5265 -37 0
-5265 209 0
-5266 -38 0
-5266 208 0
-251 5264 5265 5266 0
-5267 -39 0
-5267 266 0
-5268 -50 0
-5268 236 0
-5269 -51 0
-5269 235 0
-251 5267 5268 5269 0
-5270 -40 0
-5270 276 0
-5271 -55 0
-5271 241 0
-5272 -56 0
-5272 240 0
-251 5270 5271 5272 0
-5273 -41 0
-5273 282 0
-5274 -59 0
-5274 245 0
-5275 -60 0
-5275 244 0
-251 5273 5274 5275 0
-5276 -42 0
-5276 285 0
-5277 -62 0
-5277 248 0
-5278 -63 0
-5278 247 0
-251 5276 5277 5278 0
-5279 -43 0
-5279 286 0
-5280 -64 0
-5280 250 0
-5281 -65 0
-5281 249 0
-251 5279 5280 5281 0
-5282 -5 0
-5282 107 0
-5283 -6 0
-5283 102 0
-5284 -7 0
-5284 101 0
-252 5282 5283 5284 0
-5285 -15 0
-5285 152 0
-5286 -16 0
-5286 147 0
-5287 -17 0
-5287 146 0
-252 5285 5286 5287 0
-5288 -24 0
-5288 188 0
-5289 -25 0
-5289 183 0
-5290 -26 0
-5290 182 0
-252 5288 5289 5290 0
-5291 -32 0
-5291 216 0
-5292 -33 0
-5292 211 0
-5293 -34 0
-5293 210 0
-252 5291 5292 5293 0
-5294 -39 0
-5294 237 0
-5295 -40 0
-5295 232 0
-5296 -41 0
-5296 231 0
-252 5294 5295 5296 0
-5297 -48 0
-5297 267 0
-5298 -53 0
-5298 257 0
-5299 -57 0
-5299 253 0
-252 5297 5298 5299 0
-5300 -49 0
-5300 268 0
-5301 -54 0
-5301 258 0
-5302 -58 0
-5302 254 0
-252 5300 5301 5302 0
-5303 -50 0
-5303 269 0
-5304 -55 0
-5304 259 0
-5305 -59 0
-5305 255 0
-252 5303 5304 5305 0
-5306 -51 0
-5306 270 0
-5307 -56 0
-5307 260 0
-5308 -60 0
-5308 256 0
-252 5306 5307 5308 0
-5309 -5 0
-5309 108 0
-5310 -6 0
-5310 103 0
-5311 -8 0
-5311 101 0
-253 5309 5310 5311 0
-5312 -15 0
-5312 153 0
-5313 -16 0
-5313 148 0
-5314 -18 0
-5314 146 0
-253 5312 5313 5314 0
-5315 -24 0
-5315 189 0
-5316 -25 0
-5316 184 0
-5317 -27 0
-5317 182 0
-253 5315 5316 5317 0
-5318 -32 0
-5318 217 0
-5319 -33 0
-5319 212 0
-5320 -35 0
-5320 210 0
-253 5318 5319 5320 0
-5321 -39 0
-5321 238 0
-5322 -40 0
-5322 233 0
-5323 -42 0
-5323 231 0
-253 5321 5322 5323 0
-5324 -47 0
-5324 267 0
-5325 -52 0
-5325 257 0
-5326 -57 0
-5326 252 0
-253 5324 5325 5326 0
-5327 -49 0
-5327 271 0
-5328 -54 0
-5328 261 0
-5329 -61 0
-5329 254 0
-253 5327 5328 5329 0
-5330 -50 0
-5330 272 0
-5331 -55 0
-5331 262 0
-5332 -62 0
-5332 255 0
-253 5330 5331 5332 0
-5333 -51 0
-5333 273 0
-5334 -56 0
-5334 263 0
-5335 -63 0
-5335 256 0
-253 5333 5334 5335 0
-5336 -5 0
-5336 109 0
-5337 -6 0
-5337 104 0
-5338 -9 0
-5338 101 0
-254 5336 5337 5338 0
-5339 -15 0
-5339 154 0
-5340 -16 0
-5340 149 0
-5341 -19 0
-5341 146 0
-254 5339 5340 5341 0
-5342 -24 0
-5342 190 0
-5343 -25 0
-5343 185 0
-5344 -28 0
-5344 182 0
-254 5342 5343 5344 0
-5345 -32 0
-5345 218 0
-5346 -33 0
-5346 213 0
-5347 -36 0
-5347 210 0
-254 5345 5346 5347 0
-5348 -39 0
-5348 239 0
-5349 -40 0
-5349 234 0
-5350 -43 0
-5350 231 0
-254 5348 5349 5350 0
-5351 -47 0
-5351 268 0
-5352 -52 0
-5352 258 0
-5353 -58 0
-5353 252 0
-254 5351 5352 5353 0
-5354 -48 0
-5354 271 0
-5355 -53 0
-5355 261 0
-5356 -61 0
-5356 253 0
-254 5354 5355 5356 0
-5357 -50 0
-5357 274 0
-5358 -55 0
-5358 264 0
-5359 -64 0
-5359 255 0
-254 5357 5358 5359 0
-5360 -51 0
-5360 275 0
-5361 -56 0
-5361 265 0
-5362 -65 0
-5362 256 0
-254 5360 5361 5362 0
-5363 -5 0
-5363 110 0
-5364 -6 0
-5364 105 0
-5365 -10 0
-5365 101 0
-255 5363 5364 5365 0
-5366 -15 0
-5366 155 0
-5367 -16 0
-5367 150 0
-5368 -20 0
-5368 146 0
-255 5366 5367 5368 0
-5369 -24 0
-5369 191 0
-5370 -25 0
-5370 186 0
-5371 -29 0
-5371 182 0
-255 5369 5370 5371 0
-5372 -32 0
-5372 219 0
-5373 -33 0
-5373 214 0
-5374 -37 0
-5374 210 0
-255 5372 5373 5374 0
-5375 -39 0
-5375 240 0
-5376 -40 0
-5376 235 0
-5377 -44 0
-5377 231 0
-255 5375 5376 5377 0
-5378 -47 0
-5378 269 0
-5379 -52 0
-5379 259 0
-5380 -59 0
-5380 252 0
-255 5378 5379 5380 0
-5381 -48 0
-5381 272 0
-5382 -53 0
-5382 262 0
-5383 -62 0
-5383 253 0
-255 5381 5382 5383 0
-5384 -49 0
-5384 274 0
-5385 -54 0
-5385 264 0
-5386 -64 0
-5386 254 0
-255 5384 5385 5386 0
-5387 -51 0
-5387 276 0
-5388 -56 0
-5388 266 0
-5389 -66 0
-5389 256 0
-255 5387 5388 5389 0
-5390 -5 0
-5390 111 0
-5391 -6 0
-5391 106 0
-5392 -11 0
-5392 101 0
-256 5390 5391 5392 0
-5393 -15 0
-5393 156 0
-5394 -16 0
-5394 151 0
-5395 -21 0
-5395 146 0
-256 5393 5394 5395 0
-5396 -24 0
-5396 192 0
-5397 -25 0
-5397 187 0
-5398 -30 0
-5398 182 0
-256 5396 5397 5398 0
-5399 -32 0
-5399 220 0
-5400 -33 0
-5400 215 0
-5401 -38 0
-5401 210 0
-256 5399 5400 5401 0
-5402 -39 0
-5402 241 0
-5403 -40 0
-5403 236 0
-5404 -45 0
-5404 231 0
-256 5402 5403 5404 0
-5405 -47 0
-5405 270 0
-5406 -52 0
-5406 260 0
-5407 -60 0
-5407 252 0
-256 5405 5406 5407 0
-5408 -48 0
-5408 273 0
-5409 -53 0
-5409 263 0
-5410 -63 0
-5410 253 0
-256 5408 5409 5410 0
-5411 -49 0
-5411 275 0
-5412 -54 0
-5412 265 0
-5413 -65 0
-5413 254 0
-256 5411 5412 5413 0
-5414 -50 0
-5414 276 0
-5415 -55 0
-5415 266 0
-5416 -66 0
-5416 255 0
-256 5414 5415 5416 0
-5417 -5 0
-5417 112 0
-5418 -7 0
-5418 103 0
-5419 -8 0
-5419 102 0
-257 5417 5418 5419 0
-5420 -15 0
-5420 157 0
-5421 -17 0
-5421 148 0
-5422 -18 0
-5422 147 0
-257 5420 5421 5422 0
-5423 -24 0
-5423 193 0
-5424 -26 0
-5424 184 0
-5425 -27 0
-5425 183 0
-257 5423 5424 5425 0
-5426 -32 0
-5426 221 0
-5427 -34 0
-5427 212 0
-5428 -35 0
-5428 211 0
-257 5426 5427 5428 0
-5429 -39 0
-5429 242 0
-5430 -41 0
-5430 233 0
-5431 -42 0
-5431 232 0
-257 5429 5430 5431 0
-5432 -46 0
-5432 267 0
-5433 -52 0
-5433 253 0
-5434 -53 0
-5434 252 0
-257 5432 5433 5434 0
-5435 -49 0
-5435 277 0
-5436 -58 0
-5436 261 0
-5437 -61 0
-5437 258 0
-257 5435 5436 5437 0
-5438 -50 0
-5438 278 0
-5439 -59 0
-5439 262 0
-5440 -62 0
-5440 259 0
-257 5438 5439 5440 0
-5441 -51 0
-5441 279 0
-5442 -60 0
-5442 263 0
-5443 -63 0
-5443 260 0
-257 5441 5442 5443 0
-5444 -5 0
-5444 113 0
-5445 -7 0
-5445 104 0
-5446 -9 0
-5446 102 0
-258 5444 5445 5446 0
-5447 -15 0
-5447 158 0
-5448 -17 0
-5448 149 0
-5449 -19 0
-5449 147 0
-258 5447 5448 5449 0
-5450 -24 0
-5450 194 0
-5451 -26 0
-5451 185 0
-5452 -28 0
-5452 183 0
-258 5450 5451 5452 0
-5453 -32 0
-5453 222 0
-5454 -34 0
-5454 213 0
-5455 -36 0
-5455 211 0
-258 5453 5454 5455 0
-5456 -39 0
-5456 243 0
-5457 -41 0
-5457 234 0
-5458 -43 0
-5458 232 0
-258 5456 5457 5458 0
-5459 -46 0
-5459 268 0
-5460 -52 0
-5460 254 0
-5461 -54 0
-5461 252 0
-258 5459 5460 5461 0
-5462 -48 0
-5462 277 0
-5463 -57 0
-5463 261 0
-5464 -61 0
-5464 257 0
-258 5462 5463 5464 0
-5465 -50 0
-5465 280 0
-5466 -59 0
-5466 264 0
-5467 -64 0
-5467 259 0
-258 5465 5466 5467 0
-5468 -51 0
-5468 281 0
-5469 -60 0
-5469 265 0
-5470 -65 0
-5470 260 0
-258 5468 5469 5470 0
-5471 -5 0
-5471 114 0
-5472 -7 0
-5472 105 0
-5473 -10 0
-5473 102 0
-259 5471 5472 5473 0
-5474 -15 0
-5474 159 0
-5475 -17 0
-5475 150 0
-5476 -20 0
-5476 147 0
-259 5474 5475 5476 0
-5477 -24 0
-5477 195 0
-5478 -26 0
-5478 186 0
-5479 -29 0
-5479 183 0
-259 5477 5478 5479 0
-5480 -32 0
-5480 223 0
-5481 -34 0
-5481 214 0
-5482 -37 0
-5482 211 0
-259 5480 5481 5482 0
-5483 -39 0
-5483 244 0
-5484 -41 0
-5484 235 0
-5485 -44 0
-5485 232 0
-259 5483 5484 5485 0
-5486 -46 0
-5486 269 0
-5487 -52 0
-5487 255 0
-5488 -55 0
-5488 252 0
-259 5486 5487 5488 0
-5489 -48 0
-5489 278 0
-5490 -57 0
-5490 262 0
-5491 -62 0
-5491 257 0
-259 5489 5490 5491 0
-5492 -49 0
-5492 280 0
-5493 -58 0
-5493 264 0
-5494 -64 0
-5494 258 0
-259 5492 5493 5494 0
-5495 -51 0
-5495 282 0
-5496 -60 0
-5496 266 0
-5497 -66 0
-5497 260 0
-259 5495 5496 5497 0
-5498 -5 0
-5498 115 0
-5499 -7 0
-5499 106 0
-5500 -11 0
-5500 102 0
-260 5498 5499 5500 0
-5501 -15 0
-5501 160 0
-5502 -17 0
-5502 151 0
-5503 -21 0
-5503 147 0
-260 5501 5502 5503 0
-5504 -24 0
-5504 196 0
-5505 -26 0
-5505 187 0
-5506 -30 0
-5506 183 0
-260 5504 5505 5506 0
-5507 -32 0
-5507 224 0
-5508 -34 0
-5508 215 0
-5509 -38 0
-5509 211 0
-260 5507 5508 5509 0
-5510 -39 0
-5510 245 0
-5511 -41 0
-5511 236 0
-5512 -45 0
-5512 232 0
-260 5510 5511 5512 0
-5513 -46 0
-5513 270 0
-5514 -52 0
-5514 256 0
-5515 -56 0
-5515 252 0
-260 5513 5514 5515 0
-5516 -48 0
-5516 279 0
-5517 -57 0
-5517 263 0
-5518 -63 0
-5518 257 0
-260 5516 5517 5518 0
-5519 -49 0
-5519 281 0
-5520 -58 0
-5520 265 0
-5521 -65 0
-5521 258 0
-260 5519 5520 5521 0
-5522 -50 0
-5522 282 0
-5523 -59 0
-5523 266 0
-5524 -66 0
-5524 259 0
-260 5522 5523 5524 0
-5525 -5 0
-5525 116 0
-5526 -8 0
-5526 104 0
-5527 -9 0
-5527 103 0
-261 5525 5526 5527 0
-5528 -15 0
-5528 161 0
-5529 -18 0
-5529 149 0
-5530 -19 0
-5530 148 0
-261 5528 5529 5530 0
-5531 -24 0
-5531 197 0
-5532 -27 0
-5532 185 0
-5533 -28 0
-5533 184 0
-261 5531 5532 5533 0
-5534 -32 0
-5534 225 0
-5535 -35 0
-5535 213 0
-5536 -36 0
-5536 212 0
-261 5534 5535 5536 0
-5537 -39 0
-5537 246 0
-5538 -42 0
-5538 234 0
-5539 -43 0
-5539 233 0
-261 5537 5538 5539 0
-5540 -46 0
-5540 271 0
-5541 -53 0
-5541 254 0
-5542 -54 0
-5542 253 0
-261 5540 5541 5542 0
-5543 -47 0
-5543 277 0
-5544 -57 0
-5544 258 0
-5545 -58 0
-5545 257 0
-261 5543 5544 5545 0
-5546 -50 0
-5546 283 0
-5547 -62 0
-5547 264 0
-5548 -64 0
-5548 262 0
-261 5546 5547 5548 0
-5549 -51 0
-5549 284 0
-5550 -63 0
-5550 265 0
-5551 -65 0
-5551 263 0
-261 5549 5550 5551 0
-5552 -5 0
-5552 117 0
-5553 -8 0
-5553 105 0
-5554 -10 0
-5554 103 0
-262 5552 5553 5554 0
-5555 -15 0
-5555 162 0
-5556 -18 0
-5556 150 0
-5557 -20 0
-5557 148 0
-262 5555 5556 5557 0
-5558 -24 0
-5558 198 0
-5559 -27 0
-5559 186 0
-5560 -29 0
-5560 184 0
-262 5558 5559 5560 0
-5561 -32 0
-5561 226 0
-5562 -35 0
-5562 214 0
-5563 -37 0
-5563 212 0
-262 5561 5562 5563 0
-5564 -39 0
-5564 247 0
-5565 -42 0
-5565 235 0
-5566 -44 0
-5566 233 0
-262 5564 5565 5566 0
-5567 -46 0
-5567 272 0
-5568 -53 0
-5568 255 0
-5569 -55 0
-5569 253 0
-262 5567 5568 5569 0
-5570 -47 0
-5570 278 0
-5571 -57 0
-5571 259 0
-5572 -59 0
-5572 257 0
-262 5570 5571 5572 0
-5573 -49 0
-5573 283 0
-5574 -61 0
-5574 264 0
-5575 -64 0
-5575 261 0
-262 5573 5574 5575 0
-5576 -51 0
-5576 285 0
-5577 -63 0
-5577 266 0
-5578 -66 0
-5578 263 0
-262 5576 5577 5578 0
-5579 -5 0
-5579 118 0
-5580 -8 0
-5580 106 0
-5581 -11 0
-5581 103 0
-263 5579 5580 5581 0
-5582 -15 0
-5582 163 0
-5583 -18 0
-5583 151 0
-5584 -21 0
-5584 148 0
-263 5582 5583 5584 0
-5585 -24 0
-5585 199 0
-5586 -27 0
-5586 187 0
-5587 -30 0
-5587 184 0
-263 5585 5586 5587 0
-5588 -32 0
-5588 227 0
-5589 -35 0
-5589 215 0
-5590 -38 0
-5590 212 0
-263 5588 5589 5590 0
-5591 -39 0
-5591 248 0
-5592 -42 0
-5592 236 0
-5593 -45 0
-5593 233 0
-263 5591 5592 5593 0
-5594 -46 0
-5594 273 0
-5595 -53 0
-5595 256 0
-5596 -56 0
-5596 253 0
-263 5594 5595 5596 0
-5597 -47 0
-5597 279 0
-5598 -57 0
-5598 260 0
-5599 -60 0
-5599 257 0
-263 5597 5598 5599 0
-5600 -49 0
-5600 284 0
-5601 -61 0
-5601 265 0
-5602 -65 0
-5602 261 0
-263 5600 5601 5602 0
-5603 -50 0
-5603 285 0
-5604 -62 0
-5604 266 0
-5605 -66 0
-5605 262 0
-263 5603 5604 5605 0
-5606 -5 0
-5606 119 0
-5607 -9 0
-5607 105 0
-5608 -10 0
-5608 104 0
-264 5606 5607 5608 0
-5609 -15 0
-5609 164 0
-5610 -19 0
-5610 150 0
-5611 -20 0
-5611 149 0
-264 5609 5610 5611 0
-5612 -24 0
-5612 200 0
-5613 -28 0
-5613 186 0
-5614 -29 0
-5614 185 0
-264 5612 5613 5614 0
-5615 -32 0
-5615 228 0
-5616 -36 0
-5616 214 0
-5617 -37 0
-5617 213 0
-264 5615 5616 5617 0
-5618 -39 0
-5618 249 0
-5619 -43 0
-5619 235 0
-5620 -44 0
-5620 234 0
-264 5618 5619 5620 0
-5621 -46 0
-5621 274 0
-5622 -54 0
-5622 255 0
-5623 -55 0
-5623 254 0
-264 5621 5622 5623 0
-5624 -47 0
-5624 280 0
-5625 -58 0
-5625 259 0
-5626 -59 0
-5626 258 0
-264 5624 5625 5626 0
-5627 -48 0
-5627 283 0
-5628 -61 0
-5628 262 0
-5629 -62 0
-5629 261 0
-264 5627 5628 5629 0
-5630 -51 0
-5630 286 0
-5631 -65 0
-5631 266 0
-5632 -66 0
-5632 265 0
-264 5630 5631 5632 0
-5633 -5 0
-5633 120 0
-5634 -9 0
-5634 106 0
-5635 -11 0
-5635 104 0
-265 5633 5634 5635 0
-5636 -15 0
-5636 165 0
-5637 -19 0
-5637 151 0
-5638 -21 0
-5638 149 0
-265 5636 5637 5638 0
-5639 -24 0
-5639 201 0
-5640 -28 0
-5640 187 0
-5641 -30 0
-5641 185 0
-265 5639 5640 5641 0
-5642 -32 0
-5642 229 0
-5643 -36 0
-5643 215 0
-5644 -38 0
-5644 213 0
-265 5642 5643 5644 0
-5645 -39 0
-5645 250 0
-5646 -43 0
-5646 236 0
-5647 -45 0
-5647 234 0
-265 5645 5646 5647 0
-5648 -46 0
-5648 275 0
-5649 -54 0
-5649 256 0
-5650 -56 0
-5650 254 0
-265 5648 5649 5650 0
-5651 -47 0
-5651 281 0
-5652 -58 0
-5652 260 0
-5653 -60 0
-5653 258 0
-265 5651 5652 5653 0
-5654 -48 0
-5654 284 0
-5655 -61 0
-5655 263 0
-5656 -63 0
-5656 261 0
-265 5654 5655 5656 0
-5657 -50 0
-5657 286 0
-5658 -64 0
-5658 266 0
-5659 -66 0
-5659 264 0
-265 5657 5658 5659 0
-5660 -5 0
-5660 121 0
-5661 -10 0
-5661 106 0
-5662 -11 0
-5662 105 0
-266 5660 5661 5662 0
-5663 -15 0
-5663 166 0
-5664 -20 0
-5664 151 0
-5665 -21 0
-5665 150 0
-266 5663 5664 5665 0
-5666 -24 0
-5666 202 0
-5667 -29 0
-5667 187 0
-5668 -30 0
-5668 186 0
-266 5666 5667 5668 0
-5669 -32 0
-5669 230 0
-5670 -37 0
-5670 215 0
-5671 -38 0
-5671 214 0
-266 5669 5670 5671 0
-5672 -39 0
-5672 251 0
-5673 -44 0
-5673 236 0
-5674 -45 0
-5674 235 0
-266 5672 5673 5674 0
-5675 -46 0
-5675 276 0
-5676 -55 0
-5676 256 0
-5677 -56 0
-5677 255 0
-266 5675 5676 5677 0
-5678 -47 0
-5678 282 0
-5679 -59 0
-5679 260 0
-5680 -60 0
-5680 259 0
-266 5678 5679 5680 0
-5681 -48 0
-5681 285 0
-5682 -62 0
-5682 263 0
-5683 -63 0
-5683 262 0
-266 5681 5682 5683 0
-5684 -49 0
-5684 286 0
-5685 -64 0
-5685 265 0
-5686 -65 0
-5686 264 0
-266 5684 5685 5686 0
-5687 -6 0
-5687 112 0
-5688 -7 0
-5688 108 0
-5689 -8 0
-5689 107 0
-267 5687 5688 5689 0
-5690 -16 0
-5690 157 0
-5691 -17 0
-5691 153 0
-5692 -18 0
-5692 152 0
-267 5690 5691 5692 0
-5693 -25 0
-5693 193 0
-5694 -26 0
-5694 189 0
-5695 -27 0
-5695 188 0
-267 5693 5694 5695 0
-5696 -33 0
-5696 221 0
-5697 -34 0
-5697 217 0
-5698 -35 0
-5698 216 0
-267 5696 5697 5698 0
-5699 -40 0
-5699 242 0
-5700 -41 0
-5700 238 0
-5701 -42 0
-5701 237 0
-267 5699 5700 5701 0
-5702 -46 0
-5702 257 0
-5703 -47 0
-5703 253 0
-5704 -48 0
-5704 252 0
-267 5702 5703 5704 0
-5705 -54 0
-5705 277 0
-5706 -58 0
-5706 271 0
-5707 -61 0
-5707 268 0
-267 5705 5706 5707 0
-5708 -55 0
-5708 278 0
-5709 -59 0
-5709 272 0
-5710 -62 0
-5710 269 0
-267 5708 5709 5710 0
-5711 -56 0
-5711 279 0
-5712 -60 0
-5712 273 0
-5713 -63 0
-5713 270 0
-267 5711 5712 5713 0
-5714 -6 0
-5714 113 0
-5715 -7 0
-5715 109 0
-5716 -9 0
-5716 107 0
-268 5714 5715 5716 0
-5717 -16 0
-5717 158 0
-5718 -17 0
-5718 154 0
-5719 -19 0
-5719 152 0
-268 5717 5718 5719 0
-5720 -25 0
-5720 194 0
-5721 -26 0
-5721 190 0
-5722 -28 0
-5722 188 0
-268 5720 5721 5722 0
-5723 -33 0
-5723 222 0
-5724 -34 0
-5724 218 0
-5725 -36 0
-5725 216 0
-268 5723 5724 5725 0
-5726 -40 0
-5726 243 0
-5727 -41 0
-5727 239 0
-5728 -43 0
-5728 237 0
-268 5726 5727 5728 0
-5729 -46 0
-5729 258 0
-5730 -47 0
-5730 254 0
-5731 -49 0
-5731 252 0
-268 5729 5730 5731 0
-5732 -53 0
-5732 277 0
-5733 -57 0
-5733 271 0
-5734 -61 0
-5734 267 0
-268 5732 5733 5734 0
-5735 -55 0
-5735 280 0
-5736 -59 0
-5736 274 0
-5737 -64 0
-5737 269 0
-268 5735 5736 5737 0
-5738 -56 0
-5738 281 0
-5739 -60 0
-5739 275 0
-5740 -65 0
-5740 270 0
-268 5738 5739 5740 0
-5741 -6 0
-5741 114 0
-5742 -7 0
-5742 110 0
-5743 -10 0
-5743 107 0
-269 5741 5742 5743 0
-5744 -16 0
-5744 159 0
-5745 -17 0
-5745 155 0
-5746 -20 0
-5746 152 0
-269 5744 5745 5746 0
-5747 -25 0
-5747 195 0
-5748 -26 0
-5748 191 0
-5749 -29 0
-5749 188 0
-269 5747 5748 5749 0
-5750 -33 0
-5750 223 0
-5751 -34 0
-5751 219 0
-5752 -37 0
-5752 216 0
-269 5750 5751 5752 0
-5753 -40 0
-5753 244 0
-5754 -41 0
-5754 240 0
-5755 -44 0
-5755 237 0
-269 5753 5754 5755 0
-5756 -46 0
-5756 259 0
-5757 -47 0
-5757 255 0
-5758 -50 0
-5758 252 0
-269 5756 5757 5758 0
-5759 -53 0
-5759 278 0
-5760 -57 0
-5760 272 0
-5761 -62 0
-5761 267 0
-269 5759 5760 5761 0
-5762 -54 0
-5762 280 0
-5763 -58 0
-5763 274 0
-5764 -64 0
-5764 268 0
-269 5762 5763 5764 0
-5765 -56 0
-5765 282 0
-5766 -60 0
-5766 276 0
-5767 -66 0
-5767 270 0
-269 5765 5766 5767 0
-5768 -6 0
-5768 115 0
-5769 -7 0
-5769 111 0
-5770 -11 0
-5770 107 0
-270 5768 5769 5770 0
-5771 -16 0
-5771 160 0
-5772 -17 0
-5772 156 0
-5773 -21 0
-5773 152 0
-270 5771 5772 5773 0
-5774 -25 0
-5774 196 0
-5775 -26 0
-5775 192 0
-5776 -30 0
-5776 188 0
-270 5774 5775 5776 0
-5777 -33 0
-5777 224 0
-5778 -34 0
-5778 220 0
-5779 -38 0
-5779 216 0
-270 5777 5778 5779 0
-5780 -40 0
-5780 245 0
-5781 -41 0
-5781 241 0
-5782 -45 0
-5782 237 0
-270 5780 5781 5782 0
-5783 -46 0
-5783 260 0
-5784 -47 0
-5784 256 0
-5785 -51 0
-5785 252 0
-270 5783 5784 5785 0
-5786 -53 0
-5786 279 0
-5787 -57 0
-5787 273 0
-5788 -63 0
-5788 267 0
-270 5786 5787 5788 0
-5789 -54 0
-5789 281 0
-5790 -58 0
-5790 275 0
-5791 -65 0
-5791 268 0
-270 5789 5790 5791 0
-5792 -55 0
-5792 282 0
-5793 -59 0
-5793 276 0
-5794 -66 0
-5794 269 0
-270 5792 5793 5794 0
-5795 -6 0
-5795 116 0
-5796 -8 0
-5796 109 0
-5797 -9 0
-5797 108 0
-271 5795 5796 5797 0
-5798 -16 0
-5798 161 0
-5799 -18 0
-5799 154 0
-5800 -19 0
-5800 153 0
-271 5798 5799 5800 0
-5801 -25 0
-5801 197 0
-5802 -27 0
-5802 190 0
-5803 -28 0
-5803 189 0
-271 5801 5802 5803 0
-5804 -33 0
-5804 225 0
-5805 -35 0
-5805 218 0
-5806 -36 0
-5806 217 0
-271 5804 5805 5806 0
-5807 -40 0
-5807 246 0
-5808 -42 0
-5808 239 0
-5809 -43 0
-5809 238 0
-271 5807 5808 5809 0
-5810 -46 0
-5810 261 0
-5811 -48 0
-5811 254 0
-5812 -49 0
-5812 253 0
-271 5810 5811 5812 0
-5813 -52 0
-5813 277 0
-5814 -57 0
-5814 268 0
-5815 -58 0
-5815 267 0
-271 5813 5814 5815 0
-5816 -55 0
-5816 283 0
-5817 -62 0
-5817 274 0
-5818 -64 0
-5818 272 0
-271 5816 5817 5818 0
-5819 -56 0
-5819 284 0
-5820 -63 0
-5820 275 0
-5821 -65 0
-5821 273 0
-271 5819 5820 5821 0
-5822 -6 0
-5822 117 0
-5823 -8 0
-5823 110 0
-5824 -10 0
-5824 108 0
-272 5822 5823 5824 0
-5825 -16 0
-5825 162 0
-5826 -18 0
-5826 155 0
-5827 -20 0
-5827 153 0
-272 5825 5826 5827 0
-5828 -25 0
-5828 198 0
-5829 -27 0
-5829 191 0
-5830 -29 0
-5830 189 0
-272 5828 5829 5830 0
-5831 -33 0
-5831 226 0
-5832 -35 0
-5832 219 0
-5833 -37 0
-5833 217 0
-272 5831 5832 5833 0
-5834 -40 0
-5834 247 0
-5835 -42 0
-5835 240 0
-5836 -44 0
-5836 238 0
-272 5834 5835 5836 0
-5837 -46 0
-5837 262 0
-5838 -48 0
-5838 255 0
-5839 -50 0
-5839 253 0
-272 5837 5838 5839 0
-5840 -52 0
-5840 278 0
-5841 -57 0
-5841 269 0
-5842 -59 0
-5842 267 0
-272 5840 5841 5842 0
-5843 -54 0
-5843 283 0
-5844 -61 0
-5844 274 0
-5845 -64 0
-5845 271 0
-272 5843 5844 5845 0
-5846 -56 0
-5846 285 0
-5847 -63 0
-5847 276 0
-5848 -66 0
-5848 273 0
-272 5846 5847 5848 0
-5849 -6 0
-5849 118 0
-5850 -8 0
-5850 111 0
-5851 -11 0
-5851 108 0
-273 5849 5850 5851 0
-5852 -16 0
-5852 163 0
-5853 -18 0
-5853 156 0
-5854 -21 0
-5854 153 0
-273 5852 5853 5854 0
-5855 -25 0
-5855 199 0
-5856 -27 0
-5856 192 0
-5857 -30 0
-5857 189 0
-273 5855 5856 5857 0
-5858 -33 0
-5858 227 0
-5859 -35 0
-5859 220 0
-5860 -38 0
-5860 217 0
-273 5858 5859 5860 0
-5861 -40 0
-5861 248 0
-5862 -42 0
-5862 241 0
-5863 -45 0
-5863 238 0
-273 5861 5862 5863 0
-5864 -46 0
-5864 263 0
-5865 -48 0
-5865 256 0
-5866 -51 0
-5866 253 0
-273 5864 5865 5866 0
-5867 -52 0
-5867 279 0
-5868 -57 0
-5868 270 0
-5869 -60 0
-5869 267 0
-273 5867 5868 5869 0
-5870 -54 0
-5870 284 0
-5871 -61 0
-5871 275 0
-5872 -65 0
-5872 271 0
-273 5870 5871 5872 0
-5873 -55 0
-5873 285 0
-5874 -62 0
-5874 276 0
-5875 -66 0
-5875 272 0
-273 5873 5874 5875 0
-5876 -6 0
-5876 119 0
-5877 -9 0
-5877 110 0
-5878 -10 0
-5878 109 0
-274 5876 5877 5878 0
-5879 -16 0
-5879 164 0
-5880 -19 0
-5880 155 0
-5881 -20 0
-5881 154 0
-274 5879 5880 5881 0
-5882 -25 0
-5882 200 0
-5883 -28 0
-5883 191 0
-5884 -29 0
-5884 190 0
-274 5882 5883 5884 0
-5885 -33 0
-5885 228 0
-5886 -36 0
-5886 219 0
-5887 -37 0
-5887 218 0
-274 5885 5886 5887 0
-5888 -40 0
-5888 249 0
-5889 -43 0
-5889 240 0
-5890 -44 0
-5890 239 0
-274 5888 5889 5890 0
-5891 -46 0
-5891 264 0
-5892 -49 0
-5892 255 0
-5893 -50 0
-5893 254 0
-274 5891 5892 5893 0
-5894 -52 0
-5894 280 0
-5895 -58 0
-5895 269 0
-5896 -59 0
-5896 268 0
-274 5894 5895 5896 0
-5897 -53 0
-5897 283 0
-5898 -61 0
-5898 272 0
-5899 -62 0
-5899 271 0
-274 5897 5898 5899 0
-5900 -56 0
-5900 286 0
-5901 -65 0
-5901 276 0
-5902 -66 0
-5902 275 0
-274 5900 5901 5902 0
-5903 -6 0
-5903 120 0
-5904 -9 0
-5904 111 0
-5905 -11 0
-5905 109 0
-275 5903 5904 5905 0
-5906 -16 0
-5906 165 0
-5907 -19 0
-5907 156 0
-5908 -21 0
-5908 154 0
-275 5906 5907 5908 0
-5909 -25 0
-5909 201 0
-5910 -28 0
-5910 192 0
-5911 -30 0
-5911 190 0
-275 5909 5910 5911 0
-5912 -33 0
-5912 229 0
-5913 -36 0
-5913 220 0
-5914 -38 0
-5914 218 0
-275 5912 5913 5914 0
-5915 -40 0
-5915 250 0
-5916 -43 0
-5916 241 0
-5917 -45 0
-5917 239 0
-275 5915 5916 5917 0
-5918 -46 0
-5918 265 0
-5919 -49 0
-5919 256 0
-5920 -51 0
-5920 254 0
-275 5918 5919 5920 0
-5921 -52 0
-5921 281 0
-5922 -58 0
-5922 270 0
-5923 -60 0
-5923 268 0
-275 5921 5922 5923 0
-5924 -53 0
-5924 284 0
-5925 -61 0
-5925 273 0
-5926 -63 0
-5926 271 0
-275 5924 5925 5926 0
-5927 -55 0
-5927 286 0
-5928 -64 0
-5928 276 0
-5929 -66 0
-5929 274 0
-275 5927 5928 5929 0
-5930 -6 0
-5930 121 0
-5931 -10 0
-5931 111 0
-5932 -11 0
-5932 110 0
-276 5930 5931 5932 0
-5933 -16 0
-5933 166 0
-5934 -20 0
-5934 156 0
-5935 -21 0
-5935 155 0
-276 5933 5934 5935 0
-5936 -25 0
-5936 202 0
-5937 -29 0
-5937 192 0
-5938 -30 0
-5938 191 0
-276 5936 5937 5938 0
-5939 -33 0
-5939 230 0
-5940 -37 0
-5940 220 0
-5941 -38 0
-5941 219 0
-276 5939 5940 5941 0
-5942 -40 0
-5942 251 0
-5943 -44 0
-5943 241 0
-5944 -45 0
-5944 240 0
-276 5942 5943 5944 0
-5945 -46 0
-5945 266 0
-5946 -50 0
-5946 256 0
-5947 -51 0
-5947 255 0
-276 5945 5946 5947 0
-5948 -52 0
-5948 282 0
-5949 -59 0
-5949 270 0
-5950 -60 0
-5950 269 0
-276 5948 5949 5950 0
-5951 -53 0
-5951 285 0
-5952 -62 0
-5952 273 0
-5953 -63 0
-5953 272 0
-276 5951 5952 5953 0
-5954 -54 0
-5954 286 0
-5955 -64 0
-5955 275 0
-5956 -65 0
-5956 274 0
-276 5954 5955 5956 0
-5957 -7 0
-5957 116 0
-5958 -8 0
-5958 113 0
-5959 -9 0
-5959 112 0
-277 5957 5958 5959 0
-5960 -17 0
-5960 161 0
-5961 -18 0
-5961 158 0
-5962 -19 0
-5962 157 0
-277 5960 5961 5962 0
-5963 -26 0
-5963 197 0
-5964 -27 0
-5964 194 0
-5965 -28 0
-5965 193 0
-277 5963 5964 5965 0
-5966 -34 0
-5966 225 0
-5967 -35 0
-5967 222 0
-5968 -36 0
-5968 221 0
-277 5966 5967 5968 0
-5969 -41 0
-5969 246 0
-5970 -42 0
-5970 243 0
-5971 -43 0
-5971 242 0
-277 5969 5970 5971 0
-5972 -47 0
-5972 261 0
-5973 -48 0
-5973 258 0
-5974 -49 0
-5974 257 0
-277 5972 5973 5974 0
-5975 -52 0
-5975 271 0
-5976 -53 0
-5976 268 0
-5977 -54 0
-5977 267 0
-277 5975 5976 5977 0
-5978 -59 0
-5978 283 0
-5979 -62 0
-5979 280 0
-5980 -64 0
-5980 278 0
-277 5978 5979 5980 0
-5981 -60 0
-5981 284 0
-5982 -63 0
-5982 281 0
-5983 -65 0
-5983 279 0
-277 5981 5982 5983 0
-5984 -7 0
-5984 117 0
-5985 -8 0
-5985 114 0
-5986 -10 0
-5986 112 0
-278 5984 5985 5986 0
-5987 -17 0
-5987 162 0
-5988 -18 0
-5988 159 0
-5989 -20 0
-5989 157 0
-278 5987 5988 5989 0
-5990 -26 0
-5990 198 0
-5991 -27 0
-5991 195 0
-5992 -29 0
-5992 193 0
-278 5990 5991 5992 0
-5993 -34 0
-5993 226 0
-5994 -35 0
-5994 223 0
-5995 -37 0
-5995 221 0
-278 5993 5994 5995 0
-5996 -41 0
-5996 247 0
-5997 -42 0
-5997 244 0
-5998 -44 0
-5998 242 0
-278 5996 5997 5998 0
-5999 -47 0
-5999 262 0
-6000 -48 0
-6000 259 0
-6001 -50 0
-6001 257 0
-278 5999 6000 6001 0
-6002 -52 0
-6002 272 0
-6003 -53 0
-6003 269 0
-6004 -55 0
-6004 267 0
-278 6002 6003 6004 0
-6005 -58 0
-6005 283 0
-6006 -61 0
-6006 280 0
-6007 -64 0
-6007 277 0
-278 6005 6006 6007 0
-6008 -60 0
-6008 285 0
-6009 -63 0
-6009 282 0
-6010 -66 0
-6010 279 0
-278 6008 6009 6010 0
-6011 -7 0
-6011 118 0
-6012 -8 0
-6012 115 0
-6013 -11 0
-6013 112 0
-279 6011 6012 6013 0
-6014 -17 0
-6014 163 0
-6015 -18 0
-6015 160 0
-6016 -21 0
-6016 157 0
-279 6014 6015 6016 0
-6017 -26 0
-6017 199 0
-6018 -27 0
-6018 196 0
-6019 -30 0
-6019 193 0
-279 6017 6018 6019 0
-6020 -34 0
-6020 227 0
-6021 -35 0
-6021 224 0
-6022 -38 0
-6022 221 0
-279 6020 6021 6022 0
-6023 -41 0
-6023 248 0
-6024 -42 0
-6024 245 0
-6025 -45 0
-6025 242 0
-279 6023 6024 6025 0
-6026 -47 0
-6026 263 0
-6027 -48 0
-6027 260 0
-6028 -51 0
-6028 257 0
-279 6026 6027 6028 0
-6029 -52 0
-6029 273 0
-6030 -53 0
-6030 270 0
-6031 -56 0
-6031 267 0
-279 6029 6030 6031 0
-6032 -58 0
-6032 284 0
-6033 -61 0
-6033 281 0
-6034 -65 0
-6034 277 0
-279 6032 6033 6034 0
-6035 -59 0
-6035 285 0
-6036 -62 0
-6036 282 0
-6037 -66 0
-6037 278 0
-279 6035 6036 6037 0
-6038 -7 0
-6038 119 0
-6039 -9 0
-6039 114 0
-6040 -10 0
-6040 113 0
-280 6038 6039 6040 0
-6041 -17 0
-6041 164 0
-6042 -19 0
-6042 159 0
-6043 -20 0
-6043 158 0
-280 6041 6042 6043 0
-6044 -26 0
-6044 200 0
-6045 -28 0
-6045 195 0
-6046 -29 0
-6046 194 0
-280 6044 6045 6046 0
-6047 -34 0
-6047 228 0
-6048 -36 0
-6048 223 0
-6049 -37 0
-6049 222 0
-280 6047 6048 6049 0
-6050 -41 0
-6050 249 0
-6051 -43 0
-6051 244 0
-6052 -44 0
-6052 243 0
-280 6050 6051 6052 0
-6053 -47 0
-6053 264 0
-6054 -49 0
-6054 259 0
-6055 -50 0
-6055 258 0
-280 6053 6054 6055 0
-6056 -52 0
-6056 274 0
-6057 -54 0
-6057 269 0
-6058 -55 0
-6058 268 0
-280 6056 6057 6058 0
-6059 -57 0
-6059 283 0
-6060 -61 0
-6060 278 0
-6061 -62 0
-6061 277 0
-280 6059 6060 6061 0
-6062 -60 0
-6062 286 0
-6063 -65 0
-6063 282 0
-6064 -66 0
-6064 281 0
-280 6062 6063 6064 0
-6065 -7 0
-6065 120 0
-6066 -9 0
-6066 115 0
-6067 -11 0
-6067 113 0
-281 6065 6066 6067 0
-6068 -17 0
-6068 165 0
-6069 -19 0
-6069 160 0
-6070 -21 0
-6070 158 0
-281 6068 6069 6070 0
-6071 -26 0
-6071 201 0
-6072 -28 0
-6072 196 0
-6073 -30 0
-6073 194 0
-281 6071 6072 6073 0
-6074 -34 0
-6074 229 0
-6075 -36 0
-6075 224 0
-6076 -38 0
-6076 222 0
-281 6074 6075 6076 0
-6077 -41 0
-6077 250 0
-6078 -43 0
-6078 245 0
-6079 -45 0
-6079 243 0
-281 6077 6078 6079 0
-6080 -47 0
-6080 265 0
-6081 -49 0
-6081 260 0
-6082 -51 0
-6082 258 0
-281 6080 6081 6082 0
-6083 -52 0
-6083 275 0
-6084 -54 0
-6084 270 0
-6085 -56 0
-6085 268 0
-281 6083 6084 6085 0
-6086 -57 0
-6086 284 0
-6087 -61 0
-6087 279 0
-6088 -63 0
-6088 277 0
-281 6086 6087 6088 0
-6089 -59 0
-6089 286 0
-6090 -64 0
-6090 282 0
-6091 -66 0
-6091 280 0
-281 6089 6090 6091 0
-6092 -7 0
-6092 121 0
-6093 -10 0
-6093 115 0
-6094 -11 0
-6094 114 0
-282 6092 6093 6094 0
-6095 -17 0
-6095 166 0
-6096 -20 0
-6096 160 0
-6097 -21 0
-6097 159 0
-282 6095 6096 6097 0
-6098 -26 0
-6098 202 0
-6099 -29 0
-6099 196 0
-6100 -30 0
-6100 195 0
-282 6098 6099 6100 0
-6101 -34 0
-6101 230 0
-6102 -37 0
-6102 224 0
-6103 -38 0
-6103 223 0
-282 6101 6102 6103 0
-6104 -41 0
-6104 251 0
-6105 -44 0
-6105 245 0
-6106 -45 0
-6106 244 0
-282 6104 6105 6106 0
-6107 -47 0
-6107 266 0
-6108 -50 0
-6108 260 0
-6109 -51 0
-6109 259 0
-282 6107 6108 6109 0
-6110 -52 0
-6110 276 0
-6111 -55 0
-6111 270 0
-6112 -56 0
-6112 269 0
-282 6110 6111 6112 0
-6113 -57 0
-6113 285 0
-6114 -62 0
-6114 279 0
-6115 -63 0
-6115 278 0
-282 6113 6114 6115 0
-6116 -58 0
-6116 286 0
-6117 -64 0
-6117 281 0
-6118 -65 0
-6118 280 0
-282 6116 6117 6118 0
-6119 -8 0
-6119 119 0
-6120 -9 0
-6120 117 0
-6121 -10 0
-6121 116 0
-283 6119 6120 6121 0
-6122 -18 0
-6122 164 0
-6123 -19 0
-6123 162 0
-6124 -20 0
-6124 161 0
-283 6122 6123 6124 0
-6125 -27 0
-6125 200 0
-6126 -28 0
-6126 198 0
-6127 -29 0
-6127 197 0
-283 6125 6126 6127 0
-6128 -35 0
-6128 228 0
-6129 -36 0
-6129 226 0
-6130 -37 0
-6130 225 0
-283 6128 6129 6130 0
-6131 -42 0
-6131 249 0
-6132 -43 0
-6132 247 0
-6133 -44 0
-6133 246 0
-283 6131 6132 6133 0
-6134 -48 0
-6134 264 0
-6135 -49 0
-6135 262 0
-6136 -50 0
-6136 261 0
-283 6134 6135 6136 0
-6137 -53 0
-6137 274 0
-6138 -54 0
-6138 272 0
-6139 -55 0
-6139 271 0
-283 6137 6138 6139 0
-6140 -57 0
-6140 280 0
-6141 -58 0
-6141 278 0
-6142 -59 0
-6142 277 0
-283 6140 6141 6142 0
-6143 -63 0
-6143 286 0
-6144 -65 0
-6144 285 0
-6145 -66 0
-6145 284 0
-283 6143 6144 6145 0
-6146 -8 0
-6146 120 0
-6147 -9 0
-6147 118 0
-6148 -11 0
-6148 116 0
-284 6146 6147 6148 0
-6149 -18 0
-6149 165 0
-6150 -19 0
-6150 163 0
-6151 -21 0
-6151 161 0
-284 6149 6150 6151 0
-6152 -27 0
-6152 201 0
-6153 -28 0
-6153 199 0
-6154 -30 0
-6154 197 0
-284 6152 6153 6154 0
-6155 -35 0
-6155 229 0
-6156 -36 0
-6156 227 0
-6157 -38 0
-6157 225 0
-284 6155 6156 6157 0
-6158 -42 0
-6158 250 0
-6159 -43 0
-6159 248 0
-6160 -45 0
-6160 246 0
-284 6158 6159 6160 0
-6161 -48 0
-6161 265 0
-6162 -49 0
-6162 263 0
-6163 -51 0
-6163 261 0
-284 6161 6162 6163 0
-6164 -53 0
-6164 275 0
-6165 -54 0
-6165 273 0
-6166 -56 0
-6166 271 0
-284 6164 6165 6166 0
-6167 -57 0
-6167 281 0
-6168 -58 0
-6168 279 0
-6169 -60 0
-6169 277 0
-284 6167 6168 6169 0
-6170 -62 0
-6170 286 0
-6171 -64 0
-6171 285 0
-6172 -66 0
-6172 283 0
-284 6170 6171 6172 0
-6173 -8 0
-6173 121 0
-6174 -10 0
-6174 118 0
-6175 -11 0
-6175 117 0
-285 6173 6174 6175 0
-6176 -18 0
-6176 166 0
-6177 -20 0
-6177 163 0
-6178 -21 0
-6178 162 0
-285 6176 6177 6178 0
-6179 -27 0
-6179 202 0
-6180 -29 0
-6180 199 0
-6181 -30 0
-6181 198 0
-285 6179 6180 6181 0
-6182 -35 0
-6182 230 0
-6183 -37 0
-6183 227 0
-6184 -38 0
-6184 226 0
-285 6182 6183 6184 0
-6185 -42 0
-6185 251 0
-6186 -44 0
-6186 248 0
-6187 -45 0
-6187 247 0
-285 6185 6186 6187 0
-6188 -48 0
-6188 266 0
-6189 -50 0
-6189 263 0
-6190 -51 0
-6190 262 0
-285 6188 6189 6190 0
-6191 -53 0
-6191 276 0
-6192 -55 0
-6192 273 0
-6193 -56 0
-6193 272 0
-285 6191 6192 6193 0
-6194 -57 0
-6194 282 0
-6195 -59 0
-6195 279 0
-6196 -60 0
-6196 278 0
-285 6194 6195 6196 0
-6197 -61 0
-6197 286 0
-6198 -64 0
-6198 284 0
-6199 -65 0
-6199 283 0
-285 6197 6198 6199 0
-6200 -9 0
-6200 121 0
-6201 -10 0
-6201 120 0
-6202 -11 0
-6202 119 0
-286 6200 6201 6202 0
-6203 -19 0
-6203 166 0
-6204 -20 0
-6204 165 0
-6205 -21 0
-6205 164 0
-286 6203 6204 6205 0
-6206 -28 0
-6206 202 0
-6207 -29 0
-6207 201 0
-6208 -30 0
-6208 200 0
-286 6206 6207 6208 0
-6209 -36 0
-6209 230 0
-6210 -37 0
-6210 229 0
-6211 -38 0
-6211 228 0
-286 6209 6210 6211 0
-6212 -43 0
-6212 251 0
-6213 -44 0
-6213 250 0
-6214 -45 0
-6214 249 0
-286 6212 6213 6214 0
-6215 -49 0
-6215 266 0
-6216 -50 0
-6216 265 0
-6217 -51 0
-6217 264 0
-286 6215 6216 6217 0
-6218 -54 0
-6218 276 0
-6219 -55 0
-6219 275 0
-6220 -56 0
-6220 274 0
-286 6218 6219 6220 0
-6221 -58 0
-6221 282 0
-6222 -59 0
-6222 281 0
-6223 -60 0
-6223 280 0
-286 6221 6222 6223 0
-6224 -61 0
-6224 285 0
-6225 -62 0
-6225 284 0
-6226 -63 0
-6226 283 0
-286 6224 6225 6226 0
1 0
-2 0
-3 0
-4 0
-5 0
6 0
12 0
-13 0
-14 0
-15 0
-16 0
22 0
-23 0
-24 0
-25 0
31 0
-32 0
-33 0
39 0
-40 0
46 0
7 0
17 0
72 0
-160 0
-115 0
17 0
26 0
126 0
-196 0
-160 0
26 0
34 0
170 0
-224 0
-196 0
35 0
42 0
206 0
-248 0
-227 0
43 0
49 0
234 0
-265 0
-250 0
50 0
55 0
255 0
-276 0
-266 0
53 0
8 0
108 0
-118 0
-273 0
