p cnf 8944 22936
-79 -3 -14 -24 0
-79 -4 -15 -25 0
-79 -5 -16 -26 0
-79 -6 -17 -27 0
-79 -7 -18 -28 0
-79 -8 -19 -29 0
-79 -9 -20 -30 0
-79 -10 -21 -31 0
-79 -11 -22 -32 0
-79 -12 -23 -33 0
-80 -2 -13 -24 0
-80 -4 -15 -34 0
-80 -5 -16 -35 0
-80 -6 -17 -36 0
-80 -7 -18 -37 0
-80 -8 -19 -38 0
-80 -9 -20 -39 0
-80 -10 -21 -40 0
-80 -11 -22 -41 0
-80 -12 -23 -42 0
-81 -2 -13 -25 0
-81 -3 -14 -34 0
-81 -5 -16 -43 0
-81 -6 -17 -44 0
-81 -7 -18 -45 0
-81 -8 -19 -46 0
-81 -9 -20 -47 0
-81 -10 -21 -48 0
-81 -11 -22 -49 0
-81 -12 -23 -50 0
-82 -2 -13 -26 0
-82 -3 -14 -35 0
-82 -4 -15 -43 0
-82 -6 -17 -51 0
-82 -7 -18 -52 0
-82 -8 -19 -53 0
-82 -9 -20 -54 0
-82 -10 -21 -55 0
-82 -11 -22 -56 0
-82 -12 -23 -57 0
-83 -2 -13 -27 0
-83 -3 -14 -36 0
-83 -4 -15 -44 0
-83 -5 -16 -51 0
-83 -7 -18 -58 0
-83 -8 -19 -59 0
-83 -9 -20 -60 0
-83 -10 -21 -61 0
-83 -11 -22 -62 0
-83 -12 -23 -63 0
-84 -2 -13 -28 0
-84 -3 -14 -37 0
-84 -4 -15 -45 0
-84 -5 -16 -52 0
-84 -6 -17 -58 0
-84 -8 -19 -64 0
-84 -9 -20 -65 0
-84 -10 -21 -66 0
-84 -11 -22 -67 0
-84 -12 -23 -68 0
-85 -2 -13 -29 0
-85 -3 -14 -38 0
-85 -4 -15 -46 0
-85 -5 -16 -53 0
-85 -6 -17 -59 0
-85 -7 -18 -64 0
-85 -9 -20 -69 0
-85 -10 -21 -70 0
-85 -11 -22 -71 0
-85 -12 -23 -72 0
-86 -2 -13 -30 0
-86 -3 -14 -39 0
-86 -4 -15 -47 0
-86 -5 -16 -54 0
-86 -6 -17 -60 0
-86 -7 -18 -65 0
-86 -8 -19 -69 0
-86 -10 -21 -73 0
-86 -11 -22 -74 0
-86 -12 -23 -75 0
-87 -2 -13 -31 0
-87 -3 -14 -40 0
-87 -4 -15 -48 0
-87 -5 -16 -55 0
-87 -6 -17 -61 0
-87 -7 -18 -66 0
-87 -8 -19 -70 0
-87 -9 -20 -73 0
-87 -11 -22 -76 0
-87 -12 -23 -77 0
-88 -2 -13 -32 0
-88 -3 -14 -41 0
-88 -4 -15 -49 0
-88 -5 -16 -56 0
-88 -6 -17 -62 0
-88 -7 -18 -67 0
-88 -8 -19 -71 0
-88 -9 -20 -74 0
-88 -10 -21 -76 0
-88 -12 -23 -78 0
-89 -2 -13 -33 0
-89 -3 -14 -42 0
-89 -4 -15 -50 0
-89 -5 -16 -57 0
-89 -6 -17 -63 0
-89 -7 -18 -68 0
-89 -8 -19 -72 0
-89 -9 -20 -75 0
-89 -10 -21 -77 0
-89 -11 -22 -78 0
-90 -1 -13 -14 0
-90 -4 -25 -34 0
-90 -5 -26 -35 0
-90 -6 -27 -36 0
-90 -7 -28 -37 0
-90 -8 -29 -38 0
-90 -9 -30 -39 0
-90 -10 -31 -40 0
-90 -11 -32 -41 0
-90 -12 -33 -42 0
-91 -1 -13 -15 0
-91 -3 -24 -34 0
-91 -5 -26 -43 0
-91 -6 -27 -44 0
-91 -7 -28 -45 0
-91 -8 -29 -46 0
-91 -9 -30 -47 0
-91 -10 -31 -48 0
-91 -11 -32 -49 0
-91 -12 -33 -50 0
-92 -1 -13 -16 0
-92 -3 -24 -35 0
-92 -4 -25 -43 0
-92 -6 -27 -51 0
-92 -7 -28 -52 0
-92 -8 -29 -53 0
-92 -9 -30 -54 0
-92 -10 -31 -55 0
-92 -11 -32 -56 0
-92 -12 -33 -57 0
-93 -1 -13 -17 0
-93 -3 -24 -36 0
-93 -4 -25 -44 0
-93 -5 -26 -51 0
-93 -7 -28 -58 0
-93 -8 -29 -59 0
-93 -9 -30 -60 0
-93 -10 -31 -61 0
-93 -11 -32 -62 0
-93 -12 -33 -63 0
-94 -1 -13 -18 0
-94 -3 -24 -37 0
-94 -4 -25 -45 0
-94 -5 -26 -52 0
-94 -6 -27 -58 0
-94 -8 -29 -64 0
-94 -9 -30 -65 0
-94 -10 -31 -66 0
-94 -11 -32 -67 0
-94 -12 -33 -68 0
-95 -1 -13 -19 0
-95 -3 -24 -38 0
-95 -4 -25 -46 0
-95 -5 -26 -53 0
-95 -6 -27 -59 0
-95 -7 -28 -64 0
-95 -9 -30 -69 0
-95 -10 -31 -70 0
-95 -11 -32 -71 0
-95 -12 -33 -72 0
-96 -1 -13 -20 0
-96 -3 -24 -39 0
-96 -4 -25 -47 0
-96 -5 -26 -54 0
-96 -6 -27 -60 0
-96 -7 -28 -65 0
-96 -8 -29 -69 0
-96 -10 -31 -73 0
-96 -11 -32 -74 0
-96 -12 -33 -75 0
-97 -1 -13 -21 0
-97 -3 -24 -40 0
-97 -4 -25 -48 0
-97 -5 -26 -55 0
-97 -6 -27 -61 0
-97 -7 -28 -66 0
-97 -8 -29 -70 0
-97 -9 -30 -73 0
-97 -11 -32 -76 0
-97 -12 -33 -77 0
-98 -1 -13 -22 0
-98 -3 -24 -41 0
-98 -4 -25 -49 0
-98 -5 -26 -56 0
-98 -6 -27 -62 0
-98 -7 -28 -67 0
-98 -8 -29 -71 0
-98 -9 -30 -74 0
-98 -10 -31 -76 0
-98 -12 -33 -78 0
-99 -1 -13 -23 0
-99 -3 -24 -42 0
-99 -4 -25 -50 0
-99 -5 -26 -57 0
-99 -6 -27 -63 0
-99 -7 -28 -68 0
-99 -8 -29 -72 0
-99 -9 -30 -75 0
-99 -10 -31 -77 0
-99 -11 -32 -78 0
-100 -1 -14 -15 0
-100 -2 -24 -25 0
-100 -5 -35 -43 0
-100 -6 -36 -44 0
-100 -7 -37 -45 0
-100 -8 -38 -46 0
-100 -9 -39 -47 0
-100 -10 -40 -48 0
-100 -11 -41 -49 0
-100 -12 -42 -50 0
-101 -1 -14 -16 0
-101 -2 -24 -26 0
-101 -4 -34 -43 0
-101 -6 -36 -51 0
-101 -7 -37 -52 0
-101 -8 -38 -53 0
-101 -9 -39 -54 0
-101 -10 -40 -55 0
-101 -11 -41 -56 0
-101 -12 -42 -57 0
-102 -1 -14 -17 0
-102 -2 -24 -27 0
-102 -4 -34 -44 0
-102 -5 -35 -51 0
-102 -7 -37 -58 0
-102 -8 -38 -59 0
-102 -9 -39 -60 0
-102 -10 -40 -61 0
-102 -11 -41 -62 0
-102 -12 -42 -63 0
-103 -1 -14 -18 0
-103 -2 -24 -28 0
-103 -4 -34 -45 0
-103 -5 -35 -52 0
-103 -6 -36 -58 0
-103 -8 -38 -64 0
-103 -9 -39 -65 0
-103 -10 -40 -66 0
-103 -11 -41 -67 0
-103 -12 -42 -68 0
-104 -1 -14 -19 0
-104 -2 -24 -29 0
-104 -4 -34 -46 0
-104 -5 -35 -53 0
-104 -6 -36 -59 0
-104 -7 -37 -64 0
-104 -9 -39 -69 0
-104 -10 -40 -70 0
-104 -11 -41 -71 0
-104 -12 -42 -72 0
-105 -1 -14 -20 0
-105 -2 -24 -30 0
-105 -4 -34 -47 0
-105 -5 -35 -54 0
-105 -6 -36 -60 0
-105 -7 -37 -65 0
-105 -8 -38 -69 0
-105 -10 -40 -73 0
-105 -11 -41 -74 0
-105 -12 -42 -75 0
-106 -1 -14 -21 0
-106 -2 -24 -31 0
-106 -4 -34 -48 0
-106 -5 -35 -55 0
-106 -6 -36 -61 0
-106 -7 -37 -66 0
-106 -8 -38 -70 0
-106 -9 -39 -73 0
-106 -11 -41 -76 0
-106 -12 -42 -77 0
-107 -1 -14 -22 0
-107 -2 -24 -32 0
-107 -4 -34 -49 0
-107 -5 -35 -56 0
-107 -6 -36 -62 0
-107 -7 -37 -67 0
-107 -8 -38 -71 0
-107 -9 -39 -74 0
-107 -10 -40 -76 0
-107 -12 -42 -78 0
-108 -1 -14 -23 0
-108 -2 -24 -33 0
-108 -4 -34 -50 0
-108 -5 -35 -57 0
-108 -6 -36 -63 0
-108 -7 -37 -68 0
-108 -8 -38 -72 0
-108 -9 -39 -75 0
-108 -10 -40 -77 0
-108 -11 -41 -78 0
-109 -1 -15 -16 0
-109 -2 -25 -26 0
-109 -3 -34 -35 0
-109 -6 -44 -51 0
-109 -7 -45 -52 0
-109 -8 -46 -53 0
-109 -9 -47 -54 0
-109 -10 -48 -55 0
-109 -11 -49 -56 0
-109 -12 -50 -57 0
-110 -1 -15 -17 0
-110 -2 -25 -27 0
-110 -3 -34 -36 0
-110 -5 -43 -51 0
-110 -7 -45 -58 0
-110 -8 -46 -59 0
-110 -9 -47 -60 0
-110 -10 -48 -61 0
-110 -11 -49 -62 0
-110 -12 -50 -63 0
-111 -1 -15 -18 0
-111 -2 -25 -28 0
-111 -3 -34 -37 0
-111 -5 -43 -52 0
-111 -6 -44 -58 0
-111 -8 -46 -64 0
-111 -9 -47 -65 0
-111 -10 -48 -66 0
-111 -11 -49 -67 0
-111 -12 -50 -68 0
-112 -1 -15 -19 0
-112 -2 -25 -29 0
-112 -3 -34 -38 0
-112 -5 -43 -53 0
-112 -6 -44 -59 0
-112 -7 -45 -64 0
-112 -9 -47 -69 0
-112 -10 -48 -70 0
-112 -11 -49 -71 0
-112 -12 -50 -72 0
-113 -1 -15 -20 0
-113 -2 -25 -30 0
-113 -3 -34 -39 0
-113 -5 -43 -54 0
-113 -6 -44 -60 0
-113 -7 -45 -65 0
-113 -8 -46 -69 0
-113 -10 -48 -73 0
-113 -11 -49 -74 0
-113 -12 -50 -75 0
-114 -1 -15 -21 0
-114 -2 -25 -31 0
-114 -3 -34 -40 0
-114 -5 -43 -55 0
-114 -6 -44 -61 0
-114 -7 -45 -66 0
-114 -8 -46 -70 0
-114 -9 -47 -73 0
-114 -11 -49 -76 0
-114 -12 -50 -77 0
-115 -1 -15 -22 0
-115 -2 -25 -32 0
-115 -3 -34 -41 0
-115 -5 -43 -56 0
-115 -6 -44 -62 0
-115 -7 -45 -67 0
-115 -8 -46 -71 0
-115 -9 -47 -74 0
-115 -10 -48 -76 0
-115 -12 -50 -78 0
-116 -1 -15 -23 0
-116 -2 -25 -33 0
-116 -3 -34 -42 0
-116 -5 -43 -57 0
-116 -6 -44 -63 0
-116 -7 -45 -68 0
-116 -8 -46 -72 0
-116 -9 -47 -75 0
-116 -10 -48 -77 0
-116 -11 -49 -78 0
-117 -1 -16 -17 0
-117 -2 -26 -27 0
-117 -3 -35 -36 0
-117 -4 -43 -44 0
-117 -7 -52 -58 0
-117 -8 -53 -59 0
-117 -9 -54 -60 0
-117 -10 -55 -61 0
-117 -11 -56 -62 0
-117 -12 -57 -63 0
-118 -1 -16 -18 0
-118 -2 -26 -28 0
-118 -3 -35 -37 0
-118 -4 -43 -45 0
-118 -6 -51 -58 0
-118 -8 -53 -64 0
-118 -9 -54 -65 0
-118 -10 -55 -66 0
-118 -11 -56 -67 0
-118 -12 -57 -68 0
-119 -1 -16 -19 0
-119 -2 -26 -29 0
-119 -3 -35 -38 0
-119 -4 -43 -46 0
-119 -6 -51 -59 0
-119 -7 -52 -64 0
-119 -9 -54 -69 0
-119 -10 -55 -70 0
-119 -11 -56 -71 0
-119 -12 -57 -72 0
-120 -1 -16 -20 0
-120 -2 -26 -30 0
-120 -3 -35 -39 0
-120 -4 -43 -47 0
-120 -6 -51 -60 0
-120 -7 -52 -65 0
-120 -8 -53 -69 0
-120 -10 -55 -73 0
-120 -11 -56 -74 0
-120 -12 -57 -75 0
-121 -1 -16 -21 0
-121 -2 -26 -31 0
-121 -3 -35 -40 0
-121 -4 -43 -48 0
-121 -6 -51 -61 0
-121 -7 -52 -66 0
-121 -8 -53 -70 0
-121 -9 -54 -73 0
-121 -11 -56 -76 0
-121 -12 -57 -77 0
-122 -1 -16 -22 0
-122 -2 -26 -32 0
-122 -3 -35 -41 0
-122 -4 -43 -49 0
-122 -6 -51 -62 0
-122 -7 -52 -67 0
-122 -8 -53 -71 0
-122 -9 -54 -74 0
-122 -10 -55 -76 0
-122 -12 -57 -78 0
-123 -1 -16 -23 0
-123 -2 -26 -33 0
-123 -3 -35 -42 0
-123 -4 -43 -50 0
-123 -6 -51 -63 0
-123 -7 -52 -68 0
-123 -8 -53 -72 0
-123 -9 -54 -75 0
-123 -10 -55 -77 0
-123 -11 -56 -78 0
-124 -1 -17 -18 0
-124 -2 -27 -28 0
-124 -3 -36 -37 0
-124 -4 -44 -45 0
-124 -5 -51 -52 0
-124 -8 -59 -64 0
-124 -9 -60 -65 0
-124 -10 -61 -66 0
-124 -11 -62 -67 0
-124 -12 -63 -68 0
-125 -1 -17 -19 0
-125 -2 -27 -29 0
-125 -3 -36 -38 0
-125 -4 -44 -46 0
-125 -5 -51 -53 0
-125 -7 -58 -64 0
-125 -9 -60 -69 0
-125 -10 -61 -70 0
-125 -11 -62 -71 0
-125 -12 -63 -72 0
-126 -1 -17 -20 0
-126 -2 -27 -30 0
-126 -3 -36 -39 0
-126 -4 -44 -47 0
-126 -5 -51 -54 0
-126 -7 -58 -65 0
-126 -8 -59 -69 0
-126 -10 -61 -73 0
-126 -11 -62 -74 0
-126 -12 -63 -75 0
-127 -1 -17 -21 0
-127 -2 -27 -31 0
-127 -3 -36 -40 0
-127 -4 -44 -48 0
-127 -5 -51 -55 0
-127 -7 -58 -66 0
-127 -8 -59 -70 0
-127 -9 -60 -73 0
-127 -11 -62 -76 0
-127 -12 -63 -77 0
-128 -1 -17 -22 0
-128 -2 -27 -32 0
-128 -3 -36 -41 0
-128 -4 -44 -49 0
-128 -5 -51 -56 0
-128 -7 -58 -67 0
-128 -8 -59 -71 0
-128 -9 -60 -74 0
-128 -10 -61 -76 0
-128 -12 -63 -78 0
-129 -1 -17 -23 0
-129 -2 -27 -33 0
-129 -3 -36 -42 0
-129 -4 -44 -50 0
-129 -5 -51 -57 0
-129 -7 -58 -68 0
-129 -8 -59 -72 0
-129 -9 -60 -75 0
-129 -10 -61 -77 0
-129 -11 -62 -78 0
-130 -1 -18 -19 0
-130 -2 -28 -29 0
-130 -3 -37 -38 0
-130 -4 -45 -46 0
-130 -5 -52 -53 0
-130 -6 -58 -59 0
-130 -9 -65 -69 0
-130 -10 -66 -70 0
-130 -11 -67 -71 0
-130 -12 -68 -72 0
-131 -1 -18 -20 0
-131 -2 -28 -30 0
-131 -3 -37 -39 0
-131 -4 -45 -47 0
-131 -5 -52 -54 0
-131 -6 -58 -60 0
-131 -8 -64 -69 0
-131 -10 -66 -73 0
-131 -11 -67 -74 0
-131 -12 -68 -75 0
-132 -1 -18 -21 0
-132 -2 -28 -31 0
-132 -3 -37 -40 0
-132 -4 -45 -48 0
-132 -5 -52 -55 0
-132 -6 -58 -61 0
-132 -8 -64 -70 0
-132 -9 -65 -73 0
-132 -11 -67 -76 0
-132 -12 -68 -77 0
-133 -1 -18 -22 0
-133 -2 -28 -32 0
-133 -3 -37 -41 0
-133 -4 -45 -49 0
-133 -5 -52 -56 0
-133 -6 -58 -62 0
-133 -8 -64 -71 0
-133 -9 -65 -74 0
-133 -10 -66 -76 0
-133 -12 -68 -78 0
-134 -1 -18 -23 0
-134 -2 -28 -33 0
-134 -3 -37 -42 0
-134 -4 -45 -50 0
-134 -5 -52 -57 0
-134 -6 -58 -63 0
-134 -8 -64 -72 0
-134 -9 -65 -75 0
-134 -10 -66 -77 0
-134 -11 -67 -78 0
-135 -1 -19 -20 0
-135 -2 -29 -30 0
-135 -3 -38 -39 0
-135 -4 -46 -47 0
-135 -5 -53 -54 0
-135 -6 -59 -60 0
-135 -7 -64 -65 0
-135 -10 -70 -73 0
-135 -11 -71 -74 0
-135 -12 -72 -75 0
-136 -1 -19 -21 0
-136 -2 -29 -31 0
-136 -3 -38 -40 0
-136 -4 -46 -48 0
-136 -5 -53 -55 0
-136 -6 -59 -61 0
-136 -7 -64 -66 0
-136 -9 -69 -73 0
-136 -11 -71 -76 0
-136 -12 -72 -77 0
-137 -1 -19 -22 0
-137 -2 -29 -32 0
-137 -3 -38 -41 0
-137 -4 -46 -49 0
-137 -5 -53 -56 0
-137 -6 -59 -62 0
-137 -7 -64 -67 0
-137 -9 -69 -74 0
-137 -10 -70 -76 0
-137 -12 -72 -78 0
-138 -1 -19 -23 0
-138 -2 -29 -33 0
-138 -3 -38 -42 0
-138 -4 -46 -50 0
-138 -5 -53 -57 0
-138 -6 -59 -63 0
-138 -7 -64 -68 0
-138 -9 -69 -75 0
-138 -10 -70 -77 0
-138 -11 -71 -78 0
-139 -1 -20 -21 0
-139 -2 -30 -31 0
-139 -3 -39 -40 0
-139 -4 -47 -48 0
-139 -5 -54 -55 0
-139 -6 -60 -61 0
-139 -7 -65 -66 0
-139 -8 -69 -70 0
-139 -11 -74 -76 0
-139 -12 -75 -77 0
-140 -1 -20 -22 0
-140 -2 -30 -32 0
-140 -3 -39 -41 0
-140 -4 -47 -49 0
-140 -5 -54 -56 0
-140 -6 -60 -62 0
-140 -7 -65 -67 0
-140 -8 -69 -71 0
-140 -10 -73 -76 0
-140 -12 -75 -78 0
-141 -1 -20 -23 0
-141 -2 -30 -33 0
-141 -3 -39 -42 0
-141 -4 -47 -50 0
-141 -5 -54 -57 0
-141 -6 -60 -63 0
-141 -7 -65 -68 0
-141 -8 -69 -72 0
-141 -10 -73 -77 0
-141 -11 -74 -78 0
-142 -1 -21 -22 0
-142 -2 -31 -32 0
-142 -3 -40 -41 0
-142 -4 -48 -49 0
-142 -5 -55 -56 0
-142 -6 -61 -62 0
-142 -7 -66 -67 0
-142 -8 -70 -71 0
-142 -9 -73 -74 0
-142 -12 -77 -78 0
-143 -1 -21 -23 0
-143 -2 -31 -33 0
-143 -3 -40 -42 0
-143 -4 -48 -50 0
-143 -5 -55 -57 0
-143 -6 -61 -63 0
-143 -7 -66 -68 0
-143 -8 -70 -72 0
-143 -9 -73 -75 0
-143 -11 -76 -78 0
-144 -1 -22 -23 0
-144 -2 -32 -33 0
-144 -3 -41 -42 0
-144 -4 -49 -50 0
-144 -5 -56 -57 0
-144 -6 -62 -63 0
-144 -7 -67 -68 0
-144 -8 -71 -72 0
-144 -9 -74 -75 0
-144 -10 -76 -77 0
-145 -1 -2 -3 0
-145 -15 -25 -34 0
-145 -16 -26 -35 0
-145 -17 -27 -36 0
-145 -18 -28 -37 0
-145 -19 -29 -38 0
-145 -20 -30 -39 0
-145 -21 -31 -40 0
-145 -22 -32 -41 0
-145 -23 -33 -42 0
-146 -1 -2 -4 0
-146 -14 -24 -34 0
-146 -16 -26 -43 0
-146 -17 -27 -44 0
-146 -18 -28 -45 0
-146 -19 -29 -46 0
-146 -20 -30 -47 0
-146 -21 -31 -48 0
-146 -22 -32 -49 0
-146 -23 -33 -50 0
-147 -1 -2 -5 0
-147 -14 -24 -35 0
-147 -15 -25 -43 0
-147 -17 -27 -51 0
-147 -18 -28 -52 0
-147 -19 -29 -53 0
-147 -20 -30 -54 0
-147 -21 -31 -55 0
-147 -22 -32 -56 0
-147 -23 -33 -57 0
-148 -1 -2 -6 0
-148 -14 -24 -36 0
-148 -15 -25 -44 0
-148 -16 -26 -51 0
-148 -18 -28 -58 0
-148 -19 -29 -59 0
-148 -20 -30 -60 0
-148 -21 -31 -61 0
-148 -22 -32 -62 0
-148 -23 -33 -63 0
-149 -1 -2 -7 0
-149 -14 -24 -37 0
-149 -15 -25 -45 0
-149 -16 -26 -52 0
-149 -17 -27 -58 0
-149 -19 -29 -64 0
-149 -20 -30 -65 0
-149 -21 -31 -66 0
-149 -22 -32 -67 0
-149 -23 -33 -68 0
-150 -1 -2 -8 0
-150 -14 -24 -38 0
-150 -15 -25 -46 0
-150 -16 -26 -53 0
-150 -17 -27 -59 0
-150 -18 -28 -64 0
-150 -20 -30 -69 0
-150 -21 -31 -70 0
-150 -22 -32 -71 0
-150 -23 -33 -72 0
-151 -1 -2 -9 0
-151 -14 -24 -39 0
-151 -15 -25 -47 0
-151 -16 -26 -54 0
-151 -17 -27 -60 0
-151 -18 -28 -65 0
-151 -19 -29 -69 0
-151 -21 -31 -73 0
-151 -22 -32 -74 0
-151 -23 -33 -75 0
-152 -1 -2 -10 0
-152 -14 -24 -40 0
-152 -15 -25 -48 0
-152 -16 -26 -55 0
-152 -17 -27 -61 0
-152 -18 -28 -66 0
-152 -19 -29 -70 0
-152 -20 -30 -73 0
-152 -22 -32 -76 0
-152 -23 -33 -77 0
-153 -1 -2 -11 0
-153 -14 -24 -41 0
-153 -15 -25 -49 0
-153 -16 -26 -56 0
-153 -17 -27 -62 0
-153 -18 -28 -67 0
-153 -19 -29 -71 0
-153 -20 -30 -74 0
-153 -21 -31 -76 0
-153 -23 -33 -78 0
-154 -1 -2 -12 0
-154 -14 -24 -42 0
-154 -15 -25 -50 0
-154 -16 -26 -57 0
-154 -17 -27 -63 0
-154 -18 -28 -68 0
-154 -19 -29 -72 0
-154 -20 -30 -75 0
-154 -21 -31 -77 0
-154 -22 -32 -78 0
-155 -1 -3 -4 0
-155 -13 -24 -25 0
-155 -16 -35 -43 0
-155 -17 -36 -44 0
-155 -18 -37 -45 0
-155 -19 -38 -46 0
-155 -20 -39 -47 0
-155 -21 -40 -48 0
-155 -22 -41 -49 0
-155 -23 -42 -50 0
-156 -1 -3 -5 0
-156 -13 -24 -26 0
-156 -15 -34 -43 0
-156 -17 -36 -51 0
-156 -18 -37 -52 0
-156 -19 -38 -53 0
-156 -20 -39 -54 0
-156 -21 -40 -55 0
-156 -22 -41 -56 0
-156 -23 -42 -57 0
-157 -1 -3 -6 0
-157 -13 -24 -27 0
-157 -15 -34 -44 0
-157 -16 -35 -51 0
-157 -18 -37 -58 0
-157 -19 -38 -59 0
-157 -20 -39 -60 0
-157 -21 -40 -61 0
-157 -22 -41 -62 0
-157 -23 -42 -63 0
-158 -1 -3 -7 0
-158 -13 -24 -28 0
-158 -15 -34 -45 0
-158 -16 -35 -52 0
-158 -17 -36 -58 0
-158 -19 -38 -64 0
-158 -20 -39 -65 0
-158 -21 -40 -66 0
-158 -22 -41 -67 0
-158 -23 -42 -68 0
-159 -1 -3 -8 0
-159 -13 -24 -29 0
-159 -15 -34 -46 0
-159 -16 -35 -53 0
-159 -17 -36 -59 0
-159 -18 -37 -64 0
-159 -20 -39 -69 0
-159 -21 -40 -70 0
-159 -22 -41 -71 0
-159 -23 -42 -72 0
-160 -1 -3 -9 0
-160 -13 -24 -30 0
-160 -15 -34 -47 0
-160 -16 -35 -54 0
-160 -17 -36 -60 0
-160 -18 -37 -65 0
-160 -19 -38 -69 0
-160 -21 -40 -73 0
-160 -22 -41 -74 0
-160 -23 -42 -75 0
-161 -1 -3 -10 0
-161 -13 -24 -31 0
-161 -15 -34 -48 0
-161 -16 -35 -55 0
-161 -17 -36 -61 0
-161 -18 -37 -66 0
-161 -19 -38 -70 0
-161 -20 -39 -73 0
-161 -22 -41 -76 0
-161 -23 -42 -77 0
-162 -1 -3 -11 0
-162 -13 -24 -32 0
-162 -15 -34 -49 0
-162 -16 -35 -56 0
-162 -17 -36 -62 0
-162 -18 -37 -67 0
-162 -19 -38 -71 0
-162 -20 -39 -74 0
-162 -21 -40 -76 0
-162 -23 -42 -78 0
-163 -1 -3 -12 0
-163 -13 -24 -33 0
-163 -15 -34 -50 0
-163 -16 -35 -57 0
-163 -17 -36 -63 0
-163 -18 -37 -68 0
-163 -19 -38 -72 0
-163 -20 -39 -75 0
-163 -21 -40 -77 0
-163 -22 -41 -78 0
-164 -1 -4 -5 0
-164 -13 -25 -26 0
-164 -14 -34 -35 0
-164 -17 -44 -51 0
-164 -18 -45 -52 0
-164 -19 -46 -53 0
-164 -20 -47 -54 0
-164 -21 -48 -55 0
-164 -22 -49 -56 0
-164 -23 -50 -57 0
-165 -1 -4 -6 0
-165 -13 -25 -27 0
-165 -14 -34 -36 0
-165 -16 -43 -51 0
-165 -18 -45 -58 0
-165 -19 -46 -59 0
-165 -20 -47 -60 0
-165 -21 -48 -61 0
-165 -22 -49 -62 0
-165 -23 -50 -63 0
-166 -1 -4 -7 0
-166 -13 -25 -28 0
-166 -14 -34 -37 0
-166 -16 -43 -52 0
-166 -17 -44 -58 0
-166 -19 -46 -64 0
-166 -20 -47 -65 0
-166 -21 -48 -66 0
-166 -22 -49 -67 0
-166 -23 -50 -68 0
-167 -1 -4 -8 0
-167 -13 -25 -29 0
-167 -14 -34 -38 0
-167 -16 -43 -53 0
-167 -17 -44 -59 0
-167 -18 -45 -64 0
-167 -20 -47 -69 0
-167 -21 -48 -70 0
-167 -22 -49 -71 0
-167 -23 -50 -72 0
-168 -1 -4 -9 0
-168 -13 -25 -30 0
-168 -14 -34 -39 0
-168 -16 -43 -54 0
-168 -17 -44 -60 0
-168 -18 -45 -65 0
-168 -19 -46 -69 0
-168 -21 -48 -73 0
-168 -22 -49 -74 0
-168 -23 -50 -75 0
-169 -1 -4 -10 0
-169 -13 -25 -31 0
-169 -14 -34 -40 0
-169 -16 -43 -55 0
-169 -17 -44 -61 0
-169 -18 -45 -66 0
-169 -19 -46 -70 0
-169 -20 -47 -73 0
-169 -22 -49 -76 0
-169 -23 -50 -77 0
-170 -1 -4 -11 0
-170 -13 -25 -32 0
-170 -14 -34 -41 0
-170 -16 -43 -56 0
-170 -17 -44 -62 0
-170 -18 -45 -67 0
-170 -19 -46 -71 0
-170 -20 -47 -74 0
-170 -21 -48 -76 0
-170 -23 -50 -78 0
-171 -1 -4 -12 0
-171 -13 -25 -33 0
-171 -14 -34 -42 0
-171 -16 -43 -57 0
-171 -17 -44 -63 0
-171 -18 -45 -68 0
-171 -19 -46 -72 0
-171 -20 -47 -75 0
-171 -21 -48 -77 0
-171 -22 -49 -78 0
-172 -1 -5 -6 0
-172 -13 -26 -27 0
-172 -14 -35 -36 0
-172 -15 -43 -44 0
-172 -18 -52 -58 0
-172 -19 -53 -59 0
-172 -20 -54 -60 0
-172 -21 -55 -61 0
-172 -22 -56 -62 0
-172 -23 -57 -63 0
-173 -1 -5 -7 0
-173 -13 -26 -28 0
-173 -14 -35 -37 0
-173 -15 -43 -45 0
-173 -17 -51 -58 0
-173 -19 -53 -64 0
-173 -20 -54 -65 0
-173 -21 -55 -66 0
-173 -22 -56 -67 0
-173 -23 -57 -68 0
-174 -1 -5 -8 0
-174 -13 -26 -29 0
-174 -14 -35 -38 0
-174 -15 -43 -46 0
-174 -17 -51 -59 0
-174 -18 -52 -64 0
-174 -20 -54 -69 0
-174 -21 -55 -70 0
-174 -22 -56 -71 0
-174 -23 -57 -72 0
-175 -1 -5 -9 0
-175 -13 -26 -30 0
-175 -14 -35 -39 0
-175 -15 -43 -47 0
-175 -17 -51 -60 0
-175 -18 -52 -65 0
-175 -19 -53 -69 0
-175 -21 -55 -73 0
-175 -22 -56 -74 0
-175 -23 -57 -75 0
-176 -1 -5 -10 0
-176 -13 -26 -31 0
-176 -14 -35 -40 0
-176 -15 -43 -48 0
-176 -17 -51 -61 0
-176 -18 -52 -66 0
-176 -19 -53 -70 0
-176 -20 -54 -73 0
-176 -22 -56 -76 0
-176 -23 -57 -77 0
-177 -1 -5 -11 0
-177 -13 -26 -32 0
-177 -14 -35 -41 0
-177 -15 -43 -49 0
-177 -17 -51 -62 0
-177 -18 -52 -67 0
-177 -19 -53 -71 0
-177 -20 -54 -74 0
-177 -21 -55 -76 0
-177 -23 -57 -78 0
-178 -1 -5 -12 0
-178 -13 -26 -33 0
-178 -14 -35 -42 0
-178 -15 -43 -50 0
-178 -17 -51 -63 0
-178 -18 -52 -68 0
-178 -19 -53 -72 0
-178 -20 -54 -75 0
-178 -21 -55 -77 0
-178 -22 -56 -78 0
-179 -1 -6 -7 0
-179 -13 -27 -28 0
-179 -14 -36 -37 0
-179 -15 -44 -45 0
-179 -16 -51 -52 0
-179 -19 -59 -64 0
-179 -20 -60 -65 0
-179 -21 -61 -66 0
-179 -22 -62 -67 0
-179 -23 -63 -68 0
-180 -1 -6 -8 0
-180 -13 -27 -29 0
-180 -14 -36 -38 0
-180 -15 -44 -46 0
-180 -16 -51 -53 0
-180 -18 -58 -64 0
-180 -20 -60 -69 0
-180 -21 -61 -70 0
-180 -22 -62 -71 0
-180 -23 -63 -72 0
-181 -1 -6 -9 0
-181 -13 -27 -30 0
-181 -14 -36 -39 0
-181 -15 -44 -47 0
-181 -16 -51 -54 0
-181 -18 -58 -65 0
-181 -19 -59 -69 0
-181 -21 -61 -73 0
-181 -22 -62 -74 0
-181 -23 -63 -75 0
-182 -1 -6 -10 0
-182 -13 -27 -31 0
-182 -14 -36 -40 0
-182 -15 -44 -48 0
-182 -16 -51 -55 0
-182 -18 -58 -66 0
-182 -19 -59 -70 0
-182 -20 -60 -73 0
-182 -22 -62 -76 0
-182 -23 -63 -77 0
-183 -1 -6 -11 0
-183 -13 -27 -32 0
-183 -14 -36 -41 0
-183 -15 -44 -49 0
-183 -16 -51 -56 0
-183 -18 -58 -67 0
-183 -19 -59 -71 0
-183 -20 -60 -74 0
-183 -21 -61 -76 0
-183 -23 -63 -78 0
-184 -1 -6 -12 0
-184 -13 -27 -33 0
-184 -14 -36 -42 0
-184 -15 -44 -50 0
-184 -16 -51 -57 0
-184 -18 -58 -68 0
-184 -19 -59 -72 0
-184 -20 -60 -75 0
-184 -21 -61 -77 0
-184 -22 -62 -78 0
-185 -1 -7 -8 0
-185 -13 -28 -29 0
-185 -14 -37 -38 0
-185 -15 -45 -46 0
-185 -16 -52 -53 0
-185 -17 -58 -59 0
-185 -20 -65 -69 0
-185 -21 -66 -70 0
-185 -22 -67 -71 0
-185 -23 -68 -72 0
-186 -1 -7 -9 0
-186 -13 -28 -30 0
-186 -14 -37 -39 0
-186 -15 -45 -47 0
-186 -16 -52 -54 0
-186 -17 -58 -60 0
-186 -19 -64 -69 0
-186 -21 -66 -73 0
-186 -22 -67 -74 0
-186 -23 -68 -75 0
-187 -1 -7 -10 0
-187 -13 -28 -31 0
-187 -14 -37 -40 0
-187 -15 -45 -48 0
-187 -16 -52 -55 0
-187 -17 -58 -61 0
-187 -19 -64 -70 0
-187 -20 -65 -73 0
-187 -22 -67 -76 0
-187 -23 -68 -77 0
-188 -1 -7 -11 0
-188 -13 -28 -32 0
-188 -14 -37 -41 0
-188 -15 -45 -49 0
-188 -16 -52 -56 0
-188 -17 -58 -62 0
-188 -19 -64 -71 0
-188 -20 -65 -74 0
-188 -21 -66 -76 0
-188 -23 -68 -78 0
-189 -1 -7 -12 0
-189 -13 -28 -33 0
-189 -14 -37 -42 0
-189 -15 -45 -50 0
-189 -16 -52 -57 0
-189 -17 -58 -63 0
-189 -19 -64 -72 0
-189 -20 -65 -75 0
-189 -21 -66 -77 0
-189 -22 -67 -78 0
-190 -1 -8 -9 0
-190 -13 -29 -30 0
-190 -14 -38 -39 0
-190 -15 -46 -47 0
-190 -16 -53 -54 0
-190 -17 -59 -60 0
-190 -18 -64 -65 0
-190 -21 -70 -73 0
-190 -22 -71 -74 0
-190 -23 -72 -75 0
-191 -1 -8 -10 0
-191 -13 -29 -31 0
-191 -14 -38 -40 0
-191 -15 -46 -48 0
-191 -16 -53 -55 0
-191 -17 -59 -61 0
-191 -18 -64 -66 0
-191 -20 -69 -73 0
-191 -22 -71 -76 0
-191 -23 -72 -77 0
-192 -1 -8 -11 0
-192 -13 -29 -32 0
-192 -14 -38 -41 0
-192 -15 -46 -49 0
-192 -16 -53 -56 0
-192 -17 -59 -62 0
-192 -18 -64 -67 0
-192 -20 -69 -74 0
-192 -21 -70 -76 0
-192 -23 -72 -78 0
-193 -1 -8 -12 0
-193 -13 -29 -33 0
-193 -14 -38 -42 0
-193 -15 -46 -50 0
-193 -16 -53 -57 0
-193 -17 -59 -63 0
-193 -18 -64 -68 0
-193 -20 -69 -75 0
-193 -21 -70 -77 0
-193 -22 -71 -78 0
-194 -1 -9 -10 0
-194 -13 -30 -31 0
-194 -14 -39 -40 0
-194 -15 -47 -48 0
-194 -16 -54 -55 0
-194 -17 -60 -61 0
-194 -18 -65 -66 0
-194 -19 -69 -70 0
-194 -22 -74 -76 0
-194 -23 -75 -77 0
-195 -1 -9 -11 0
-195 -13 -30 -32 0
-195 -14 -39 -41 0
-195 -15 -47 -49 0
-195 -16 -54 -56 0
-195 -17 -60 -62 0
-195 -18 -65 -67 0
-195 -19 -69 -71 0
-195 -21 -73 -76 0
-195 -23 -75 -78 0
-196 -1 -9 -12 0
-196 -13 -30 -33 0
-196 -14 -39 -42 0
-196 -15 -47 -50 0
-196 -16 -54 -57 0
-196 -17 -60 -63 0
-196 -18 -65 -68 0
-196 -19 -69 -72 0
-196 -21 -73 -77 0
-196 -22 -74 -78 0
-197 -1 -10 -11 0
-197 -13 -31 -32 0
-197 -14 -40 -41 0
-197 -15 -48 -49 0
-197 -16 -55 -56 0
-197 -17 -61 -62 0
-197 -18 -66 -67 0
-197 -19 -70 -71 0
-197 -20 -73 -74 0
-197 -23 -77 -78 0
-198 -1 -10 -12 0
-198 -13 -31 -33 0
-198 -14 -40 -42 0
-198 -15 -48 -50 0
-198 -16 -55 -57 0
-198 -17 -61 -63 0
-198 -18 -66 -68 0
-198 -19 -70 -72 0
-198 -20 -73 -75 0
-198 -22 -76 -78 0
-199 -1 -11 -12 0
-199 -13 -32 -33 0
-199 -14 -41 -42 0
-199 -15 -49 -50 0
-199 -16 -56 -57 0
-199 -17 -62 -63 0
-199 -18 -67 -68 0
-199 -19 -71 -72 0
-199 -20 -74 -75 0
-199 -21 -76 -77 0
-200 -2 -3 -4 0
-200 -13 -14 -15 0
-200 -26 -35 -43 0
-200 -27 -36 -44 0
-200 -28 -37 -45 0
-200 -29 -38 -46 0
-200 -30 -39 -47 0
-200 -31 -40 -48 0
-200 -32 -41 -49 0
-200 -33 -42 -50 0
-201 -2 -3 -5 0
-201 -13 -14 -16 0
-201 -25 -34 -43 0
-201 -27 -36 -51 0
-201 -28 -37 -52 0
-201 -29 -38 -53 0
-201 -30 -39 -54 0
-201 -31 -40 -55 0
-201 -32 -41 -56 0
-201 -33 -42 -57 0
-202 -2 -3 -6 0
-202 -13 -14 -17 0
-202 -25 -34 -44 0
-202 -26 -35 -51 0
-202 -28 -37 -58 0
-202 -29 -38 -59 0
-202 -30 -39 -60 0
-202 -31 -40 -61 0
-202 -32 -41 -62 0
-202 -33 -42 -63 0
-203 -2 -3 -7 0
-203 -13 -14 -18 0
-203 -25 -34 -45 0
-203 -26 -35 -52 0
-203 -27 -36 -58 0
-203 -29 -38 -64 0
-203 -30 -39 -65 0
-203 -31 -40 -66 0
-203 -32 -41 -67 0
-203 -33 -42 -68 0
-204 -2 -3 -8 0
-204 -13 -14 -19 0
-204 -25 -34 -46 0
-204 -26 -35 -53 0
-204 -27 -36 -59 0
-204 -28 -37 -64 0
-204 -30 -39 -69 0
-204 -31 -40 -70 0
-204 -32 -41 -71 0
-204 -33 -42 -72 0
-205 -2 -3 -9 0
-205 -13 -14 -20 0
-205 -25 -34 -47 0
-205 -26 -35 -54 0
-205 -27 -36 -60 0
-205 -28 -37 -65 0
-205 -29 -38 -69 0
-205 -31 -40 -73 0
-205 -32 -41 -74 0
-205 -33 -42 -75 0
-206 -2 -3 -10 0
-206 -13 -14 -21 0
-206 -25 -34 -48 0
-206 -26 -35 -55 0
-206 -27 -36 -61 0
-206 -28 -37 -66 0
-206 -29 -38 -70 0
-206 -30 -39 -73 0
-206 -32 -41 -76 0
-206 -33 -42 -77 0
-207 -2 -3 -11 0
-207 -13 -14 -22 0
-207 -25 -34 -49 0
-207 -26 -35 -56 0
-207 -27 -36 -62 0
-207 -28 -37 -67 0
-207 -29 -38 -71 0
-207 -30 -39 -74 0
-207 -31 -40 -76 0
-207 -33 -42 -78 0
-208 -2 -3 -12 0
-208 -13 -14 -23 0
-208 -25 -34 -50 0
-208 -26 -35 -57 0
-208 -27 -36 -63 0
-208 -28 -37 -68 0
-208 -29 -38 -72 0
-208 -30 -39 -75 0
-208 -31 -40 -77 0
-208 -32 -41 -78 0
-209 -2 -4 -5 0
-209 -13 -15 -16 0
-209 -24 -34 -35 0
-209 -27 -44 -51 0
-209 -28 -45 -52 0
-209 -29 -46 -53 0
-209 -30 -47 -54 0
-209 -31 -48 -55 0
-209 -32 -49 -56 0
-209 -33 -50 -57 0
-210 -2 -4 -6 0
-210 -13 -15 -17 0
-210 -24 -34 -36 0
-210 -26 -43 -51 0
-210 -28 -45 -58 0
-210 -29 -46 -59 0
-210 -30 -47 -60 0
-210 -31 -48 -61 0
-210 -32 -49 -62 0
-210 -33 -50 -63 0
-211 -2 -4 -7 0
-211 -13 -15 -18 0
-211 -24 -34 -37 0
-211 -26 -43 -52 0
-211 -27 -44 -58 0
-211 -29 -46 -64 0
-211 -30 -47 -65 0
-211 -31 -48 -66 0
-211 -32 -49 -67 0
-211 -33 -50 -68 0
-212 -2 -4 -8 0
-212 -13 -15 -19 0
-212 -24 -34 -38 0
-212 -26 -43 -53 0
-212 -27 -44 -59 0
-212 -28 -45 -64 0
-212 -30 -47 -69 0
-212 -31 -48 -70 0
-212 -32 -49 -71 0
-212 -33 -50 -72 0
-213 -2 -4 -9 0
-213 -13 -15 -20 0
-213 -24 -34 -39 0
-213 -26 -43 -54 0
-213 -27 -44 -60 0
-213 -28 -45 -65 0
-213 -29 -46 -69 0
-213 -31 -48 -73 0
-213 -32 -49 -74 0
-213 -33 -50 -75 0
-214 -2 -4 -10 0
-214 -13 -15 -21 0
-214 -24 -34 -40 0
-214 -26 -43 -55 0
-214 -27 -44 -61 0
-214 -28 -45 -66 0
-214 -29 -46 -70 0
-214 -30 -47 -73 0
-214 -32 -49 -76 0
-214 -33 -50 -77 0
-215 -2 -4 -11 0
-215 -13 -15 -22 0
-215 -24 -34 -41 0
-215 -26 -43 -56 0
-215 -27 -44 -62 0
-215 -28 -45 -67 0
-215 -29 -46 -71 0
-215 -30 -47 -74 0
-215 -31 -48 -76 0
-215 -33 -50 -78 0
-216 -2 -4 -12 0
-216 -13 -15 -23 0
-216 -24 -34 -42 0
-216 -26 -43 -57 0
-216 -27 -44 -63 0
-216 -28 -45 -68 0
-216 -29 -46 -72 0
-216 -30 -47 -75 0
-216 -31 -48 -77 0
-216 -32 -49 -78 0
-217 -2 -5 -6 0
-217 -13 -16 -17 0
-217 -24 -35 -36 0
-217 -25 -43 -44 0
-217 -28 -52 -58 0
-217 -29 -53 -59 0
-217 -30 -54 -60 0
-217 -31 -55 -61 0
-217 -32 -56 -62 0
-217 -33 -57 -63 0
-218 -2 -5 -7 0
-218 -13 -16 -18 0
-218 -24 -35 -37 0
-218 -25 -43 -45 0
-218 -27 -51 -58 0
-218 -29 -53 -64 0
-218 -30 -54 -65 0
-218 -31 -55 -66 0
-218 -32 -56 -67 0
-218 -33 -57 -68 0
-219 -2 -5 -8 0
-219 -13 -16 -19 0
-219 -24 -35 -38 0
-219 -25 -43 -46 0
-219 -27 -51 -59 0
-219 -28 -52 -64 0
-219 -30 -54 -69 0
-219 -31 -55 -70 0
-219 -32 -56 -71 0
-219 -33 -57 -72 0
-220 -2 -5 -9 0
-220 -13 -16 -20 0
-220 -24 -35 -39 0
-220 -25 -43 -47 0
-220 -27 -51 -60 0
-220 -28 -52 -65 0
-220 -29 -53 -69 0
-220 -31 -55 -73 0
-220 -32 -56 -74 0
-220 -33 -57 -75 0
-221 -2 -5 -10 0
-221 -13 -16 -21 0
-221 -24 -35 -40 0
-221 -25 -43 -48 0
-221 -27 -51 -61 0
-221 -28 -52 -66 0
-221 -29 -53 -70 0
-221 -30 -54 -73 0
-221 -32 -56 -76 0
-221 -33 -57 -77 0
-222 -2 -5 -11 0
-222 -13 -16 -22 0
-222 -24 -35 -41 0
-222 -25 -43 -49 0
-222 -27 -51 -62 0
-222 -28 -52 -67 0
-222 -29 -53 -71 0
-222 -30 -54 -74 0
-222 -31 -55 -76 0
-222 -33 -57 -78 0
-223 -2 -5 -12 0
-223 -13 -16 -23 0
-223 -24 -35 -42 0
-223 -25 -43 -50 0
-223 -27 -51 -63 0
-223 -28 -52 -68 0
-223 -29 -53 -72 0
-223 -30 -54 -75 0
-223 -31 -55 -77 0
-223 -32 -56 -78 0
-224 -2 -6 -7 0
-224 -13 -17 -18 0
-224 -24 -36 -37 0
-224 -25 -44 -45 0
-224 -26 -51 -52 0
-224 -29 -59 -64 0
-224 -30 -60 -65 0
-224 -31 -61 -66 0
-224 -32 -62 -67 0
-224 -33 -63 -68 0
-225 -2 -6 -8 0
-225 -13 -17 -19 0
-225 -24 -36 -38 0
-225 -25 -44 -46 0
-225 -26 -51 -53 0
-225 -28 -58 -64 0
-225 -30 -60 -69 0
-225 -31 -61 -70 0
-225 -32 -62 -71 0
-225 -33 -63 -72 0
-226 -2 -6 -9 0
-226 -13 -17 -20 0
-226 -24 -36 -39 0
-226 -25 -44 -47 0
-226 -26 -51 -54 0
-226 -28 -58 -65 0
-226 -29 -59 -69 0
-226 -31 -61 -73 0
-226 -32 -62 -74 0
-226 -33 -63 -75 0
-227 -2 -6 -10 0
-227 -13 -17 -21 0
-227 -24 -36 -40 0
-227 -25 -44 -48 0
-227 -26 -51 -55 0
-227 -28 -58 -66 0
-227 -29 -59 -70 0
-227 -30 -60 -73 0
-227 -32 -62 -76 0
-227 -33 -63 -77 0
-228 -2 -6 -11 0
-228 -13 -17 -22 0
-228 -24 -36 -41 0
-228 -25 -44 -49 0
-228 -26 -51 -56 0
-228 -28 -58 -67 0
-228 -29 -59 -71 0
-228 -30 -60 -74 0
-228 -31 -61 -76 0
-228 -33 -63 -78 0
-229 -2 -6 -12 0
-229 -13 -17 -23 0
-229 -24 -36 -42 0
-229 -25 -44 -50 0
-229 -26 -51 -57 0
-229 -28 -58 -68 0
-229 -29 -59 -72 0
-229 -30 -60 -75 0
-229 -31 -61 -77 0
-229 -32 -62 -78 0
-230 -2 -7 -8 0
-230 -13 -18 -19 0
-230 -24 -37 -38 0
-230 -25 -45 -46 0
-230 -26 -52 -53 0
-230 -27 -58 -59 0
-230 -30 -65 -69 0
-230 -31 -66 -70 0
-230 -32 -67 -71 0
-230 -33 -68 -72 0
-231 -2 -7 -9 0
-231 -13 -18 -20 0
-231 -24 -37 -39 0
-231 -25 -45 -47 0
-231 -26 -52 -54 0
-231 -27 -58 -60 0
-231 -29 -64 -69 0
-231 -31 -66 -73 0
-231 -32 -67 -74 0
-231 -33 -68 -75 0
-232 -2 -7 -10 0
-232 -13 -18 -21 0
-232 -24 -37 -40 0
-232 -25 -45 -48 0
-232 -26 -52 -55 0
-232 -27 -58 -61 0
-232 -29 -64 -70 0
-232 -30 -65 -73 0
-232 -32 -67 -76 0
-232 -33 -68 -77 0
-233 -2 -7 -11 0
-233 -13 -18 -22 0
-233 -24 -37 -41 0
-233 -25 -45 -49 0
-233 -26 -52 -56 0
-233 -27 -58 -62 0
-233 -29 -64 -71 0
-233 -30 -65 -74 0
-233 -31 -66 -76 0
-233 -33 -68 -78 0
-234 -2 -7 -12 0
-234 -13 -18 -23 0
-234 -24 -37 -42 0
-234 -25 -45 -50 0
-234 -26 -52 -57 0
-234 -27 -58 -63 0
-234 -29 -64 -72 0
-234 -30 -65 -75 0
-234 -31 -66 -77 0
-234 -32 -67 -78 0
-235 -2 -8 -9 0
-235 -13 -19 -20 0
-235 -24 -38 -39 0
-235 -25 -46 -47 0
-235 -26 -53 -54 0
-235 -27 -59 -60 0
-235 -28 -64 -65 0
-235 -31 -70 -73 0
-235 -32 -71 -74 0
-235 -33 -72 -75 0
-236 -2 -8 -10 0
-236 -13 -19 -21 0
-236 -24 -38 -40 0
-236 -25 -46 -48 0
-236 -26 -53 -55 0
-236 -27 -59 -61 0
-236 -28 -64 -66 0
-236 -30 -69 -73 0
-236 -32 -71 -76 0
-236 -33 -72 -77 0
-237 -2 -8 -11 0
-237 -13 -19 -22 0
-237 -24 -38 -41 0
-237 -25 -46 -49 0
-237 -26 -53 -56 0
-237 -27 -59 -62 0
-237 -28 -64 -67 0
-237 -30 -69 -74 0
-237 -31 -70 -76 0
-237 -33 -72 -78 0
-238 -2 -8 -12 0
-238 -13 -19 -23 0
-238 -24 -38 -42 0
-238 -25 -46 -50 0
-238 -26 -53 -57 0
-238 -27 -59 -63 0
-238 -28 -64 -68 0
-238 -30 -69 -75 0
-238 -31 -70 -77 0
-238 -32 -71 -78 0
-239 -2 -9 -10 0
-239 -13 -20 -21 0
-239 -24 -39 -40 0
-239 -25 -47 -48 0
-239 -26 -54 -55 0
-239 -27 -60 -61 0
-239 -28 -65 -66 0
-239 -29 -69 -70 0
-239 -32 -74 -76 0
-239 -33 -75 -77 0
-240 -2 -9 -11 0
-240 -13 -20 -22 0
-240 -24 -39 -41 0
-240 -25 -47 -49 0
-240 -26 -54 -56 0
-240 -27 -60 -62 0
-240 -28 -65 -67 0
-240 -29 -69 -71 0
-240 -31 -73 -76 0
-240 -33 -75 -78 0
-241 -2 -9 -12 0
-241 -13 -20 -23 0
-241 -24 -39 -42 0
-241 -25 -47 -50 0
-241 -26 -54 -57 0
-241 -27 -60 -63 0
-241 -28 -65 -68 0
-241 -29 -69 -72 0
-241 -31 -73 -77 0
-241 -32 -74 -78 0
-242 -2 -10 -11 0
-242 -13 -21 -22 0
-242 -24 -40 -41 0
-242 -25 -48 -49 0
-242 -26 -55 -56 0
-242 -27 -61 -62 0
-242 -28 -66 -67 0
-242 -29 -70 -71 0
-242 -30 -73 -74 0
-242 -33 -77 -78 0
-243 -2 -10 -12 0
-243 -13 -21 -23 0
-243 -24 -40 -42 0
-243 -25 -48 -50 0
-243 -26 -55 -57 0
-243 -27 -61 -63 0
-243 -28 -66 -68 0
-243 -29 -70 -72 0
-243 -30 -73 -75 0
-243 -32 -76 -78 0
-244 -2 -11 -12 0
-244 -13 -22 -23 0
-244 -24 -41 -42 0
-244 -25 -49 -50 0
-244 -26 -56 -57 0
-244 -27 -62 -63 0
-244 -28 -67 -68 0
-244 -29 -71 -72 0
-244 -30 -74 -75 0
-244 -31 -76 -77 0
-245 -3 -4 -5 0
-245 -14 -15 -16 0
-245 -24 -25 -26 0
-245 -36 -44 -51 0
-245 -37 -45 -52 0
-245 -38 -46 -53 0
-245 -39 -47 -54 0
-245 -40 -48 -55 0
-245 -41 -49 -56 0
-245 -42 -50 -57 0
-246 -3 -4 -6 0
-246 -14 -15 -17 0
-246 -24 -25 -27 0
-246 -35 -43 -51 0
-246 -37 -45 -58 0
-246 -38 -46 -59 0
-246 -39 -47 -60 0
-246 -40 -48 -61 0
-246 -41 -49 -62 0
-246 -42 -50 -63 0
-247 -3 -4 -7 0
-247 -14 -15 -18 0
-247 -24 -25 -28 0
-247 -35 -43 -52 0
-247 -36 -44 -58 0
-247 -38 -46 -64 0
-247 -39 -47 -65 0
-247 -40 -48 -66 0
-247 -41 -49 -67 0
-247 -42 -50 -68 0
-248 -3 -4 -8 0
-248 -14 -15 -19 0
-248 -24 -25 -29 0
-248 -35 -43 -53 0
-248 -36 -44 -59 0
-248 -37 -45 -64 0
-248 -39 -47 -69 0
-248 -40 -48 -70 0
-248 -41 -49 -71 0
-248 -42 -50 -72 0
-249 -3 -4 -9 0
-249 -14 -15 -20 0
-249 -24 -25 -30 0
-249 -35 -43 -54 0
-249 -36 -44 -60 0
-249 -37 -45 -65 0
-249 -38 -46 -69 0
-249 -40 -48 -73 0
-249 -41 -49 -74 0
-249 -42 -50 -75 0
-250 -3 -4 -10 0
-250 -14 -15 -21 0
-250 -24 -25 -31 0
-250 -35 -43 -55 0
-250 -36 -44 -61 0
-250 -37 -45 -66 0
-250 -38 -46 -70 0
-250 -39 -47 -73 0
-250 -41 -49 -76 0
-250 -42 -50 -77 0
-251 -3 -4 -11 0
-251 -14 -15 -22 0
-251 -24 -25 -32 0
-251 -35 -43 -56 0
-251 -36 -44 -62 0
-251 -37 -45 -67 0
-251 -38 -46 -71 0
-251 -39 -47 -74 0
-251 -40 -48 -76 0
-251 -42 -50 -78 0
-252 -3 -4 -12 0
-252 -14 -15 -23 0
-252 -24 -25 -33 0
-252 -35 -43 -57 0
-252 -36 -44 -63 0
-252 -37 -45 -68 0
-252 -38 -46 -72 0
-252 -39 -47 -75 0
-252 -40 -48 -77 0
-252 -41 -49 -78 0
-253 -3 -5 -6 0
-253 -14 -16 -17 0
-253 -24 -26 -27 0
-253 -34 -43 -44 0
-253 -37 -52 -58 0
-253 -38 -53 -59 0
-253 -39 -54 -60 0
-253 -40 -55 -61 0
-253 -41 -56 -62 0
-253 -42 -57 -63 0
-254 -3 -5 -7 0
-254 -14 -16 -18 0
-254 -24 -26 -28 0
-254 -34 -43 -45 0
-254 -36 -51 -58 0
-254 -38 -53 -64 0
-254 -39 -54 -65 0
-254 -40 -55 -66 0
-254 -41 -56 -67 0
-254 -42 -57 -68 0
-255 -3 -5 -8 0
-255 -14 -16 -19 0
-255 -24 -26 -29 0
-255 -34 -43 -46 0
-255 -36 -51 -59 0
-255 -37 -52 -64 0
-255 -39 -54 -69 0
-255 -40 -55 -70 0
-255 -41 -56 -71 0
-255 -42 -57 -72 0
-256 -3 -5 -9 0
-256 -14 -16 -20 0
-256 -24 -26 -30 0
-256 -34 -43 -47 0
-256 -36 -51 -60 0
-256 -37 -52 -65 0
-256 -38 -53 -69 0
-256 -40 -55 -73 0
-256 -41 -56 -74 0
-256 -42 -57 -75 0
-257 -3 -5 -10 0
-257 -14 -16 -21 0
-257 -24 -26 -31 0
-257 -34 -43 -48 0
-257 -36 -51 -61 0
-257 -37 -52 -66 0
-257 -38 -53 -70 0
-257 -39 -54 -73 0
-257 -41 -56 -76 0
-257 -42 -57 -77 0
-258 -3 -5 -11 0
-258 -14 -16 -22 0
-258 -24 -26 -32 0
-258 -34 -43 -49 0
-258 -36 -51 -62 0
-258 -37 -52 -67 0
-258 -38 -53 -71 0
-258 -39 -54 -74 0
-258 -40 -55 -76 0
-258 -42 -57 -78 0
-259 -3 -5 -12 0
-259 -14 -16 -23 0
-259 -24 -26 -33 0
-259 -34 -43 -50 0
-259 -36 -51 -63 0
-259 -37 -52 -68 0
-259 -38 -53 -72 0
-259 -39 -54 -75 0
-259 -40 -55 -77 0
-259 -41 -56 -78 0
-260 -3 -6 -7 0
-260 -14 -17 -18 0
-260 -24 -27 -28 0
-260 -34 -44 -45 0
-260 -35 -51 -52 0
-260 -38 -59 -64 0
-260 -39 -60 -65 0
-260 -40 -61 -66 0
-260 -41 -62 -67 0
-260 -42 -63 -68 0
-261 -3 -6 -8 0
-261 -14 -17 -19 0
-261 -24 -27 -29 0
-261 -34 -44 -46 0
-261 -35 -51 -53 0
-261 -37 -58 -64 0
-261 -39 -60 -69 0
-261 -40 -61 -70 0
-261 -41 -62 -71 0
-261 -42 -63 -72 0
-262 -3 -6 -9 0
-262 -14 -17 -20 0
-262 -24 -27 -30 0
-262 -34 -44 -47 0
-262 -35 -51 -54 0
-262 -37 -58 -65 0
-262 -38 -59 -69 0
-262 -40 -61 -73 0
-262 -41 -62 -74 0
-262 -42 -63 -75 0
-263 -3 -6 -10 0
-263 -14 -17 -21 0
-263 -24 -27 -31 0
-263 -34 -44 -48 0
-263 -35 -51 -55 0
-263 -37 -58 -66 0
-263 -38 -59 -70 0
-263 -39 -60 -73 0
-263 -41 -62 -76 0
-263 -42 -63 -77 0
-264 -3 -6 -11 0
-264 -14 -17 -22 0
-264 -24 -27 -32 0
-264 -34 -44 -49 0
-264 -35 -51 -56 0
-264 -37 -58 -67 0
-264 -38 -59 -71 0
-264 -39 -60 -74 0
-264 -40 -61 -76 0
-264 -42 -63 -78 0
-265 -3 -6 -12 0
-265 -14 -17 -23 0
-265 -24 -27 -33 0
-265 -34 -44 -50 0
-265 -35 -51 -57 0
-265 -37 -58 -68 0
-265 -38 -59 -72 0
-265 -39 -60 -75 0
-265 -40 -61 -77 0
-265 -41 -62 -78 0
-266 -3 -7 -8 0
-266 -14 -18 -19 0
-266 -24 -28 -29 0
-266 -34 -45 -46 0
-266 -35 -52 -53 0
-266 -36 -58 -59 0
-266 -39 -65 -69 0
-266 -40 -66 -70 0
-266 -41 -67 -71 0
-266 -42 -68 -72 0
-267 -3 -7 -9 0
-267 -14 -18 -20 0
-267 -24 -28 -30 0
-267 -34 -45 -47 0
-267 -35 -52 -54 0
-267 -36 -58 -60 0
-267 -38 -64 -69 0
-267 -40 -66 -73 0
-267 -41 -67 -74 0
-267 -42 -68 -75 0
-268 -3 -7 -10 0
-268 -14 -18 -21 0
-268 -24 -28 -31 0
-268 -34 -45 -48 0
-268 -35 -52 -55 0
-268 -36 -58 -61 0
-268 -38 -64 -70 0
-268 -39 -65 -73 0
-268 -41 -67 -76 0
-268 -42 -68 -77 0
-269 -3 -7 -11 0
-269 -14 -18 -22 0
-269 -24 -28 -32 0
-269 -34 -45 -49 0
-269 -35 -52 -56 0
-269 -36 -58 -62 0
-269 -38 -64 -71 0
-269 -39 -65 -74 0
-269 -40 -66 -76 0
-269 -42 -68 -78 0
-270 -3 -7 -12 0
-270 -14 -18 -23 0
-270 -24 -28 -33 0
-270 -34 -45 -50 0
-270 -35 -52 -57 0
-270 -36 -58 -63 0
-270 -38 -64 -72 0
-270 -39 -65 -75 0
-270 -40 -66 -77 0
-270 -41 -67 -78 0
-271 -3 -8 -9 0
-271 -14 -19 -20 0
-271 -24 -29 -30 0
-271 -34 -46 -47 0
-271 -35 -53 -54 0
-271 -36 -59 -60 0
-271 -37 -64 -65 0
-271 -40 -70 -73 0
-271 -41 -71 -74 0
-271 -42 -72 -75 0
-272 -3 -8 -10 0
-272 -14 -19 -21 0
-272 -24 -29 -31 0
-272 -34 -46 -48 0
-272 -35 -53 -55 0
-272 -36 -59 -61 0
-272 -37 -64 -66 0
-272 -39 -69 -73 0
-272 -41 -71 -76 0
-272 -42 -72 -77 0
-273 -3 -8 -11 0
-273 -14 -19 -22 0
-273 -24 -29 -32 0
-273 -34 -46 -49 0
-273 -35 -53 -56 0
-273 -36 -59 -62 0
-273 -37 -64 -67 0
-273 -39 -69 -74 0
-273 -40 -70 -76 0
-273 -42 -72 -78 0
-274 -3 -8 -12 0
-274 -14 -19 -23 0
-274 -24 -29 -33 0
-274 -34 -46 -50 0
-274 -35 -53 -57 0
-274 -36 -59 -63 0
-274 -37 -64 -68 0
-274 -39 -69 -75 0
-274 -40 -70 -77 0
-274 -41 -71 -78 0
-275 -3 -9 -10 0
-275 -14 -20 -21 0
-275 -24 -30 -31 0
-275 -34 -47 -48 0
-275 -35 -54 -55 0
-275 -36 -60 -61 0
-275 -37 -65 -66 0
-275 -38 -69 -70 0
-275 -41 -74 -76 0
-275 -42 -75 -77 0
-276 -3 -9 -11 0
-276 -14 -20 -22 0
-276 -24 -30 -32 0
-276 -34 -47 -49 0
-276 -35 -54 -56 0
-276 -36 -60 -62 0
-276 -37 -65 -67 0
-276 -38 -69 -71 0
-276 -40 -73 -76 0
-276 -42 -75 -78 0
-277 -3 -9 -12 0
-277 -14 -20 -23 0
-277 -24 -30 -33 0
-277 -34 -47 -50 0
-277 -35 -54 -57 0
-277 -36 -60 -63 0
-277 -37 -65 -68 0
-277 -38 -69 -72 0
-277 -40 -73 -77 0
-277 -41 -74 -78 0
-278 -3 -10 -11 0
-278 -14 -21 -22 0
-278 -24 -31 -32 0
-278 -34 -48 -49 0
-278 -35 -55 -56 0
-278 -36 -61 -62 0
-278 -37 -66 -67 0
-278 -38 -70 -71 0
-278 -39 -73 -74 0
-278 -42 -77 -78 0
-279 -3 -10 -12 0
-279 -14 -21 -23 0
-279 -24 -31 -33 0
-279 -34 -48 -50 0
-279 -35 -55 -57 0
-279 -36 -61 -63 0
-279 -37 -66 -68 0
-279 -38 -70 -72 0
-279 -39 -73 -75 0
-279 -41 -76 -78 0
-280 -3 -11 -12 0
-280 -14 -22 -23 0
-280 -24 -32 -33 0
-280 -34 -49 -50 0
-280 -35 -56 -57 0
-280 -36 -62 -63 0
-280 -37 -67 -68 0
-280 -38 -71 -72 0
-280 -39 -74 -75 0
-280 -40 -76 -77 0
-281 -4 -5 -6 0
-281 -15 -16 -17 0
-281 -25 -26 -27 0
-281 -34 -35 -36 0
-281 -45 -52 -58 0
-281 -46 -53 -59 0
-281 -47 -54 -60 0
-281 -48 -55 -61 0
-281 -49 -56 -62 0
-281 -50 -57 -63 0
-282 -4 -5 -7 0
-282 -15 -16 -18 0
-282 -25 -26 -28 0
-282 -34 -35 -37 0
-282 -44 -51 -58 0
-282 -46 -53 -64 0
-282 -47 -54 -65 0
-282 -48 -55 -66 0
-282 -49 -56 -67 0
-282 -50 -57 -68 0
-283 -4 -5 -8 0
-283 -15 -16 -19 0
-283 -25 -26 -29 0
-283 -34 -35 -38 0
-283 -44 -51 -59 0
-283 -45 -52 -64 0
-283 -47 -54 -69 0
-283 -48 -55 -70 0
-283 -49 -56 -71 0
-283 -50 -57 -72 0
-284 -4 -5 -9 0
-284 -15 -16 -20 0
-284 -25 -26 -30 0
-284 -34 -35 -39 0
-284 -44 -51 -60 0
-284 -45 -52 -65 0
-284 -46 -53 -69 0
-284 -48 -55 -73 0
-284 -49 -56 -74 0
-284 -50 -57 -75 0
-285 -4 -5 -10 0
-285 -15 -16 -21 0
-285 -25 -26 -31 0
-285 -34 -35 -40 0
-285 -44 -51 -61 0
-285 -45 -52 -66 0
-285 -46 -53 -70 0
-285 -47 -54 -73 0
-285 -49 -56 -76 0
-285 -50 -57 -77 0
-286 -4 -5 -11 0
-286 -15 -16 -22 0
-286 -25 -26 -32 0
-286 -34 -35 -41 0
-286 -44 -51 -62 0
-286 -45 -52 -67 0
-286 -46 -53 -71 0
-286 -47 -54 -74 0
-286 -48 -55 -76 0
-286 -50 -57 -78 0
-287 -4 -5 -12 0
-287 -15 -16 -23 0
-287 -25 -26 -33 0
-287 -34 -35 -42 0
-287 -44 -51 -63 0
-287 -45 -52 -68 0
-287 -46 -53 -72 0
-287 -47 -54 -75 0
-287 -48 -55 -77 0
-287 -49 -56 -78 0
-288 -4 -6 -7 0
-288 -15 -17 -18 0
-288 -25 -27 -28 0
-288 -34 -36 -37 0
-288 -43 -51 -52 0
-288 -46 -59 -64 0
-288 -47 -60 -65 0
-288 -48 -61 -66 0
-288 -49 -62 -67 0
-288 -50 -63 -68 0
-289 -4 -6 -8 0
-289 -15 -17 -19 0
-289 -25 -27 -29 0
-289 -34 -36 -38 0
-289 -43 -51 -53 0
-289 -45 -58 -64 0
-289 -47 -60 -69 0
-289 -48 -61 -70 0
-289 -49 -62 -71 0
-289 -50 -63 -72 0
-290 -4 -6 -9 0
-290 -15 -17 -20 0
-290 -25 -27 -30 0
-290 -34 -36 -39 0
-290 -43 -51 -54 0
-290 -45 -58 -65 0
-290 -46 -59 -69 0
-290 -48 -61 -73 0
-290 -49 -62 -74 0
-290 -50 -63 -75 0
-291 -4 -6 -10 0
-291 -15 -17 -21 0
-291 -25 -27 -31 0
-291 -34 -36 -40 0
-291 -43 -51 -55 0
-291 -45 -58 -66 0
-291 -46 -59 -70 0
-291 -47 -60 -73 0
-291 -49 -62 -76 0
-291 -50 -63 -77 0
-292 -4 -6 -11 0
-292 -15 -17 -22 0
-292 -25 -27 -32 0
-292 -34 -36 -41 0
-292 -43 -51 -56 0
-292 -45 -58 -67 0
-292 -46 -59 -71 0
-292 -47 -60 -74 0
-292 -48 -61 -76 0
-292 -50 -63 -78 0
-293 -4 -6 -12 0
-293 -15 -17 -23 0
-293 -25 -27 -33 0
-293 -34 -36 -42 0
-293 -43 -51 -57 0
-293 -45 -58 -68 0
-293 -46 -59 -72 0
-293 -47 -60 -75 0
-293 -48 -61 -77 0
-293 -49 -62 -78 0
-294 -4 -7 -8 0
-294 -15 -18 -19 0
-294 -25 -28 -29 0
-294 -34 -37 -38 0
-294 -43 -52 -53 0
-294 -44 -58 -59 0
-294 -47 -65 -69 0
-294 -48 -66 -70 0
-294 -49 -67 -71 0
-294 -50 -68 -72 0
-295 -4 -7 -9 0
-295 -15 -18 -20 0
-295 -25 -28 -30 0
-295 -34 -37 -39 0
-295 -43 -52 -54 0
-295 -44 -58 -60 0
-295 -46 -64 -69 0
-295 -48 -66 -73 0
-295 -49 -67 -74 0
-295 -50 -68 -75 0
-296 -4 -7 -10 0
-296 -15 -18 -21 0
-296 -25 -28 -31 0
-296 -34 -37 -40 0
-296 -43 -52 -55 0
-296 -44 -58 -61 0
-296 -46 -64 -70 0
-296 -47 -65 -73 0
-296 -49 -67 -76 0
-296 -50 -68 -77 0
-297 -4 -7 -11 0
-297 -15 -18 -22 0
-297 -25 -28 -32 0
-297 -34 -37 -41 0
-297 -43 -52 -56 0
-297 -44 -58 -62 0
-297 -46 -64 -71 0
-297 -47 -65 -74 0
-297 -48 -66 -76 0
-297 -50 -68 -78 0
-298 -4 -7 -12 0
-298 -15 -18 -23 0
-298 -25 -28 -33 0
-298 -34 -37 -42 0
-298 -43 -52 -57 0
-298 -44 -58 -63 0
-298 -46 -64 -72 0
-298 -47 -65 -75 0
-298 -48 -66 -77 0
-298 -49 -67 -78 0
-299 -4 -8 -9 0
-299 -15 -19 -20 0
-299 -25 -29 -30 0
-299 -34 -38 -39 0
-299 -43 -53 -54 0
-299 -44 -59 -60 0
-299 -45 -64 -65 0
-299 -48 -70 -73 0
-299 -49 -71 -74 0
-299 -50 -72 -75 0
-300 -4 -8 -10 0
-300 -15 -19 -21 0
-300 -25 -29 -31 0
-300 -34 -38 -40 0
-300 -43 -53 -55 0
-300 -44 -59 -61 0
-300 -45 -64 -66 0
-300 -47 -69 -73 0
-300 -49 -71 -76 0
-300 -50 -72 -77 0
-301 -4 -8 -11 0
-301 -15 -19 -22 0
-301 -25 -29 -32 0
-301 -34 -38 -41 0
-301 -43 -53 -56 0
-301 -44 -59 -62 0
-301 -45 -64 -67 0
-301 -47 -69 -74 0
-301 -48 -70 -76 0
-301 -50 -72 -78 0
-302 -4 -8 -12 0
-302 -15 -19 -23 0
-302 -25 -29 -33 0
-302 -34 -38 -42 0
-302 -43 -53 -57 0
-302 -44 -59 -63 0
-302 -45 -64 -68 0
-302 -47 -69 -75 0
-302 -48 -70 -77 0
-302 -49 -71 -78 0
-303 -4 -9 -10 0
-303 -15 -20 -21 0
-303 -25 -30 -31 0
-303 -34 -39 -40 0
-303 -43 -54 -55 0
-303 -44 -60 -61 0
-303 -45 -65 -66 0
-303 -46 -69 -70 0
-303 -49 -74 -76 0
-303 -50 -75 -77 0
-304 -4 -9 -11 0
-304 -15 -20 -22 0
-304 -25 -30 -32 0
-304 -34 -39 -41 0
-304 -43 -54 -56 0
-304 -44 -60 -62 0
-304 -45 -65 -67 0
-304 -46 -69 -71 0
-304 -48 -73 -76 0
-304 -50 -75 -78 0
-305 -4 -9 -12 0
-305 -15 -20 -23 0
-305 -25 -30 -33 0
-305 -34 -39 -42 0
-305 -43 -54 -57 0
-305 -44 -60 -63 0
-305 -45 -65 -68 0
-305 -46 -69 -72 0
-305 -48 -73 -77 0
-305 -49 -74 -78 0
-306 -4 -10 -11 0
-306 -15 -21 -22 0
-306 -25 -31 -32 0
-306 -34 -40 -41 0
-306 -43 -55 -56 0
-306 -44 -61 -62 0
-306 -45 -66 -67 0
-306 -46 -70 -71 0
-306 -47 -73 -74 0
-306 -50 -77 -78 0
-307 -4 -10 -12 0
-307 -15 -21 -23 0
-307 -25 -31 -33 0
-307 -34 -40 -42 0
-307 -43 -55 -57 0
-307 -44 -61 -63 0
-307 -45 -66 -68 0
-307 -46 -70 -72 0
-307 -47 -73 -75 0
-307 -49 -76 -78 0
-308 -4 -11 -12 0
-308 -15 -22 -23 0
-308 -25 -32 -33 0
-308 -34 -41 -42 0
-308 -43 -56 -57 0
-308 -44 -62 -63 0
-308 -45 -67 -68 0
-308 -46 -71 -72 0
-308 -47 -74 -75 0
-308 -48 -76 -77 0
-309 -5 -6 -7 0
-309 -16 -17 -18 0
-309 -26 -27 -28 0
-309 -35 -36 -37 0
-309 -43 -44 -45 0
-309 -53 -59 -64 0
-309 -54 -60 -65 0
-309 -55 -61 -66 0
-309 -56 -62 -67 0
-309 -57 -63 -68 0
-310 -5 -6 -8 0
-310 -16 -17 -19 0
-310 -26 -27 -29 0
-310 -35 -36 -38 0
-310 -43 -44 -46 0
-310 -52 -58 -64 0
-310 -54 -60 -69 0
-310 -55 -61 -70 0
-310 -56 -62 -71 0
-310 -57 -63 -72 0
-311 -5 -6 -9 0
-311 -16 -17 -20 0
-311 -26 -27 -30 0
-311 -35 -36 -39 0
-311 -43 -44 -47 0
-311 -52 -58 -65 0
-311 -53 -59 -69 0
-311 -55 -61 -73 0
-311 -56 -62 -74 0
-311 -57 -63 -75 0
-312 -5 -6 -10 0
-312 -16 -17 -21 0
-312 -26 -27 -31 0
-312 -35 -36 -40 0
-312 -43 -44 -48 0
-312 -52 -58 -66 0
-312 -53 -59 -70 0
-312 -54 -60 -73 0
-312 -56 -62 -76 0
-312 -57 -63 -77 0
-313 -5 -6 -11 0
-313 -16 -17 -22 0
-313 -26 -27 -32 0
-313 -35 -36 -41 0
-313 -43 -44 -49 0
-313 -52 -58 -67 0
-313 -53 -59 -71 0
-313 -54 -60 -74 0
-313 -55 -61 -76 0
-313 -57 -63 -78 0
-314 -5 -6 -12 0
-314 -16 -17 -23 0
-314 -26 -27 -33 0
-314 -35 -36 -42 0
-314 -43 -44 -50 0
-314 -52 -58 -68 0
-314 -53 -59 -72 0
-314 -54 -60 -75 0
-314 -55 -61 -77 0
-314 -56 -62 -78 0
-315 -5 -7 -8 0
-315 -16 -18 -19 0
-315 -26 -28 -29 0
-315 -35 -37 -38 0
-315 -43 -45 -46 0
-315 -51 -58 -59 0
-315 -54 -65 -69 0
-315 -55 -66 -70 0
-315 -56 -67 -71 0
-315 -57 -68 -72 0
-316 -5 -7 -9 0
-316 -16 -18 -20 0
-316 -26 -28 -30 0
-316 -35 -37 -39 0
-316 -43 -45 -47 0
-316 -51 -58 -60 0
-316 -53 -64 -69 0
-316 -55 -66 -73 0
-316 -56 -67 -74 0
-316 -57 -68 -75 0
-317 -5 -7 -10 0
-317 -16 -18 -21 0
-317 -26 -28 -31 0
-317 -35 -37 -40 0
-317 -43 -45 -48 0
-317 -51 -58 -61 0
-317 -53 -64 -70 0
-317 -54 -65 -73 0
-317 -56 -67 -76 0
-317 -57 -68 -77 0
-318 -5 -7 -11 0
-318 -16 -18 -22 0
-318 -26 -28 -32 0
-318 -35 -37 -41 0
-318 -43 -45 -49 0
-318 -51 -58 -62 0
-318 -53 -64 -71 0
-318 -54 -65 -74 0
-318 -55 -66 -76 0
-318 -57 -68 -78 0
-319 -5 -7 -12 0
-319 -16 -18 -23 0
-319 -26 -28 -33 0
-319 -35 -37 -42 0
-319 -43 -45 -50 0
-319 -51 -58 -63 0
-319 -53 -64 -72 0
-319 -54 -65 -75 0
-319 -55 -66 -77 0
-319 -56 -67 -78 0
-320 -5 -8 -9 0
-320 -16 -19 -20 0
-320 -26 -29 -30 0
-320 -35 -38 -39 0
-320 -43 -46 -47 0
-320 -51 -59 -60 0
-320 -52 -64 -65 0
-320 -55 -70 -73 0
-320 -56 -71 -74 0
-320 -57 -72 -75 0
-321 -5 -8 -10 0
-321 -16 -19 -21 0
-321 -26 -29 -31 0
-321 -35 -38 -40 0
-321 -43 -46 -48 0
-321 -51 -59 -61 0
-321 -52 -64 -66 0
-321 -54 -69 -73 0
-321 -56 -71 -76 0
-321 -57 -72 -77 0
-322 -5 -8 -11 0
-322 -16 -19 -22 0
-322 -26 -29 -32 0
-322 -35 -38 -41 0
-322 -43 -46 -49 0
-322 -51 -59 -62 0
-322 -52 -64 -67 0
-322 -54 -69 -74 0
-322 -55 -70 -76 0
-322 -57 -72 -78 0
-323 -5 -8 -12 0
-323 -16 -19 -23 0
-323 -26 -29 -33 0
-323 -35 -38 -42 0
-323 -43 -46 -50 0
-323 -51 -59 -63 0
-323 -52 -64 -68 0
-323 -54 -69 -75 0
-323 -55 -70 -77 0
-323 -56 -71 -78 0
-324 -5 -9 -10 0
-324 -16 -20 -21 0
-324 -26 -30 -31 0
-324 -35 -39 -40 0
-324 -43 -47 -48 0
-324 -51 -60 -61 0
-324 -52 -65 -66 0
-324 -53 -69 -70 0
-324 -56 -74 -76 0
-324 -57 -75 -77 0
-325 -5 -9 -11 0
-325 -16 -20 -22 0
-325 -26 -30 -32 0
-325 -35 -39 -41 0
-325 -43 -47 -49 0
-325 -51 -60 -62 0
-325 -52 -65 -67 0
-325 -53 -69 -71 0
-325 -55 -73 -76 0
-325 -57 -75 -78 0
-326 -5 -9 -12 0
-326 -16 -20 -23 0
-326 -26 -30 -33 0
-326 -35 -39 -42 0
-326 -43 -47 -50 0
-326 -51 -60 -63 0
-326 -52 -65 -68 0
-326 -53 -69 -72 0
-326 -55 -73 -77 0
-326 -56 -74 -78 0
-327 -5 -10 -11 0
-327 -16 -21 -22 0
-327 -26 -31 -32 0
-327 -35 -40 -41 0
-327 -43 -48 -49 0
-327 -51 -61 -62 0
-327 -52 -66 -67 0
-327 -53 -70 -71 0
-327 -54 -73 -74 0
-327 -57 -77 -78 0
-328 -5 -10 -12 0
-328 -16 -21 -23 0
-328 -26 -31 -33 0
-328 -35 -40 -42 0
-328 -43 -48 -50 0
-328 -51 -61 -63 0
-328 -52 -66 -68 0
-328 -53 -70 -72 0
-328 -54 -73 -75 0
-328 -56 -76 -78 0
-329 -5 -11 -12 0
-329 -16 -22 -23 0
-329 -26 -32 -33 0
-329 -35 -41 -42 0
-329 -43 -49 -50 0
-329 -51 -62 -63 0
-329 -52 -67 -68 0
-329 -53 -71 -72 0
-329 -54 -74 -75 0
-329 -55 -76 -77 0
-330 -6 -7 -8 0
-330 -17 -18 -19 0
-330 -27 -28 -29 0
-330 -36 -37 -38 0
-330 -44 -45 -46 0
-330 -51 -52 -53 0
-330 -60 -65 -69 0
-330 -61 -66 -70 0
-330 -62 -67 -71 0
-330 -63 -68 -72 0
-331 -6 -7 -9 0
-331 -17 -18 -20 0
-331 -27 -28 -30 0
-331 -36 -37 -39 0
-331 -44 -45 -47 0
-331 -51 -52 -54 0
-331 -59 -64 -69 0
-331 -61 -66 -73 0
-331 -62 -67 -74 0
-331 -63 -68 -75 0
-332 -6 -7 -10 0
-332 -17 -18 -21 0
-332 -27 -28 -31 0
-332 -36 -37 -40 0
-332 -44 -45 -48 0
-332 -51 -52 -55 0
-332 -59 -64 -70 0
-332 -60 -65 -73 0
-332 -62 -67 -76 0
-332 -63 -68 -77 0
-333 -6 -7 -11 0
-333 -17 -18 -22 0
-333 -27 -28 -32 0
-333 -36 -37 -41 0
-333 -44 -45 -49 0
-333 -51 -52 -56 0
-333 -59 -64 -71 0
-333 -60 -65 -74 0
-333 -61 -66 -76 0
-333 -63 -68 -78 0
-334 -6 -7 -12 0
-334 -17 -18 -23 0
-334 -27 -28 -33 0
-334 -36 -37 -42 0
-334 -44 -45 -50 0
-334 -51 -52 -57 0
-334 -59 -64 -72 0
-334 -60 -65 -75 0
-334 -61 -66 -77 0
-334 -62 -67 -78 0
-335 -6 -8 -9 0
-335 -17 -19 -20 0
-335 -27 -29 -30 0
-335 -36 -38 -39 0
-335 -44 -46 -47 0
-335 -51 -53 -54 0
-335 -58 -64 -65 0
-335 -61 -70 -73 0
-335 -62 -71 -74 0
-335 -63 -72 -75 0
-336 -6 -8 -10 0
-336 -17 -19 -21 0
-336 -27 -29 -31 0
-336 -36 -38 -40 0
-336 -44 -46 -48 0
-336 -51 -53 -55 0
-336 -58 -64 -66 0
-336 -60 -69 -73 0
-336 -62 -71 -76 0
-336 -63 -72 -77 0
-337 -6 -8 -11 0
-337 -17 -19 -22 0
-337 -27 -29 -32 0
-337 -36 -38 -41 0
-337 -44 -46 -49 0
-337 -51 -53 -56 0
-337 -58 -64 -67 0
-337 -60 -69 -74 0
-337 -61 -70 -76 0
-337 -63 -72 -78 0
-338 -6 -8 -12 0
-338 -17 -19 -23 0
-338 -27 -29 -33 0
-338 -36 -38 -42 0
-338 -44 -46 -50 0
-338 -51 -53 -57 0
-338 -58 -64 -68 0
-338 -60 -69 -75 0
-338 -61 -70 -77 0
-338 -62 -71 -78 0
-339 -6 -9 -10 0
-339 -17 -20 -21 0
-339 -27 -30 -31 0
-339 -36 -39 -40 0
-339 -44 -47 -48 0
-339 -51 -54 -55 0
-339 -58 -65 -66 0
-339 -59 -69 -70 0
-339 -62 -74 -76 0
-339 -63 -75 -77 0
-340 -6 -9 -11 0
-340 -17 -20 -22 0
-340 -27 -30 -32 0
-340 -36 -39 -41 0
-340 -44 -47 -49 0
-340 -51 -54 -56 0
-340 -58 -65 -67 0
-340 -59 -69 -71 0
-340 -61 -73 -76 0
-340 -63 -75 -78 0
-341 -6 -9 -12 0
-341 -17 -20 -23 0
-341 -27 -30 -33 0
-341 -36 -39 -42 0
-341 -44 -47 -50 0
-341 -51 -54 -57 0
-341 -58 -65 -68 0
-341 -59 -69 -72 0
-341 -61 -73 -77 0
-341 -62 -74 -78 0
-342 -6 -10 -11 0
-342 -17 -21 -22 0
-342 -27 -31 -32 0
-342 -36 -40 -41 0
-342 -44 -48 -49 0
-342 -51 -55 -56 0
-342 -58 -66 -67 0
-342 -59 -70 -71 0
-342 -60 -73 -74 0
-342 -63 -77 -78 0
-343 -6 -10 -12 0
-343 -17 -21 -23 0
-343 -27 -31 -33 0
-343 -36 -40 -42 0
-343 -44 -48 -50 0
-343 -51 -55 -57 0
-343 -58 -66 -68 0
-343 -59 -70 -72 0
-343 -60 -73 -75 0
-343 -62 -76 -78 0
-344 -6 -11 -12 0
-344 -17 -22 -23 0
-344 -27 -32 -33 0
-344 -36 -41 -42 0
-344 -44 -49 -50 0
-344 -51 -56 -57 0
-344 -58 -67 -68 0
-344 -59 -71 -72 0
-344 -60 -74 -75 0
-344 -61 -76 -77 0
-345 -7 -8 -9 0
-345 -18 -19 -20 0
-345 -28 -29 -30 0
-345 -37 -38 -39 0
-345 -45 -46 -47 0
-345 -52 -53 -54 0
-345 -58 -59 -60 0
-345 -66 -70 -73 0
-345 -67 -71 -74 0
-345 -68 -72 -75 0
-346 -7 -8 -10 0
-346 -18 -19 -21 0
-346 -28 -29 -31 0
-346 -37 -38 -40 0
-346 -45 -46 -48 0
-346 -52 -53 -55 0
-346 -58 -59 -61 0
-346 -65 -69 -73 0
-346 -67 -71 -76 0
-346 -68 -72 -77 0
-347 -7 -8 -11 0
-347 -18 -19 -22 0
-347 -28 -29 -32 0
-347 -37 -38 -41 0
-347 -45 -46 -49 0
-347 -52 -53 -56 0
-347 -58 -59 -62 0
-347 -65 -69 -74 0
-347 -66 -70 -76 0
-347 -68 -72 -78 0
-348 -7 -8 -12 0
-348 -18 -19 -23 0
-348 -28 -29 -33 0
-348 -37 -38 -42 0
-348 -45 -46 -50 0
-348 -52 -53 -57 0
-348 -58 -59 -63 0
-348 -65 -69 -75 0
-348 -66 -70 -77 0
-348 -67 -71 -78 0
-349 -7 -9 -10 0
-349 -18 -20 -21 0
-349 -28 -30 -31 0
-349 -37 -39 -40 0
-349 -45 -47 -48 0
-349 -52 -54 -55 0
-349 -58 -60 -61 0
-349 -64 -69 -70 0
-349 -67 -74 -76 0
-349 -68 -75 -77 0
-350 -7 -9 -11 0
-350 -18 -20 -22 0
-350 -28 -30 -32 0
-350 -37 -39 -41 0
-350 -45 -47 -49 0
-350 -52 -54 -56 0
-350 -58 -60 -62 0
-350 -64 -69 -71 0
-350 -66 -73 -76 0
-350 -68 -75 -78 0
-351 -7 -9 -12 0
-351 -18 -20 -23 0
-351 -28 -30 -33 0
-351 -37 -39 -42 0
-351 -45 -47 -50 0
-351 -52 -54 -57 0
-351 -58 -60 -63 0
-351 -64 -69 -72 0
-351 -66 -73 -77 0
-351 -67 -74 -78 0
-352 -7 -10 -11 0
-352 -18 -21 -22 0
-352 -28 -31 -32 0
-352 -37 -40 -41 0
-352 -45 -48 -49 0
-352 -52 -55 -56 0
-352 -58 -61 -62 0
-352 -64 -70 -71 0
-352 -65 -73 -74 0
-352 -68 -77 -78 0
-353 -7 -10 -12 0
-353 -18 -21 -23 0
-353 -28 -31 -33 0
-353 -37 -40 -42 0
-353 -45 -48 -50 0
-353 -52 -55 -57 0
-353 -58 -61 -63 0
-353 -64 -70 -72 0
-353 -65 -73 -75 0
-353 -67 -76 -78 0
-354 -7 -11 -12 0
-354 -18 -22 -23 0
-354 -28 -32 -33 0
-354 -37 -41 -42 0
-354 -45 -49 -50 0
-354 -52 -56 -57 0
-354 -58 -62 -63 0
-354 -64 -71 -72 0
-354 -65 -74 -75 0
-354 -66 -76 -77 0
-355 -8 -9 -10 0
-355 -19 -20 -21 0
-355 -29 -30 -31 0
-355 -38 -39 -40 0
-355 -46 -47 -48 0
-355 -53 -54 -55 0
-355 -59 -60 -61 0
-355 -64 -65 -66 0
-355 -71 -74 -76 0
-355 -72 -75 -77 0
-356 -8 -9 -11 0
-356 -19 -20 -22 0
-356 -29 -30 -32 0
-356 -38 -39 -41 0
-356 -46 -47 -49 0
-356 -53 -54 -56 0
-356 -59 -60 -62 0
-356 -64 -65 -67 0
-356 -70 -73 -76 0
-356 -72 -75 -78 0
-357 -8 -9 -12 0
-357 -19 -20 -23 0
-357 -29 -30 -33 0
-357 -38 -39 -42 0
-357 -46 -47 -50 0
-357 -53 -54 -57 0
-357 -59 -60 -63 0
-357 -64 -65 -68 0
-357 -70 -73 -77 0
-357 -71 -74 -78 0
-358 -8 -10 -11 0
-358 -19 -21 -22 0
-358 -29 -31 -32 0
-358 -38 -40 -41 0
-358 -46 -48 -49 0
-358 -53 -55 -56 0
-358 -59 -61 -62 0
-358 -64 -66 -67 0
-358 -69 -73 -74 0
-358 -72 -77 -78 0
-359 -8 -10 -12 0
-359 -19 -21 -23 0
-359 -29 -31 -33 0
-359 -38 -40 -42 0
-359 -46 -48 -50 0
-359 -53 -55 -57 0
-359 -59 -61 -63 0
-359 -64 -66 -68 0
-359 -69 -73 -75 0
-359 -71 -76 -78 0
-360 -8 -11 -12 0
-360 -19 -22 -23 0
-360 -29 -32 -33 0
-360 -38 -41 -42 0
-360 -46 -49 -50 0
-360 -53 -56 -57 0
-360 -59 -62 -63 0
-360 -64 -67 -68 0
-360 -69 -74 -75 0
-360 -70 -76 -77 0
-361 -9 -10 -11 0
-361 -20 -21 -22 0
-361 -30 -31 -32 0
-361 -39 -40 -41 0
-361 -47 -48 -49 0
-361 -54 -55 -56 0
-361 -60 -61 -62 0
-361 -65 -66 -67 0
-361 -69 -70 -71 0
-361 -75 -77 -78 0
-362 -9 -10 -12 0
-362 -20 -21 -23 0
-362 -30 -31 -33 0
-362 -39 -40 -42 0
-362 -47 -48 -50 0
-362 -54 -55 -57 0
-362 -60 -61 -63 0
-362 -65 -66 -68 0
-362 -69 -70 -72 0
-362 -74 -76 -78 0
-363 -9 -11 -12 0
-363 -20 -22 -23 0
-363 -30 -32 -33 0
-363 -39 -41 -42 0
-363 -47 -49 -50 0
-363 -54 -56 -57 0
-363 -60 -62 -63 0
-363 -65 -67 -68 0
-363 -69 -71 -72 0
-363 -73 -76 -77 0
-364 -10 -11 -12 0
-364 -21 -22 -23 0
-364 -31 -32 -33 0
-364 -40 -41 -42 0
-364 -48 -49 -50 0
-364 -55 -56 -57 0
-364 -61 -62 -63 0
-364 -66 -67 -68 0
-364 -70 -71 -72 0
-364 -73 -74 -75 0
-365 -3 0
-365 145 0
-366 -14 0
-366 90 0
-367 -24 0
-367 80 0
-79 365 366 367 0
-368 -4 0
-368 146 0
-369 -15 0
-369 91 0
-370 -25 0
-370 81 0
-79 368 369 370 0
-371 -5 0
-371 147 0
-372 -16 0
-372 92 0
-373 -26 0
-373 82 0
-79 371 372 373 0
-374 -6 0
-374 148 0
-375 -17 0
-375 93 0
-376 -27 0
-376 83 0
-79 374 375 376 0
-377 -7 0
-377 149 0
-378 -18 0
-378 94 0
-379 -28 0
-379 84 0
-79 377 378 379 0
-380 -8 0
-380 150 0
-381 -19 0
-381 95 0
-382 -29 0
-382 85 0
-79 380 381 382 0
-383 -9 0
-383 151 0
-384 -20 0
-384 96 0
-385 -30 0
-385 86 0
-79 383 384 385 0
-386 -10 0
-386 152 0
-387 -21 0
-387 97 0
-388 -31 0
-388 87 0
-79 386 387 388 0
-389 -11 0
-389 153 0
-390 -22 0
-390 98 0
-391 -32 0
-391 88 0
-79 389 390 391 0
-392 -12 0
-392 154 0
-393 -23 0
-393 99 0
-394 -33 0
-394 89 0
-79 392 393 394 0
-395 -2 0
-395 145 0
-396 -13 0
-396 90 0
-397 -24 0
-397 79 0
-80 395 396 397 0
-398 -4 0
-398 155 0
-399 -15 0
-399 100 0
-400 -34 0
-400 81 0
-80 398 399 400 0
-401 -5 0
-401 156 0
-402 -16 0
-402 101 0
-403 -35 0
-403 82 0
-80 401 402 403 0
-404 -6 0
-404 157 0
-405 -17 0
-405 102 0
-406 -36 0
-406 83 0
-80 404 405 406 0
-407 -7 0
-407 158 0
-408 -18 0
-408 103 0
-409 -37 0
-409 84 0
-80 407 408 409 0
-410 -8 0
-410 159 0
-411 -19 0
-411 104 0
-412 -38 0
-412 85 0
-80 410 411 412 0
-413 -9 0
-413 160 0
-414 -20 0
-414 105 0
-415 -39 0
-415 86 0
-80 413 414 415 0
-416 -10 0
-416 161 0
-417 -21 0
-417 106 0
-418 -40 0
-418 87 0
-80 416 417 418 0
-419 -11 0
-419 162 0
-420 -22 0
-420 107 0
-421 -41 0
-421 88 0
-80 419 420 421 0
-422 -12 0
-422 163 0
-423 -23 0
-423 108 0
-424 -42 0
-424 89 0
-80 422 423 424 0
-425 -2 0
-425 146 0
-426 -13 0
-426 91 0
-427 -25 0
-427 79 0
-81 425 426 427 0
-428 -3 0
-428 155 0
-429 -14 0
-429 100 0
-430 -34 0
-430 80 0
-81 428 429 430 0
-431 -5 0
-431 164 0
-432 -16 0
-432 109 0
-433 -43 0
-433 82 0
-81 431 432 433 0
-434 -6 0
-434 165 0
-435 -17 0
-435 110 0
-436 -44 0
-436 83 0
-81 434 435 436 0
-437 -7 0
-437 166 0
-438 -18 0
-438 111 0
-439 -45 0
-439 84 0
-81 437 438 439 0
-440 -8 0
-440 167 0
-441 -19 0
-441 112 0
-442 -46 0
-442 85 0
-81 440 441 442 0
-443 -9 0
-443 168 0
-444 -20 0
-444 113 0
-445 -47 0
-445 86 0
-81 443 444 445 0
-446 -10 0
-446 169 0
-447 -21 0
-447 114 0
-448 -48 0
-448 87 0
-81 446 447 448 0
-449 -11 0
-449 170 0
-450 -22 0
-450 115 0
-451 -49 0
-451 88 0
-81 449 450 451 0
-452 -12 0
-452 171 0
-453 -23 0
-453 116 0
-454 -50 0
-454 89 0
-81 452 453 454 0
-455 -2 0
-455 147 0
-456 -13 0
-456 92 0
-457 -26 0
-457 79 0
-82 455 456 457 0
-458 -3 0
-458 156 0
-459 -14 0
-459 101 0
-460 -35 0
-460 80 0
-82 458 459 460 0
-461 -4 0
-461 164 0
-462 -15 0
-462 109 0
-463 -43 0
-463 81 0
-82 461 462 463 0
-464 -6 0
-464 172 0
-465 -17 0
-465 117 0
-466 -51 0
-466 83 0
-82 464 465 466 0
-467 -7 0
-467 173 0
-468 -18 0
-468 118 0
-469 -52 0
-469 84 0
-82 467 468 469 0
-470 -8 0
-470 174 0
-471 -19 0
-471 119 0
-472 -53 0
-472 85 0
-82 470 471 472 0
-473 -9 0
-473 175 0
-474 -20 0
-474 120 0
-475 -54 0
-475 86 0
-82 473 474 475 0
-476 -10 0
-476 176 0
-477 -21 0
-477 121 0
-478 -55 0
-478 87 0
-82 476 477 478 0
-479 -11 0
-479 177 0
-480 -22 0
-480 122 0
-481 -56 0
-481 88 0
-82 479 480 481 0
-482 -12 0
-482 178 0
-483 -23 0
-483 123 0
-484 -57 0
-484 89 0
-82 482 483 484 0
-485 -2 0
-485 148 0
-486 -13 0
-486 93 0
-487 -27 0
-487 79 0
-83 485 486 487 0
-488 -3 0
-488 157 0
-489 -14 0
-489 102 0
-490 -36 0
-490 80 0
-83 488 489 490 0
-491 -4 0
-491 165 0
-492 -15 0
-492 110 0
-493 -44 0
-493 81 0
-83 491 492 493 0
-494 -5 0
-494 172 0
-495 -16 0
-495 117 0
-496 -51 0
-496 82 0
-83 494 495 496 0
-497 -7 0
-497 179 0
-498 -18 0
-498 124 0
-499 -58 0
-499 84 0
-83 497 498 499 0
-500 -8 0
-500 180 0
-501 -19 0
-501 125 0
-502 -59 0
-502 85 0
-83 500 501 502 0
-503 -9 0
-503 181 0
-504 -20 0
-504 126 0
-505 -60 0
-505 86 0
-83 503 504 505 0
-506 -10 0
-506 182 0
-507 -21 0
-507 127 0
-508 -61 0
-508 87 0
-83 506 507 508 0
-509 -11 0
-509 183 0
-510 -22 0
-510 128 0
-511 -62 0
-511 88 0
-83 509 510 511 0
-512 -12 0
-512 184 0
-513 -23 0
-513 129 0
-514 -63 0
-514 89 0
-83 512 513 514 0
-515 -2 0
-515 149 0
-516 -13 0
-516 94 0
-517 -28 0
-517 79 0
-84 515 516 517 0
-518 -3 0
-518 158 0
-519 -14 0
-519 103 0
-520 -37 0
-520 80 0
-84 518 519 520 0
-521 -4 0
-521 166 0
-522 -15 0
-522 111 0
-523 -45 0
-523 81 0
-84 521 522 523 0
-524 -5 0
-524 173 0
-525 -16 0
-525 118 0
-526 -52 0
-526 82 0
-84 524 525 526 0
-527 -6 0
-527 179 0
-528 -17 0
-528 124 0
-529 -58 0
-529 83 0
-84 527 528 529 0
-530 -8 0
-530 185 0
-531 -19 0
-531 130 0
-532 -64 0
-532 85 0
-84 530 531 532 0
-533 -9 0
-533 186 0
-534 -20 0
-534 131 0
-535 -65 0
-535 86 0
-84 533 534 535 0
-536 -10 0
-536 187 0
-537 -21 0
-537 132 0
-538 -66 0
-538 87 0
-84 536 537 538 0
-539 -11 0
-539 188 0
-540 -22 0
-540 133 0
-541 -67 0
-541 88 0
-84 539 540 541 0
-542 -12 0
-542 189 0
-543 -23 0
-543 134 0
-544 -68 0
-544 89 0
-84 542 543 544 0
-545 -2 0
-545 150 0
-546 -13 0
-546 95 0
-547 -29 0
-547 79 0
-85 545 546 547 0
-548 -3 0
-548 159 0
-549 -14 0
-549 104 0
-550 -38 0
-550 80 0
-85 548 549 550 0
-551 -4 0
-551 167 0
-552 -15 0
-552 112 0
-553 -46 0
-553 81 0
-85 551 552 553 0
-554 -5 0
-554 174 0
-555 -16 0
-555 119 0
-556 -53 0
-556 82 0
-85 554 555 556 0
-557 -6 0
-557 180 0
-558 -17 0
-558 125 0
-559 -59 0
-559 83 0
-85 557 558 559 0
-560 -7 0
-560 185 0
-561 -18 0
-561 130 0
-562 -64 0
-562 84 0
-85 560 561 562 0
-563 -9 0
-563 190 0
-564 -20 0
-564 135 0
-565 -69 0
-565 86 0
-85 563 564 565 0
-566 -10 0
-566 191 0
-567 -21 0
-567 136 0
-568 -70 0
-568 87 0
-85 566 567 568 0
-569 -11 0
-569 192 0
-570 -22 0
-570 137 0
-571 -71 0
-571 88 0
-85 569 570 571 0
-572 -12 0
-572 193 0
-573 -23 0
-573 138 0
-574 -72 0
-574 89 0
-85 572 573 574 0
-575 -2 0
-575 151 0
-576 -13 0
-576 96 0
-577 -30 0
-577 79 0
-86 575 576 577 0
-578 -3 0
-578 160 0
-579 -14 0
-579 105 0
-580 -39 0
-580 80 0
-86 578 579 580 0
-581 -4 0
-581 168 0
-582 -15 0
-582 113 0
-583 -47 0
-583 81 0
-86 581 582 583 0
-584 -5 0
-584 175 0
-585 -16 0
-585 120 0
-586 -54 0
-586 82 0
-86 584 585 586 0
-587 -6 0
-587 181 0
-588 -17 0
-588 126 0
-589 -60 0
-589 83 0
-86 587 588 589 0
-590 -7 0
-590 186 0
-591 -18 0
-591 131 0
-592 -65 0
-592 84 0
-86 590 591 592 0
-593 -8 0
-593 190 0
-594 -19 0
-594 135 0
-595 -69 0
-595 85 0
-86 593 594 595 0
-596 -10 0
-596 194 0
-597 -21 0
-597 139 0
-598 -73 0
-598 87 0
-86 596 597 598 0
-599 -11 0
-599 195 0
-600 -22 0
-600 140 0
-601 -74 0
-601 88 0
-86 599 600 601 0
-602 -12 0
-602 196 0
-603 -23 0
-603 141 0
-604 -75 0
-604 89 0
-86 602 603 604 0
-605 -2 0
-605 152 0
-606 -13 0
-606 97 0
-607 -31 0
-607 79 0
-87 605 606 607 0
-608 -3 0
-608 161 0
-609 -14 0
-609 106 0
-610 -40 0
-610 80 0
-87 608 609 610 0
-611 -4 0
-611 169 0
-612 -15 0
-612 114 0
-613 -48 0
-613 81 0
-87 611 612 613 0
-614 -5 0
-614 176 0
-615 -16 0
-615 121 0
-616 -55 0
-616 82 0
-87 614 615 616 0
-617 -6 0
-617 182 0
-618 -17 0
-618 127 0
-619 -61 0
-619 83 0
-87 617 618 619 0
-620 -7 0
-620 187 0
-621 -18 0
-621 132 0
-622 -66 0
-622 84 0
-87 620 621 622 0
-623 -8 0
-623 191 0
-624 -19 0
-624 136 0
-625 -70 0
-625 85 0
-87 623 624 625 0
-626 -9 0
-626 194 0
-627 -20 0
-627 139 0
-628 -73 0
-628 86 0
-87 626 627 628 0
-629 -11 0
-629 197 0
-630 -22 0
-630 142 0
-631 -76 0
-631 88 0
-87 629 630 631 0
-632 -12 0
-632 198 0
-633 -23 0
-633 143 0
-634 -77 0
-634 89 0
-87 632 633 634 0
-635 -2 0
-635 153 0
-636 -13 0
-636 98 0
-637 -32 0
-637 79 0
-88 635 636 637 0
-638 -3 0
-638 162 0
-639 -14 0
-639 107 0
-640 -41 0
-640 80 0
-88 638 639 640 0
-641 -4 0
-641 170 0
-642 -15 0
-642 115 0
-643 -49 0
-643 81 0
-88 641 642 643 0
-644 -5 0
-644 177 0
-645 -16 0
-645 122 0
-646 -56 0
-646 82 0
-88 644 645 646 0
-647 -6 0
-647 183 0
-648 -17 0
-648 128 0
-649 -62 0
-649 83 0
-88 647 648 649 0
-650 -7 0
-650 188 0
-651 -18 0
-651 133 0
-652 -67 0
-652 84 0
-88 650 651 652 0
-653 -8 0
-653 192 0
-654 -19 0
-654 137 0
-655 -71 0
-655 85 0
-88 653 654 655 0
-656 -9 0
-656 195 0
-657 -20 0
-657 140 0
-658 -74 0
-658 86 0
-88 656 657 658 0
-659 -10 0
-659 197 0
-660 -21 0
-660 142 0
-661 -76 0
-661 87 0
-88 659 660 661 0
-662 -12 0
-662 199 0
-663 -23 0
-663 144 0
-664 -78 0
-664 89 0
-88 662 663 664 0
-665 -2 0
-665 154 0
-666 -13 0
-666 99 0
-667 -33 0
-667 79 0
-89 665 666 667 0
-668 -3 0
-668 163 0
-669 -14 0
-669 108 0
-670 -42 0
-670 80 0
-89 668 669 670 0
-671 -4 0
-671 171 0
-672 -15 0
-672 116 0
-673 -50 0
-673 81 0
-89 671 672 673 0
-674 -5 0
-674 178 0
-675 -16 0
-675 123 0
-676 -57 0
-676 82 0
-89 674 675 676 0
-677 -6 0
-677 184 0
-678 -17 0
-678 129 0
-679 -63 0
-679 83 0
-89 677 678 679 0
-680 -7 0
-680 189 0
-681 -18 0
-681 134 0
-682 -68 0
-682 84 0
-89 680 681 682 0
-683 -8 0
-683 193 0
-684 -19 0
-684 138 0
-685 -72 0
-685 85 0
-89 683 684 685 0
-686 -9 0
-686 196 0
-687 -20 0
-687 141 0
-688 -75 0
-688 86 0
-89 686 687 688 0
-689 -10 0
-689 198 0
-690 -21 0
-690 143 0
-691 -77 0
-691 87 0
-89 689 690 691 0
-692 -11 0
-692 199 0
-693 -22 0
-693 144 0
-694 -78 0
-694 88 0
-89 692 693 694 0
-695 -1 0
-695 145 0
-696 -13 0
-696 80 0
-697 -14 0
-697 79 0
-90 695 696 697 0
-698 -4 0
-698 200 0
-699 -25 0
-699 100 0
-700 -34 0
-700 91 0
-90 698 699 700 0
-701 -5 0
-701 201 0
-702 -26 0
-702 101 0
-703 -35 0
-703 92 0
-90 701 702 703 0
-704 -6 0
-704 202 0
-705 -27 0
-705 102 0
-706 -36 0
-706 93 0
-90 704 705 706 0
-707 -7 0
-707 203 0
-708 -28 0
-708 103 0
-709 -37 0
-709 94 0
-90 707 708 709 0
-710 -8 0
-710 204 0
-711 -29 0
-711 104 0
-712 -38 0
-712 95 0
-90 710 711 712 0
-713 -9 0
-713 205 0
-714 -30 0
-714 105 0
-715 -39 0
-715 96 0
-90 713 714 715 0
-716 -10 0
-716 206 0
-717 -31 0
-717 106 0
-718 -40 0
-718 97 0
-90 716 717 718 0
-719 -11 0
-719 207 0
-720 -32 0
-720 107 0
-721 -41 0
-721 98 0
-90 719 720 721 0
-722 -12 0
-722 208 0
-723 -33 0
-723 108 0
-724 -42 0
-724 99 0
-90 722 723 724 0
-725 -1 0
-725 146 0
-726 -13 0
-726 81 0
-727 -15 0
-727 79 0
-91 725 726 727 0
-728 -3 0
-728 200 0
-729 -24 0
-729 100 0
-730 -34 0
-730 90 0
-91 728 729 730 0
-731 -5 0
-731 209 0
-732 -26 0
-732 109 0
-733 -43 0
-733 92 0
-91 731 732 733 0
-734 -6 0
-734 210 0
-735 -27 0
-735 110 0
-736 -44 0
-736 93 0
-91 734 735 736 0
-737 -7 0
-737 211 0
-738 -28 0
-738 111 0
-739 -45 0
-739 94 0
-91 737 738 739 0
-740 -8 0
-740 212 0
-741 -29 0
-741 112 0
-742 -46 0
-742 95 0
-91 740 741 742 0
-743 -9 0
-743 213 0
-744 -30 0
-744 113 0
-745 -47 0
-745 96 0
-91 743 744 745 0
-746 -10 0
-746 214 0
-747 -31 0
-747 114 0
-748 -48 0
-748 97 0
-91 746 747 748 0
-749 -11 0
-749 215 0
-750 -32 0
-750 115 0
-751 -49 0
-751 98 0
-91 749 750 751 0
-752 -12 0
-752 216 0
-753 -33 0
-753 116 0
-754 -50 0
-754 99 0
-91 752 753 754 0
-755 -1 0
-755 147 0
-756 -13 0
-756 82 0
-757 -16 0
-757 79 0
-92 755 756 757 0
-758 -3 0
-758 201 0
-759 -24 0
-759 101 0
-760 -35 0
-760 90 0
-92 758 759 760 0
-761 -4 0
-761 209 0
-762 -25 0
-762 109 0
-763 -43 0
-763 91 0
-92 761 762 763 0
-764 -6 0
-764 217 0
-765 -27 0
-765 117 0
-766 -51 0
-766 93 0
-92 764 765 766 0
-767 -7 0
-767 218 0
-768 -28 0
-768 118 0
-769 -52 0
-769 94 0
-92 767 768 769 0
-770 -8 0
-770 219 0
-771 -29 0
-771 119 0
-772 -53 0
-772 95 0
-92 770 771 772 0
-773 -9 0
-773 220 0
-774 -30 0
-774 120 0
-775 -54 0
-775 96 0
-92 773 774 775 0
-776 -10 0
-776 221 0
-777 -31 0
-777 121 0
-778 -55 0
-778 97 0
-92 776 777 778 0
-779 -11 0
-779 222 0
-780 -32 0
-780 122 0
-781 -56 0
-781 98 0
-92 779 780 781 0
-782 -12 0
-782 223 0
-783 -33 0
-783 123 0
-784 -57 0
-784 99 0
-92 782 783 784 0
-785 -1 0
-785 148 0
-786 -13 0
-786 83 0
-787 -17 0
-787 79 0
-93 785 786 787 0
-788 -3 0
-788 202 0
-789 -24 0
-789 102 0
-790 -36 0
-790 90 0
-93 788 789 790 0
-791 -4 0
-791 210 0
-792 -25 0
-792 110 0
-793 -44 0
-793 91 0
-93 791 792 793 0
-794 -5 0
-794 217 0
-795 -26 0
-795 117 0
-796 -51 0
-796 92 0
-93 794 795 796 0
-797 -7 0
-797 224 0
-798 -28 0
-798 124 0
-799 -58 0
-799 94 0
-93 797 798 799 0
-800 -8 0
-800 225 0
-801 -29 0
-801 125 0
-802 -59 0
-802 95 0
-93 800 801 802 0
-803 -9 0
-803 226 0
-804 -30 0
-804 126 0
-805 -60 0
-805 96 0
-93 803 804 805 0
-806 -10 0
-806 227 0
-807 -31 0
-807 127 0
-808 -61 0
-808 97 0
-93 806 807 808 0
-809 -11 0
-809 228 0
-810 -32 0
-810 128 0
-811 -62 0
-811 98 0
-93 809 810 811 0
-812 -12 0
-812 229 0
-813 -33 0
-813 129 0
-814 -63 0
-814 99 0
-93 812 813 814 0
-815 -1 0
-815 149 0
-816 -13 0
-816 84 0
-817 -18 0
-817 79 0
-94 815 816 817 0
-818 -3 0
-818 203 0
-819 -24 0
-819 103 0
-820 -37 0
-820 90 0
-94 818 819 820 0
-821 -4 0
-821 211 0
-822 -25 0
-822 111 0
-823 -45 0
-823 91 0
-94 821 822 823 0
-824 -5 0
-824 218 0
-825 -26 0
-825 118 0
-826 -52 0
-826 92 0
-94 824 825 826 0
-827 -6 0
-827 224 0
-828 -27 0
-828 124 0
-829 -58 0
-829 93 0
-94 827 828 829 0
-830 -8 0
-830 230 0
-831 -29 0
-831 130 0
-832 -64 0
-832 95 0
-94 830 831 832 0
-833 -9 0
-833 231 0
-834 -30 0
-834 131 0
-835 -65 0
-835 96 0
-94 833 834 835 0
-836 -10 0
-836 232 0
-837 -31 0
-837 132 0
-838 -66 0
-838 97 0
-94 836 837 838 0
-839 -11 0
-839 233 0
-840 -32 0
-840 133 0
-841 -67 0
-841 98 0
-94 839 840 841 0
-842 -12 0
-842 234 0
-843 -33 0
-843 134 0
-844 -68 0
-844 99 0
-94 842 843 844 0
-845 -1 0
-845 150 0
-846 -13 0
-846 85 0
-847 -19 0
-847 79 0
-95 845 846 847 0
-848 -3 0
-848 204 0
-849 -24 0
-849 104 0
-850 -38 0
-850 90 0
-95 848 849 850 0
-851 -4 0
-851 212 0
-852 -25 0
-852 112 0
-853 -46 0
-853 91 0
-95 851 852 853 0
-854 -5 0
-854 219 0
-855 -26 0
-855 119 0
-856 -53 0
-856 92 0
-95 854 855 856 0
-857 -6 0
-857 225 0
-858 -27 0
-858 125 0
-859 -59 0
-859 93 0
-95 857 858 859 0
-860 -7 0
-860 230 0
-861 -28 0
-861 130 0
-862 -64 0
-862 94 0
-95 860 861 862 0
-863 -9 0
-863 235 0
-864 -30 0
-864 135 0
-865 -69 0
-865 96 0
-95 863 864 865 0
-866 -10 0
-866 236 0
-867 -31 0
-867 136 0
-868 -70 0
-868 97 0
-95 866 867 868 0
-869 -11 0
-869 237 0
-870 -32 0
-870 137 0
-871 -71 0
-871 98 0
-95 869 870 871 0
-872 -12 0
-872 238 0
-873 -33 0
-873 138 0
-874 -72 0
-874 99 0
-95 872 873 874 0
-875 -1 0
-875 151 0
-876 -13 0
-876 86 0
-877 -20 0
-877 79 0
-96 875 876 877 0
-878 -3 0
-878 205 0
-879 -24 0
-879 105 0
-880 -39 0
-880 90 0
-96 878 879 880 0
-881 -4 0
-881 213 0
-882 -25 0
-882 113 0
-883 -47 0
-883 91 0
-96 881 882 883 0
-884 -5 0
-884 220 0
-885 -26 0
-885 120 0
-886 -54 0
-886 92 0
-96 884 885 886 0
-887 -6 0
-887 226 0
-888 -27 0
-888 126 0
-889 -60 0
-889 93 0
-96 887 888 889 0
-890 -7 0
-890 231 0
-891 -28 0
-891 131 0
-892 -65 0
-892 94 0
-96 890 891 892 0
-893 -8 0
-893 235 0
-894 -29 0
-894 135 0
-895 -69 0
-895 95 0
-96 893 894 895 0
-896 -10 0
-896 239 0
-897 -31 0
-897 139 0
-898 -73 0
-898 97 0
-96 896 897 898 0
-899 -11 0
-899 240 0
-900 -32 0
-900 140 0
-901 -74 0
-901 98 0
-96 899 900 901 0
-902 -12 0
-902 241 0
-903 -33 0
-903 141 0
-904 -75 0
-904 99 0
-96 902 903 904 0
-905 -1 0
-905 152 0
-906 -13 0
-906 87 0
-907 -21 0
-907 79 0
-97 905 906 907 0
-908 -3 0
-908 206 0
-909 -24 0
-909 106 0
-910 -40 0
-910 90 0
-97 908 909 910 0
-911 -4 0
-911 214 0
-912 -25 0
-912 114 0
-913 -48 0
-913 91 0
-97 911 912 913 0
-914 -5 0
-914 221 0
-915 -26 0
-915 121 0
-916 -55 0
-916 92 0
-97 914 915 916 0
-917 -6 0
-917 227 0
-918 -27 0
-918 127 0
-919 -61 0
-919 93 0
-97 917 918 919 0
-920 -7 0
-920 232 0
-921 -28 0
-921 132 0
-922 -66 0
-922 94 0
-97 920 921 922 0
-923 -8 0
-923 236 0
-924 -29 0
-924 136 0
-925 -70 0
-925 95 0
-97 923 924 925 0
-926 -9 0
-926 239 0
-927 -30 0
-927 139 0
-928 -73 0
-928 96 0
-97 926 927 928 0
-929 -11 0
-929 242 0
-930 -32 0
-930 142 0
-931 -76 0
-931 98 0
-97 929 930 931 0
-932 -12 0
-932 243 0
-933 -33 0
-933 143 0
-934 -77 0
-934 99 0
-97 932 933 934 0
-935 -1 0
-935 153 0
-936 -13 0
-936 88 0
-937 -22 0
-937 79 0
-98 935 936 937 0
-938 -3 0
-938 207 0
-939 -24 0
-939 107 0
-940 -41 0
-940 90 0
-98 938 939 940 0
-941 -4 0
-941 215 0
-942 -25 0
-942 115 0
-943 -49 0
-943 91 0
-98 941 942 943 0
-944 -5 0
-944 222 0
-945 -26 0
-945 122 0
-946 -56 0
-946 92 0
-98 944 945 946 0
-947 -6 0
-947 228 0
-948 -27 0
-948 128 0
-949 -62 0
-949 93 0
-98 947 948 949 0
-950 -7 0
-950 233 0
-951 -28 0
-951 133 0
-952 -67 0
-952 94 0
-98 950 951 952 0
-953 -8 0
-953 237 0
-954 -29 0
-954 137 0
-955 -71 0
-955 95 0
-98 953 954 955 0
-956 -9 0
-956 240 0
-957 -30 0
-957 140 0
-958 -74 0
-958 96 0
-98 956 957 958 0
-959 -10 0
-959 242 0
-960 -31 0
-960 142 0
-961 -76 0
-961 97 0
-98 959 960 961 0
-962 -12 0
-962 244 0
-963 -33 0
-963 144 0
-964 -78 0
-964 99 0
-98 962 963 964 0
-965 -1 0
-965 154 0
-966 -13 0
-966 89 0
-967 -23 0
-967 79 0
-99 965 966 967 0
-968 -3 0
-968 208 0
-969 -24 0
-969 108 0
-970 -42 0
-970 90 0
-99 968 969 970 0
-971 -4 0
-971 216 0
-972 -25 0
-972 116 0
-973 -50 0
-973 91 0
-99 971 972 973 0
-974 -5 0
-974 223 0
-975 -26 0
-975 123 0
-976 -57 0
-976 92 0
-99 974 975 976 0
-977 -6 0
-977 229 0
-978 -27 0
-978 129 0
-979 -63 0
-979 93 0
-99 977 978 979 0
-980 -7 0
-980 234 0
-981 -28 0
-981 134 0
-982 -68 0
-982 94 0
-99 980 981 982 0
-983 -8 0
-983 238 0
-984 -29 0
-984 138 0
-985 -72 0
-985 95 0
-99 983 984 985 0
-986 -9 0
-986 241 0
-987 -30 0
-987 141 0
-988 -75 0
-988 96 0
-99 986 987 988 0
-989 -10 0
-989 243 0
-990 -31 0
-990 143 0
-991 -77 0
-991 97 0
-99 989 990 991 0
-992 -11 0
-992 244 0
-993 -32 0
-993 144 0
-994 -78 0
-994 98 0
-99 992 993 994 0
-995 -1 0
-995 155 0
-996 -14 0
-996 81 0
-997 -15 0
-997 80 0
-100 995 996 997 0
-998 -2 0
-998 200 0
-999 -24 0
-999 91 0
-1000 -25 0
-1000 90 0
-100 998 999 1000 0
-1001 -5 0
-1001 245 0
-1002 -35 0
-1002 109 0
-1003 -43 0
-1003 101 0
-100 1001 1002 1003 0
-1004 -6 0
-1004 246 0
-1005 -36 0
-1005 110 0
-1006 -44 0
-1006 102 0
-100 1004 1005 1006 0
-1007 -7 0
-1007 247 0
-1008 -37 0
-1008 111 0
-1009 -45 0
-1009 103 0
-100 1007 1008 1009 0
-1010 -8 0
-1010 248 0
-1011 -38 0
-1011 112 0
-1012 -46 0
-1012 104 0
-100 1010 1011 1012 0
-1013 -9 0
-1013 249 0
-1014 -39 0
-1014 113 0
-1015 -47 0
-1015 105 0
-100 1013 1014 1015 0
-1016 -10 0
-1016 250 0
-1017 -40 0
-1017 114 0
-1018 -48 0
-1018 106 0
-100 1016 1017 1018 0
-1019 -11 0
-1019 251 0
-1020 -41 0
-1020 115 0
-1021 -49 0
-1021 107 0
-100 1019 1020 1021 0
-1022 -12 0
-1022 252 0
-1023 -42 0
-1023 116 0
-1024 -50 0
-1024 108 0
-100 1022 1023 1024 0
-1025 -1 0
-1025 156 0
-1026 -14 0
-1026 82 0
-1027 -16 0
-1027 80 0
-101 1025 1026 1027 0
-1028 -2 0
-1028 201 0
-1029 -24 0
-1029 92 0
-1030 -26 0
-1030 90 0
-101 1028 1029 1030 0
-1031 -4 0
-1031 245 0
-1032 -34 0
-1032 109 0
-1033 -43 0
-1033 100 0
-101 1031 1032 1033 0
-1034 -6 0
-1034 253 0
-1035 -36 0
-1035 117 0
-1036 -51 0
-1036 102 0
-101 1034 1035 1036 0
-1037 -7 0
-1037 254 0
-1038 -37 0
-1038 118 0
-1039 -52 0
-1039 103 0
-101 1037 1038 1039 0
-1040 -8 0
-1040 255 0
-1041 -38 0
-1041 119 0
-1042 -53 0
-1042 104 0
-101 1040 1041 1042 0
-1043 -9 0
-1043 256 0
-1044 -39 0
-1044 120 0
-1045 -54 0
-1045 105 0
-101 1043 1044 1045 0
-1046 -10 0
-1046 257 0
-1047 -40 0
-1047 121 0
-1048 -55 0
-1048 106 0
-101 1046 1047 1048 0
-1049 -11 0
-1049 258 0
-1050 -41 0
-1050 122 0
-1051 -56 0
-1051 107 0
-101 1049 1050 1051 0
-1052 -12 0
-1052 259 0
-1053 -42 0
-1053 123 0
-1054 -57 0
-1054 108 0
-101 1052 1053 1054 0
-1055 -1 0
-1055 157 0
-1056 -14 0
-1056 83 0
-1057 -17 0
-1057 80 0
-102 1055 1056 1057 0
-1058 -2 0
-1058 202 0
-1059 -24 0
-1059 93 0
-1060 -27 0
-1060 90 0
-102 1058 1059 1060 0
-1061 -4 0
-1061 246 0
-1062 -34 0
-1062 110 0
-1063 -44 0
-1063 100 0
-102 1061 1062 1063 0
-1064 -5 0
-1064 253 0
-1065 -35 0
-1065 117 0
-1066 -51 0
-1066 101 0
-102 1064 1065 1066 0
-1067 -7 0
-1067 260 0
-1068 -37 0
-1068 124 0
-1069 -58 0
-1069 103 0
-102 1067 1068 1069 0
-1070 -8 0
-1070 261 0
-1071 -38 0
-1071 125 0
-1072 -59 0
-1072 104 0
-102 1070 1071 1072 0
-1073 -9 0
-1073 262 0
-1074 -39 0
-1074 126 0
-1075 -60 0
-1075 105 0
-102 1073 1074 1075 0
-1076 -10 0
-1076 263 0
-1077 -40 0
-1077 127 0
-1078 -61 0
-1078 106 0
-102 1076 1077 1078 0
-1079 -11 0
-1079 264 0
-1080 -41 0
-1080 128 0
-1081 -62 0
-1081 107 0
-102 1079 1080 1081 0
-1082 -12 0
-1082 265 0
-1083 -42 0
-1083 129 0
-1084 -63 0
-1084 108 0
-102 1082 1083 1084 0
-1085 -1 0
-1085 158 0
-1086 -14 0
-1086 84 0
-1087 -18 0
-1087 80 0
-103 1085 1086 1087 0
-1088 -2 0
-1088 203 0
-1089 -24 0
-1089 94 0
-1090 -28 0
-1090 90 0
-103 1088 1089 1090 0
-1091 -4 0
-1091 247 0
-1092 -34 0
-1092 111 0
-1093 -45 0
-1093 100 0
-103 1091 1092 1093 0
-1094 -5 0
-1094 254 0
-1095 -35 0
-1095 118 0
-1096 -52 0
-1096 101 0
-103 1094 1095 1096 0
-1097 -6 0
-1097 260 0
-1098 -36 0
-1098 124 0
-1099 -58 0
-1099 102 0
-103 1097 1098 1099 0
-1100 -8 0
-1100 266 0
-1101 -38 0
-1101 130 0
-1102 -64 0
-1102 104 0
-103 1100 1101 1102 0
-1103 -9 0
-1103 267 0
-1104 -39 0
-1104 131 0
-1105 -65 0
-1105 105 0
-103 1103 1104 1105 0
-1106 -10 0
-1106 268 0
-1107 -40 0
-1107 132 0
-1108 -66 0
-1108 106 0
-103 1106 1107 1108 0
-1109 -11 0
-1109 269 0
-1110 -41 0
-1110 133 0
-1111 -67 0
-1111 107 0
-103 1109 1110 1111 0
-1112 -12 0
-1112 270 0
-1113 -42 0
-1113 134 0
-1114 -68 0
-1114 108 0
-103 1112 1113 1114 0
-1115 -1 0
-1115 159 0
-1116 -14 0
-1116 85 0
-1117 -19 0
-1117 80 0
-104 1115 1116 1117 0
-1118 -2 0
-1118 204 0
-1119 -24 0
-1119 95 0
-1120 -29 0
-1120 90 0
-104 1118 1119 1120 0
-1121 -4 0
-1121 248 0
-1122 -34 0
-1122 112 0
-1123 -46 0
-1123 100 0
-104 1121 1122 1123 0
-1124 -5 0
-1124 255 0
-1125 -35 0
-1125 119 0
-1126 -53 0
-1126 101 0
-104 1124 1125 1126 0
-1127 -6 0
-1127 261 0
-1128 -36 0
-1128 125 0
-1129 -59 0
-1129 102 0
-104 1127 1128 1129 0
-1130 -7 0
-1130 266 0
-1131 -37 0
-1131 130 0
-1132 -64 0
-1132 103 0
-104 1130 1131 1132 0
-1133 -9 0
-1133 271 0
-1134 -39 0
-1134 135 0
-1135 -69 0
-1135 105 0
-104 1133 1134 1135 0
-1136 -10 0
-1136 272 0
-1137 -40 0
-1137 136 0
-1138 -70 0
-1138 106 0
-104 1136 1137 1138 0
-1139 -11 0
-1139 273 0
-1140 -41 0
-1140 137 0
-1141 -71 0
-1141 107 0
-104 1139 1140 1141 0
-1142 -12 0
-1142 274 0
-1143 -42 0
-1143 138 0
-1144 -72 0
-1144 108 0
-104 1142 1143 1144 0
-1145 -1 0
-1145 160 0
-1146 -14 0
-1146 86 0
-1147 -20 0
-1147 80 0
-105 1145 1146 1147 0
-1148 -2 0
-1148 205 0
-1149 -24 0
-1149 96 0
-1150 -30 0
-1150 90 0
-105 1148 1149 1150 0
-1151 -4 0
-1151 249 0
-1152 -34 0
-1152 113 0
-1153 -47 0
-1153 100 0
-105 1151 1152 1153 0
-1154 -5 0
-1154 256 0
-1155 -35 0
-1155 120 0
-1156 -54 0
-1156 101 0
-105 1154 1155 1156 0
-1157 -6 0
-1157 262 0
-1158 -36 0
-1158 126 0
-1159 -60 0
-1159 102 0
-105 1157 1158 1159 0
-1160 -7 0
-1160 267 0
-1161 -37 0
-1161 131 0
-1162 -65 0
-1162 103 0
-105 1160 1161 1162 0
-1163 -8 0
-1163 271 0
-1164 -38 0
-1164 135 0
-1165 -69 0
-1165 104 0
-105 1163 1164 1165 0
-1166 -10 0
-1166 275 0
-1167 -40 0
-1167 139 0
-1168 -73 0
-1168 106 0
-105 1166 1167 1168 0
-1169 -11 0
-1169 276 0
-1170 -41 0
-1170 140 0
-1171 -74 0
-1171 107 0
-105 1169 1170 1171 0
-1172 -12 0
-1172 277 0
-1173 -42 0
-1173 141 0
-1174 -75 0
-1174 108 0
-105 1172 1173 1174 0
-1175 -1 0
-1175 161 0
-1176 -14 0
-1176 87 0
-1177 -21 0
-1177 80 0
-106 1175 1176 1177 0
-1178 -2 0
-1178 206 0
-1179 -24 0
-1179 97 0
-1180 -31 0
-1180 90 0
-106 1178 1179 1180 0
-1181 -4 0
-1181 250 0
-1182 -34 0
-1182 114 0
-1183 -48 0
-1183 100 0
-106 1181 1182 1183 0
-1184 -5 0
-1184 257 0
-1185 -35 0
-1185 121 0
-1186 -55 0
-1186 101 0
-106 1184 1185 1186 0
-1187 -6 0
-1187 263 0
-1188 -36 0
-1188 127 0
-1189 -61 0
-1189 102 0
-106 1187 1188 1189 0
-1190 -7 0
-1190 268 0
-1191 -37 0
-1191 132 0
-1192 -66 0
-1192 103 0
-106 1190 1191 1192 0
-1193 -8 0
-1193 272 0
-1194 -38 0
-1194 136 0
-1195 -70 0
-1195 104 0
-106 1193 1194 1195 0
-1196 -9 0
-1196 275 0
-1197 -39 0
-1197 139 0
-1198 -73 0
-1198 105 0
-106 1196 1197 1198 0
-1199 -11 0
-1199 278 0
-1200 -41 0
-1200 142 0
-1201 -76 0
-1201 107 0
-106 1199 1200 1201 0
-1202 -12 0
-1202 279 0
-1203 -42 0
-1203 143 0
-1204 -77 0
-1204 108 0
-106 1202 1203 1204 0
-1205 -1 0
-1205 162 0
-1206 -14 0
-1206 88 0
-1207 -22 0
-1207 80 0
-107 1205 1206 1207 0
-1208 -2 0
-1208 207 0
-1209 -24 0
-1209 98 0
-1210 -32 0
-1210 90 0
-107 1208 1209 1210 0
-1211 -4 0
-1211 251 0
-1212 -34 0
-1212 115 0
-1213 -49 0
-1213 100 0
-107 1211 1212 1213 0
-1214 -5 0
-1214 258 0
-1215 -35 0
-1215 122 0
-1216 -56 0
-1216 101 0
-107 1214 1215 1216 0
-1217 -6 0
-1217 264 0
-1218 -36 0
-1218 128 0
-1219 -62 0
-1219 102 0
-107 1217 1218 1219 0
-1220 -7 0
-1220 269 0
-1221 -37 0
-1221 133 0
-1222 -67 0
-1222 103 0
-107 1220 1221 1222 0
-1223 -8 0
-1223 273 0
-1224 -38 0
-1224 137 0
-1225 -71 0
-1225 104 0
-107 1223 1224 1225 0
-1226 -9 0
-1226 276 0
-1227 -39 0
-1227 140 0
-1228 -74 0
-1228 105 0
-107 1226 1227 1228 0
-1229 -10 0
-1229 278 0
-1230 -40 0
-1230 142 0
-1231 -76 0
-1231 106 0
-107 1229 1230 1231 0
-1232 -12 0
-1232 280 0
-1233 -42 0
-1233 144 0
-1234 -78 0
-1234 108 0
-107 1232 1233 1234 0
-1235 -1 0
-1235 163 0
-1236 -14 0
-1236 89 0
-1237 -23 0
-1237 80 0
-108 1235 1236 1237 0
-1238 -2 0
-1238 208 0
-1239 -24 0
-1239 99 0
-1240 -33 0
-1240 90 0
-108 1238 1239 1240 0
-1241 -4 0
-1241 252 0
-1242 -34 0
-1242 116 0
-1243 -50 0
-1243 100 0
-108 1241 1242 1243 0
-1244 -5 0
-1244 259 0
-1245 -35 0
-1245 123 0
-1246 -57 0
-1246 101 0
-108 1244 1245 1246 0
-1247 -6 0
-1247 265 0
-1248 -36 0
-1248 129 0
-1249 -63 0
-1249 102 0
-108 1247 1248 1249 0
-1250 -7 0
-1250 270 0
-1251 -37 0
-1251 134 0
-1252 -68 0
-1252 103 0
-108 1250 1251 1252 0
-1253 -8 0
-1253 274 0
-1254 -38 0
-1254 138 0
-1255 -72 0
-1255 104 0
-108 1253 1254 1255 0
-1256 -9 0
-1256 277 0
-1257 -39 0
-1257 141 0
-1258 -75 0
-1258 105 0
-108 1256 1257 1258 0
-1259 -10 0
-1259 279 0
-1260 -40 0
-1260 143 0
-1261 -77 0
-1261 106 0
-108 1259 1260 1261 0
-1262 -11 0
-1262 280 0
-1263 -41 0
-1263 144 0
-1264 -78 0
-1264 107 0
-108 1262 1263 1264 0
-1265 -1 0
-1265 164 0
-1266 -15 0
-1266 82 0
-1267 -16 0
-1267 81 0
-109 1265 1266 1267 0
-1268 -2 0
-1268 209 0
-1269 -25 0
-1269 92 0
-1270 -26 0
-1270 91 0
-109 1268 1269 1270 0
-1271 -3 0
-1271 245 0
-1272 -34 0
-1272 101 0
-1273 -35 0
-1273 100 0
-109 1271 1272 1273 0
-1274 -6 0
-1274 281 0
-1275 -44 0
-1275 117 0
-1276 -51 0
-1276 110 0
-109 1274 1275 1276 0
-1277 -7 0
-1277 282 0
-1278 -45 0
-1278 118 0
-1279 -52 0
-1279 111 0
-109 1277 1278 1279 0
-1280 -8 0
-1280 283 0
-1281 -46 0
-1281 119 0
-1282 -53 0
-1282 112 0
-109 1280 1281 1282 0
-1283 -9 0
-1283 284 0
-1284 -47 0
-1284 120 0
-1285 -54 0
-1285 113 0
-109 1283 1284 1285 0
-1286 -10 0
-1286 285 0
-1287 -48 0
-1287 121 0
-1288 -55 0
-1288 114 0
-109 1286 1287 1288 0
-1289 -11 0
-1289 286 0
-1290 -49 0
-1290 122 0
-1291 -56 0
-1291 115 0
-109 1289 1290 1291 0
-1292 -12 0
-1292 287 0
-1293 -50 0
-1293 123 0
-1294 -57 0
-1294 116 0
-109 1292 1293 1294 0
-1295 -1 0
-1295 165 0
-1296 -15 0
-1296 83 0
-1297 -17 0
-1297 81 0
-110 1295 1296 1297 0
-1298 -2 0
-1298 210 0
-1299 -25 0
-1299 93 0
-1300 -27 0
-1300 91 0
-110 1298 1299 1300 0
-1301 -3 0
-1301 246 0
-1302 -34 0
-1302 102 0
-1303 -36 0
-1303 100 0
-110 1301 1302 1303 0
-1304 -5 0
-1304 281 0
-1305 -43 0
-1305 117 0
-1306 -51 0
-1306 109 0
-110 1304 1305 1306 0
-1307 -7 0
-1307 288 0
-1308 -45 0
-1308 124 0
-1309 -58 0
-1309 111 0
-110 1307 1308 1309 0
-1310 -8 0
-1310 289 0
-1311 -46 0
-1311 125 0
-1312 -59 0
-1312 112 0
-110 1310 1311 1312 0
-1313 -9 0
-1313 290 0
-1314 -47 0
-1314 126 0
-1315 -60 0
-1315 113 0
-110 1313 1314 1315 0
-1316 -10 0
-1316 291 0
-1317 -48 0
-1317 127 0
-1318 -61 0
-1318 114 0
-110 1316 1317 1318 0
-1319 -11 0
-1319 292 0
-1320 -49 0
-1320 128 0
-1321 -62 0
-1321 115 0
-110 1319 1320 1321 0
-1322 -12 0
-1322 293 0
-1323 -50 0
-1323 129 0
-1324 -63 0
-1324 116 0
-110 1322 1323 1324 0
-1325 -1 0
-1325 166 0
-1326 -15 0
-1326 84 0
-1327 -18 0
-1327 81 0
-111 1325 1326 1327 0
-1328 -2 0
-1328 211 0
-1329 -25 0
-1329 94 0
-1330 -28 0
-1330 91 0
-111 1328 1329 1330 0
-1331 -3 0
-1331 247 0
-1332 -34 0
-1332 103 0
-1333 -37 0
-1333 100 0
-111 1331 1332 1333 0
-1334 -5 0
-1334 282 0
-1335 -43 0
-1335 118 0
-1336 -52 0
-1336 109 0
-111 1334 1335 1336 0
-1337 -6 0
-1337 288 0
-1338 -44 0
-1338 124 0
-1339 -58 0
-1339 110 0
-111 1337 1338 1339 0
-1340 -8 0
-1340 294 0
-1341 -46 0
-1341 130 0
-1342 -64 0
-1342 112 0
-111 1340 1341 1342 0
-1343 -9 0
-1343 295 0
-1344 -47 0
-1344 131 0
-1345 -65 0
-1345 113 0
-111 1343 1344 1345 0
-1346 -10 0
-1346 296 0
-1347 -48 0
-1347 132 0
-1348 -66 0
-1348 114 0
-111 1346 1347 1348 0
-1349 -11 0
-1349 297 0
-1350 -49 0
-1350 133 0
-1351 -67 0
-1351 115 0
-111 1349 1350 1351 0
-1352 -12 0
-1352 298 0
-1353 -50 0
-1353 134 0
-1354 -68 0
-1354 116 0
-111 1352 1353 1354 0
-1355 -1 0
-1355 167 0
-1356 -15 0
-1356 85 0
-1357 -19 0
-1357 81 0
-112 1355 1356 1357 0
-1358 -2 0
-1358 212 0
-1359 -25 0
-1359 95 0
-1360 -29 0
-1360 91 0
-112 1358 1359 1360 0
-1361 -3 0
-1361 248 0
-1362 -34 0
-1362 104 0
-1363 -38 0
-1363 100 0
-112 1361 1362 1363 0
-1364 -5 0
-1364 283 0
-1365 -43 0
-1365 119 0
-1366 -53 0
-1366 109 0
-112 1364 1365 1366 0
-1367 -6 0
-1367 289 0
-1368 -44 0
-1368 125 0
-1369 -59 0
-1369 110 0
-112 1367 1368 1369 0
-1370 -7 0
-1370 294 0
-1371 -45 0
-1371 130 0
-1372 -64 0
-1372 111 0
-112 1370 1371 1372 0
-1373 -9 0
-1373 299 0
-1374 -47 0
-1374 135 0
-1375 -69 0
-1375 113 0
-112 1373 1374 1375 0
-1376 -10 0
-1376 300 0
-1377 -48 0
-1377 136 0
-1378 -70 0
-1378 114 0
-112 1376 1377 1378 0
-1379 -11 0
-1379 301 0
-1380 -49 0
-1380 137 0
-1381 -71 0
-1381 115 0
-112 1379 1380 1381 0
-1382 -12 0
-1382 302 0
-1383 -50 0
-1383 138 0
-1384 -72 0
-1384 116 0
-112 1382 1383 1384 0
-1385 -1 0
-1385 168 0
-1386 -15 0
-1386 86 0
-1387 -20 0
-1387 81 0
-113 1385 1386 1387 0
-1388 -2 0
-1388 213 0
-1389 -25 0
-1389 96 0
-1390 -30 0
-1390 91 0
-113 1388 1389 1390 0
-1391 -3 0
-1391 249 0
-1392 -34 0
-1392 105 0
-1393 -39 0
-1393 100 0
-113 1391 1392 1393 0
-1394 -5 0
-1394 284 0
-1395 -43 0
-1395 120 0
-1396 -54 0
-1396 109 0
-113 1394 1395 1396 0
-1397 -6 0
-1397 290 0
-1398 -44 0
-1398 126 0
-1399 -60 0
-1399 110 0
-113 1397 1398 1399 0
-1400 -7 0
-1400 295 0
-1401 -45 0
-1401 131 0
-1402 -65 0
-1402 111 0
-113 1400 1401 1402 0
-1403 -8 0
-1403 299 0
-1404 -46 0
-1404 135 0
-1405 -69 0
-1405 112 0
-113 1403 1404 1405 0
-1406 -10 0
-1406 303 0
-1407 -48 0
-1407 139 0
-1408 -73 0
-1408 114 0
-113 1406 1407 1408 0
-1409 -11 0
-1409 304 0
-1410 -49 0
-1410 140 0
-1411 -74 0
-1411 115 0
-113 1409 1410 1411 0
-1412 -12 0
-1412 305 0
-1413 -50 0
-1413 141 0
-1414 -75 0
-1414 116 0
-113 1412 1413 1414 0
-1415 -1 0
-1415 169 0
-1416 -15 0
-1416 87 0
-1417 -21 0
-1417 81 0
-114 1415 1416 1417 0
-1418 -2 0
-1418 214 0
-1419 -25 0
-1419 97 0
-1420 -31 0
-1420 91 0
-114 1418 1419 1420 0
-1421 -3 0
-1421 250 0
-1422 -34 0
-1422 106 0
-1423 -40 0
-1423 100 0
-114 1421 1422 1423 0
-1424 -5 0
-1424 285 0
-1425 -43 0
-1425 121 0
-1426 -55 0
-1426 109 0
-114 1424 1425 1426 0
-1427 -6 0
-1427 291 0
-1428 -44 0
-1428 127 0
-1429 -61 0
-1429 110 0
-114 1427 1428 1429 0
-1430 -7 0
-1430 296 0
-1431 -45 0
-1431 132 0
-1432 -66 0
-1432 111 0
-114 1430 1431 1432 0
-1433 -8 0
-1433 300 0
-1434 -46 0
-1434 136 0
-1435 -70 0
-1435 112 0
-114 1433 1434 1435 0
-1436 -9 0
-1436 303 0
-1437 -47 0
-1437 139 0
-1438 -73 0
-1438 113 0
-114 1436 1437 1438 0
-1439 -11 0
-1439 306 0
-1440 -49 0
-1440 142 0
-1441 -76 0
-1441 115 0
-114 1439 1440 1441 0
-1442 -12 0
-1442 307 0
-1443 -50 0
-1443 143 0
-1444 -77 0
-1444 116 0
-114 1442 1443 1444 0
-1445 -1 0
-1445 170 0
-1446 -15 0
-1446 88 0
-1447 -22 0
-1447 81 0
-115 1445 1446 1447 0
-1448 -2 0
-1448 215 0
-1449 -25 0
-1449 98 0
-1450 -32 0
-1450 91 0
-115 1448 1449 1450 0
-1451 -3 0
-1451 251 0
-1452 -34 0
-1452 107 0
-1453 -41 0
-1453 100 0
-115 1451 1452 1453 0
-1454 -5 0
-1454 286 0
-1455 -43 0
-1455 122 0
-1456 -56 0
-1456 109 0
-115 1454 1455 1456 0
-1457 -6 0
-1457 292 0
-1458 -44 0
-1458 128 0
-1459 -62 0
-1459 110 0
-115 1457 1458 1459 0
-1460 -7 0
-1460 297 0
-1461 -45 0
-1461 133 0
-1462 -67 0
-1462 111 0
-115 1460 1461 1462 0
-1463 -8 0
-1463 301 0
-1464 -46 0
-1464 137 0
-1465 -71 0
-1465 112 0
-115 1463 1464 1465 0
-1466 -9 0
-1466 304 0
-1467 -47 0
-1467 140 0
-1468 -74 0
-1468 113 0
-115 1466 1467 1468 0
-1469 -10 0
-1469 306 0
-1470 -48 0
-1470 142 0
-1471 -76 0
-1471 114 0
-115 1469 1470 1471 0
-1472 -12 0
-1472 308 0
-1473 -50 0
-1473 144 0
-1474 -78 0
-1474 116 0
-115 1472 1473 1474 0
-1475 -1 0
-1475 171 0
-1476 -15 0
-1476 89 0
-1477 -23 0
-1477 81 0
-116 1475 1476 1477 0
-1478 -2 0
-1478 216 0
-1479 -25 0
-1479 99 0
-1480 -33 0
-1480 91 0
-116 1478 1479 1480 0
-1481 -3 0
-1481 252 0
-1482 -34 0
-1482 108 0
-1483 -42 0
-1483 100 0
-116 1481 1482 1483 0
-1484 -5 0
-1484 287 0
-1485 -43 0
-1485 123 0
-1486 -57 0
-1486 109 0
-116 1484 1485 1486 0
-1487 -6 0
-1487 293 0
-1488 -44 0
-1488 129 0
-1489 -63 0
-1489 110 0
-116 1487 1488 1489 0
-1490 -7 0
-1490 298 0
-1491 -45 0
-1491 134 0
-1492 -68 0
-1492 111 0
-116 1490 1491 1492 0
-1493 -8 0
-1493 302 0
-1494 -46 0
-1494 138 0
-1495 -72 0
-1495 112 0
-116 1493 1494 1495 0
-1496 -9 0
-1496 305 0
-1497 -47 0
-1497 141 0
-1498 -75 0
-1498 113 0
-116 1496 1497 1498 0
-1499 -10 0
-1499 307 0
-1500 -48 0
-1500 143 0
-1501 -77 0
-1501 114 0
-116 1499 1500 1501 0
-1502 -11 0
-1502 308 0
-1503 -49 0
-1503 144 0
-1504 -78 0
-1504 115 0
-116 1502 1503 1504 0
-1505 -1 0
-1505 172 0
-1506 -16 0
-1506 83 0
-1507 -17 0
-1507 82 0
-117 1505 1506 1507 0
-1508 -2 0
-1508 217 0
-1509 -26 0
-1509 93 0
-1510 -27 0
-1510 92 0
-117 1508 1509 1510 0
-1511 -3 0
-1511 253 0
-1512 -35 0
-1512 102 0
-1513 -36 0
-1513 101 0
-117 1511 1512 1513 0
-1514 -4 0
-1514 281 0
-1515 -43 0
-1515 110 0
-1516 -44 0
-1516 109 0
-117 1514 1515 1516 0
-1517 -7 0
-1517 309 0
-1518 -52 0
-1518 124 0
-1519 -58 0
-1519 118 0
-117 1517 1518 1519 0
-1520 -8 0
-1520 310 0
-1521 -53 0
-1521 125 0
-1522 -59 0
-1522 119 0
-117 1520 1521 1522 0
-1523 -9 0
-1523 311 0
-1524 -54 0
-1524 126 0
-1525 -60 0
-1525 120 0
-117 1523 1524 1525 0
-1526 -10 0
-1526 312 0
-1527 -55 0
-1527 127 0
-1528 -61 0
-1528 121 0
-117 1526 1527 1528 0
-1529 -11 0
-1529 313 0
-1530 -56 0
-1530 128 0
-1531 -62 0
-1531 122 0
-117 1529 1530 1531 0
-1532 -12 0
-1532 314 0
-1533 -57 0
-1533 129 0
-1534 -63 0
-1534 123 0
-117 1532 1533 1534 0
-1535 -1 0
-1535 173 0
-1536 -16 0
-1536 84 0
-1537 -18 0
-1537 82 0
-118 1535 1536 1537 0
-1538 -2 0
-1538 218 0
-1539 -26 0
-1539 94 0
-1540 -28 0
-1540 92 0
-118 1538 1539 1540 0
-1541 -3 0
-1541 254 0
-1542 -35 0
-1542 103 0
-1543 -37 0
-1543 101 0
-118 1541 1542 1543 0
-1544 -4 0
-1544 282 0
-1545 -43 0
-1545 111 0
-1546 -45 0
-1546 109 0
-118 1544 1545 1546 0
-1547 -6 0
-1547 309 0
-1548 -51 0
-1548 124 0
-1549 -58 0
-1549 117 0
-118 1547 1548 1549 0
-1550 -8 0
-1550 315 0
-1551 -53 0
-1551 130 0
-1552 -64 0
-1552 119 0
-118 1550 1551 1552 0
-1553 -9 0
-1553 316 0
-1554 -54 0
-1554 131 0
-1555 -65 0
-1555 120 0
-118 1553 1554 1555 0
-1556 -10 0
-1556 317 0
-1557 -55 0
-1557 132 0
-1558 -66 0
-1558 121 0
-118 1556 1557 1558 0
-1559 -11 0
-1559 318 0
-1560 -56 0
-1560 133 0
-1561 -67 0
-1561 122 0
-118 1559 1560 1561 0
-1562 -12 0
-1562 319 0
-1563 -57 0
-1563 134 0
-1564 -68 0
-1564 123 0
-118 1562 1563 1564 0
-1565 -1 0
-1565 174 0
-1566 -16 0
-1566 85 0
-1567 -19 0
-1567 82 0
-119 1565 1566 1567 0
-1568 -2 0
-1568 219 0
-1569 -26 0
-1569 95 0
-1570 -29 0
-1570 92 0
-119 1568 1569 1570 0
-1571 -3 0
-1571 255 0
-1572 -35 0
-1572 104 0
-1573 -38 0
-1573 101 0
-119 1571 1572 1573 0
-1574 -4 0
-1574 283 0
-1575 -43 0
-1575 112 0
-1576 -46 0
-1576 109 0
-119 1574 1575 1576 0
-1577 -6 0
-1577 310 0
-1578 -51 0
-1578 125 0
-1579 -59 0
-1579 117 0
-119 1577 1578 1579 0
-1580 -7 0
-1580 315 0
-1581 -52 0
-1581 130 0
-1582 -64 0
-1582 118 0
-119 1580 1581 1582 0
-1583 -9 0
-1583 320 0
-1584 -54 0
-1584 135 0
-1585 -69 0
-1585 120 0
-119 1583 1584 1585 0
-1586 -10 0
-1586 321 0
-1587 -55 0
-1587 136 0
-1588 -70 0
-1588 121 0
-119 1586 1587 1588 0
-1589 -11 0
-1589 322 0
-1590 -56 0
-1590 137 0
-1591 -71 0
-1591 122 0
-119 1589 1590 1591 0
-1592 -12 0
-1592 323 0
-1593 -57 0
-1593 138 0
-1594 -72 0
-1594 123 0
-119 1592 1593 1594 0
-1595 -1 0
-1595 175 0
-1596 -16 0
-1596 86 0
-1597 -20 0
-1597 82 0
-120 1595 1596 1597 0
-1598 -2 0
-1598 220 0
-1599 -26 0
-1599 96 0
-1600 -30 0
-1600 92 0
-120 1598 1599 1600 0
-1601 -3 0
-1601 256 0
-1602 -35 0
-1602 105 0
-1603 -39 0
-1603 101 0
-120 1601 1602 1603 0
-1604 -4 0
-1604 284 0
-1605 -43 0
-1605 113 0
-1606 -47 0
-1606 109 0
-120 1604 1605 1606 0
-1607 -6 0
-1607 311 0
-1608 -51 0
-1608 126 0
-1609 -60 0
-1609 117 0
-120 1607 1608 1609 0
-1610 -7 0
-1610 316 0
-1611 -52 0
-1611 131 0
-1612 -65 0
-1612 118 0
-120 1610 1611 1612 0
-1613 -8 0
-1613 320 0
-1614 -53 0
-1614 135 0
-1615 -69 0
-1615 119 0
-120 1613 1614 1615 0
-1616 -10 0
-1616 324 0
-1617 -55 0
-1617 139 0
-1618 -73 0
-1618 121 0
-120 1616 1617 1618 0
-1619 -11 0
-1619 325 0
-1620 -56 0
-1620 140 0
-1621 -74 0
-1621 122 0
-120 1619 1620 1621 0
-1622 -12 0
-1622 326 0
-1623 -57 0
-1623 141 0
-1624 -75 0
-1624 123 0
-120 1622 1623 1624 0
-1625 -1 0
-1625 176 0
-1626 -16 0
-1626 87 0
-1627 -21 0
-1627 82 0
-121 1625 1626 1627 0
-1628 -2 0
-1628 221 0
-1629 -26 0
-1629 97 0
-1630 -31 0
-1630 92 0
-121 1628 1629 1630 0
-1631 -3 0
-1631 257 0
-1632 -35 0
-1632 106 0
-1633 -40 0
-1633 101 0
-121 1631 1632 1633 0
-1634 -4 0
-1634 285 0
-1635 -43 0
-1635 114 0
-1636 -48 0
-1636 109 0
-121 1634 1635 1636 0
-1637 -6 0
-1637 312 0
-1638 -51 0
-1638 127 0
-1639 -61 0
-1639 117 0
-121 1637 1638 1639 0
-1640 -7 0
-1640 317 0
-1641 -52 0
-1641 132 0
-1642 -66 0
-1642 118 0
-121 1640 1641 1642 0
-1643 -8 0
-1643 321 0
-1644 -53 0
-1644 136 0
-1645 -70 0
-1645 119 0
-121 1643 1644 1645 0
-1646 -9 0
-1646 324 0
-1647 -54 0
-1647 139 0
-1648 -73 0
-1648 120 0
-121 1646 1647 1648 0
-1649 -11 0
-1649 327 0
-1650 -56 0
-1650 142 0
-1651 -76 0
-1651 122 0
-121 1649 1650 1651 0
-1652 -12 0
-1652 328 0
-1653 -57 0
-1653 143 0
-1654 -77 0
-1654 123 0
-121 1652 1653 1654 0
-1655 -1 0
-1655 177 0
-1656 -16 0
-1656 88 0
-1657 -22 0
-1657 82 0
-122 1655 1656 1657 0
-1658 -2 0
-1658 222 0
-1659 -26 0
-1659 98 0
-1660 -32 0
-1660 92 0
-122 1658 1659 1660 0
-1661 -3 0
-1661 258 0
-1662 -35 0
-1662 107 0
-1663 -41 0
-1663 101 0
-122 1661 1662 1663 0
-1664 -4 0
-1664 286 0
-1665 -43 0
-1665 115 0
-1666 -49 0
-1666 109 0
-122 1664 1665 1666 0
-1667 -6 0
-1667 313 0
-1668 -51 0
-1668 128 0
-1669 -62 0
-1669 117 0
-122 1667 1668 1669 0
-1670 -7 0
-1670 318 0
-1671 -52 0
-1671 133 0
-1672 -67 0
-1672 118 0
-122 1670 1671 1672 0
-1673 -8 0
-1673 322 0
-1674 -53 0
-1674 137 0
-1675 -71 0
-1675 119 0
-122 1673 1674 1675 0
-1676 -9 0
-1676 325 0
-1677 -54 0
-1677 140 0
-1678 -74 0
-1678 120 0
-122 1676 1677 1678 0
-1679 -10 0
-1679 327 0
-1680 -55 0
-1680 142 0
-1681 -76 0
-1681 121 0
-122 1679 1680 1681 0
-1682 -12 0
-1682 329 0
-1683 -57 0
-1683 144 0
-1684 -78 0
-1684 123 0
-122 1682 1683 1684 0
-1685 -1 0
-1685 178 0
-1686 -16 0
-1686 89 0
-1687 -23 0
-1687 82 0
-123 1685 1686 1687 0
-1688 -2 0
-1688 223 0
-1689 -26 0
-1689 99 0
-1690 -33 0
-1690 92 0
-123 1688 1689 1690 0
-1691 -3 0
-1691 259 0
-1692 -35 0
-1692 108 0
-1693 -42 0
-1693 101 0
-123 1691 1692 1693 0
-1694 -4 0
-1694 287 0
-1695 -43 0
-1695 116 0
-1696 -50 0
-1696 109 0
-123 1694 1695 1696 0
-1697 -6 0
-1697 314 0
-1698 -51 0
-1698 129 0
-1699 -63 0
-1699 117 0
-123 1697 1698 1699 0
-1700 -7 0
-1700 319 0
-1701 -52 0
-1701 134 0
-1702 -68 0
-1702 118 0
-123 1700 1701 1702 0
-1703 -8 0
-1703 323 0
-1704 -53 0
-1704 138 0
-1705 -72 0
-1705 119 0
-123 1703 1704 1705 0
-1706 -9 0
-1706 326 0
-1707 -54 0
-1707 141 0
-1708 -75 0
-1708 120 0
-123 1706 1707 1708 0
-1709 -10 0
-1709 328 0
-1710 -55 0
-1710 143 0
-1711 -77 0
-1711 121 0
-123 1709 1710 1711 0
-1712 -11 0
-1712 329 0
-1713 -56 0
-1713 144 0
-1714 -78 0
-1714 122 0
-123 1712 1713 1714 0
-1715 -1 0
-1715 179 0
-1716 -17 0
-1716 84 0
-1717 -18 0
-1717 83 0
-124 1715 1716 1717 0
-1718 -2 0
-1718 224 0
-1719 -27 0
-1719 94 0
-1720 -28 0
-1720 93 0
-124 1718 1719 1720 0
-1721 -3 0
-1721 260 0
-1722 -36 0
-1722 103 0
-1723 -37 0
-1723 102 0
-124 1721 1722 1723 0
-1724 -4 0
-1724 288 0
-1725 -44 0
-1725 111 0
-1726 -45 0
-1726 110 0
-124 1724 1725 1726 0
-1727 -5 0
-1727 309 0
-1728 -51 0
-1728 118 0
-1729 -52 0
-1729 117 0
-124 1727 1728 1729 0
-1730 -8 0
-1730 330 0
-1731 -59 0
-1731 130 0
-1732 -64 0
-1732 125 0
-124 1730 1731 1732 0
-1733 -9 0
-1733 331 0
-1734 -60 0
-1734 131 0
-1735 -65 0
-1735 126 0
-124 1733 1734 1735 0
-1736 -10 0
-1736 332 0
-1737 -61 0
-1737 132 0
-1738 -66 0
-1738 127 0
-124 1736 1737 1738 0
-1739 -11 0
-1739 333 0
-1740 -62 0
-1740 133 0
-1741 -67 0
-1741 128 0
-124 1739 1740 1741 0
-1742 -12 0
-1742 334 0
-1743 -63 0
-1743 134 0
-1744 -68 0
-1744 129 0
-124 1742 1743 1744 0
-1745 -1 0
-1745 180 0
-1746 -17 0
-1746 85 0
-1747 -19 0
-1747 83 0
-125 1745 1746 1747 0
-1748 -2 0
-1748 225 0
-1749 -27 0
-1749 95 0
-1750 -29 0
-1750 93 0
-125 1748 1749 1750 0
-1751 -3 0
-1751 261 0
-1752 -36 0
-1752 104 0
-1753 -38 0
-1753 102 0
-125 1751 1752 1753 0
-1754 -4 0
-1754 289 0
-1755 -44 0
-1755 112 0
-1756 -46 0
-1756 110 0
-125 1754 1755 1756 0
-1757 -5 0
-1757 310 0
-1758 -51 0
-1758 119 0
-1759 -53 0
-1759 117 0
-125 1757 1758 1759 0
-1760 -7 0
-1760 330 0
-1761 -58 0
-1761 130 0
-1762 -64 0
-1762 124 0
-125 1760 1761 1762 0
-1763 -9 0
-1763 335 0
-1764 -60 0
-1764 135 0
-1765 -69 0
-1765 126 0
-125 1763 1764 1765 0
-1766 -10 0
-1766 336 0
-1767 -61 0
-1767 136 0
-1768 -70 0
-1768 127 0
-125 1766 1767 1768 0
-1769 -11 0
-1769 337 0
-1770 -62 0
-1770 137 0
-1771 -71 0
-1771 128 0
-125 1769 1770 1771 0
-1772 -12 0
-1772 338 0
-1773 -63 0
-1773 138 0
-1774 -72 0
-1774 129 0
-125 1772 1773 1774 0
-1775 -1 0
-1775 181 0
-1776 -17 0
-1776 86 0
-1777 -20 0
-1777 83 0
-126 1775 1776 1777 0
-1778 -2 0
-1778 226 0
-1779 -27 0
-1779 96 0
-1780 -30 0
-1780 93 0
-126 1778 1779 1780 0
-1781 -3 0
-1781 262 0
-1782 -36 0
-1782 105 0
-1783 -39 0
-1783 102 0
-126 1781 1782 1783 0
-1784 -4 0
-1784 290 0
-1785 -44 0
-1785 113 0
-1786 -47 0
-1786 110 0
-126 1784 1785 1786 0
-1787 -5 0
-1787 311 0
-1788 -51 0
-1788 120 0
-1789 -54 0
-1789 117 0
-126 1787 1788 1789 0
-1790 -7 0
-1790 331 0
-1791 -58 0
-1791 131 0
-1792 -65 0
-1792 124 0
-126 1790 1791 1792 0
-1793 -8 0
-1793 335 0
-1794 -59 0
-1794 135 0
-1795 -69 0
-1795 125 0
-126 1793 1794 1795 0
-1796 -10 0
-1796 339 0
-1797 -61 0
-1797 139 0
-1798 -73 0
-1798 127 0
-126 1796 1797 1798 0
-1799 -11 0
-1799 340 0
-1800 -62 0
-1800 140 0
-1801 -74 0
-1801 128 0
-126 1799 1800 1801 0
-1802 -12 0
-1802 341 0
-1803 -63 0
-1803 141 0
-1804 -75 0
-1804 129 0
-126 1802 1803 1804 0
-1805 -1 0
-1805 182 0
-1806 -17 0
-1806 87 0
-1807 -21 0
-1807 83 0
-127 1805 1806 1807 0
-1808 -2 0
-1808 227 0
-1809 -27 0
-1809 97 0
-1810 -31 0
-1810 93 0
-127 1808 1809 1810 0
-1811 -3 0
-1811 263 0
-1812 -36 0
-1812 106 0
-1813 -40 0
-1813 102 0
-127 1811 1812 1813 0
-1814 -4 0
-1814 291 0
-1815 -44 0
-1815 114 0
-1816 -48 0
-1816 110 0
-127 1814 1815 1816 0
-1817 -5 0
-1817 312 0
-1818 -51 0
-1818 121 0
-1819 -55 0
-1819 117 0
-127 1817 1818 1819 0
-1820 -7 0
-1820 332 0
-1821 -58 0
-1821 132 0
-1822 -66 0
-1822 124 0
-127 1820 1821 1822 0
-1823 -8 0
-1823 336 0
-1824 -59 0
-1824 136 0
-1825 -70 0
-1825 125 0
-127 1823 1824 1825 0
-1826 -9 0
-1826 339 0
-1827 -60 0
-1827 139 0
-1828 -73 0
-1828 126 0
-127 1826 1827 1828 0
-1829 -11 0
-1829 342 0
-1830 -62 0
-1830 142 0
-1831 -76 0
-1831 128 0
-127 1829 1830 1831 0
-1832 -12 0
-1832 343 0
-1833 -63 0
-1833 143 0
-1834 -77 0
-1834 129 0
-127 1832 1833 1834 0
-1835 -1 0
-1835 183 0
-1836 -17 0
-1836 88 0
-1837 -22 0
-1837 83 0
-128 1835 1836 1837 0
-1838 -2 0
-1838 228 0
-1839 -27 0
-1839 98 0
-1840 -32 0
-1840 93 0
-128 1838 1839 1840 0
-1841 -3 0
-1841 264 0
-1842 -36 0
-1842 107 0
-1843 -41 0
-1843 102 0
-128 1841 1842 1843 0
-1844 -4 0
-1844 292 0
-1845 -44 0
-1845 115 0
-1846 -49 0
-1846 110 0
-128 1844 1845 1846 0
-1847 -5 0
-1847 313 0
-1848 -51 0
-1848 122 0
-1849 -56 0
-1849 117 0
-128 1847 1848 1849 0
-1850 -7 0
-1850 333 0
-1851 -58 0
-1851 133 0
-1852 -67 0
-1852 124 0
-128 1850 1851 1852 0
-1853 -8 0
-1853 337 0
-1854 -59 0
-1854 137 0
-1855 -71 0
-1855 125 0
-128 1853 1854 1855 0
-1856 -9 0
-1856 340 0
-1857 -60 0
-1857 140 0
-1858 -74 0
-1858 126 0
-128 1856 1857 1858 0
-1859 -10 0
-1859 342 0
-1860 -61 0
-1860 142 0
-1861 -76 0
-1861 127 0
-128 1859 1860 1861 0
-1862 -12 0
-1862 344 0
-1863 -63 0
-1863 144 0
-1864 -78 0
-1864 129 0
-128 1862 1863 1864 0
-1865 -1 0
-1865 184 0
-1866 -17 0
-1866 89 0
-1867 -23 0
-1867 83 0
-129 1865 1866 1867 0
-1868 -2 0
-1868 229 0
-1869 -27 0
-1869 99 0
-1870 -33 0
-1870 93 0
-129 1868 1869 1870 0
-1871 -3 0
-1871 265 0
-1872 -36 0
-1872 108 0
-1873 -42 0
-1873 102 0
-129 1871 1872 1873 0
-1874 -4 0
-1874 293 0
-1875 -44 0
-1875 116 0
-1876 -50 0
-1876 110 0
-129 1874 1875 1876 0
-1877 -5 0
-1877 314 0
-1878 -51 0
-1878 123 0
-1879 -57 0
-1879 117 0
-129 1877 1878 1879 0
-1880 -7 0
-1880 334 0
-1881 -58 0
-1881 134 0
-1882 -68 0
-1882 124 0
-129 1880 1881 1882 0
-1883 -8 0
-1883 338 0
-1884 -59 0
-1884 138 0
-1885 -72 0
-1885 125 0
-129 1883 1884 1885 0
-1886 -9 0
-1886 341 0
-1887 -60 0
-1887 141 0
-1888 -75 0
-1888 126 0
-129 1886 1887 1888 0
-1889 -10 0
-1889 343 0
-1890 -61 0
-1890 143 0
-1891 -77 0
-1891 127 0
-129 1889 1890 1891 0
-1892 -11 0
-1892 344 0
-1893 -62 0
-1893 144 0
-1894 -78 0
-1894 128 0
-129 1892 1893 1894 0
-1895 -1 0
-1895 185 0
-1896 -18 0
-1896 85 0
-1897 -19 0
-1897 84 0
-130 1895 1896 1897 0
-1898 -2 0
-1898 230 0
-1899 -28 0
-1899 95 0
-1900 -29 0
-1900 94 0
-130 1898 1899 1900 0
-1901 -3 0
-1901 266 0
-1902 -37 0
-1902 104 0
-1903 -38 0
-1903 103 0
-130 1901 1902 1903 0
-1904 -4 0
-1904 294 0
-1905 -45 0
-1905 112 0
-1906 -46 0
-1906 111 0
-130 1904 1905 1906 0
-1907 -5 0
-1907 315 0
-1908 -52 0
-1908 119 0
-1909 -53 0
-1909 118 0
-130 1907 1908 1909 0
-1910 -6 0
-1910 330 0
-1911 -58 0
-1911 125 0
-1912 -59 0
-1912 124 0
-130 1910 1911 1912 0
-1913 -9 0
-1913 345 0
-1914 -65 0
-1914 135 0
-1915 -69 0
-1915 131 0
-130 1913 1914 1915 0
-1916 -10 0
-1916 346 0
-1917 -66 0
-1917 136 0
-1918 -70 0
-1918 132 0
-130 1916 1917 1918 0
-1919 -11 0
-1919 347 0
-1920 -67 0
-1920 137 0
-1921 -71 0
-1921 133 0
-130 1919 1920 1921 0
-1922 -12 0
-1922 348 0
-1923 -68 0
-1923 138 0
-1924 -72 0
-1924 134 0
-130 1922 1923 1924 0
-1925 -1 0
-1925 186 0
-1926 -18 0
-1926 86 0
-1927 -20 0
-1927 84 0
-131 1925 1926 1927 0
-1928 -2 0
-1928 231 0
-1929 -28 0
-1929 96 0
-1930 -30 0
-1930 94 0
-131 1928 1929 1930 0
-1931 -3 0
-1931 267 0
-1932 -37 0
-1932 105 0
-1933 -39 0
-1933 103 0
-131 1931 1932 1933 0
-1934 -4 0
-1934 295 0
-1935 -45 0
-1935 113 0
-1936 -47 0
-1936 111 0
-131 1934 1935 1936 0
-1937 -5 0
-1937 316 0
-1938 -52 0
-1938 120 0
-1939 -54 0
-1939 118 0
-131 1937 1938 1939 0
-1940 -6 0
-1940 331 0
-1941 -58 0
-1941 126 0
-1942 -60 0
-1942 124 0
-131 1940 1941 1942 0
-1943 -8 0
-1943 345 0
-1944 -64 0
-1944 135 0
-1945 -69 0
-1945 130 0
-131 1943 1944 1945 0
-1946 -10 0
-1946 349 0
-1947 -66 0
-1947 139 0
-1948 -73 0
-1948 132 0
-131 1946 1947 1948 0
-1949 -11 0
-1949 350 0
-1950 -67 0
-1950 140 0
-1951 -74 0
-1951 133 0
-131 1949 1950 1951 0
-1952 -12 0
-1952 351 0
-1953 -68 0
-1953 141 0
-1954 -75 0
-1954 134 0
-131 1952 1953 1954 0
-1955 -1 0
-1955 187 0
-1956 -18 0
-1956 87 0
-1957 -21 0
-1957 84 0
-132 1955 1956 1957 0
-1958 -2 0
-1958 232 0
-1959 -28 0
-1959 97 0
-1960 -31 0
-1960 94 0
-132 1958 1959 1960 0
-1961 -3 0
-1961 268 0
-1962 -37 0
-1962 106 0
-1963 -40 0
-1963 103 0
-132 1961 1962 1963 0
-1964 -4 0
-1964 296 0
-1965 -45 0
-1965 114 0
-1966 -48 0
-1966 111 0
-132 1964 1965 1966 0
-1967 -5 0
-1967 317 0
-1968 -52 0
-1968 121 0
-1969 -55 0
-1969 118 0
-132 1967 1968 1969 0
-1970 -6 0
-1970 332 0
-1971 -58 0
-1971 127 0
-1972 -61 0
-1972 124 0
-132 1970 1971 1972 0
-1973 -8 0
-1973 346 0
-1974 -64 0
-1974 136 0
-1975 -70 0
-1975 130 0
-132 1973 1974 1975 0
-1976 -9 0
-1976 349 0
-1977 -65 0
-1977 139 0
-1978 -73 0
-1978 131 0
-132 1976 1977 1978 0
-1979 -11 0
-1979 352 0
-1980 -67 0
-1980 142 0
-1981 -76 0
-1981 133 0
-132 1979 1980 1981 0
-1982 -12 0
-1982 353 0
-1983 -68 0
-1983 143 0
-1984 -77 0
-1984 134 0
-132 1982 1983 1984 0
-1985 -1 0
-1985 188 0
-1986 -18 0
-1986 88 0
-1987 -22 0
-1987 84 0
-133 1985 1986 1987 0
-1988 -2 0
-1988 233 0
-1989 -28 0
-1989 98 0
-1990 -32 0
-1990 94 0
-133 1988 1989 1990 0
-1991 -3 0
-1991 269 0
-1992 -37 0
-1992 107 0
-1993 -41 0
-1993 103 0
-133 1991 1992 1993 0
-1994 -4 0
-1994 297 0
-1995 -45 0
-1995 115 0
-1996 -49 0
-1996 111 0
-133 1994 1995 1996 0
-1997 -5 0
-1997 318 0
-1998 -52 0
-1998 122 0
-1999 -56 0
-1999 118 0
-133 1997 1998 1999 0
-2000 -6 0
-2000 333 0
-2001 -58 0
-2001 128 0
-2002 -62 0
-2002 124 0
-133 2000 2001 2002 0
-2003 -8 0
-2003 347 0
-2004 -64 0
-2004 137 0
-2005 -71 0
-2005 130 0
-133 2003 2004 2005 0
-2006 -9 0
-2006 350 0
-2007 -65 0
-2007 140 0
-2008 -74 0
-2008 131 0
-133 2006 2007 2008 0
-2009 -10 0
-2009 352 0
-2010 -66 0
-2010 142 0
-2011 -76 0
-2011 132 0
-133 2009 2010 2011 0
-2012 -12 0
-2012 354 0
-2013 -68 0
-2013 144 0
-2014 -78 0
-2014 134 0
-133 2012 2013 2014 0
-2015 -1 0
-2015 189 0
-2016 -18 0
-2016 89 0
-2017 -23 0
-2017 84 0
-134 2015 2016 2017 0
-2018 -2 0
-2018 234 0
-2019 -28 0
-2019 99 0
-2020 -33 0
-2020 94 0
-134 2018 2019 2020 0
-2021 -3 0
-2021 270 0
-2022 -37 0
-2022 108 0
-2023 -42 0
-2023 103 0
-134 2021 2022 2023 0
-2024 -4 0
-2024 298 0
-2025 -45 0
-2025 116 0
-2026 -50 0
-2026 111 0
-134 2024 2025 2026 0
-2027 -5 0
-2027 319 0
-2028 -52 0
-2028 123 0
-2029 -57 0
-2029 118 0
-134 2027 2028 2029 0
-2030 -6 0
-2030 334 0
-2031 -58 0
-2031 129 0
-2032 -63 0
-2032 124 0
-134 2030 2031 2032 0
-2033 -8 0
-2033 348 0
-2034 -64 0
-2034 138 0
-2035 -72 0
-2035 130 0
-134 2033 2034 2035 0
-2036 -9 0
-2036 351 0
-2037 -65 0
-2037 141 0
-2038 -75 0
-2038 131 0
-134 2036 2037 2038 0
-2039 -10 0
-2039 353 0
-2040 -66 0
-2040 143 0
-2041 -77 0
-2041 132 0
-134 2039 2040 2041 0
-2042 -11 0
-2042 354 0
-2043 -67 0
-2043 144 0
-2044 -78 0
-2044 133 0
-134 2042 2043 2044 0
-2045 -1 0
-2045 190 0
-2046 -19 0
-2046 86 0
-2047 -20 0
-2047 85 0
-135 2045 2046 2047 0
-2048 -2 0
-2048 235 0
-2049 -29 0
-2049 96 0
-2050 -30 0
-2050 95 0
-135 2048 2049 2050 0
-2051 -3 0
-2051 271 0
-2052 -38 0
-2052 105 0
-2053 -39 0
-2053 104 0
-135 2051 2052 2053 0
-2054 -4 0
-2054 299 0
-2055 -46 0
-2055 113 0
-2056 -47 0
-2056 112 0
-135 2054 2055 2056 0
-2057 -5 0
-2057 320 0
-2058 -53 0
-2058 120 0
-2059 -54 0
-2059 119 0
-135 2057 2058 2059 0
-2060 -6 0
-2060 335 0
-2061 -59 0
-2061 126 0
-2062 -60 0
-2062 125 0
-135 2060 2061 2062 0
-2063 -7 0
-2063 345 0
-2064 -64 0
-2064 131 0
-2065 -65 0
-2065 130 0
-135 2063 2064 2065 0
-2066 -10 0
-2066 355 0
-2067 -70 0
-2067 139 0
-2068 -73 0
-2068 136 0
-135 2066 2067 2068 0
-2069 -11 0
-2069 356 0
-2070 -71 0
-2070 140 0
-2071 -74 0
-2071 137 0
-135 2069 2070 2071 0
-2072 -12 0
-2072 357 0
-2073 -72 0
-2073 141 0
-2074 -75 0
-2074 138 0
-135 2072 2073 2074 0
-2075 -1 0
-2075 191 0
-2076 -19 0
-2076 87 0
-2077 -21 0
-2077 85 0
-136 2075 2076 2077 0
-2078 -2 0
-2078 236 0
-2079 -29 0
-2079 97 0
-2080 -31 0
-2080 95 0
-136 2078 2079 2080 0
-2081 -3 0
-2081 272 0
-2082 -38 0
-2082 106 0
-2083 -40 0
-2083 104 0
-136 2081 2082 2083 0
-2084 -4 0
-2084 300 0
-2085 -46 0
-2085 114 0
-2086 -48 0
-2086 112 0
-136 2084 2085 2086 0
-2087 -5 0
-2087 321 0
-2088 -53 0
-2088 121 0
-2089 -55 0
-2089 119 0
-136 2087 2088 2089 0
-2090 -6 0
-2090 336 0
-2091 -59 0
-2091 127 0
-2092 -61 0
-2092 125 0
-136 2090 2091 2092 0
-2093 -7 0
-2093 346 0
-2094 -64 0
-2094 132 0
-2095 -66 0
-2095 130 0
-136 2093 2094 2095 0
-2096 -9 0
-2096 355 0
-2097 -69 0
-2097 139 0
-2098 -73 0
-2098 135 0
-136 2096 2097 2098 0
-2099 -11 0
-2099 358 0
-2100 -71 0
-2100 142 0
-2101 -76 0
-2101 137 0
-136 2099 2100 2101 0
-2102 -12 0
-2102 359 0
-2103 -72 0
-2103 143 0
-2104 -77 0
-2104 138 0
-136 2102 2103 2104 0
-2105 -1 0
-2105 192 0
-2106 -19 0
-2106 88 0
-2107 -22 0
-2107 85 0
-137 2105 2106 2107 0
-2108 -2 0
-2108 237 0
-2109 -29 0
-2109 98 0
-2110 -32 0
-2110 95 0
-137 2108 2109 2110 0
-2111 -3 0
-2111 273 0
-2112 -38 0
-2112 107 0
-2113 -41 0
-2113 104 0
-137 2111 2112 2113 0
-2114 -4 0
-2114 301 0
-2115 -46 0
-2115 115 0
-2116 -49 0
-2116 112 0
-137 2114 2115 2116 0
-2117 -5 0
-2117 322 0
-2118 -53 0
-2118 122 0
-2119 -56 0
-2119 119 0
-137 2117 2118 2119 0
-2120 -6 0
-2120 337 0
-2121 -59 0
-2121 128 0
-2122 -62 0
-2122 125 0
-137 2120 2121 2122 0
-2123 -7 0
-2123 347 0
-2124 -64 0
-2124 133 0
-2125 -67 0
-2125 130 0
-137 2123 2124 2125 0
-2126 -9 0
-2126 356 0
-2127 -69 0
-2127 140 0
-2128 -74 0
-2128 135 0
-137 2126 2127 2128 0
-2129 -10 0
-2129 358 0
-2130 -70 0
-2130 142 0
-2131 -76 0
-2131 136 0
-137 2129 2130 2131 0
-2132 -12 0
-2132 360 0
-2133 -72 0
-2133 144 0
-2134 -78 0
-2134 138 0
-137 2132 2133 2134 0
-2135 -1 0
-2135 193 0
-2136 -19 0
-2136 89 0
-2137 -23 0
-2137 85 0
-138 2135 2136 2137 0
-2138 -2 0
-2138 238 0
-2139 -29 0
-2139 99 0
-2140 -33 0
-2140 95 0
-138 2138 2139 2140 0
-2141 -3 0
-2141 274 0
-2142 -38 0
-2142 108 0
-2143 -42 0
-2143 104 0
-138 2141 2142 2143 0
-2144 -4 0
-2144 302 0
-2145 -46 0
-2145 116 0
-2146 -50 0
-2146 112 0
-138 2144 2145 2146 0
-2147 -5 0
-2147 323 0
-2148 -53 0
-2148 123 0
-2149 -57 0
-2149 119 0
-138 2147 2148 2149 0
-2150 -6 0
-2150 338 0
-2151 -59 0
-2151 129 0
-2152 -63 0
-2152 125 0
-138 2150 2151 2152 0
-2153 -7 0
-2153 348 0
-2154 -64 0
-2154 134 0
-2155 -68 0
-2155 130 0
-138 2153 2154 2155 0
-2156 -9 0
-2156 357 0
-2157 -69 0
-2157 141 0
-2158 -75 0
-2158 135 0
-138 2156 2157 2158 0
-2159 -10 0
-2159 359 0
-2160 -70 0
-2160 143 0
-2161 -77 0
-2161 136 0
-138 2159 2160 2161 0
-2162 -11 0
-2162 360 0
-2163 -71 0
-2163 144 0
-2164 -78 0
-2164 137 0
-138 2162 2163 2164 0
-2165 -1 0
-2165 194 0
-2166 -20 0
-2166 87 0
-2167 -21 0
-2167 86 0
-139 2165 2166 2167 0
-2168 -2 0
-2168 239 0
-2169 -30 0
-2169 97 0
-2170 -31 0
-2170 96 0
-139 2168 2169 2170 0
-2171 -3 0
-2171 275 0
-2172 -39 0
-2172 106 0
-2173 -40 0
-2173 105 0
-139 2171 2172 2173 0
-2174 -4 0
-2174 303 0
-2175 -47 0
-2175 114 0
-2176 -48 0
-2176 113 0
-139 2174 2175 2176 0
-2177 -5 0
-2177 324 0
-2178 -54 0
-2178 121 0
-2179 -55 0
-2179 120 0
-139 2177 2178 2179 0
-2180 -6 0
-2180 339 0
-2181 -60 0
-2181 127 0
-2182 -61 0
-2182 126 0
-139 2180 2181 2182 0
-2183 -7 0
-2183 349 0
-2184 -65 0
-2184 132 0
-2185 -66 0
-2185 131 0
-139 2183 2184 2185 0
-2186 -8 0
-2186 355 0
-2187 -69 0
-2187 136 0
-2188 -70 0
-2188 135 0
-139 2186 2187 2188 0
-2189 -11 0
-2189 361 0
-2190 -74 0
-2190 142 0
-2191 -76 0
-2191 140 0
-139 2189 2190 2191 0
-2192 -12 0
-2192 362 0
-2193 -75 0
-2193 143 0
-2194 -77 0
-2194 141 0
-139 2192 2193 2194 0
-2195 -1 0
-2195 195 0
-2196 -20 0
-2196 88 0
-2197 -22 0
-2197 86 0
-140 2195 2196 2197 0
-2198 -2 0
-2198 240 0
-2199 -30 0
-2199 98 0
-2200 -32 0
-2200 96 0
-140 2198 2199 2200 0
-2201 -3 0
-2201 276 0
-2202 -39 0
-2202 107 0
-2203 -41 0
-2203 105 0
-140 2201 2202 2203 0
-2204 -4 0
-2204 304 0
-2205 -47 0
-2205 115 0
-2206 -49 0
-2206 113 0
-140 2204 2205 2206 0
-2207 -5 0
-2207 325 0
-2208 -54 0
-2208 122 0
-2209 -56 0
-2209 120 0
-140 2207 2208 2209 0
-2210 -6 0
-2210 340 0
-2211 -60 0
-2211 128 0
-2212 -62 0
-2212 126 0
-140 2210 2211 2212 0
-2213 -7 0
-2213 350 0
-2214 -65 0
-2214 133 0
-2215 -67 0
-2215 131 0
-140 2213 2214 2215 0
-2216 -8 0
-2216 356 0
-2217 -69 0
-2217 137 0
-2218 -71 0
-2218 135 0
-140 2216 2217 2218 0
-2219 -10 0
-2219 361 0
-2220 -73 0
-2220 142 0
-2221 -76 0
-2221 139 0
-140 2219 2220 2221 0
-2222 -12 0
-2222 363 0
-2223 -75 0
-2223 144 0
-2224 -78 0
-2224 141 0
-140 2222 2223 2224 0
-2225 -1 0
-2225 196 0
-2226 -20 0
-2226 89 0
-2227 -23 0
-2227 86 0
-141 2225 2226 2227 0
-2228 -2 0
-2228 241 0
-2229 -30 0
-2229 99 0
-2230 -33 0
-2230 96 0
-141 2228 2229 2230 0
-2231 -3 0
-2231 277 0
-2232 -39 0
-2232 108 0
-2233 -42 0
-2233 105 0
-141 2231 2232 2233 0
-2234 -4 0
-2234 305 0
-2235 -47 0
-2235 116 0
-2236 -50 0
-2236 113 0
-141 2234 2235 2236 0
-2237 -5 0
-2237 326 0
-2238 -54 0
-2238 123 0
-2239 -57 0
-2239 120 0
-141 2237 2238 2239 0
-2240 -6 0
-2240 341 0
-2241 -60 0
-2241 129 0
-2242 -63 0
-2242 126 0
-141 2240 2241 2242 0
-2243 -7 0
-2243 351 0
-2244 -65 0
-2244 134 0
-2245 -68 0
-2245 131 0
-141 2243 2244 2245 0
-2246 -8 0
-2246 357 0
-2247 -69 0
-2247 138 0
-2248 -72 0
-2248 135 0
-141 2246 2247 2248 0
-2249 -10 0
-2249 362 0
-2250 -73 0
-2250 143 0
-2251 -77 0
-2251 139 0
-141 2249 2250 2251 0
-2252 -11 0
-2252 363 0
-2253 -74 0
-2253 144 0
-2254 -78 0
-2254 140 0
-141 2252 2253 2254 0
-2255 -1 0
-2255 197 0
-2256 -21 0
-2256 88 0
-2257 -22 0
-2257 87 0
-142 2255 2256 2257 0
-2258 -2 0
-2258 242 0
-2259 -31 0
-2259 98 0
-2260 -32 0
-2260 97 0
-142 2258 2259 2260 0
-2261 -3 0
-2261 278 0
-2262 -40 0
-2262 107 0
-2263 -41 0
-2263 106 0
-142 2261 2262 2263 0
-2264 -4 0
-2264 306 0
-2265 -48 0
-2265 115 0
-2266 -49 0
-2266 114 0
-142 2264 2265 2266 0
-2267 -5 0
-2267 327 0
-2268 -55 0
-2268 122 0
-2269 -56 0
-2269 121 0
-142 2267 2268 2269 0
-2270 -6 0
-2270 342 0
-2271 -61 0
-2271 128 0
-2272 -62 0
-2272 127 0
-142 2270 2271 2272 0
-2273 -7 0
-2273 352 0
-2274 -66 0
-2274 133 0
-2275 -67 0
-2275 132 0
-142 2273 2274 2275 0
-2276 -8 0
-2276 358 0
-2277 -70 0
-2277 137 0
-2278 -71 0
-2278 136 0
-142 2276 2277 2278 0
-2279 -9 0
-2279 361 0
-2280 -73 0
-2280 140 0
-2281 -74 0
-2281 139 0
-142 2279 2280 2281 0
-2282 -12 0
-2282 364 0
-2283 -77 0
-2283 144 0
-2284 -78 0
-2284 143 0
-142 2282 2283 2284 0
-2285 -1 0
-2285 198 0
-2286 -21 0
-2286 89 0
-2287 -23 0
-2287 87 0
-143 2285 2286 2287 0
-2288 -2 0
-2288 243 0
-2289 -31 0
-2289 99 0
-2290 -33 0
-2290 97 0
-143 2288 2289 2290 0
-2291 -3 0
-2291 279 0
-2292 -40 0
-2292 108 0
-2293 -42 0
-2293 106 0
-143 2291 2292 2293 0
-2294 -4 0
-2294 307 0
-2295 -48 0
-2295 116 0
-2296 -50 0
-2296 114 0
-143 2294 2295 2296 0
-2297 -5 0
-2297 328 0
-2298 -55 0
-2298 123 0
-2299 -57 0
-2299 121 0
-143 2297 2298 2299 0
-2300 -6 0
-2300 343 0
-2301 -61 0
-2301 129 0
-2302 -63 0
-2302 127 0
-143 2300 2301 2302 0
-2303 -7 0
-2303 353 0
-2304 -66 0
-2304 134 0
-2305 -68 0
-2305 132 0
-143 2303 2304 2305 0
-2306 -8 0
-2306 359 0
-2307 -70 0
-2307 138 0
-2308 -72 0
-2308 136 0
-143 2306 2307 2308 0
-2309 -9 0
-2309 362 0
-2310 -73 0
-2310 141 0
-2311 -75 0
-2311 139 0
-143 2309 2310 2311 0
-2312 -11 0
-2312 364 0
-2313 -76 0
-2313 144 0
-2314 -78 0
-2314 142 0
-143 2312 2313 2314 0
-2315 -1 0
-2315 199 0
-2316 -22 0
-2316 89 0
-2317 -23 0
-2317 88 0
-144 2315 2316 2317 0
-2318 -2 0
-2318 244 0
-2319 -32 0
-2319 99 0
-2320 -33 0
-2320 98 0
-144 2318 2319 2320 0
-2321 -3 0
-2321 280 0
-2322 -41 0
-2322 108 0
-2323 -42 0
-2323 107 0
-144 2321 2322 2323 0
-2324 -4 0
-2324 308 0
-2325 -49 0
-2325 116 0
-2326 -50 0
-2326 115 0
-144 2324 2325 2326 0
-2327 -5 0
-2327 329 0
-2328 -56 0
-2328 123 0
-2329 -57 0
-2329 122 0
-144 2327 2328 2329 0
-2330 -6 0
-2330 344 0
-2331 -62 0
-2331 129 0
-2332 -63 0
-2332 128 0
-144 2330 2331 2332 0
-2333 -7 0
-2333 354 0
-2334 -67 0
-2334 134 0
-2335 -68 0
-2335 133 0
-144 2333 2334 2335 0
-2336 -8 0
-2336 360 0
-2337 -71 0
-2337 138 0
-2338 -72 0
-2338 137 0
-144 2336 2337 2338 0
-2339 -9 0
-2339 363 0
-2340 -74 0
-2340 141 0
-2341 -75 0
-2341 140 0
-144 2339 2340 2341 0
-2342 -10 0
-2342 364 0
-2343 -76 0
-2343 143 0
-2344 -77 0
-2344 142 0
-144 2342 2343 2344 0
-2345 -1 0
-2345 90 0
-2346 -2 0
-2346 80 0
-2347 -3 0
-2347 79 0
-145 2345 2346 2347 0
-2348 -15 0
-2348 200 0
-2349 -25 0
-2349 155 0
-2350 -34 0
-2350 146 0
-145 2348 2349 2350 0
-2351 -16 0
-2351 201 0
-2352 -26 0
-2352 156 0
-2353 -35 0
-2353 147 0
-145 2351 2352 2353 0
-2354 -17 0
-2354 202 0
-2355 -27 0
-2355 157 0
-2356 -36 0
-2356 148 0
-145 2354 2355 2356 0
-2357 -18 0
-2357 203 0
-2358 -28 0
-2358 158 0
-2359 -37 0
-2359 149 0
-145 2357 2358 2359 0
-2360 -19 0
-2360 204 0
-2361 -29 0
-2361 159 0
-2362 -38 0
-2362 150 0
-145 2360 2361 2362 0
-2363 -20 0
-2363 205 0
-2364 -30 0
-2364 160 0
-2365 -39 0
-2365 151 0
-145 2363 2364 2365 0
-2366 -21 0
-2366 206 0
-2367 -31 0
-2367 161 0
-2368 -40 0
-2368 152 0
-145 2366 2367 2368 0
-2369 -22 0
-2369 207 0
-2370 -32 0
-2370 162 0
-2371 -41 0
-2371 153 0
-145 2369 2370 2371 0
-2372 -23 0
-2372 208 0
-2373 -33 0
-2373 163 0
-2374 -42 0
-2374 154 0
-145 2372 2373 2374 0
-2375 -1 0
-2375 91 0
-2376 -2 0
-2376 81 0
-2377 -4 0
-2377 79 0
-146 2375 2376 2377 0
-2378 -14 0
-2378 200 0
-2379 -24 0
-2379 155 0
-2380 -34 0
-2380 145 0
-146 2378 2379 2380 0
-2381 -16 0
-2381 209 0
-2382 -26 0
-2382 164 0
-2383 -43 0
-2383 147 0
-146 2381 2382 2383 0
-2384 -17 0
-2384 210 0
-2385 -27 0
-2385 165 0
-2386 -44 0
-2386 148 0
-146 2384 2385 2386 0
-2387 -18 0
-2387 211 0
-2388 -28 0
-2388 166 0
-2389 -45 0
-2389 149 0
-146 2387 2388 2389 0
-2390 -19 0
-2390 212 0
-2391 -29 0
-2391 167 0
-2392 -46 0
-2392 150 0
-146 2390 2391 2392 0
-2393 -20 0
-2393 213 0
-2394 -30 0
-2394 168 0
-2395 -47 0
-2395 151 0
-146 2393 2394 2395 0
-2396 -21 0
-2396 214 0
-2397 -31 0
-2397 169 0
-2398 -48 0
-2398 152 0
-146 2396 2397 2398 0
-2399 -22 0
-2399 215 0
-2400 -32 0
-2400 170 0
-2401 -49 0
-2401 153 0
-146 2399 2400 2401 0
-2402 -23 0
-2402 216 0
-2403 -33 0
-2403 171 0
-2404 -50 0
-2404 154 0
-146 2402 2403 2404 0
-2405 -1 0
-2405 92 0
-2406 -2 0
-2406 82 0
-2407 -5 0
-2407 79 0
-147 2405 2406 2407 0
-2408 -14 0
-2408 201 0
-2409 -24 0
-2409 156 0
-2410 -35 0
-2410 145 0
-147 2408 2409 2410 0
-2411 -15 0
-2411 209 0
-2412 -25 0
-2412 164 0
-2413 -43 0
-2413 146 0
-147 2411 2412 2413 0
-2414 -17 0
-2414 217 0
-2415 -27 0
-2415 172 0
-2416 -51 0
-2416 148 0
-147 2414 2415 2416 0
-2417 -18 0
-2417 218 0
-2418 -28 0
-2418 173 0
-2419 -52 0
-2419 149 0
-147 2417 2418 2419 0
-2420 -19 0
-2420 219 0
-2421 -29 0
-2421 174 0
-2422 -53 0
-2422 150 0
-147 2420 2421 2422 0
-2423 -20 0
-2423 220 0
-2424 -30 0
-2424 175 0
-2425 -54 0
-2425 151 0
-147 2423 2424 2425 0
-2426 -21 0
-2426 221 0
-2427 -31 0
-2427 176 0
-2428 -55 0
-2428 152 0
-147 2426 2427 2428 0
-2429 -22 0
-2429 222 0
-2430 -32 0
-2430 177 0
-2431 -56 0
-2431 153 0
-147 2429 2430 2431 0
-2432 -23 0
-2432 223 0
-2433 -33 0
-2433 178 0
-2434 -57 0
-2434 154 0
-147 2432 2433 2434 0
-2435 -1 0
-2435 93 0
-2436 -2 0
-2436 83 0
-2437 -6 0
-2437 79 0
-148 2435 2436 2437 0
-2438 -14 0
-2438 202 0
-2439 -24 0
-2439 157 0
-2440 -36 0
-2440 145 0
-148 2438 2439 2440 0
-2441 -15 0
-2441 210 0
-2442 -25 0
-2442 165 0
-2443 -44 0
-2443 146 0
-148 2441 2442 2443 0
-2444 -16 0
-2444 217 0
-2445 -26 0
-2445 172 0
-2446 -51 0
-2446 147 0
-148 2444 2445 2446 0
-2447 -18 0
-2447 224 0
-2448 -28 0
-2448 179 0
-2449 -58 0
-2449 149 0
-148 2447 2448 2449 0
-2450 -19 0
-2450 225 0
-2451 -29 0
-2451 180 0
-2452 -59 0
-2452 150 0
-148 2450 2451 2452 0
-2453 -20 0
-2453 226 0
-2454 -30 0
-2454 181 0
-2455 -60 0
-2455 151 0
-148 2453 2454 2455 0
-2456 -21 0
-2456 227 0
-2457 -31 0
-2457 182 0
-2458 -61 0
-2458 152 0
-148 2456 2457 2458 0
-2459 -22 0
-2459 228 0
-2460 -32 0
-2460 183 0
-2461 -62 0
-2461 153 0
-148 2459 2460 2461 0
-2462 -23 0
-2462 229 0
-2463 -33 0
-2463 184 0
-2464 -63 0
-2464 154 0
-148 2462 2463 2464 0
-2465 -1 0
-2465 94 0
-2466 -2 0
-2466 84 0
-2467 -7 0
-2467 79 0
-149 2465 2466 2467 0
-2468 -14 0
-2468 203 0
-2469 -24 0
-2469 158 0
-2470 -37 0
-2470 145 0
-149 2468 2469 2470 0
-2471 -15 0
-2471 211 0
-2472 -25 0
-2472 166 0
-2473 -45 0
-2473 146 0
-149 2471 2472 2473 0
-2474 -16 0
-2474 218 0
-2475 -26 0
-2475 173 0
-2476 -52 0
-2476 147 0
-149 2474 2475 2476 0
-2477 -17 0
-2477 224 0
-2478 -27 0
-2478 179 0
-2479 -58 0
-2479 148 0
-149 2477 2478 2479 0
-2480 -19 0
-2480 230 0
-2481 -29 0
-2481 185 0
-2482 -64 0
-2482 150 0
-149 2480 2481 2482 0
-2483 -20 0
-2483 231 0
-2484 -30 0
-2484 186 0
-2485 -65 0
-2485 151 0
-149 2483 2484 2485 0
-2486 -21 0
-2486 232 0
-2487 -31 0
-2487 187 0
-2488 -66 0
-2488 152 0
-149 2486 2487 2488 0
-2489 -22 0
-2489 233 0
-2490 -32 0
-2490 188 0
-2491 -67 0
-2491 153 0
-149 2489 2490 2491 0
-2492 -23 0
-2492 234 0
-2493 -33 0
-2493 189 0
-2494 -68 0
-2494 154 0
-149 2492 2493 2494 0
-2495 -1 0
-2495 95 0
-2496 -2 0
-2496 85 0
-2497 -8 0
-2497 79 0
-150 2495 2496 2497 0
-2498 -14 0
-2498 204 0
-2499 -24 0
-2499 159 0
-2500 -38 0
-2500 145 0
-150 2498 2499 2500 0
-2501 -15 0
-2501 212 0
-2502 -25 0
-2502 167 0
-2503 -46 0
-2503 146 0
-150 2501 2502 2503 0
-2504 -16 0
-2504 219 0
-2505 -26 0
-2505 174 0
-2506 -53 0
-2506 147 0
-150 2504 2505 2506 0
-2507 -17 0
-2507 225 0
-2508 -27 0
-2508 180 0
-2509 -59 0
-2509 148 0
-150 2507 2508 2509 0
-2510 -18 0
-2510 230 0
-2511 -28 0
-2511 185 0
-2512 -64 0
-2512 149 0
-150 2510 2511 2512 0
-2513 -20 0
-2513 235 0
-2514 -30 0
-2514 190 0
-2515 -69 0
-2515 151 0
-150 2513 2514 2515 0
-2516 -21 0
-2516 236 0
-2517 -31 0
-2517 191 0
-2518 -70 0
-2518 152 0
-150 2516 2517 2518 0
-2519 -22 0
-2519 237 0
-2520 -32 0
-2520 192 0
-2521 -71 0
-2521 153 0
-150 2519 2520 2521 0
-2522 -23 0
-2522 238 0
-2523 -33 0
-2523 193 0
-2524 -72 0
-2524 154 0
-150 2522 2523 2524 0
-2525 -1 0
-2525 96 0
-2526 -2 0
-2526 86 0
-2527 -9 0
-2527 79 0
-151 2525 2526 2527 0
-2528 -14 0
-2528 205 0
-2529 -24 0
-2529 160 0
-2530 -39 0
-2530 145 0
-151 2528 2529 2530 0
-2531 -15 0
-2531 213 0
-2532 -25 0
-2532 168 0
-2533 -47 0
-2533 146 0
-151 2531 2532 2533 0
-2534 -16 0
-2534 220 0
-2535 -26 0
-2535 175 0
-2536 -54 0
-2536 147 0
-151 2534 2535 2536 0
-2537 -17 0
-2537 226 0
-2538 -27 0
-2538 181 0
-2539 -60 0
-2539 148 0
-151 2537 2538 2539 0
-2540 -18 0
-2540 231 0
-2541 -28 0
-2541 186 0
-2542 -65 0
-2542 149 0
-151 2540 2541 2542 0
-2543 -19 0
-2543 235 0
-2544 -29 0
-2544 190 0
-2545 -69 0
-2545 150 0
-151 2543 2544 2545 0
-2546 -21 0
-2546 239 0
-2547 -31 0
-2547 194 0
-2548 -73 0
-2548 152 0
-151 2546 2547 2548 0
-2549 -22 0
-2549 240 0
-2550 -32 0
-2550 195 0
-2551 -74 0
-2551 153 0
-151 2549 2550 2551 0
-2552 -23 0
-2552 241 0
-2553 -33 0
-2553 196 0
-2554 -75 0
-2554 154 0
-151 2552 2553 2554 0
-2555 -1 0
-2555 97 0
-2556 -2 0
-2556 87 0
-2557 -10 0
-2557 79 0
-152 2555 2556 2557 0
-2558 -14 0
-2558 206 0
-2559 -24 0
-2559 161 0
-2560 -40 0
-2560 145 0
-152 2558 2559 2560 0
-2561 -15 0
-2561 214 0
-2562 -25 0
-2562 169 0
-2563 -48 0
-2563 146 0
-152 2561 2562 2563 0
-2564 -16 0
-2564 221 0
-2565 -26 0
-2565 176 0
-2566 -55 0
-2566 147 0
-152 2564 2565 2566 0
-2567 -17 0
-2567 227 0
-2568 -27 0
-2568 182 0
-2569 -61 0
-2569 148 0
-152 2567 2568 2569 0
-2570 -18 0
-2570 232 0
-2571 -28 0
-2571 187 0
-2572 -66 0
-2572 149 0
-152 2570 2571 2572 0
-2573 -19 0
-2573 236 0
-2574 -29 0
-2574 191 0
-2575 -70 0
-2575 150 0
-152 2573 2574 2575 0
-2576 -20 0
-2576 239 0
-2577 -30 0
-2577 194 0
-2578 -73 0
-2578 151 0
-152 2576 2577 2578 0
-2579 -22 0
-2579 242 0
-2580 -32 0
-2580 197 0
-2581 -76 0
-2581 153 0
-152 2579 2580 2581 0
-2582 -23 0
-2582 243 0
-2583 -33 0
-2583 198 0
-2584 -77 0
-2584 154 0
-152 2582 2583 2584 0
-2585 -1 0
-2585 98 0
-2586 -2 0
-2586 88 0
-2587 -11 0
-2587 79 0
-153 2585 2586 2587 0
-2588 -14 0
-2588 207 0
-2589 -24 0
-2589 162 0
-2590 -41 0
-2590 145 0
-153 2588 2589 2590 0
-2591 -15 0
-2591 215 0
-2592 -25 0
-2592 170 0
-2593 -49 0
-2593 146 0
-153 2591 2592 2593 0
-2594 -16 0
-2594 222 0
-2595 -26 0
-2595 177 0
-2596 -56 0
-2596 147 0
-153 2594 2595 2596 0
-2597 -17 0
-2597 228 0
-2598 -27 0
-2598 183 0
-2599 -62 0
-2599 148 0
-153 2597 2598 2599 0
-2600 -18 0
-2600 233 0
-2601 -28 0
-2601 188 0
-2602 -67 0
-2602 149 0
-153 2600 2601 2602 0
-2603 -19 0
-2603 237 0
-2604 -29 0
-2604 192 0
-2605 -71 0
-2605 150 0
-153 2603 2604 2605 0
-2606 -20 0
-2606 240 0
-2607 -30 0
-2607 195 0
-2608 -74 0
-2608 151 0
-153 2606 2607 2608 0
-2609 -21 0
-2609 242 0
-2610 -31 0
-2610 197 0
-2611 -76 0
-2611 152 0
-153 2609 2610 2611 0
-2612 -23 0
-2612 244 0
-2613 -33 0
-2613 199 0
-2614 -78 0
-2614 154 0
-153 2612 2613 2614 0
-2615 -1 0
-2615 99 0
-2616 -2 0
-2616 89 0
-2617 -12 0
-2617 79 0
-154 2615 2616 2617 0
-2618 -14 0
-2618 208 0
-2619 -24 0
-2619 163 0
-2620 -42 0
-2620 145 0
-154 2618 2619 2620 0
-2621 -15 0
-2621 216 0
-2622 -25 0
-2622 171 0
-2623 -50 0
-2623 146 0
-154 2621 2622 2623 0
-2624 -16 0
-2624 223 0
-2625 -26 0
-2625 178 0
-2626 -57 0
-2626 147 0
-154 2624 2625 2626 0
-2627 -17 0
-2627 229 0
-2628 -27 0
-2628 184 0
-2629 -63 0
-2629 148 0
-154 2627 2628 2629 0
-2630 -18 0
-2630 234 0
-2631 -28 0
-2631 189 0
-2632 -68 0
-2632 149 0
-154 2630 2631 2632 0
-2633 -19 0
-2633 238 0
-2634 -29 0
-2634 193 0
-2635 -72 0
-2635 150 0
-154 2633 2634 2635 0
-2636 -20 0
-2636 241 0
-2637 -30 0
-2637 196 0
-2638 -75 0
-2638 151 0
-154 2636 2637 2638 0
-2639 -21 0
-2639 243 0
-2640 -31 0
-2640 198 0
-2641 -77 0
-2641 152 0
-154 2639 2640 2641 0
-2642 -22 0
-2642 244 0
-2643 -32 0
-2643 199 0
-2644 -78 0
-2644 153 0
-154 2642 2643 2644 0
-2645 -1 0
-2645 100 0
-2646 -3 0
-2646 81 0
-2647 -4 0
-2647 80 0
-155 2645 2646 2647 0
-2648 -13 0
-2648 200 0
-2649 -24 0
-2649 146 0
-2650 -25 0
-2650 145 0
-155 2648 2649 2650 0
-2651 -16 0
-2651 245 0
-2652 -35 0
-2652 164 0
-2653 -43 0
-2653 156 0
-155 2651 2652 2653 0
-2654 -17 0
-2654 246 0
-2655 -36 0
-2655 165 0
-2656 -44 0
-2656 157 0
-155 2654 2655 2656 0
-2657 -18 0
-2657 247 0
-2658 -37 0
-2658 166 0
-2659 -45 0
-2659 158 0
-155 2657 2658 2659 0
-2660 -19 0
-2660 248 0
-2661 -38 0
-2661 167 0
-2662 -46 0
-2662 159 0
-155 2660 2661 2662 0
-2663 -20 0
-2663 249 0
-2664 -39 0
-2664 168 0
-2665 -47 0
-2665 160 0
-155 2663 2664 2665 0
-2666 -21 0
-2666 250 0
-2667 -40 0
-2667 169 0
-2668 -48 0
-2668 161 0
-155 2666 2667 2668 0
-2669 -22 0
-2669 251 0
-2670 -41 0
-2670 170 0
-2671 -49 0
-2671 162 0
-155 2669 2670 2671 0
-2672 -23 0
-2672 252 0
-2673 -42 0
-2673 171 0
-2674 -50 0
-2674 163 0
-155 2672 2673 2674 0
-2675 -1 0
-2675 101 0
-2676 -3 0
-2676 82 0
-2677 -5 0
-2677 80 0
-156 2675 2676 2677 0
-2678 -13 0
-2678 201 0
-2679 -24 0
-2679 147 0
-2680 -26 0
-2680 145 0
-156 2678 2679 2680 0
-2681 -15 0
-2681 245 0
-2682 -34 0
-2682 164 0
-2683 -43 0
-2683 155 0
-156 2681 2682 2683 0
-2684 -17 0
-2684 253 0
-2685 -36 0
-2685 172 0
-2686 -51 0
-2686 157 0
-156 2684 2685 2686 0
-2687 -18 0
-2687 254 0
-2688 -37 0
-2688 173 0
-2689 -52 0
-2689 158 0
-156 2687 2688 2689 0
-2690 -19 0
-2690 255 0
-2691 -38 0
-2691 174 0
-2692 -53 0
-2692 159 0
-156 2690 2691 2692 0
-2693 -20 0
-2693 256 0
-2694 -39 0
-2694 175 0
-2695 -54 0
-2695 160 0
-156 2693 2694 2695 0
-2696 -21 0
-2696 257 0
-2697 -40 0
-2697 176 0
-2698 -55 0
-2698 161 0
-156 2696 2697 2698 0
-2699 -22 0
-2699 258 0
-2700 -41 0
-2700 177 0
-2701 -56 0
-2701 162 0
-156 2699 2700 2701 0
-2702 -23 0
-2702 259 0
-2703 -42 0
-2703 178 0
-2704 -57 0
-2704 163 0
-156 2702 2703 2704 0
-2705 -1 0
-2705 102 0
-2706 -3 0
-2706 83 0
-2707 -6 0
-2707 80 0
-157 2705 2706 2707 0
-2708 -13 0
-2708 202 0
-2709 -24 0
-2709 148 0
-2710 -27 0
-2710 145 0
-157 2708 2709 2710 0
-2711 -15 0
-2711 246 0
-2712 -34 0
-2712 165 0
-2713 -44 0
-2713 155 0
-157 2711 2712 2713 0
-2714 -16 0
-2714 253 0
-2715 -35 0
-2715 172 0
-2716 -51 0
-2716 156 0
-157 2714 2715 2716 0
-2717 -18 0
-2717 260 0
-2718 -37 0
-2718 179 0
-2719 -58 0
-2719 158 0
-157 2717 2718 2719 0
-2720 -19 0
-2720 261 0
-2721 -38 0
-2721 180 0
-2722 -59 0
-2722 159 0
-157 2720 2721 2722 0
-2723 -20 0
-2723 262 0
-2724 -39 0
-2724 181 0
-2725 -60 0
-2725 160 0
-157 2723 2724 2725 0
-2726 -21 0
-2726 263 0
-2727 -40 0
-2727 182 0
-2728 -61 0
-2728 161 0
-157 2726 2727 2728 0
-2729 -22 0
-2729 264 0
-2730 -41 0
-2730 183 0
-2731 -62 0
-2731 162 0
-157 2729 2730 2731 0
-2732 -23 0
-2732 265 0
-2733 -42 0
-2733 184 0
-2734 -63 0
-2734 163 0
-157 2732 2733 2734 0
-2735 -1 0
-2735 103 0
-2736 -3 0
-2736 84 0
-2737 -7 0
-2737 80 0
-158 2735 2736 2737 0
-2738 -13 0
-2738 203 0
-2739 -24 0
-2739 149 0
-2740 -28 0
-2740 145 0
-158 2738 2739 2740 0
-2741 -15 0
-2741 247 0
-2742 -34 0
-2742 166 0
-2743 -45 0
-2743 155 0
-158 2741 2742 2743 0
-2744 -16 0
-2744 254 0
-2745 -35 0
-2745 173 0
-2746 -52 0
-2746 156 0
-158 2744 2745 2746 0
-2747 -17 0
-2747 260 0
-2748 -36 0
-2748 179 0
-2749 -58 0
-2749 157 0
-158 2747 2748 2749 0
-2750 -19 0
-2750 266 0
-2751 -38 0
-2751 185 0
-2752 -64 0
-2752 159 0
-158 2750 2751 2752 0
-2753 -20 0
-2753 267 0
-2754 -39 0
-2754 186 0
-2755 -65 0
-2755 160 0
-158 2753 2754 2755 0
-2756 -21 0
-2756 268 0
-2757 -40 0
-2757 187 0
-2758 -66 0
-2758 161 0
-158 2756 2757 2758 0
-2759 -22 0
-2759 269 0
-2760 -41 0
-2760 188 0
-2761 -67 0
-2761 162 0
-158 2759 2760 2761 0
-2762 -23 0
-2762 270 0
-2763 -42 0
-2763 189 0
-2764 -68 0
-2764 163 0
-158 2762 2763 2764 0
-2765 -1 0
-2765 104 0
-2766 -3 0
-2766 85 0
-2767 -8 0
-2767 80 0
-159 2765 2766 2767 0
-2768 -13 0
-2768 204 0
-2769 -24 0
-2769 150 0
-2770 -29 0
-2770 145 0
-159 2768 2769 2770 0
-2771 -15 0
-2771 248 0
-2772 -34 0
-2772 167 0
-2773 -46 0
-2773 155 0
-159 2771 2772 2773 0
-2774 -16 0
-2774 255 0
-2775 -35 0
-2775 174 0
-2776 -53 0
-2776 156 0
-159 2774 2775 2776 0
-2777 -17 0
-2777 261 0
-2778 -36 0
-2778 180 0
-2779 -59 0
-2779 157 0
-159 2777 2778 2779 0
-2780 -18 0
-2780 266 0
-2781 -37 0
-2781 185 0
-2782 -64 0
-2782 158 0
-159 2780 2781 2782 0
-2783 -20 0
-2783 271 0
-2784 -39 0
-2784 190 0
-2785 -69 0
-2785 160 0
-159 2783 2784 2785 0
-2786 -21 0
-2786 272 0
-2787 -40 0
-2787 191 0
-2788 -70 0
-2788 161 0
-159 2786 2787 2788 0
-2789 -22 0
-2789 273 0
-2790 -41 0
-2790 192 0
-2791 -71 0
-2791 162 0
-159 2789 2790 2791 0
-2792 -23 0
-2792 274 0
-2793 -42 0
-2793 193 0
-2794 -72 0
-2794 163 0
-159 2792 2793 2794 0
-2795 -1 0
-2795 105 0
-2796 -3 0
-2796 86 0
-2797 -9 0
-2797 80 0
-160 2795 2796 2797 0
-2798 -13 0
-2798 205 0
-2799 -24 0
-2799 151 0
-2800 -30 0
-2800 145 0
-160 2798 2799 2800 0
-2801 -15 0
-2801 249 0
-2802 -34 0
-2802 168 0
-2803 -47 0
-2803 155 0
-160 2801 2802 2803 0
-2804 -16 0
-2804 256 0
-2805 -35 0
-2805 175 0
-2806 -54 0
-2806 156 0
-160 2804 2805 2806 0
-2807 -17 0
-2807 262 0
-2808 -36 0
-2808 181 0
-2809 -60 0
-2809 157 0
-160 2807 2808 2809 0
-2810 -18 0
-2810 267 0
-2811 -37 0
-2811 186 0
-2812 -65 0
-2812 158 0
-160 2810 2811 2812 0
-2813 -19 0
-2813 271 0
-2814 -38 0
-2814 190 0
-2815 -69 0
-2815 159 0
-160 2813 2814 2815 0
-2816 -21 0
-2816 275 0
-2817 -40 0
-2817 194 0
-2818 -73 0
-2818 161 0
-160 2816 2817 2818 0
-2819 -22 0
-2819 276 0
-2820 -41 0
-2820 195 0
-2821 -74 0
-2821 162 0
-160 2819 2820 2821 0
-2822 -23 0
-2822 277 0
-2823 -42 0
-2823 196 0
-2824 -75 0
-2824 163 0
-160 2822 2823 2824 0
-2825 -1 0
-2825 106 0
-2826 -3 0
-2826 87 0
-2827 -10 0
-2827 80 0
-161 2825 2826 2827 0
-2828 -13 0
-2828 206 0
-2829 -24 0
-2829 152 0
-2830 -31 0
-2830 145 0
-161 2828 2829 2830 0
-2831 -15 0
-2831 250 0
-2832 -34 0
-2832 169 0
-2833 -48 0
-2833 155 0
-161 2831 2832 2833 0
-2834 -16 0
-2834 257 0
-2835 -35 0
-2835 176 0
-2836 -55 0
-2836 156 0
-161 2834 2835 2836 0
-2837 -17 0
-2837 263 0
-2838 -36 0
-2838 182 0
-2839 -61 0
-2839 157 0
-161 2837 2838 2839 0
-2840 -18 0
-2840 268 0
-2841 -37 0
-2841 187 0
-2842 -66 0
-2842 158 0
-161 2840 2841 2842 0
-2843 -19 0
-2843 272 0
-2844 -38 0
-2844 191 0
-2845 -70 0
-2845 159 0
-161 2843 2844 2845 0
-2846 -20 0
-2846 275 0
-2847 -39 0
-2847 194 0
-2848 -73 0
-2848 160 0
-161 2846 2847 2848 0
-2849 -22 0
-2849 278 0
-2850 -41 0
-2850 197 0
-2851 -76 0
-2851 162 0
-161 2849 2850 2851 0
-2852 -23 0
-2852 279 0
-2853 -42 0
-2853 198 0
-2854 -77 0
-2854 163 0
-161 2852 2853 2854 0
-2855 -1 0
-2855 107 0
-2856 -3 0
-2856 88 0
-2857 -11 0
-2857 80 0
-162 2855 2856 2857 0
-2858 -13 0
-2858 207 0
-2859 -24 0
-2859 153 0
-2860 -32 0
-2860 145 0
-162 2858 2859 2860 0
-2861 -15 0
-2861 251 0
-2862 -34 0
-2862 170 0
-2863 -49 0
-2863 155 0
-162 2861 2862 2863 0
-2864 -16 0
-2864 258 0
-2865 -35 0
-2865 177 0
-2866 -56 0
-2866 156 0
-162 2864 2865 2866 0
-2867 -17 0
-2867 264 0
-2868 -36 0
-2868 183 0
-2869 -62 0
-2869 157 0
-162 2867 2868 2869 0
-2870 -18 0
-2870 269 0
-2871 -37 0
-2871 188 0
-2872 -67 0
-2872 158 0
-162 2870 2871 2872 0
-2873 -19 0
-2873 273 0
-2874 -38 0
-2874 192 0
-2875 -71 0
-2875 159 0
-162 2873 2874 2875 0
-2876 -20 0
-2876 276 0
-2877 -39 0
-2877 195 0
-2878 -74 0
-2878 160 0
-162 2876 2877 2878 0
-2879 -21 0
-2879 278 0
-2880 -40 0
-2880 197 0
-2881 -76 0
-2881 161 0
-162 2879 2880 2881 0
-2882 -23 0
-2882 280 0
-2883 -42 0
-2883 199 0
-2884 -78 0
-2884 163 0
-162 2882 2883 2884 0
-2885 -1 0
-2885 108 0
-2886 -3 0
-2886 89 0
-2887 -12 0
-2887 80 0
-163 2885 2886 2887 0
-2888 -13 0
-2888 208 0
-2889 -24 0
-2889 154 0
-2890 -33 0
-2890 145 0
-163 2888 2889 2890 0
-2891 -15 0
-2891 252 0
-2892 -34 0
-2892 171 0
-2893 -50 0
-2893 155 0
-163 2891 2892 2893 0
-2894 -16 0
-2894 259 0
-2895 -35 0
-2895 178 0
-2896 -57 0
-2896 156 0
-163 2894 2895 2896 0
-2897 -17 0
-2897 265 0
-2898 -36 0
-2898 184 0
-2899 -63 0
-2899 157 0
-163 2897 2898 2899 0
-2900 -18 0
-2900 270 0
-2901 -37 0
-2901 189 0
-2902 -68 0
-2902 158 0
-163 2900 2901 2902 0
-2903 -19 0
-2903 274 0
-2904 -38 0
-2904 193 0
-2905 -72 0
-2905 159 0
-163 2903 2904 2905 0
-2906 -20 0
-2906 277 0
-2907 -39 0
-2907 196 0
-2908 -75 0
-2908 160 0
-163 2906 2907 2908 0
-2909 -21 0
-2909 279 0
-2910 -40 0
-2910 198 0
-2911 -77 0
-2911 161 0
-163 2909 2910 2911 0
-2912 -22 0
-2912 280 0
-2913 -41 0
-2913 199 0
-2914 -78 0
-2914 162 0
-163 2912 2913 2914 0
-2915 -1 0
-2915 109 0
-2916 -4 0
-2916 82 0
-2917 -5 0
-2917 81 0
-164 2915 2916 2917 0
-2918 -13 0
-2918 209 0
-2919 -25 0
-2919 147 0
-2920 -26 0
-2920 146 0
-164 2918 2919 2920 0
-2921 -14 0
-2921 245 0
-2922 -34 0
-2922 156 0
-2923 -35 0
-2923 155 0
-164 2921 2922 2923 0
-2924 -17 0
-2924 281 0
-2925 -44 0
-2925 172 0
-2926 -51 0
-2926 165 0
-164 2924 2925 2926 0
-2927 -18 0
-2927 282 0
-2928 -45 0
-2928 173 0
-2929 -52 0
-2929 166 0
-164 2927 2928 2929 0
-2930 -19 0
-2930 283 0
-2931 -46 0
-2931 174 0
-2932 -53 0
-2932 167 0
-164 2930 2931 2932 0
-2933 -20 0
-2933 284 0
-2934 -47 0
-2934 175 0
-2935 -54 0
-2935 168 0
-164 2933 2934 2935 0
-2936 -21 0
-2936 285 0
-2937 -48 0
-2937 176 0
-2938 -55 0
-2938 169 0
-164 2936 2937 2938 0
-2939 -22 0
-2939 286 0
-2940 -49 0
-2940 177 0
-2941 -56 0
-2941 170 0
-164 2939 2940 2941 0
-2942 -23 0
-2942 287 0
-2943 -50 0
-2943 178 0
-2944 -57 0
-2944 171 0
-164 2942 2943 2944 0
-2945 -1 0
-2945 110 0
-2946 -4 0
-2946 83 0
-2947 -6 0
-2947 81 0
-165 2945 2946 2947 0
-2948 -13 0
-2948 210 0
-2949 -25 0
-2949 148 0
-2950 -27 0
-2950 146 0
-165 2948 2949 2950 0
-2951 -14 0
-2951 246 0
-2952 -34 0
-2952 157 0
-2953 -36 0
-2953 155 0
-165 2951 2952 2953 0
-2954 -16 0
-2954 281 0
-2955 -43 0
-2955 172 0
-2956 -51 0
-2956 164 0
-165 2954 2955 2956 0
-2957 -18 0
-2957 288 0
-2958 -45 0
-2958 179 0
-2959 -58 0
-2959 166 0
-165 2957 2958 2959 0
-2960 -19 0
-2960 289 0
-2961 -46 0
-2961 180 0
-2962 -59 0
-2962 167 0
-165 2960 2961 2962 0
-2963 -20 0
-2963 290 0
-2964 -47 0
-2964 181 0
-2965 -60 0
-2965 168 0
-165 2963 2964 2965 0
-2966 -21 0
-2966 291 0
-2967 -48 0
-2967 182 0
-2968 -61 0
-2968 169 0
-165 2966 2967 2968 0
-2969 -22 0
-2969 292 0
-2970 -49 0
-2970 183 0
-2971 -62 0
-2971 170 0
-165 2969 2970 2971 0
-2972 -23 0
-2972 293 0
-2973 -50 0
-2973 184 0
-2974 -63 0
-2974 171 0
-165 2972 2973 2974 0
-2975 -1 0
-2975 111 0
-2976 -4 0
-2976 84 0
-2977 -7 0
-2977 81 0
-166 2975 2976 2977 0
-2978 -13 0
-2978 211 0
-2979 -25 0
-2979 149 0
-2980 -28 0
-2980 146 0
-166 2978 2979 2980 0
-2981 -14 0
-2981 247 0
-2982 -34 0
-2982 158 0
-2983 -37 0
-2983 155 0
-166 2981 2982 2983 0
-2984 -16 0
-2984 282 0
-2985 -43 0
-2985 173 0
-2986 -52 0
-2986 164 0
-166 2984 2985 2986 0
-2987 -17 0
-2987 288 0
-2988 -44 0
-2988 179 0
-2989 -58 0
-2989 165 0
-166 2987 2988 2989 0
-2990 -19 0
-2990 294 0
-2991 -46 0
-2991 185 0
-2992 -64 0
-2992 167 0
-166 2990 2991 2992 0
-2993 -20 0
-2993 295 0
-2994 -47 0
-2994 186 0
-2995 -65 0
-2995 168 0
-166 2993 2994 2995 0
-2996 -21 0
-2996 296 0
-2997 -48 0
-2997 187 0
-2998 -66 0
-2998 169 0
-166 2996 2997 2998 0
-2999 -22 0
-2999 297 0
-3000 -49 0
-3000 188 0
-3001 -67 0
-3001 170 0
-166 2999 3000 3001 0
-3002 -23 0
-3002 298 0
-3003 -50 0
-3003 189 0
-3004 -68 0
-3004 171 0
-166 3002 3003 3004 0
-3005 -1 0
-3005 112 0
-3006 -4 0
-3006 85 0
-3007 -8 0
-3007 81 0
-167 3005 3006 3007 0
-3008 -13 0
-3008 212 0
-3009 -25 0
-3009 150 0
-3010 -29 0
-3010 146 0
-167 3008 3009 3010 0
-3011 -14 0
-3011 248 0
-3012 -34 0
-3012 159 0
-3013 -38 0
-3013 155 0
-167 3011 3012 3013 0
-3014 -16 0
-3014 283 0
-3015 -43 0
-3015 174 0
-3016 -53 0
-3016 164 0
-167 3014 3015 3016 0
-3017 -17 0
-3017 289 0
-3018 -44 0
-3018 180 0
-3019 -59 0
-3019 165 0
-167 3017 3018 3019 0
-3020 -18 0
-3020 294 0
-3021 -45 0
-3021 185 0
-3022 -64 0
-3022 166 0
-167 3020 3021 3022 0
-3023 -20 0
-3023 299 0
-3024 -47 0
-3024 190 0
-3025 -69 0
-3025 168 0
-167 3023 3024 3025 0
-3026 -21 0
-3026 300 0
-3027 -48 0
-3027 191 0
-3028 -70 0
-3028 169 0
-167 3026 3027 3028 0
-3029 -22 0
-3029 301 0
-3030 -49 0
-3030 192 0
-3031 -71 0
-3031 170 0
-167 3029 3030 3031 0
-3032 -23 0
-3032 302 0
-3033 -50 0
-3033 193 0
-3034 -72 0
-3034 171 0
-167 3032 3033 3034 0
-3035 -1 0
-3035 113 0
-3036 -4 0
-3036 86 0
-3037 -9 0
-3037 81 0
-168 3035 3036 3037 0
-3038 -13 0
-3038 213 0
-3039 -25 0
-3039 151 0
-3040 -30 0
-3040 146 0
-168 3038 3039 3040 0
-3041 -14 0
-3041 249 0
-3042 -34 0
-3042 160 0
-3043 -39 0
-3043 155 0
-168 3041 3042 3043 0
-3044 -16 0
-3044 284 0
-3045 -43 0
-3045 175 0
-3046 -54 0
-3046 164 0
-168 3044 3045 3046 0
-3047 -17 0
-3047 290 0
-3048 -44 0
-3048 181 0
-3049 -60 0
-3049 165 0
-168 3047 3048 3049 0
-3050 -18 0
-3050 295 0
-3051 -45 0
-3051 186 0
-3052 -65 0
-3052 166 0
-168 3050 3051 3052 0
-3053 -19 0
-3053 299 0
-3054 -46 0
-3054 190 0
-3055 -69 0
-3055 167 0
-168 3053 3054 3055 0
-3056 -21 0
-3056 303 0
-3057 -48 0
-3057 194 0
-3058 -73 0
-3058 169 0
-168 3056 3057 3058 0
-3059 -22 0
-3059 304 0
-3060 -49 0
-3060 195 0
-3061 -74 0
-3061 170 0
-168 3059 3060 3061 0
-3062 -23 0
-3062 305 0
-3063 -50 0
-3063 196 0
-3064 -75 0
-3064 171 0
-168 3062 3063 3064 0
-3065 -1 0
-3065 114 0
-3066 -4 0
-3066 87 0
-3067 -10 0
-3067 81 0
-169 3065 3066 3067 0
-3068 -13 0
-3068 214 0
-3069 -25 0
-3069 152 0
-3070 -31 0
-3070 146 0
-169 3068 3069 3070 0
-3071 -14 0
-3071 250 0
-3072 -34 0
-3072 161 0
-3073 -40 0
-3073 155 0
-169 3071 3072 3073 0
-3074 -16 0
-3074 285 0
-3075 -43 0
-3075 176 0
-3076 -55 0
-3076 164 0
-169 3074 3075 3076 0
-3077 -17 0
-3077 291 0
-3078 -44 0
-3078 182 0
-3079 -61 0
-3079 165 0
-169 3077 3078 3079 0
-3080 -18 0
-3080 296 0
-3081 -45 0
-3081 187 0
-3082 -66 0
-3082 166 0
-169 3080 3081 3082 0
-3083 -19 0
-3083 300 0
-3084 -46 0
-3084 191 0
-3085 -70 0
-3085 167 0
-169 3083 3084 3085 0
-3086 -20 0
-3086 303 0
-3087 -47 0
-3087 194 0
-3088 -73 0
-3088 168 0
-169 3086 3087 3088 0
-3089 -22 0
-3089 306 0
-3090 -49 0
-3090 197 0
-3091 -76 0
-3091 170 0
-169 3089 3090 3091 0
-3092 -23 0
-3092 307 0
-3093 -50 0
-3093 198 0
-3094 -77 0
-3094 171 0
-169 3092 3093 3094 0
-3095 -1 0
-3095 115 0
-3096 -4 0
-3096 88 0
-3097 -11 0
-3097 81 0
-170 3095 3096 3097 0
-3098 -13 0
-3098 215 0
-3099 -25 0
-3099 153 0
-3100 -32 0
-3100 146 0
-170 3098 3099 3100 0
-3101 -14 0
-3101 251 0
-3102 -34 0
-3102 162 0
-3103 -41 0
-3103 155 0
-170 3101 3102 3103 0
-3104 -16 0
-3104 286 0
-3105 -43 0
-3105 177 0
-3106 -56 0
-3106 164 0
-170 3104 3105 3106 0
-3107 -17 0
-3107 292 0
-3108 -44 0
-3108 183 0
-3109 -62 0
-3109 165 0
-170 3107 3108 3109 0
-3110 -18 0
-3110 297 0
-3111 -45 0
-3111 188 0
-3112 -67 0
-3112 166 0
-170 3110 3111 3112 0
-3113 -19 0
-3113 301 0
-3114 -46 0
-3114 192 0
-3115 -71 0
-3115 167 0
-170 3113 3114 3115 0
-3116 -20 0
-3116 304 0
-3117 -47 0
-3117 195 0
-3118 -74 0
-3118 168 0
-170 3116 3117 3118 0
-3119 -21 0
-3119 306 0
-3120 -48 0
-3120 197 0
-3121 -76 0
-3121 169 0
-170 3119 3120 3121 0
-3122 -23 0
-3122 308 0
-3123 -50 0
-3123 199 0
-3124 -78 0
-3124 171 0
-170 3122 3123 3124 0
-3125 -1 0
-3125 116 0
-3126 -4 0
-3126 89 0
-3127 -12 0
-3127 81 0
-171 3125 3126 3127 0
-3128 -13 0
-3128 216 0
-3129 -25 0
-3129 154 0
-3130 -33 0
-3130 146 0
-171 3128 3129 3130 0
-3131 -14 0
-3131 252 0
-3132 -34 0
-3132 163 0
-3133 -42 0
-3133 155 0
-171 3131 3132 3133 0
-3134 -16 0
-3134 287 0
-3135 -43 0
-3135 178 0
-3136 -57 0
-3136 164 0
-171 3134 3135 3136 0
-3137 -17 0
-3137 293 0
-3138 -44 0
-3138 184 0
-3139 -63 0
-3139 165 0
-171 3137 3138 3139 0
-3140 -18 0
-3140 298 0
-3141 -45 0
-3141 189 0
-3142 -68 0
-3142 166 0
-171 3140 3141 3142 0
-3143 -19 0
-3143 302 0
-3144 -46 0
-3144 193 0
-3145 -72 0
-3145 167 0
-171 3143 3144 3145 0
-3146 -20 0
-3146 305 0
-3147 -47 0
-3147 196 0
-3148 -75 0
-3148 168 0
-171 3146 3147 3148 0
-3149 -21 0
-3149 307 0
-3150 -48 0
-3150 198 0
-3151 -77 0
-3151 169 0
-171 3149 3150 3151 0
-3152 -22 0
-3152 308 0
-3153 -49 0
-3153 199 0
-3154 -78 0
-3154 170 0
-171 3152 3153 3154 0
-3155 -1 0
-3155 117 0
-3156 -5 0
-3156 83 0
-3157 -6 0
-3157 82 0
-172 3155 3156 3157 0
-3158 -13 0
-3158 217 0
-3159 -26 0
-3159 148 0
-3160 -27 0
-3160 147 0
-172 3158 3159 3160 0
-3161 -14 0
-3161 253 0
-3162 -35 0
-3162 157 0
-3163 -36 0
-3163 156 0
-172 3161 3162 3163 0
-3164 -15 0
-3164 281 0
-3165 -43 0
-3165 165 0
-3166 -44 0
-3166 164 0
-172 3164 3165 3166 0
-3167 -18 0
-3167 309 0
-3168 -52 0
-3168 179 0
-3169 -58 0
-3169 173 0
-172 3167 3168 3169 0
-3170 -19 0
-3170 310 0
-3171 -53 0
-3171 180 0
-3172 -59 0
-3172 174 0
-172 3170 3171 3172 0
-3173 -20 0
-3173 311 0
-3174 -54 0
-3174 181 0
-3175 -60 0
-3175 175 0
-172 3173 3174 3175 0
-3176 -21 0
-3176 312 0
-3177 -55 0
-3177 182 0
-3178 -61 0
-3178 176 0
-172 3176 3177 3178 0
-3179 -22 0
-3179 313 0
-3180 -56 0
-3180 183 0
-3181 -62 0
-3181 177 0
-172 3179 3180 3181 0
-3182 -23 0
-3182 314 0
-3183 -57 0
-3183 184 0
-3184 -63 0
-3184 178 0
-172 3182 3183 3184 0
-3185 -1 0
-3185 118 0
-3186 -5 0
-3186 84 0
-3187 -7 0
-3187 82 0
-173 3185 3186 3187 0
-3188 -13 0
-3188 218 0
-3189 -26 0
-3189 149 0
-3190 -28 0
-3190 147 0
-173 3188 3189 3190 0
-3191 -14 0
-3191 254 0
-3192 -35 0
-3192 158 0
-3193 -37 0
-3193 156 0
-173 3191 3192 3193 0
-3194 -15 0
-3194 282 0
-3195 -43 0
-3195 166 0
-3196 -45 0
-3196 164 0
-173 3194 3195 3196 0
-3197 -17 0
-3197 309 0
-3198 -51 0
-3198 179 0
-3199 -58 0
-3199 172 0
-173 3197 3198 3199 0
-3200 -19 0
-3200 315 0
-3201 -53 0
-3201 185 0
-3202 -64 0
-3202 174 0
-173 3200 3201 3202 0
-3203 -20 0
-3203 316 0
-3204 -54 0
-3204 186 0
-3205 -65 0
-3205 175 0
-173 3203 3204 3205 0
-3206 -21 0
-3206 317 0
-3207 -55 0
-3207 187 0
-3208 -66 0
-3208 176 0
-173 3206 3207 3208 0
-3209 -22 0
-3209 318 0
-3210 -56 0
-3210 188 0
-3211 -67 0
-3211 177 0
-173 3209 3210 3211 0
-3212 -23 0
-3212 319 0
-3213 -57 0
-3213 189 0
-3214 -68 0
-3214 178 0
-173 3212 3213 3214 0
-3215 -1 0
-3215 119 0
-3216 -5 0
-3216 85 0
-3217 -8 0
-3217 82 0
-174 3215 3216 3217 0
-3218 -13 0
-3218 219 0
-3219 -26 0
-3219 150 0
-3220 -29 0
-3220 147 0
-174 3218 3219 3220 0
-3221 -14 0
-3221 255 0
-3222 -35 0
-3222 159 0
-3223 -38 0
-3223 156 0
-174 3221 3222 3223 0
-3224 -15 0
-3224 283 0
-3225 -43 0
-3225 167 0
-3226 -46 0
-3226 164 0
-174 3224 3225 3226 0
-3227 -17 0
-3227 310 0
-3228 -51 0
-3228 180 0
-3229 -59 0
-3229 172 0
-174 3227 3228 3229 0
-3230 -18 0
-3230 315 0
-3231 -52 0
-3231 185 0
-3232 -64 0
-3232 173 0
-174 3230 3231 3232 0
-3233 -20 0
-3233 320 0
-3234 -54 0
-3234 190 0
-3235 -69 0
-3235 175 0
-174 3233 3234 3235 0
-3236 -21 0
-3236 321 0
-3237 -55 0
-3237 191 0
-3238 -70 0
-3238 176 0
-174 3236 3237 3238 0
-3239 -22 0
-3239 322 0
-3240 -56 0
-3240 192 0
-3241 -71 0
-3241 177 0
-174 3239 3240 3241 0
-3242 -23 0
-3242 323 0
-3243 -57 0
-3243 193 0
-3244 -72 0
-3244 178 0
-174 3242 3243 3244 0
-3245 -1 0
-3245 120 0
-3246 -5 0
-3246 86 0
-3247 -9 0
-3247 82 0
-175 3245 3246 3247 0
-3248 -13 0
-3248 220 0
-3249 -26 0
-3249 151 0
-3250 -30 0
-3250 147 0
-175 3248 3249 3250 0
-3251 -14 0
-3251 256 0
-3252 -35 0
-3252 160 0
-3253 -39 0
-3253 156 0
-175 3251 3252 3253 0
-3254 -15 0
-3254 284 0
-3255 -43 0
-3255 168 0
-3256 -47 0
-3256 164 0
-175 3254 3255 3256 0
-3257 -17 0
-3257 311 0
-3258 -51 0
-3258 181 0
-3259 -60 0
-3259 172 0
-175 3257 3258 3259 0
-3260 -18 0
-3260 316 0
-3261 -52 0
-3261 186 0
-3262 -65 0
-3262 173 0
-175 3260 3261 3262 0
-3263 -19 0
-3263 320 0
-3264 -53 0
-3264 190 0
-3265 -69 0
-3265 174 0
-175 3263 3264 3265 0
-3266 -21 0
-3266 324 0
-3267 -55 0
-3267 194 0
-3268 -73 0
-3268 176 0
-175 3266 3267 3268 0
-3269 -22 0
-3269 325 0
-3270 -56 0
-3270 195 0
-3271 -74 0
-3271 177 0
-175 3269 3270 3271 0
-3272 -23 0
-3272 326 0
-3273 -57 0
-3273 196 0
-3274 -75 0
-3274 178 0
-175 3272 3273 3274 0
-3275 -1 0
-3275 121 0
-3276 -5 0
-3276 87 0
-3277 -10 0
-3277 82 0
-176 3275 3276 3277 0
-3278 -13 0
-3278 221 0
-3279 -26 0
-3279 152 0
-3280 -31 0
-3280 147 0
-176 3278 3279 3280 0
-3281 -14 0
-3281 257 0
-3282 -35 0
-3282 161 0
-3283 -40 0
-3283 156 0
-176 3281 3282 3283 0
-3284 -15 0
-3284 285 0
-3285 -43 0
-3285 169 0
-3286 -48 0
-3286 164 0
-176 3284 3285 3286 0
-3287 -17 0
-3287 312 0
-3288 -51 0
-3288 182 0
-3289 -61 0
-3289 172 0
-176 3287 3288 3289 0
-3290 -18 0
-3290 317 0
-3291 -52 0
-3291 187 0
-3292 -66 0
-3292 173 0
-176 3290 3291 3292 0
-3293 -19 0
-3293 321 0
-3294 -53 0
-3294 191 0
-3295 -70 0
-3295 174 0
-176 3293 3294 3295 0
-3296 -20 0
-3296 324 0
-3297 -54 0
-3297 194 0
-3298 -73 0
-3298 175 0
-176 3296 3297 3298 0
-3299 -22 0
-3299 327 0
-3300 -56 0
-3300 197 0
-3301 -76 0
-3301 177 0
-176 3299 3300 3301 0
-3302 -23 0
-3302 328 0
-3303 -57 0
-3303 198 0
-3304 -77 0
-3304 178 0
-176 3302 3303 3304 0
-3305 -1 0
-3305 122 0
-3306 -5 0
-3306 88 0
-3307 -11 0
-3307 82 0
-177 3305 3306 3307 0
-3308 -13 0
-3308 222 0
-3309 -26 0
-3309 153 0
-3310 -32 0
-3310 147 0
-177 3308 3309 3310 0
-3311 -14 0
-3311 258 0
-3312 -35 0
-3312 162 0
-3313 -41 0
-3313 156 0
-177 3311 3312 3313 0
-3314 -15 0
-3314 286 0
-3315 -43 0
-3315 170 0
-3316 -49 0
-3316 164 0
-177 3314 3315 3316 0
-3317 -17 0
-3317 313 0
-3318 -51 0
-3318 183 0
-3319 -62 0
-3319 172 0
-177 3317 3318 3319 0
-3320 -18 0
-3320 318 0
-3321 -52 0
-3321 188 0
-3322 -67 0
-3322 173 0
-177 3320 3321 3322 0
-3323 -19 0
-3323 322 0
-3324 -53 0
-3324 192 0
-3325 -71 0
-3325 174 0
-177 3323 3324 3325 0
-3326 -20 0
-3326 325 0
-3327 -54 0
-3327 195 0
-3328 -74 0
-3328 175 0
-177 3326 3327 3328 0
-3329 -21 0
-3329 327 0
-3330 -55 0
-3330 197 0
-3331 -76 0
-3331 176 0
-177 3329 3330 3331 0
-3332 -23 0
-3332 329 0
-3333 -57 0
-3333 199 0
-3334 -78 0
-3334 178 0
-177 3332 3333 3334 0
-3335 -1 0
-3335 123 0
-3336 -5 0
-3336 89 0
-3337 -12 0
-3337 82 0
-178 3335 3336 3337 0
-3338 -13 0
-3338 223 0
-3339 -26 0
-3339 154 0
-3340 -33 0
-3340 147 0
-178 3338 3339 3340 0
-3341 -14 0
-3341 259 0
-3342 -35 0
-3342 163 0
-3343 -42 0
-3343 156 0
-178 3341 3342 3343 0
-3344 -15 0
-3344 287 0
-3345 -43 0
-3345 171 0
-3346 -50 0
-3346 164 0
-178 3344 3345 3346 0
-3347 -17 0
-3347 314 0
-3348 -51 0
-3348 184 0
-3349 -63 0
-3349 172 0
-178 3347 3348 3349 0
-3350 -18 0
-3350 319 0
-3351 -52 0
-3351 189 0
-3352 -68 0
-3352 173 0
-178 3350 3351 3352 0
-3353 -19 0
-3353 323 0
-3354 -53 0
-3354 193 0
-3355 -72 0
-3355 174 0
-178 3353 3354 3355 0
-3356 -20 0
-3356 326 0
-3357 -54 0
-3357 196 0
-3358 -75 0
-3358 175 0
-178 3356 3357 3358 0
-3359 -21 0
-3359 328 0
-3360 -55 0
-3360 198 0
-3361 -77 0
-3361 176 0
-178 3359 3360 3361 0
-3362 -22 0
-3362 329 0
-3363 -56 0
-3363 199 0
-3364 -78 0
-3364 177 0
-178 3362 3363 3364 0
-3365 -1 0
-3365 124 0
-3366 -6 0
-3366 84 0
-3367 -7 0
-3367 83 0
-179 3365 3366 3367 0
-3368 -13 0
-3368 224 0
-3369 -27 0
-3369 149 0
-3370 -28 0
-3370 148 0
-179 3368 3369 3370 0
-3371 -14 0
-3371 260 0
-3372 -36 0
-3372 158 0
-3373 -37 0
-3373 157 0
-179 3371 3372 3373 0
-3374 -15 0
-3374 288 0
-3375 -44 0
-3375 166 0
-3376 -45 0
-3376 165 0
-179 3374 3375 3376 0
-3377 -16 0
-3377 309 0
-3378 -51 0
-3378 173 0
-3379 -52 0
-3379 172 0
-179 3377 3378 3379 0
-3380 -19 0
-3380 330 0
-3381 -59 0
-3381 185 0
-3382 -64 0
-3382 180 0
-179 3380 3381 3382 0
-3383 -20 0
-3383 331 0
-3384 -60 0
-3384 186 0
-3385 -65 0
-3385 181 0
-179 3383 3384 3385 0
-3386 -21 0
-3386 332 0
-3387 -61 0
-3387 187 0
-3388 -66 0
-3388 182 0
-179 3386 3387 3388 0
-3389 -22 0
-3389 333 0
-3390 -62 0
-3390 188 0
-3391 -67 0
-3391 183 0
-179 3389 3390 3391 0
-3392 -23 0
-3392 334 0
-3393 -63 0
-3393 189 0
-3394 -68 0
-3394 184 0
-179 3392 3393 3394 0
-3395 -1 0
-3395 125 0
-3396 -6 0
-3396 85 0
-3397 -8 0
-3397 83 0
-180 3395 3396 3397 0
-3398 -13 0
-3398 225 0
-3399 -27 0
-3399 150 0
-3400 -29 0
-3400 148 0
-180 3398 3399 3400 0
-3401 -14 0
-3401 261 0
-3402 -36 0
-3402 159 0
-3403 -38 0
-3403 157 0
-180 3401 3402 3403 0
-3404 -15 0
-3404 289 0
-3405 -44 0
-3405 167 0
-3406 -46 0
-3406 165 0
-180 3404 3405 3406 0
-3407 -16 0
-3407 310 0
-3408 -51 0
-3408 174 0
-3409 -53 0
-3409 172 0
-180 3407 3408 3409 0
-3410 -18 0
-3410 330 0
-3411 -58 0
-3411 185 0
-3412 -64 0
-3412 179 0
-180 3410 3411 3412 0
-3413 -20 0
-3413 335 0
-3414 -60 0
-3414 190 0
-3415 -69 0
-3415 181 0
-180 3413 3414 3415 0
-3416 -21 0
-3416 336 0
-3417 -61 0
-3417 191 0
-3418 -70 0
-3418 182 0
-180 3416 3417 3418 0
-3419 -22 0
-3419 337 0
-3420 -62 0
-3420 192 0
-3421 -71 0
-3421 183 0
-180 3419 3420 3421 0
-3422 -23 0
-3422 338 0
-3423 -63 0
-3423 193 0
-3424 -72 0
-3424 184 0
-180 3422 3423 3424 0
-3425 -1 0
-3425 126 0
-3426 -6 0
-3426 86 0
-3427 -9 0
-3427 83 0
-181 3425 3426 3427 0
-3428 -13 0
-3428 226 0
-3429 -27 0
-3429 151 0
-3430 -30 0
-3430 148 0
-181 3428 3429 3430 0
-3431 -14 0
-3431 262 0
-3432 -36 0
-3432 160 0
-3433 -39 0
-3433 157 0
-181 3431 3432 3433 0
-3434 -15 0
-3434 290 0
-3435 -44 0
-3435 168 0
-3436 -47 0
-3436 165 0
-181 3434 3435 3436 0
-3437 -16 0
-3437 311 0
-3438 -51 0
-3438 175 0
-3439 -54 0
-3439 172 0
-181 3437 3438 3439 0
-3440 -18 0
-3440 331 0
-3441 -58 0
-3441 186 0
-3442 -65 0
-3442 179 0
-181 3440 3441 3442 0
-3443 -19 0
-3443 335 0
-3444 -59 0
-3444 190 0
-3445 -69 0
-3445 180 0
-181 3443 3444 3445 0
-3446 -21 0
-3446 339 0
-3447 -61 0
-3447 194 0
-3448 -73 0
-3448 182 0
-181 3446 3447 3448 0
-3449 -22 0
-3449 340 0
-3450 -62 0
-3450 195 0
-3451 -74 0
-3451 183 0
-181 3449 3450 3451 0
-3452 -23 0
-3452 341 0
-3453 -63 0
-3453 196 0
-3454 -75 0
-3454 184 0
-181 3452 3453 3454 0
-3455 -1 0
-3455 127 0
-3456 -6 0
-3456 87 0
-3457 -10 0
-3457 83 0
-182 3455 3456 3457 0
-3458 -13 0
-3458 227 0
-3459 -27 0
-3459 152 0
-3460 -31 0
-3460 148 0
-182 3458 3459 3460 0
-3461 -14 0
-3461 263 0
-3462 -36 0
-3462 161 0
-3463 -40 0
-3463 157 0
-182 3461 3462 3463 0
-3464 -15 0
-3464 291 0
-3465 -44 0
-3465 169 0
-3466 -48 0
-3466 165 0
-182 3464 3465 3466 0
-3467 -16 0
-3467 312 0
-3468 -51 0
-3468 176 0
-3469 -55 0
-3469 172 0
-182 3467 3468 3469 0
-3470 -18 0
-3470 332 0
-3471 -58 0
-3471 187 0
-3472 -66 0
-3472 179 0
-182 3470 3471 3472 0
-3473 -19 0
-3473 336 0
-3474 -59 0
-3474 191 0
-3475 -70 0
-3475 180 0
-182 3473 3474 3475 0
-3476 -20 0
-3476 339 0
-3477 -60 0
-3477 194 0
-3478 -73 0
-3478 181 0
-182 3476 3477 3478 0
-3479 -22 0
-3479 342 0
-3480 -62 0
-3480 197 0
-3481 -76 0
-3481 183 0
-182 3479 3480 3481 0
-3482 -23 0
-3482 343 0
-3483 -63 0
-3483 198 0
-3484 -77 0
-3484 184 0
-182 3482 3483 3484 0
-3485 -1 0
-3485 128 0
-3486 -6 0
-3486 88 0
-3487 -11 0
-3487 83 0
-183 3485 3486 3487 0
-3488 -13 0
-3488 228 0
-3489 -27 0
-3489 153 0
-3490 -32 0
-3490 148 0
-183 3488 3489 3490 0
-3491 -14 0
-3491 264 0
-3492 -36 0
-3492 162 0
-3493 -41 0
-3493 157 0
-183 3491 3492 3493 0
-3494 -15 0
-3494 292 0
-3495 -44 0
-3495 170 0
-3496 -49 0
-3496 165 0
-183 3494 3495 3496 0
-3497 -16 0
-3497 313 0
-3498 -51 0
-3498 177 0
-3499 -56 0
-3499 172 0
-183 3497 3498 3499 0
-3500 -18 0
-3500 333 0
-3501 -58 0
-3501 188 0
-3502 -67 0
-3502 179 0
-183 3500 3501 3502 0
-3503 -19 0
-3503 337 0
-3504 -59 0
-3504 192 0
-3505 -71 0
-3505 180 0
-183 3503 3504 3505 0
-3506 -20 0
-3506 340 0
-3507 -60 0
-3507 195 0
-3508 -74 0
-3508 181 0
-183 3506 3507 3508 0
-3509 -21 0
-3509 342 0
-3510 -61 0
-3510 197 0
-3511 -76 0
-3511 182 0
-183 3509 3510 3511 0
-3512 -23 0
-3512 344 0
-3513 -63 0
-3513 199 0
-3514 -78 0
-3514 184 0
-183 3512 3513 3514 0
-3515 -1 0
-3515 129 0
-3516 -6 0
-3516 89 0
-3517 -12 0
-3517 83 0
-184 3515 3516 3517 0
-3518 -13 0
-3518 229 0
-3519 -27 0
-3519 154 0
-3520 -33 0
-3520 148 0
-184 3518 3519 3520 0
-3521 -14 0
-3521 265 0
-3522 -36 0
-3522 163 0
-3523 -42 0
-3523 157 0
-184 3521 3522 3523 0
-3524 -15 0
-3524 293 0
-3525 -44 0
-3525 171 0
-3526 -50 0
-3526 165 0
-184 3524 3525 3526 0
-3527 -16 0
-3527 314 0
-3528 -51 0
-3528 178 0
-3529 -57 0
-3529 172 0
-184 3527 3528 3529 0
-3530 -18 0
-3530 334 0
-3531 -58 0
-3531 189 0
-3532 -68 0
-3532 179 0
-184 3530 3531 3532 0
-3533 -19 0
-3533 338 0
-3534 -59 0
-3534 193 0
-3535 -72 0
-3535 180 0
-184 3533 3534 3535 0
-3536 -20 0
-3536 341 0
-3537 -60 0
-3537 196 0
-3538 -75 0
-3538 181 0
-184 3536 3537 3538 0
-3539 -21 0
-3539 343 0
-3540 -61 0
-3540 198 0
-3541 -77 0
-3541 182 0
-184 3539 3540 3541 0
-3542 -22 0
-3542 344 0
-3543 -62 0
-3543 199 0
-3544 -78 0
-3544 183 0
-184 3542 3543 3544 0
-3545 -1 0
-3545 130 0
-3546 -7 0
-3546 85 0
-3547 -8 0
-3547 84 0
-185 3545 3546 3547 0
-3548 -13 0
-3548 230 0
-3549 -28 0
-3549 150 0
-3550 -29 0
-3550 149 0
-185 3548 3549 3550 0
-3551 -14 0
-3551 266 0
-3552 -37 0
-3552 159 0
-3553 -38 0
-3553 158 0
-185 3551 3552 3553 0
-3554 -15 0
-3554 294 0
-3555 -45 0
-3555 167 0
-3556 -46 0
-3556 166 0
-185 3554 3555 3556 0
-3557 -16 0
-3557 315 0
-3558 -52 0
-3558 174 0
-3559 -53 0
-3559 173 0
-185 3557 3558 3559 0
-3560 -17 0
-3560 330 0
-3561 -58 0
-3561 180 0
-3562 -59 0
-3562 179 0
-185 3560 3561 3562 0
-3563 -20 0
-3563 345 0
-3564 -65 0
-3564 190 0
-3565 -69 0
-3565 186 0
-185 3563 3564 3565 0
-3566 -21 0
-3566 346 0
-3567 -66 0
-3567 191 0
-3568 -70 0
-3568 187 0
-185 3566 3567 3568 0
-3569 -22 0
-3569 347 0
-3570 -67 0
-3570 192 0
-3571 -71 0
-3571 188 0
-185 3569 3570 3571 0
-3572 -23 0
-3572 348 0
-3573 -68 0
-3573 193 0
-3574 -72 0
-3574 189 0
-185 3572 3573 3574 0
-3575 -1 0
-3575 131 0
-3576 -7 0
-3576 86 0
-3577 -9 0
-3577 84 0
-186 3575 3576 3577 0
-3578 -13 0
-3578 231 0
-3579 -28 0
-3579 151 0
-3580 -30 0
-3580 149 0
-186 3578 3579 3580 0
-3581 -14 0
-3581 267 0
-3582 -37 0
-3582 160 0
-3583 -39 0
-3583 158 0
-186 3581 3582 3583 0
-3584 -15 0
-3584 295 0
-3585 -45 0
-3585 168 0
-3586 -47 0
-3586 166 0
-186 3584 3585 3586 0
-3587 -16 0
-3587 316 0
-3588 -52 0
-3588 175 0
-3589 -54 0
-3589 173 0
-186 3587 3588 3589 0
-3590 -17 0
-3590 331 0
-3591 -58 0
-3591 181 0
-3592 -60 0
-3592 179 0
-186 3590 3591 3592 0
-3593 -19 0
-3593 345 0
-3594 -64 0
-3594 190 0
-3595 -69 0
-3595 185 0
-186 3593 3594 3595 0
-3596 -21 0
-3596 349 0
-3597 -66 0
-3597 194 0
-3598 -73 0
-3598 187 0
-186 3596 3597 3598 0
-3599 -22 0
-3599 350 0
-3600 -67 0
-3600 195 0
-3601 -74 0
-3601 188 0
-186 3599 3600 3601 0
-3602 -23 0
-3602 351 0
-3603 -68 0
-3603 196 0
-3604 -75 0
-3604 189 0
-186 3602 3603 3604 0
-3605 -1 0
-3605 132 0
-3606 -7 0
-3606 87 0
-3607 -10 0
-3607 84 0
-187 3605 3606 3607 0
-3608 -13 0
-3608 232 0
-3609 -28 0
-3609 152 0
-3610 -31 0
-3610 149 0
-187 3608 3609 3610 0
-3611 -14 0
-3611 268 0
-3612 -37 0
-3612 161 0
-3613 -40 0
-3613 158 0
-187 3611 3612 3613 0
-3614 -15 0
-3614 296 0
-3615 -45 0
-3615 169 0
-3616 -48 0
-3616 166 0
-187 3614 3615 3616 0
-3617 -16 0
-3617 317 0
-3618 -52 0
-3618 176 0
-3619 -55 0
-3619 173 0
-187 3617 3618 3619 0
-3620 -17 0
-3620 332 0
-3621 -58 0
-3621 182 0
-3622 -61 0
-3622 179 0
-187 3620 3621 3622 0
-3623 -19 0
-3623 346 0
-3624 -64 0
-3624 191 0
-3625 -70 0
-3625 185 0
-187 3623 3624 3625 0
-3626 -20 0
-3626 349 0
-3627 -65 0
-3627 194 0
-3628 -73 0
-3628 186 0
-187 3626 3627 3628 0
-3629 -22 0
-3629 352 0
-3630 -67 0
-3630 197 0
-3631 -76 0
-3631 188 0
-187 3629 3630 3631 0
-3632 -23 0
-3632 353 0
-3633 -68 0
-3633 198 0
-3634 -77 0
-3634 189 0
-187 3632 3633 3634 0
-3635 -1 0
-3635 133 0
-3636 -7 0
-3636 88 0
-3637 -11 0
-3637 84 0
-188 3635 3636 3637 0
-3638 -13 0
-3638 233 0
-3639 -28 0
-3639 153 0
-3640 -32 0
-3640 149 0
-188 3638 3639 3640 0
-3641 -14 0
-3641 269 0
-3642 -37 0
-3642 162 0
-3643 -41 0
-3643 158 0
-188 3641 3642 3643 0
-3644 -15 0
-3644 297 0
-3645 -45 0
-3645 170 0
-3646 -49 0
-3646 166 0
-188 3644 3645 3646 0
-3647 -16 0
-3647 318 0
-3648 -52 0
-3648 177 0
-3649 -56 0
-3649 173 0
-188 3647 3648 3649 0
-3650 -17 0
-3650 333 0
-3651 -58 0
-3651 183 0
-3652 -62 0
-3652 179 0
-188 3650 3651 3652 0
-3653 -19 0
-3653 347 0
-3654 -64 0
-3654 192 0
-3655 -71 0
-3655 185 0
-188 3653 3654 3655 0
-3656 -20 0
-3656 350 0
-3657 -65 0
-3657 195 0
-3658 -74 0
-3658 186 0
-188 3656 3657 3658 0
-3659 -21 0
-3659 352 0
-3660 -66 0
-3660 197 0
-3661 -76 0
-3661 187 0
-188 3659 3660 3661 0
-3662 -23 0
-3662 354 0
-3663 -68 0
-3663 199 0
-3664 -78 0
-3664 189 0
-188 3662 3663 3664 0
-3665 -1 0
-3665 134 0
-3666 -7 0
-3666 89 0
-3667 -12 0
-3667 84 0
-189 3665 3666 3667 0
-3668 -13 0
-3668 234 0
-3669 -28 0
-3669 154 0
-3670 -33 0
-3670 149 0
-189 3668 3669 3670 0
-3671 -14 0
-3671 270 0
-3672 -37 0
-3672 163 0
-3673 -42 0
-3673 158 0
-189 3671 3672 3673 0
-3674 -15 0
-3674 298 0
-3675 -45 0
-3675 171 0
-3676 -50 0
-3676 166 0
-189 3674 3675 3676 0
-3677 -16 0
-3677 319 0
-3678 -52 0
-3678 178 0
-3679 -57 0
-3679 173 0
-189 3677 3678 3679 0
-3680 -17 0
-3680 334 0
-3681 -58 0
-3681 184 0
-3682 -63 0
-3682 179 0
-189 3680 3681 3682 0
-3683 -19 0
-3683 348 0
-3684 -64 0
-3684 193 0
-3685 -72 0
-3685 185 0
-189 3683 3684 3685 0
-3686 -20 0
-3686 351 0
-3687 -65 0
-3687 196 0
-3688 -75 0
-3688 186 0
-189 3686 3687 3688 0
-3689 -21 0
-3689 353 0
-3690 -66 0
-3690 198 0
-3691 -77 0
-3691 187 0
-189 3689 3690 3691 0
-3692 -22 0
-3692 354 0
-3693 -67 0
-3693 199 0
-3694 -78 0
-3694 188 0
-189 3692 3693 3694 0
-3695 -1 0
-3695 135 0
-3696 -8 0
-3696 86 0
-3697 -9 0
-3697 85 0
-190 3695 3696 3697 0
-3698 -13 0
-3698 235 0
-3699 -29 0
-3699 151 0
-3700 -30 0
-3700 150 0
-190 3698 3699 3700 0
-3701 -14 0
-3701 271 0
-3702 -38 0
-3702 160 0
-3703 -39 0
-3703 159 0
-190 3701 3702 3703 0
-3704 -15 0
-3704 299 0
-3705 -46 0
-3705 168 0
-3706 -47 0
-3706 167 0
-190 3704 3705 3706 0
-3707 -16 0
-3707 320 0
-3708 -53 0
-3708 175 0
-3709 -54 0
-3709 174 0
-190 3707 3708 3709 0
-3710 -17 0
-3710 335 0
-3711 -59 0
-3711 181 0
-3712 -60 0
-3712 180 0
-190 3710 3711 3712 0
-3713 -18 0
-3713 345 0
-3714 -64 0
-3714 186 0
-3715 -65 0
-3715 185 0
-190 3713 3714 3715 0
-3716 -21 0
-3716 355 0
-3717 -70 0
-3717 194 0
-3718 -73 0
-3718 191 0
-190 3716 3717 3718 0
-3719 -22 0
-3719 356 0
-3720 -71 0
-3720 195 0
-3721 -74 0
-3721 192 0
-190 3719 3720 3721 0
-3722 -23 0
-3722 357 0
-3723 -72 0
-3723 196 0
-3724 -75 0
-3724 193 0
-190 3722 3723 3724 0
-3725 -1 0
-3725 136 0
-3726 -8 0
-3726 87 0
-3727 -10 0
-3727 85 0
-191 3725 3726 3727 0
-3728 -13 0
-3728 236 0
-3729 -29 0
-3729 152 0
-3730 -31 0
-3730 150 0
-191 3728 3729 3730 0
-3731 -14 0
-3731 272 0
-3732 -38 0
-3732 161 0
-3733 -40 0
-3733 159 0
-191 3731 3732 3733 0
-3734 -15 0
-3734 300 0
-3735 -46 0
-3735 169 0
-3736 -48 0
-3736 167 0
-191 3734 3735 3736 0
-3737 -16 0
-3737 321 0
-3738 -53 0
-3738 176 0
-3739 -55 0
-3739 174 0
-191 3737 3738 3739 0
-3740 -17 0
-3740 336 0
-3741 -59 0
-3741 182 0
-3742 -61 0
-3742 180 0
-191 3740 3741 3742 0
-3743 -18 0
-3743 346 0
-3744 -64 0
-3744 187 0
-3745 -66 0
-3745 185 0
-191 3743 3744 3745 0
-3746 -20 0
-3746 355 0
-3747 -69 0
-3747 194 0
-3748 -73 0
-3748 190 0
-191 3746 3747 3748 0
-3749 -22 0
-3749 358 0
-3750 -71 0
-3750 197 0
-3751 -76 0
-3751 192 0
-191 3749 3750 3751 0
-3752 -23 0
-3752 359 0
-3753 -72 0
-3753 198 0
-3754 -77 0
-3754 193 0
-191 3752 3753 3754 0
-3755 -1 0
-3755 137 0
-3756 -8 0
-3756 88 0
-3757 -11 0
-3757 85 0
-192 3755 3756 3757 0
-3758 -13 0
-3758 237 0
-3759 -29 0
-3759 153 0
-3760 -32 0
-3760 150 0
-192 3758 3759 3760 0
-3761 -14 0
-3761 273 0
-3762 -38 0
-3762 162 0
-3763 -41 0
-3763 159 0
-192 3761 3762 3763 0
-3764 -15 0
-3764 301 0
-3765 -46 0
-3765 170 0
-3766 -49 0
-3766 167 0
-192 3764 3765 3766 0
-3767 -16 0
-3767 322 0
-3768 -53 0
-3768 177 0
-3769 -56 0
-3769 174 0
-192 3767 3768 3769 0
-3770 -17 0
-3770 337 0
-3771 -59 0
-3771 183 0
-3772 -62 0
-3772 180 0
-192 3770 3771 3772 0
-3773 -18 0
-3773 347 0
-3774 -64 0
-3774 188 0
-3775 -67 0
-3775 185 0
-192 3773 3774 3775 0
-3776 -20 0
-3776 356 0
-3777 -69 0
-3777 195 0
-3778 -74 0
-3778 190 0
-192 3776 3777 3778 0
-3779 -21 0
-3779 358 0
-3780 -70 0
-3780 197 0
-3781 -76 0
-3781 191 0
-192 3779 3780 3781 0
-3782 -23 0
-3782 360 0
-3783 -72 0
-3783 199 0
-3784 -78 0
-3784 193 0
-192 3782 3783 3784 0
-3785 -1 0
-3785 138 0
-3786 -8 0
-3786 89 0
-3787 -12 0
-3787 85 0
-193 3785 3786 3787 0
-3788 -13 0
-3788 238 0
-3789 -29 0
-3789 154 0
-3790 -33 0
-3790 150 0
-193 3788 3789 3790 0
-3791 -14 0
-3791 274 0
-3792 -38 0
-3792 163 0
-3793 -42 0
-3793 159 0
-193 3791 3792 3793 0
-3794 -15 0
-3794 302 0
-3795 -46 0
-3795 171 0
-3796 -50 0
-3796 167 0
-193 3794 3795 3796 0
-3797 -16 0
-3797 323 0
-3798 -53 0
-3798 178 0
-3799 -57 0
-3799 174 0
-193 3797 3798 3799 0
-3800 -17 0
-3800 338 0
-3801 -59 0
-3801 184 0
-3802 -63 0
-3802 180 0
-193 3800 3801 3802 0
-3803 -18 0
-3803 348 0
-3804 -64 0
-3804 189 0
-3805 -68 0
-3805 185 0
-193 3803 3804 3805 0
-3806 -20 0
-3806 357 0
-3807 -69 0
-3807 196 0
-3808 -75 0
-3808 190 0
-193 3806 3807 3808 0
-3809 -21 0
-3809 359 0
-3810 -70 0
-3810 198 0
-3811 -77 0
-3811 191 0
-193 3809 3810 3811 0
-3812 -22 0
-3812 360 0
-3813 -71 0
-3813 199 0
-3814 -78 0
-3814 192 0
-193 3812 3813 3814 0
-3815 -1 0
-3815 139 0
-3816 -9 0
-3816 87 0
-3817 -10 0
-3817 86 0
-194 3815 3816 3817 0
-3818 -13 0
-3818 239 0
-3819 -30 0
-3819 152 0
-3820 -31 0
-3820 151 0
-194 3818 3819 3820 0
-3821 -14 0
-3821 275 0
-3822 -39 0
-3822 161 0
-3823 -40 0
-3823 160 0
-194 3821 3822 3823 0
-3824 -15 0
-3824 303 0
-3825 -47 0
-3825 169 0
-3826 -48 0
-3826 168 0
-194 3824 3825 3826 0
-3827 -16 0
-3827 324 0
-3828 -54 0
-3828 176 0
-3829 -55 0
-3829 175 0
-194 3827 3828 3829 0
-3830 -17 0
-3830 339 0
-3831 -60 0
-3831 182 0
-3832 -61 0
-3832 181 0
-194 3830 3831 3832 0
-3833 -18 0
-3833 349 0
-3834 -65 0
-3834 187 0
-3835 -66 0
-3835 186 0
-194 3833 3834 3835 0
-3836 -19 0
-3836 355 0
-3837 -69 0
-3837 191 0
-3838 -70 0
-3838 190 0
-194 3836 3837 3838 0
-3839 -22 0
-3839 361 0
-3840 -74 0
-3840 197 0
-3841 -76 0
-3841 195 0
-194 3839 3840 3841 0
-3842 -23 0
-3842 362 0
-3843 -75 0
-3843 198 0
-3844 -77 0
-3844 196 0
-194 3842 3843 3844 0
-3845 -1 0
-3845 140 0
-3846 -9 0
-3846 88 0
-3847 -11 0
-3847 86 0
-195 3845 3846 3847 0
-3848 -13 0
-3848 240 0
-3849 -30 0
-3849 153 0
-3850 -32 0
-3850 151 0
-195 3848 3849 3850 0
-3851 -14 0
-3851 276 0
-3852 -39 0
-3852 162 0
-3853 -41 0
-3853 160 0
-195 3851 3852 3853 0
-3854 -15 0
-3854 304 0
-3855 -47 0
-3855 170 0
-3856 -49 0
-3856 168 0
-195 3854 3855 3856 0
-3857 -16 0
-3857 325 0
-3858 -54 0
-3858 177 0
-3859 -56 0
-3859 175 0
-195 3857 3858 3859 0
-3860 -17 0
-3860 340 0
-3861 -60 0
-3861 183 0
-3862 -62 0
-3862 181 0
-195 3860 3861 3862 0
-3863 -18 0
-3863 350 0
-3864 -65 0
-3864 188 0
-3865 -67 0
-3865 186 0
-195 3863 3864 3865 0
-3866 -19 0
-3866 356 0
-3867 -69 0
-3867 192 0
-3868 -71 0
-3868 190 0
-195 3866 3867 3868 0
-3869 -21 0
-3869 361 0
-3870 -73 0
-3870 197 0
-3871 -76 0
-3871 194 0
-195 3869 3870 3871 0
-3872 -23 0
-3872 363 0
-3873 -75 0
-3873 199 0
-3874 -78 0
-3874 196 0
-195 3872 3873 3874 0
-3875 -1 0
-3875 141 0
-3876 -9 0
-3876 89 0
-3877 -12 0
-3877 86 0
-196 3875 3876 3877 0
-3878 -13 0
-3878 241 0
-3879 -30 0
-3879 154 0
-3880 -33 0
-3880 151 0
-196 3878 3879 3880 0
-3881 -14 0
-3881 277 0
-3882 -39 0
-3882 163 0
-3883 -42 0
-3883 160 0
-196 3881 3882 3883 0
-3884 -15 0
-3884 305 0
-3885 -47 0
-3885 171 0
-3886 -50 0
-3886 168 0
-196 3884 3885 3886 0
-3887 -16 0
-3887 326 0
-3888 -54 0
-3888 178 0
-3889 -57 0
-3889 175 0
-196 3887 3888 3889 0
-3890 -17 0
-3890 341 0
-3891 -60 0
-3891 184 0
-3892 -63 0
-3892 181 0
-196 3890 3891 3892 0
-3893 -18 0
-3893 351 0
-3894 -65 0
-3894 189 0
-3895 -68 0
-3895 186 0
-196 3893 3894 3895 0
-3896 -19 0
-3896 357 0
-3897 -69 0
-3897 193 0
-3898 -72 0
-3898 190 0
-196 3896 3897 3898 0
-3899 -21 0
-3899 362 0
-3900 -73 0
-3900 198 0
-3901 -77 0
-3901 194 0
-196 3899 3900 3901 0
-3902 -22 0
-3902 363 0
-3903 -74 0
-3903 199 0
-3904 -78 0
-3904 195 0
-196 3902 3903 3904 0
-3905 -1 0
-3905 142 0
-3906 -10 0
-3906 88 0
-3907 -11 0
-3907 87 0
-197 3905 3906 3907 0
-3908 -13 0
-3908 242 0
-3909 -31 0
-3909 153 0
-3910 -32 0
-3910 152 0
-197 3908 3909 3910 0
-3911 -14 0
-3911 278 0
-3912 -40 0
-3912 162 0
-3913 -41 0
-3913 161 0
-197 3911 3912 3913 0
-3914 -15 0
-3914 306 0
-3915 -48 0
-3915 170 0
-3916 -49 0
-3916 169 0
-197 3914 3915 3916 0
-3917 -16 0
-3917 327 0
-3918 -55 0
-3918 177 0
-3919 -56 0
-3919 176 0
-197 3917 3918 3919 0
-3920 -17 0
-3920 342 0
-3921 -61 0
-3921 183 0
-3922 -62 0
-3922 182 0
-197 3920 3921 3922 0
-3923 -18 0
-3923 352 0
-3924 -66 0
-3924 188 0
-3925 -67 0
-3925 187 0
-197 3923 3924 3925 0
-3926 -19 0
-3926 358 0
-3927 -70 0
-3927 192 0
-3928 -71 0
-3928 191 0
-197 3926 3927 3928 0
-3929 -20 0
-3929 361 0
-3930 -73 0
-3930 195 0
-3931 -74 0
-3931 194 0
-197 3929 3930 3931 0
-3932 -23 0
-3932 364 0
-3933 -77 0
-3933 199 0
-3934 -78 0
-3934 198 0
-197 3932 3933 3934 0
-3935 -1 0
-3935 143 0
-3936 -10 0
-3936 89 0
-3937 -12 0
-3937 87 0
-198 3935 3936 3937 0
-3938 -13 0
-3938 243 0
-3939 -31 0
-3939 154 0
-3940 -33 0
-3940 152 0
-198 3938 3939 3940 0
-3941 -14 0
-3941 279 0
-3942 -40 0
-3942 163 0
-3943 -42 0
-3943 161 0
-198 3941 3942 3943 0
-3944 -15 0
-3944 307 0
-3945 -48 0
-3945 171 0
-3946 -50 0
-3946 169 0
-198 3944 3945 3946 0
-3947 -16 0
-3947 328 0
-3948 -55 0
-3948 178 0
-3949 -57 0
-3949 176 0
-198 3947 3948 3949 0
-3950 -17 0
-3950 343 0
-3951 -61 0
-3951 184 0
-3952 -63 0
-3952 182 0
-198 3950 3951 3952 0
-3953 -18 0
-3953 353 0
-3954 -66 0
-3954 189 0
-3955 -68 0
-3955 187 0
-198 3953 3954 3955 0
-3956 -19 0
-3956 359 0
-3957 -70 0
-3957 193 0
-3958 -72 0
-3958 191 0
-198 3956 3957 3958 0
-3959 -20 0
-3959 362 0
-3960 -73 0
-3960 196 0
-3961 -75 0
-3961 194 0
-198 3959 3960 3961 0
-3962 -22 0
-3962 364 0
-3963 -76 0
-3963 199 0
-3964 -78 0
-3964 197 0
-198 3962 3963 3964 0
-3965 -1 0
-3965 144 0
-3966 -11 0
-3966 89 0
-3967 -12 0
-3967 88 0
-199 3965 3966 3967 0
-3968 -13 0
-3968 244 0
-3969 -32 0
-3969 154 0
-3970 -33 0
-3970 153 0
-199 3968 3969 3970 0
-3971 -14 0
-3971 280 0
-3972 -41 0
-3972 163 0
-3973 -42 0
-3973 162 0
-199 3971 3972 3973 0
-3974 -15 0
-3974 308 0
-3975 -49 0
-3975 171 0
-3976 -50 0
-3976 170 0
-199 3974 3975 3976 0
-3977 -16 0
-3977 329 0
-3978 -56 0
-3978 178 0
-3979 -57 0
-3979 177 0
-199 3977 3978 3979 0
-3980 -17 0
-3980 344 0
-3981 -62 0
-3981 184 0
-3982 -63 0
-3982 183 0
-199 3980 3981 3982 0
-3983 -18 0
-3983 354 0
-3984 -67 0
-3984 189 0
-3985 -68 0
-3985 188 0
-199 3983 3984 3985 0
-3986 -19 0
-3986 360 0
-3987 -71 0
-3987 193 0
-3988 -72 0
-3988 192 0
-199 3986 3987 3988 0
-3989 -20 0
-3989 363 0
-3990 -74 0
-3990 196 0
-3991 -75 0
-3991 195 0
-199 3989 3990 3991 0
-3992 -21 0
-3992 364 0
-3993 -76 0
-3993 198 0
-3994 -77 0
-3994 197 0
-199 3992 3993 3994 0
-3995 -2 0
-3995 100 0
-3996 -3 0
-3996 91 0
-3997 -4 0
-3997 90 0
-200 3995 3996 3997 0
-3998 -13 0
-3998 155 0
-3999 -14 0
-3999 146 0
-4000 -15 0
-4000 145 0
-200 3998 3999 4000 0
-4001 -26 0
-4001 245 0
-4002 -35 0
-4002 209 0
-4003 -43 0
-4003 201 0
-200 4001 4002 4003 0
-4004 -27 0
-4004 246 0
-4005 -36 0
-4005 210 0
-4006 -44 0
-4006 202 0
-200 4004 4005 4006 0
-4007 -28 0
-4007 247 0
-4008 -37 0
-4008 211 0
-4009 -45 0
-4009 203 0
-200 4007 4008 4009 0
-4010 -29 0
-4010 248 0
-4011 -38 0
-4011 212 0
-4012 -46 0
-4012 204 0
-200 4010 4011 4012 0
-4013 -30 0
-4013 249 0
-4014 -39 0
-4014 213 0
-4015 -47 0
-4015 205 0
-200 4013 4014 4015 0
-4016 -31 0
-4016 250 0
-4017 -40 0
-4017 214 0
-4018 -48 0
-4018 206 0
-200 4016 4017 4018 0
-4019 -32 0
-4019 251 0
-4020 -41 0
-4020 215 0
-4021 -49 0
-4021 207 0
-200 4019 4020 4021 0
-4022 -33 0
-4022 252 0
-4023 -42 0
-4023 216 0
-4024 -50 0
-4024 208 0
-200 4022 4023 4024 0
-4025 -2 0
-4025 101 0
-4026 -3 0
-4026 92 0
-4027 -5 0
-4027 90 0
-201 4025 4026 4027 0
-4028 -13 0
-4028 156 0
-4029 -14 0
-4029 147 0
-4030 -16 0
-4030 145 0
-201 4028 4029 4030 0
-4031 -25 0
-4031 245 0
-4032 -34 0
-4032 209 0
-4033 -43 0
-4033 200 0
-201 4031 4032 4033 0
-4034 -27 0
-4034 253 0
-4035 -36 0
-4035 217 0
-4036 -51 0
-4036 202 0
-201 4034 4035 4036 0
-4037 -28 0
-4037 254 0
-4038 -37 0
-4038 218 0
-4039 -52 0
-4039 203 0
-201 4037 4038 4039 0
-4040 -29 0
-4040 255 0
-4041 -38 0
-4041 219 0
-4042 -53 0
-4042 204 0
-201 4040 4041 4042 0
-4043 -30 0
-4043 256 0
-4044 -39 0
-4044 220 0
-4045 -54 0
-4045 205 0
-201 4043 4044 4045 0
-4046 -31 0
-4046 257 0
-4047 -40 0
-4047 221 0
-4048 -55 0
-4048 206 0
-201 4046 4047 4048 0
-4049 -32 0
-4049 258 0
-4050 -41 0
-4050 222 0
-4051 -56 0
-4051 207 0
-201 4049 4050 4051 0
-4052 -33 0
-4052 259 0
-4053 -42 0
-4053 223 0
-4054 -57 0
-4054 208 0
-201 4052 4053 4054 0
-4055 -2 0
-4055 102 0
-4056 -3 0
-4056 93 0
-4057 -6 0
-4057 90 0
-202 4055 4056 4057 0
-4058 -13 0
-4058 157 0
-4059 -14 0
-4059 148 0
-4060 -17 0
-4060 145 0
-202 4058 4059 4060 0
-4061 -25 0
-4061 246 0
-4062 -34 0
-4062 210 0
-4063 -44 0
-4063 200 0
-202 4061 4062 4063 0
-4064 -26 0
-4064 253 0
-4065 -35 0
-4065 217 0
-4066 -51 0
-4066 201 0
-202 4064 4065 4066 0
-4067 -28 0
-4067 260 0
-4068 -37 0
-4068 224 0
-4069 -58 0
-4069 203 0
-202 4067 4068 4069 0
-4070 -29 0
-4070 261 0
-4071 -38 0
-4071 225 0
-4072 -59 0
-4072 204 0
-202 4070 4071 4072 0
-4073 -30 0
-4073 262 0
-4074 -39 0
-4074 226 0
-4075 -60 0
-4075 205 0
-202 4073 4074 4075 0
-4076 -31 0
-4076 263 0
-4077 -40 0
-4077 227 0
-4078 -61 0
-4078 206 0
-202 4076 4077 4078 0
-4079 -32 0
-4079 264 0
-4080 -41 0
-4080 228 0
-4081 -62 0
-4081 207 0
-202 4079 4080 4081 0
-4082 -33 0
-4082 265 0
-4083 -42 0
-4083 229 0
-4084 -63 0
-4084 208 0
-202 4082 4083 4084 0
-4085 -2 0
-4085 103 0
-4086 -3 0
-4086 94 0
-4087 -7 0
-4087 90 0
-203 4085 4086 4087 0
-4088 -13 0
-4088 158 0
-4089 -14 0
-4089 149 0
-4090 -18 0
-4090 145 0
-203 4088 4089 4090 0
-4091 -25 0
-4091 247 0
-4092 -34 0
-4092 211 0
-4093 -45 0
-4093 200 0
-203 4091 4092 4093 0
-4094 -26 0
-4094 254 0
-4095 -35 0
-4095 218 0
-4096 -52 0
-4096 201 0
-203 4094 4095 4096 0
-4097 -27 0
-4097 260 0
-4098 -36 0
-4098 224 0
-4099 -58 0
-4099 202 0
-203 4097 4098 4099 0
-4100 -29 0
-4100 266 0
-4101 -38 0
-4101 230 0
-4102 -64 0
-4102 204 0
-203 4100 4101 4102 0
-4103 -30 0
-4103 267 0
-4104 -39 0
-4104 231 0
-4105 -65 0
-4105 205 0
-203 4103 4104 4105 0
-4106 -31 0
-4106 268 0
-4107 -40 0
-4107 232 0
-4108 -66 0
-4108 206 0
-203 4106 4107 4108 0
-4109 -32 0
-4109 269 0
-4110 -41 0
-4110 233 0
-4111 -67 0
-4111 207 0
-203 4109 4110 4111 0
-4112 -33 0
-4112 270 0
-4113 -42 0
-4113 234 0
-4114 -68 0
-4114 208 0
-203 4112 4113 4114 0
-4115 -2 0
-4115 104 0
-4116 -3 0
-4116 95 0
-4117 -8 0
-4117 90 0
-204 4115 4116 4117 0
-4118 -13 0
-4118 159 0
-4119 -14 0
-4119 150 0
-4120 -19 0
-4120 145 0
-204 4118 4119 4120 0
-4121 -25 0
-4121 248 0
-4122 -34 0
-4122 212 0
-4123 -46 0
-4123 200 0
-204 4121 4122 4123 0
-4124 -26 0
-4124 255 0
-4125 -35 0
-4125 219 0
-4126 -53 0
-4126 201 0
-204 4124 4125 4126 0
-4127 -27 0
-4127 261 0
-4128 -36 0
-4128 225 0
-4129 -59 0
-4129 202 0
-204 4127 4128 4129 0
-4130 -28 0
-4130 266 0
-4131 -37 0
-4131 230 0
-4132 -64 0
-4132 203 0
-204 4130 4131 4132 0
-4133 -30 0
-4133 271 0
-4134 -39 0
-4134 235 0
-4135 -69 0
-4135 205 0
-204 4133 4134 4135 0
-4136 -31 0
-4136 272 0
-4137 -40 0
-4137 236 0
-4138 -70 0
-4138 206 0
-204 4136 4137 4138 0
-4139 -32 0
-4139 273 0
-4140 -41 0
-4140 237 0
-4141 -71 0
-4141 207 0
-204 4139 4140 4141 0
-4142 -33 0
-4142 274 0
-4143 -42 0
-4143 238 0
-4144 -72 0
-4144 208 0
-204 4142 4143 4144 0
-4145 -2 0
-4145 105 0
-4146 -3 0
-4146 96 0
-4147 -9 0
-4147 90 0
-205 4145 4146 4147 0
-4148 -13 0
-4148 160 0
-4149 -14 0
-4149 151 0
-4150 -20 0
-4150 145 0
-205 4148 4149 4150 0
-4151 -25 0
-4151 249 0
-4152 -34 0
-4152 213 0
-4153 -47 0
-4153 200 0
-205 4151 4152 4153 0
-4154 -26 0
-4154 256 0
-4155 -35 0
-4155 220 0
-4156 -54 0
-4156 201 0
-205 4154 4155 4156 0
-4157 -27 0
-4157 262 0
-4158 -36 0
-4158 226 0
-4159 -60 0
-4159 202 0
-205 4157 4158 4159 0
-4160 -28 0
-4160 267 0
-4161 -37 0
-4161 231 0
-4162 -65 0
-4162 203 0
-205 4160 4161 4162 0
-4163 -29 0
-4163 271 0
-4164 -38 0
-4164 235 0
-4165 -69 0
-4165 204 0
-205 4163 4164 4165 0
-4166 -31 0
-4166 275 0
-4167 -40 0
-4167 239 0
-4168 -73 0
-4168 206 0
-205 4166 4167 4168 0
-4169 -32 0
-4169 276 0
-4170 -41 0
-4170 240 0
-4171 -74 0
-4171 207 0
-205 4169 4170 4171 0
-4172 -33 0
-4172 277 0
-4173 -42 0
-4173 241 0
-4174 -75 0
-4174 208 0
-205 4172 4173 4174 0
-4175 -2 0
-4175 106 0
-4176 -3 0
-4176 97 0
-4177 -10 0
-4177 90 0
-206 4175 4176 4177 0
-4178 -13 0
-4178 161 0
-4179 -14 0
-4179 152 0
-4180 -21 0
-4180 145 0
-206 4178 4179 4180 0
-4181 -25 0
-4181 250 0
-4182 -34 0
-4182 214 0
-4183 -48 0
-4183 200 0
-206 4181 4182 4183 0
-4184 -26 0
-4184 257 0
-4185 -35 0
-4185 221 0
-4186 -55 0
-4186 201 0
-206 4184 4185 4186 0
-4187 -27 0
-4187 263 0
-4188 -36 0
-4188 227 0
-4189 -61 0
-4189 202 0
-206 4187 4188 4189 0
-4190 -28 0
-4190 268 0
-4191 -37 0
-4191 232 0
-4192 -66 0
-4192 203 0
-206 4190 4191 4192 0
-4193 -29 0
-4193 272 0
-4194 -38 0
-4194 236 0
-4195 -70 0
-4195 204 0
-206 4193 4194 4195 0
-4196 -30 0
-4196 275 0
-4197 -39 0
-4197 239 0
-4198 -73 0
-4198 205 0
-206 4196 4197 4198 0
-4199 -32 0
-4199 278 0
-4200 -41 0
-4200 242 0
-4201 -76 0
-4201 207 0
-206 4199 4200 4201 0
-4202 -33 0
-4202 279 0
-4203 -42 0
-4203 243 0
-4204 -77 0
-4204 208 0
-206 4202 4203 4204 0
-4205 -2 0
-4205 107 0
-4206 -3 0
-4206 98 0
-4207 -11 0
-4207 90 0
-207 4205 4206 4207 0
-4208 -13 0
-4208 162 0
-4209 -14 0
-4209 153 0
-4210 -22 0
-4210 145 0
-207 4208 4209 4210 0
-4211 -25 0
-4211 251 0
-4212 -34 0
-4212 215 0
-4213 -49 0
-4213 200 0
-207 4211 4212 4213 0
-4214 -26 0
-4214 258 0
-4215 -35 0
-4215 222 0
-4216 -56 0
-4216 201 0
-207 4214 4215 4216 0
-4217 -27 0
-4217 264 0
-4218 -36 0
-4218 228 0
-4219 -62 0
-4219 202 0
-207 4217 4218 4219 0
-4220 -28 0
-4220 269 0
-4221 -37 0
-4221 233 0
-4222 -67 0
-4222 203 0
-207 4220 4221 4222 0
-4223 -29 0
-4223 273 0
-4224 -38 0
-4224 237 0
-4225 -71 0
-4225 204 0
-207 4223 4224 4225 0
-4226 -30 0
-4226 276 0
-4227 -39 0
-4227 240 0
-4228 -74 0
-4228 205 0
-207 4226 4227 4228 0
-4229 -31 0
-4229 278 0
-4230 -40 0
-4230 242 0
-4231 -76 0
-4231 206 0
-207 4229 4230 4231 0
-4232 -33 0
-4232 280 0
-4233 -42 0
-4233 244 0
-4234 -78 0
-4234 208 0
-207 4232 4233 4234 0
-4235 -2 0
-4235 108 0
-4236 -3 0
-4236 99 0
-4237 -12 0
-4237 90 0
-208 4235 4236 4237 0
-4238 -13 0
-4238 163 0
-4239 -14 0
-4239 154 0
-4240 -23 0
-4240 145 0
-208 4238 4239 4240 0
-4241 -25 0
-4241 252 0
-4242 -34 0
-4242 216 0
-4243 -50 0
-4243 200 0
-208 4241 4242 4243 0
-4244 -26 0
-4244 259 0
-4245 -35 0
-4245 223 0
-4246 -57 0
-4246 201 0
-208 4244 4245 4246 0
-4247 -27 0
-4247 265 0
-4248 -36 0
-4248 229 0
-4249 -63 0
-4249 202 0
-208 4247 4248 4249 0
-4250 -28 0
-4250 270 0
-4251 -37 0
-4251 234 0
-4252 -68 0
-4252 203 0
-208 4250 4251 4252 0
-4253 -29 0
-4253 274 0
-4254 -38 0
-4254 238 0
-4255 -72 0
-4255 204 0
-208 4253 4254 4255 0
-4256 -30 0
-4256 277 0
-4257 -39 0
-4257 241 0
-4258 -75 0
-4258 205 0
-208 4256 4257 4258 0
-4259 -31 0
-4259 279 0
-4260 -40 0
-4260 243 0
-4261 -77 0
-4261 206 0
-208 4259 4260 4261 0
-4262 -32 0
-4262 280 0
-4263 -41 0
-4263 244 0
-4264 -78 0
-4264 207 0
-208 4262 4263 4264 0
-4265 -2 0
-4265 109 0
-4266 -4 0
-4266 92 0
-4267 -5 0
-4267 91 0
-209 4265 4266 4267 0
-4268 -13 0
-4268 164 0
-4269 -15 0
-4269 147 0
-4270 -16 0
-4270 146 0
-209 4268 4269 4270 0
-4271 -24 0
-4271 245 0
-4272 -34 0
-4272 201 0
-4273 -35 0
-4273 200 0
-209 4271 4272 4273 0
-4274 -27 0
-4274 281 0
-4275 -44 0
-4275 217 0
-4276 -51 0
-4276 210 0
-209 4274 4275 4276 0
-4277 -28 0
-4277 282 0
-4278 -45 0
-4278 218 0
-4279 -52 0
-4279 211 0
-209 4277 4278 4279 0
-4280 -29 0
-4280 283 0
-4281 -46 0
-4281 219 0
-4282 -53 0
-4282 212 0
-209 4280 4281 4282 0
-4283 -30 0
-4283 284 0
-4284 -47 0
-4284 220 0
-4285 -54 0
-4285 213 0
-209 4283 4284 4285 0
-4286 -31 0
-4286 285 0
-4287 -48 0
-4287 221 0
-4288 -55 0
-4288 214 0
-209 4286 4287 4288 0
-4289 -32 0
-4289 286 0
-4290 -49 0
-4290 222 0
-4291 -56 0
-4291 215 0
-209 4289 4290 4291 0
-4292 -33 0
-4292 287 0
-4293 -50 0
-4293 223 0
-4294 -57 0
-4294 216 0
-209 4292 4293 4294 0
-4295 -2 0
-4295 110 0
-4296 -4 0
-4296 93 0
-4297 -6 0
-4297 91 0
-210 4295 4296 4297 0
-4298 -13 0
-4298 165 0
-4299 -15 0
-4299 148 0
-4300 -17 0
-4300 146 0
-210 4298 4299 4300 0
-4301 -24 0
-4301 246 0
-4302 -34 0
-4302 202 0
-4303 -36 0
-4303 200 0
-210 4301 4302 4303 0
-4304 -26 0
-4304 281 0
-4305 -43 0
-4305 217 0
-4306 -51 0
-4306 209 0
-210 4304 4305 4306 0
-4307 -28 0
-4307 288 0
-4308 -45 0
-4308 224 0
-4309 -58 0
-4309 211 0
-210 4307 4308 4309 0
-4310 -29 0
-4310 289 0
-4311 -46 0
-4311 225 0
-4312 -59 0
-4312 212 0
-210 4310 4311 4312 0
-4313 -30 0
-4313 290 0
-4314 -47 0
-4314 226 0
-4315 -60 0
-4315 213 0
-210 4313 4314 4315 0
-4316 -31 0
-4316 291 0
-4317 -48 0
-4317 227 0
-4318 -61 0
-4318 214 0
-210 4316 4317 4318 0
-4319 -32 0
-4319 292 0
-4320 -49 0
-4320 228 0
-4321 -62 0
-4321 215 0
-210 4319 4320 4321 0
-4322 -33 0
-4322 293 0
-4323 -50 0
-4323 229 0
-4324 -63 0
-4324 216 0
-210 4322 4323 4324 0
-4325 -2 0
-4325 111 0
-4326 -4 0
-4326 94 0
-4327 -7 0
-4327 91 0
-211 4325 4326 4327 0
-4328 -13 0
-4328 166 0
-4329 -15 0
-4329 149 0
-4330 -18 0
-4330 146 0
-211 4328 4329 4330 0
-4331 -24 0
-4331 247 0
-4332 -34 0
-4332 203 0
-4333 -37 0
-4333 200 0
-211 4331 4332 4333 0
-4334 -26 0
-4334 282 0
-4335 -43 0
-4335 218 0
-4336 -52 0
-4336 209 0
-211 4334 4335 4336 0
-4337 -27 0
-4337 288 0
-4338 -44 0
-4338 224 0
-4339 -58 0
-4339 210 0
-211 4337 4338 4339 0
-4340 -29 0
-4340 294 0
-4341 -46 0
-4341 230 0
-4342 -64 0
-4342 212 0
-211 4340 4341 4342 0
-4343 -30 0
-4343 295 0
-4344 -47 0
-4344 231 0
-4345 -65 0
-4345 213 0
-211 4343 4344 4345 0
-4346 -31 0
-4346 296 0
-4347 -48 0
-4347 232 0
-4348 -66 0
-4348 214 0
-211 4346 4347 4348 0
-4349 -32 0
-4349 297 0
-4350 -49 0
-4350 233 0
-4351 -67 0
-4351 215 0
-211 4349 4350 4351 0
-4352 -33 0
-4352 298 0
-4353 -50 0
-4353 234 0
-4354 -68 0
-4354 216 0
-211 4352 4353 4354 0
-4355 -2 0
-4355 112 0
-4356 -4 0
-4356 95 0
-4357 -8 0
-4357 91 0
-212 4355 4356 4357 0
-4358 -13 0
-4358 167 0
-4359 -15 0
-4359 150 0
-4360 -19 0
-4360 146 0
-212 4358 4359 4360 0
-4361 -24 0
-4361 248 0
-4362 -34 0
-4362 204 0
-4363 -38 0
-4363 200 0
-212 4361 4362 4363 0
-4364 -26 0
-4364 283 0
-4365 -43 0
-4365 219 0
-4366 -53 0
-4366 209 0
-212 4364 4365 4366 0
-4367 -27 0
-4367 289 0
-4368 -44 0
-4368 225 0
-4369 -59 0
-4369 210 0
-212 4367 4368 4369 0
-4370 -28 0
-4370 294 0
-4371 -45 0
-4371 230 0
-4372 -64 0
-4372 211 0
-212 4370 4371 4372 0
-4373 -30 0
-4373 299 0
-4374 -47 0
-4374 235 0
-4375 -69 0
-4375 213 0
-212 4373 4374 4375 0
-4376 -31 0
-4376 300 0
-4377 -48 0
-4377 236 0
-4378 -70 0
-4378 214 0
-212 4376 4377 4378 0
-4379 -32 0
-4379 301 0
-4380 -49 0
-4380 237 0
-4381 -71 0
-4381 215 0
-212 4379 4380 4381 0
-4382 -33 0
-4382 302 0
-4383 -50 0
-4383 238 0
-4384 -72 0
-4384 216 0
-212 4382 4383 4384 0
-4385 -2 0
-4385 113 0
-4386 -4 0
-4386 96 0
-4387 -9 0
-4387 91 0
-213 4385 4386 4387 0
-4388 -13 0
-4388 168 0
-4389 -15 0
-4389 151 0
-4390 -20 0
-4390 146 0
-213 4388 4389 4390 0
-4391 -24 0
-4391 249 0
-4392 -34 0
-4392 205 0
-4393 -39 0
-4393 200 0
-213 4391 4392 4393 0
-4394 -26 0
-4394 284 0
-4395 -43 0
-4395 220 0
-4396 -54 0
-4396 209 0
-213 4394 4395 4396 0
-4397 -27 0
-4397 290 0
-4398 -44 0
-4398 226 0
-4399 -60 0
-4399 210 0
-213 4397 4398 4399 0
-4400 -28 0
-4400 295 0
-4401 -45 0
-4401 231 0
-4402 -65 0
-4402 211 0
-213 4400 4401 4402 0
-4403 -29 0
-4403 299 0
-4404 -46 0
-4404 235 0
-4405 -69 0
-4405 212 0
-213 4403 4404 4405 0
-4406 -31 0
-4406 303 0
-4407 -48 0
-4407 239 0
-4408 -73 0
-4408 214 0
-213 4406 4407 4408 0
-4409 -32 0
-4409 304 0
-4410 -49 0
-4410 240 0
-4411 -74 0
-4411 215 0
-213 4409 4410 4411 0
-4412 -33 0
-4412 305 0
-4413 -50 0
-4413 241 0
-4414 -75 0
-4414 216 0
-213 4412 4413 4414 0
-4415 -2 0
-4415 114 0
-4416 -4 0
-4416 97 0
-4417 -10 0
-4417 91 0
-214 4415 4416 4417 0
-4418 -13 0
-4418 169 0
-4419 -15 0
-4419 152 0
-4420 -21 0
-4420 146 0
-214 4418 4419 4420 0
-4421 -24 0
-4421 250 0
-4422 -34 0
-4422 206 0
-4423 -40 0
-4423 200 0
-214 4421 4422 4423 0
-4424 -26 0
-4424 285 0
-4425 -43 0
-4425 221 0
-4426 -55 0
-4426 209 0
-214 4424 4425 4426 0
-4427 -27 0
-4427 291 0
-4428 -44 0
-4428 227 0
-4429 -61 0
-4429 210 0
-214 4427 4428 4429 0
-4430 -28 0
-4430 296 0
-4431 -45 0
-4431 232 0
-4432 -66 0
-4432 211 0
-214 4430 4431 4432 0
-4433 -29 0
-4433 300 0
-4434 -46 0
-4434 236 0
-4435 -70 0
-4435 212 0
-214 4433 4434 4435 0
-4436 -30 0
-4436 303 0
-4437 -47 0
-4437 239 0
-4438 -73 0
-4438 213 0
-214 4436 4437 4438 0
-4439 -32 0
-4439 306 0
-4440 -49 0
-4440 242 0
-4441 -76 0
-4441 215 0
-214 4439 4440 4441 0
-4442 -33 0
-4442 307 0
-4443 -50 0
-4443 243 0
-4444 -77 0
-4444 216 0
-214 4442 4443 4444 0
-4445 -2 0
-4445 115 0
-4446 -4 0
-4446 98 0
-4447 -11 0
-4447 91 0
-215 4445 4446 4447 0
-4448 -13 0
-4448 170 0
-4449 -15 0
-4449 153 0
-4450 -22 0
-4450 146 0
-215 4448 4449 4450 0
-4451 -24 0
-4451 251 0
-4452 -34 0
-4452 207 0
-4453 -41 0
-4453 200 0
-215 4451 4452 4453 0
-4454 -26 0
-4454 286 0
-4455 -43 0
-4455 222 0
-4456 -56 0
-4456 209 0
-215 4454 4455 4456 0
-4457 -27 0
-4457 292 0
-4458 -44 0
-4458 228 0
-4459 -62 0
-4459 210 0
-215 4457 4458 4459 0
-4460 -28 0
-4460 297 0
-4461 -45 0
-4461 233 0
-4462 -67 0
-4462 211 0
-215 4460 4461 4462 0
-4463 -29 0
-4463 301 0
-4464 -46 0
-4464 237 0
-4465 -71 0
-4465 212 0
-215 4463 4464 4465 0
-4466 -30 0
-4466 304 0
-4467 -47 0
-4467 240 0
-4468 -74 0
-4468 213 0
-215 4466 4467 4468 0
-4469 -31 0
-4469 306 0
-4470 -48 0
-4470 242 0
-4471 -76 0
-4471 214 0
-215 4469 4470 4471 0
-4472 -33 0
-4472 308 0
-4473 -50 0
-4473 244 0
-4474 -78 0
-4474 216 0
-215 4472 4473 4474 0
-4475 -2 0
-4475 116 0
-4476 -4 0
-4476 99 0
-4477 -12 0
-4477 91 0
-216 4475 4476 4477 0
-4478 -13 0
-4478 171 0
-4479 -15 0
-4479 154 0
-4480 -23 0
-4480 146 0
-216 4478 4479 4480 0
-4481 -24 0
-4481 252 0
-4482 -34 0
-4482 208 0
-4483 -42 0
-4483 200 0
-216 4481 4482 4483 0
-4484 -26 0
-4484 287 0
-4485 -43 0
-4485 223 0
-4486 -57 0
-4486 209 0
-216 4484 4485 4486 0
-4487 -27 0
-4487 293 0
-4488 -44 0
-4488 229 0
-4489 -63 0
-4489 210 0
-216 4487 4488 4489 0
-4490 -28 0
-4490 298 0
-4491 -45 0
-4491 234 0
-4492 -68 0
-4492 211 0
-216 4490 4491 4492 0
-4493 -29 0
-4493 302 0
-4494 -46 0
-4494 238 0
-4495 -72 0
-4495 212 0
-216 4493 4494 4495 0
-4496 -30 0
-4496 305 0
-4497 -47 0
-4497 241 0
-4498 -75 0
-4498 213 0
-216 4496 4497 4498 0
-4499 -31 0
-4499 307 0
-4500 -48 0
-4500 243 0
-4501 -77 0
-4501 214 0
-216 4499 4500 4501 0
-4502 -32 0
-4502 308 0
-4503 -49 0
-4503 244 0
-4504 -78 0
-4504 215 0
-216 4502 4503 4504 0
-4505 -2 0
-4505 117 0
-4506 -5 0
-4506 93 0
-4507 -6 0
-4507 92 0
-217 4505 4506 4507 0
-4508 -13 0
-4508 172 0
-4509 -16 0
-4509 148 0
-4510 -17 0
-4510 147 0
-217 4508 4509 4510 0
-4511 -24 0
-4511 253 0
-4512 -35 0
-4512 202 0
-4513 -36 0
-4513 201 0
-217 4511 4512 4513 0
-4514 -25 0
-4514 281 0
-4515 -43 0
-4515 210 0
-4516 -44 0
-4516 209 0
-217 4514 4515 4516 0
-4517 -28 0
-4517 309 0
-4518 -52 0
-4518 224 0
-4519 -58 0
-4519 218 0
-217 4517 4518 4519 0
-4520 -29 0
-4520 310 0
-4521 -53 0
-4521 225 0
-4522 -59 0
-4522 219 0
-217 4520 4521 4522 0
-4523 -30 0
-4523 311 0
-4524 -54 0
-4524 226 0
-4525 -60 0
-4525 220 0
-217 4523 4524 4525 0
-4526 -31 0
-4526 312 0
-4527 -55 0
-4527 227 0
-4528 -61 0
-4528 221 0
-217 4526 4527 4528 0
-4529 -32 0
-4529 313 0
-4530 -56 0
-4530 228 0
-4531 -62 0
-4531 222 0
-217 4529 4530 4531 0
-4532 -33 0
-4532 314 0
-4533 -57 0
-4533 229 0
-4534 -63 0
-4534 223 0
-217 4532 4533 4534 0
-4535 -2 0
-4535 118 0
-4536 -5 0
-4536 94 0
-4537 -7 0
-4537 92 0
-218 4535 4536 4537 0
-4538 -13 0
-4538 173 0
-4539 -16 0
-4539 149 0
-4540 -18 0
-4540 147 0
-218 4538 4539 4540 0
-4541 -24 0
-4541 254 0
-4542 -35 0
-4542 203 0
-4543 -37 0
-4543 201 0
-218 4541 4542 4543 0
-4544 -25 0
-4544 282 0
-4545 -43 0
-4545 211 0
-4546 -45 0
-4546 209 0
-218 4544 4545 4546 0
-4547 -27 0
-4547 309 0
-4548 -51 0
-4548 224 0
-4549 -58 0
-4549 217 0
-218 4547 4548 4549 0
-4550 -29 0
-4550 315 0
-4551 -53 0
-4551 230 0
-4552 -64 0
-4552 219 0
-218 4550 4551 4552 0
-4553 -30 0
-4553 316 0
-4554 -54 0
-4554 231 0
-4555 -65 0
-4555 220 0
-218 4553 4554 4555 0
-4556 -31 0
-4556 317 0
-4557 -55 0
-4557 232 0
-4558 -66 0
-4558 221 0
-218 4556 4557 4558 0
-4559 -32 0
-4559 318 0
-4560 -56 0
-4560 233 0
-4561 -67 0
-4561 222 0
-218 4559 4560 4561 0
-4562 -33 0
-4562 319 0
-4563 -57 0
-4563 234 0
-4564 -68 0
-4564 223 0
-218 4562 4563 4564 0
-4565 -2 0
-4565 119 0
-4566 -5 0
-4566 95 0
-4567 -8 0
-4567 92 0
-219 4565 4566 4567 0
-4568 -13 0
-4568 174 0
-4569 -16 0
-4569 150 0
-4570 -19 0
-4570 147 0
-219 4568 4569 4570 0
-4571 -24 0
-4571 255 0
-4572 -35 0
-4572 204 0
-4573 -38 0
-4573 201 0
-219 4571 4572 4573 0
-4574 -25 0
-4574 283 0
-4575 -43 0
-4575 212 0
-4576 -46 0
-4576 209 0
-219 4574 4575 4576 0
-4577 -27 0
-4577 310 0
-4578 -51 0
-4578 225 0
-4579 -59 0
-4579 217 0
-219 4577 4578 4579 0
-4580 -28 0
-4580 315 0
-4581 -52 0
-4581 230 0
-4582 -64 0
-4582 218 0
-219 4580 4581 4582 0
-4583 -30 0
-4583 320 0
-4584 -54 0
-4584 235 0
-4585 -69 0
-4585 220 0
-219 4583 4584 4585 0
-4586 -31 0
-4586 321 0
-4587 -55 0
-4587 236 0
-4588 -70 0
-4588 221 0
-219 4586 4587 4588 0
-4589 -32 0
-4589 322 0
-4590 -56 0
-4590 237 0
-4591 -71 0
-4591 222 0
-219 4589 4590 4591 0
-4592 -33 0
-4592 323 0
-4593 -57 0
-4593 238 0
-4594 -72 0
-4594 223 0
-219 4592 4593 4594 0
-4595 -2 0
-4595 120 0
-4596 -5 0
-4596 96 0
-4597 -9 0
-4597 92 0
-220 4595 4596 4597 0
-4598 -13 0
-4598 175 0
-4599 -16 0
-4599 151 0
-4600 -20 0
-4600 147 0
-220 4598 4599 4600 0
-4601 -24 0
-4601 256 0
-4602 -35 0
-4602 205 0
-4603 -39 0
-4603 201 0
-220 4601 4602 4603 0
-4604 -25 0
-4604 284 0
-4605 -43 0
-4605 213 0
-4606 -47 0
-4606 209 0
-220 4604 4605 4606 0
-4607 -27 0
-4607 311 0
-4608 -51 0
-4608 226 0
-4609 -60 0
-4609 217 0
-220 4607 4608 4609 0
-4610 -28 0
-4610 316 0
-4611 -52 0
-4611 231 0
-4612 -65 0
-4612 218 0
-220 4610 4611 4612 0
-4613 -29 0
-4613 320 0
-4614 -53 0
-4614 235 0
-4615 -69 0
-4615 219 0
-220 4613 4614 4615 0
-4616 -31 0
-4616 324 0
-4617 -55 0
-4617 239 0
-4618 -73 0
-4618 221 0
-220 4616 4617 4618 0
-4619 -32 0
-4619 325 0
-4620 -56 0
-4620 240 0
-4621 -74 0
-4621 222 0
-220 4619 4620 4621 0
-4622 -33 0
-4622 326 0
-4623 -57 0
-4623 241 0
-4624 -75 0
-4624 223 0
-220 4622 4623 4624 0
-4625 -2 0
-4625 121 0
-4626 -5 0
-4626 97 0
-4627 -10 0
-4627 92 0
-221 4625 4626 4627 0
-4628 -13 0
-4628 176 0
-4629 -16 0
-4629 152 0
-4630 -21 0
-4630 147 0
-221 4628 4629 4630 0
-4631 -24 0
-4631 257 0
-4632 -35 0
-4632 206 0
-4633 -40 0
-4633 201 0
-221 4631 4632 4633 0
-4634 -25 0
-4634 285 0
-4635 -43 0
-4635 214 0
-4636 -48 0
-4636 209 0
-221 4634 4635 4636 0
-4637 -27 0
-4637 312 0
-4638 -51 0
-4638 227 0
-4639 -61 0
-4639 217 0
-221 4637 4638 4639 0
-4640 -28 0
-4640 317 0
-4641 -52 0
-4641 232 0
-4642 -66 0
-4642 218 0
-221 4640 4641 4642 0
-4643 -29 0
-4643 321 0
-4644 -53 0
-4644 236 0
-4645 -70 0
-4645 219 0
-221 4643 4644 4645 0
-4646 -30 0
-4646 324 0
-4647 -54 0
-4647 239 0
-4648 -73 0
-4648 220 0
-221 4646 4647 4648 0
-4649 -32 0
-4649 327 0
-4650 -56 0
-4650 242 0
-4651 -76 0
-4651 222 0
-221 4649 4650 4651 0
-4652 -33 0
-4652 328 0
-4653 -57 0
-4653 243 0
-4654 -77 0
-4654 223 0
-221 4652 4653 4654 0
-4655 -2 0
-4655 122 0
-4656 -5 0
-4656 98 0
-4657 -11 0
-4657 92 0
-222 4655 4656 4657 0
-4658 -13 0
-4658 177 0
-4659 -16 0
-4659 153 0
-4660 -22 0
-4660 147 0
-222 4658 4659 4660 0
-4661 -24 0
-4661 258 0
-4662 -35 0
-4662 207 0
-4663 -41 0
-4663 201 0
-222 4661 4662 4663 0
-4664 -25 0
-4664 286 0
-4665 -43 0
-4665 215 0
-4666 -49 0
-4666 209 0
-222 4664 4665 4666 0
-4667 -27 0
-4667 313 0
-4668 -51 0
-4668 228 0
-4669 -62 0
-4669 217 0
-222 4667 4668 4669 0
-4670 -28 0
-4670 318 0
-4671 -52 0
-4671 233 0
-4672 -67 0
-4672 218 0
-222 4670 4671 4672 0
-4673 -29 0
-4673 322 0
-4674 -53 0
-4674 237 0
-4675 -71 0
-4675 219 0
-222 4673 4674 4675 0
-4676 -30 0
-4676 325 0
-4677 -54 0
-4677 240 0
-4678 -74 0
-4678 220 0
-222 4676 4677 4678 0
-4679 -31 0
-4679 327 0
-4680 -55 0
-4680 242 0
-4681 -76 0
-4681 221 0
-222 4679 4680 4681 0
-4682 -33 0
-4682 329 0
-4683 -57 0
-4683 244 0
-4684 -78 0
-4684 223 0
-222 4682 4683 4684 0
-4685 -2 0
-4685 123 0
-4686 -5 0
-4686 99 0
-4687 -12 0
-4687 92 0
-223 4685 4686 4687 0
-4688 -13 0
-4688 178 0
-4689 -16 0
-4689 154 0
-4690 -23 0
-4690 147 0
-223 4688 4689 4690 0
-4691 -24 0
-4691 259 0
-4692 -35 0
-4692 208 0
-4693 -42 0
-4693 201 0
-223 4691 4692 4693 0
-4694 -25 0
-4694 287 0
-4695 -43 0
-4695 216 0
-4696 -50 0
-4696 209 0
-223 4694 4695 4696 0
-4697 -27 0
-4697 314 0
-4698 -51 0
-4698 229 0
-4699 -63 0
-4699 217 0
-223 4697 4698 4699 0
-4700 -28 0
-4700 319 0
-4701 -52 0
-4701 234 0
-4702 -68 0
-4702 218 0
-223 4700 4701 4702 0
-4703 -29 0
-4703 323 0
-4704 -53 0
-4704 238 0
-4705 -72 0
-4705 219 0
-223 4703 4704 4705 0
-4706 -30 0
-4706 326 0
-4707 -54 0
-4707 241 0
-4708 -75 0
-4708 220 0
-223 4706 4707 4708 0
-4709 -31 0
-4709 328 0
-4710 -55 0
-4710 243 0
-4711 -77 0
-4711 221 0
-223 4709 4710 4711 0
-4712 -32 0
-4712 329 0
-4713 -56 0
-4713 244 0
-4714 -78 0
-4714 222 0
-223 4712 4713 4714 0
-4715 -2 0
-4715 124 0
-4716 -6 0
-4716 94 0
-4717 -7 0
-4717 93 0
-224 4715 4716 4717 0
-4718 -13 0
-4718 179 0
-4719 -17 0
-4719 149 0
-4720 -18 0
-4720 148 0
-224 4718 4719 4720 0
-4721 -24 0
-4721 260 0
-4722 -36 0
-4722 203 0
-4723 -37 0
-4723 202 0
-224 4721 4722 4723 0
-4724 -25 0
-4724 288 0
-4725 -44 0
-4725 211 0
-4726 -45 0
-4726 210 0
-224 4724 4725 4726 0
-4727 -26 0
-4727 309 0
-4728 -51 0
-4728 218 0
-4729 -52 0
-4729 217 0
-224 4727 4728 4729 0
-4730 -29 0
-4730 330 0
-4731 -59 0
-4731 230 0
-4732 -64 0
-4732 225 0
-224 4730 4731 4732 0
-4733 -30 0
-4733 331 0
-4734 -60 0
-4734 231 0
-4735 -65 0
-4735 226 0
-224 4733 4734 4735 0
-4736 -31 0
-4736 332 0
-4737 -61 0
-4737 232 0
-4738 -66 0
-4738 227 0
-224 4736 4737 4738 0
-4739 -32 0
-4739 333 0
-4740 -62 0
-4740 233 0
-4741 -67 0
-4741 228 0
-224 4739 4740 4741 0
-4742 -33 0
-4742 334 0
-4743 -63 0
-4743 234 0
-4744 -68 0
-4744 229 0
-224 4742 4743 4744 0
-4745 -2 0
-4745 125 0
-4746 -6 0
-4746 95 0
-4747 -8 0
-4747 93 0
-225 4745 4746 4747 0
-4748 -13 0
-4748 180 0
-4749 -17 0
-4749 150 0
-4750 -19 0
-4750 148 0
-225 4748 4749 4750 0
-4751 -24 0
-4751 261 0
-4752 -36 0
-4752 204 0
-4753 -38 0
-4753 202 0
-225 4751 4752 4753 0
-4754 -25 0
-4754 289 0
-4755 -44 0
-4755 212 0
-4756 -46 0
-4756 210 0
-225 4754 4755 4756 0
-4757 -26 0
-4757 310 0
-4758 -51 0
-4758 219 0
-4759 -53 0
-4759 217 0
-225 4757 4758 4759 0
-4760 -28 0
-4760 330 0
-4761 -58 0
-4761 230 0
-4762 -64 0
-4762 224 0
-225 4760 4761 4762 0
-4763 -30 0
-4763 335 0
-4764 -60 0
-4764 235 0
-4765 -69 0
-4765 226 0
-225 4763 4764 4765 0
-4766 -31 0
-4766 336 0
-4767 -61 0
-4767 236 0
-4768 -70 0
-4768 227 0
-225 4766 4767 4768 0
-4769 -32 0
-4769 337 0
-4770 -62 0
-4770 237 0
-4771 -71 0
-4771 228 0
-225 4769 4770 4771 0
-4772 -33 0
-4772 338 0
-4773 -63 0
-4773 238 0
-4774 -72 0
-4774 229 0
-225 4772 4773 4774 0
-4775 -2 0
-4775 126 0
-4776 -6 0
-4776 96 0
-4777 -9 0
-4777 93 0
-226 4775 4776 4777 0
-4778 -13 0
-4778 181 0
-4779 -17 0
-4779 151 0
-4780 -20 0
-4780 148 0
-226 4778 4779 4780 0
-4781 -24 0
-4781 262 0
-4782 -36 0
-4782 205 0
-4783 -39 0
-4783 202 0
-226 4781 4782 4783 0
-4784 -25 0
-4784 290 0
-4785 -44 0
-4785 213 0
-4786 -47 0
-4786 210 0
-226 4784 4785 4786 0
-4787 -26 0
-4787 311 0
-4788 -51 0
-4788 220 0
-4789 -54 0
-4789 217 0
-226 4787 4788 4789 0
-4790 -28 0
-4790 331 0
-4791 -58 0
-4791 231 0
-4792 -65 0
-4792 224 0
-226 4790 4791 4792 0
-4793 -29 0
-4793 335 0
-4794 -59 0
-4794 235 0
-4795 -69 0
-4795 225 0
-226 4793 4794 4795 0
-4796 -31 0
-4796 339 0
-4797 -61 0
-4797 239 0
-4798 -73 0
-4798 227 0
-226 4796 4797 4798 0
-4799 -32 0
-4799 340 0
-4800 -62 0
-4800 240 0
-4801 -74 0
-4801 228 0
-226 4799 4800 4801 0
-4802 -33 0
-4802 341 0
-4803 -63 0
-4803 241 0
-4804 -75 0
-4804 229 0
-226 4802 4803 4804 0
-4805 -2 0
-4805 127 0
-4806 -6 0
-4806 97 0
-4807 -10 0
-4807 93 0
-227 4805 4806 4807 0
-4808 -13 0
-4808 182 0
-4809 -17 0
-4809 152 0
-4810 -21 0
-4810 148 0
-227 4808 4809 4810 0
-4811 -24 0
-4811 263 0
-4812 -36 0
-4812 206 0
-4813 -40 0
-4813 202 0
-227 4811 4812 4813 0
-4814 -25 0
-4814 291 0
-4815 -44 0
-4815 214 0
-4816 -48 0
-4816 210 0
-227 4814 4815 4816 0
-4817 -26 0
-4817 312 0
-4818 -51 0
-4818 221 0
-4819 -55 0
-4819 217 0
-227 4817 4818 4819 0
-4820 -28 0
-4820 332 0
-4821 -58 0
-4821 232 0
-4822 -66 0
-4822 224 0
-227 4820 4821 4822 0
-4823 -29 0
-4823 336 0
-4824 -59 0
-4824 236 0
-4825 -70 0
-4825 225 0
-227 4823 4824 4825 0
-4826 -30 0
-4826 339 0
-4827 -60 0
-4827 239 0
-4828 -73 0
-4828 226 0
-227 4826 4827 4828 0
-4829 -32 0
-4829 342 0
-4830 -62 0
-4830 242 0
-4831 -76 0
-4831 228 0
-227 4829 4830 4831 0
-4832 -33 0
-4832 343 0
-4833 -63 0
-4833 243 0
-4834 -77 0
-4834 229 0
-227 4832 4833 4834 0
-4835 -2 0
-4835 128 0
-4836 -6 0
-4836 98 0
-4837 -11 0
-4837 93 0
-228 4835 4836 4837 0
-4838 -13 0
-4838 183 0
-4839 -17 0
-4839 153 0
-4840 -22 0
-4840 148 0
-228 4838 4839 4840 0
-4841 -24 0
-4841 264 0
-4842 -36 0
-4842 207 0
-4843 -41 0
-4843 202 0
-228 4841 4842 4843 0
-4844 -25 0
-4844 292 0
-4845 -44 0
-4845 215 0
-4846 -49 0
-4846 210 0
-228 4844 4845 4846 0
-4847 -26 0
-4847 313 0
-4848 -51 0
-4848 222 0
-4849 -56 0
-4849 217 0
-228 4847 4848 4849 0
-4850 -28 0
-4850 333 0
-4851 -58 0
-4851 233 0
-4852 -67 0
-4852 224 0
-228 4850 4851 4852 0
-4853 -29 0
-4853 337 0
-4854 -59 0
-4854 237 0
-4855 -71 0
-4855 225 0
-228 4853 4854 4855 0
-4856 -30 0
-4856 340 0
-4857 -60 0
-4857 240 0
-4858 -74 0
-4858 226 0
-228 4856 4857 4858 0
-4859 -31 0
-4859 342 0
-4860 -61 0
-4860 242 0
-4861 -76 0
-4861 227 0
-228 4859 4860 4861 0
-4862 -33 0
-4862 344 0
-4863 -63 0
-4863 244 0
-4864 -78 0
-4864 229 0
-228 4862 4863 4864 0
-4865 -2 0
-4865 129 0
-4866 -6 0
-4866 99 0
-4867 -12 0
-4867 93 0
-229 4865 4866 4867 0
-4868 -13 0
-4868 184 0
-4869 -17 0
-4869 154 0
-4870 -23 0
-4870 148 0
-229 4868 4869 4870 0
-4871 -24 0
-4871 265 0
-4872 -36 0
-4872 208 0
-4873 -42 0
-4873 202 0
-229 4871 4872 4873 0
-4874 -25 0
-4874 293 0
-4875 -44 0
-4875 216 0
-4876 -50 0
-4876 210 0
-229 4874 4875 4876 0
-4877 -26 0
-4877 314 0
-4878 -51 0
-4878 223 0
-4879 -57 0
-4879 217 0
-229 4877 4878 4879 0
-4880 -28 0
-4880 334 0
-4881 -58 0
-4881 234 0
-4882 -68 0
-4882 224 0
-229 4880 4881 4882 0
-4883 -29 0
-4883 338 0
-4884 -59 0
-4884 238 0
-4885 -72 0
-4885 225 0
-229 4883 4884 4885 0
-4886 -30 0
-4886 341 0
-4887 -60 0
-4887 241 0
-4888 -75 0
-4888 226 0
-229 4886 4887 4888 0
-4889 -31 0
-4889 343 0
-4890 -61 0
-4890 243 0
-4891 -77 0
-4891 227 0
-229 4889 4890 4891 0
-4892 -32 0
-4892 344 0
-4893 -62 0
-4893 244 0
-4894 -78 0
-4894 228 0
-229 4892 4893 4894 0
-4895 -2 0
-4895 130 0
-4896 -7 0
-4896 95 0
-4897 -8 0
-4897 94 0
-230 4895 4896 4897 0
-4898 -13 0
-4898 185 0
-4899 -18 0
-4899 150 0
-4900 -19 0
-4900 149 0
-230 4898 4899 4900 0
-4901 -24 0
-4901 266 0
-4902 -37 0
-4902 204 0
-4903 -38 0
-4903 203 0
-230 4901 4902 4903 0
-4904 -25 0
-4904 294 0
-4905 -45 0
-4905 212 0
-4906 -46 0
-4906 211 0
-230 4904 4905 4906 0
-4907 -26 0
-4907 315 0
-4908 -52 0
-4908 219 0
-4909 -53 0
-4909 218 0
-230 4907 4908 4909 0
-4910 -27 0
-4910 330 0
-4911 -58 0
-4911 225 0
-4912 -59 0
-4912 224 0
-230 4910 4911 4912 0
-4913 -30 0
-4913 345 0
-4914 -65 0
-4914 235 0
-4915 -69 0
-4915 231 0
-230 4913 4914 4915 0
-4916 -31 0
-4916 346 0
-4917 -66 0
-4917 236 0
-4918 -70 0
-4918 232 0
-230 4916 4917 4918 0
-4919 -32 0
-4919 347 0
-4920 -67 0
-4920 237 0
-4921 -71 0
-4921 233 0
-230 4919 4920 4921 0
-4922 -33 0
-4922 348 0
-4923 -68 0
-4923 238 0
-4924 -72 0
-4924 234 0
-230 4922 4923 4924 0
-4925 -2 0
-4925 131 0
-4926 -7 0
-4926 96 0
-4927 -9 0
-4927 94 0
-231 4925 4926 4927 0
-4928 -13 0
-4928 186 0
-4929 -18 0
-4929 151 0
-4930 -20 0
-4930 149 0
-231 4928 4929 4930 0
-4931 -24 0
-4931 267 0
-4932 -37 0
-4932 205 0
-4933 -39 0
-4933 203 0
-231 4931 4932 4933 0
-4934 -25 0
-4934 295 0
-4935 -45 0
-4935 213 0
-4936 -47 0
-4936 211 0
-231 4934 4935 4936 0
-4937 -26 0
-4937 316 0
-4938 -52 0
-4938 220 0
-4939 -54 0
-4939 218 0
-231 4937 4938 4939 0
-4940 -27 0
-4940 331 0
-4941 -58 0
-4941 226 0
-4942 -60 0
-4942 224 0
-231 4940 4941 4942 0
-4943 -29 0
-4943 345 0
-4944 -64 0
-4944 235 0
-4945 -69 0
-4945 230 0
-231 4943 4944 4945 0
-4946 -31 0
-4946 349 0
-4947 -66 0
-4947 239 0
-4948 -73 0
-4948 232 0
-231 4946 4947 4948 0
-4949 -32 0
-4949 350 0
-4950 -67 0
-4950 240 0
-4951 -74 0
-4951 233 0
-231 4949 4950 4951 0
-4952 -33 0
-4952 351 0
-4953 -68 0
-4953 241 0
-4954 -75 0
-4954 234 0
-231 4952 4953 4954 0
-4955 -2 0
-4955 132 0
-4956 -7 0
-4956 97 0
-4957 -10 0
-4957 94 0
-232 4955 4956 4957 0
-4958 -13 0
-4958 187 0
-4959 -18 0
-4959 152 0
-4960 -21 0
-4960 149 0
-232 4958 4959 4960 0
-4961 -24 0
-4961 268 0
-4962 -37 0
-4962 206 0
-4963 -40 0
-4963 203 0
-232 4961 4962 4963 0
-4964 -25 0
-4964 296 0
-4965 -45 0
-4965 214 0
-4966 -48 0
-4966 211 0
-232 4964 4965 4966 0
-4967 -26 0
-4967 317 0
-4968 -52 0
-4968 221 0
-4969 -55 0
-4969 218 0
-232 4967 4968 4969 0
-4970 -27 0
-4970 332 0
-4971 -58 0
-4971 227 0
-4972 -61 0
-4972 224 0
-232 4970 4971 4972 0
-4973 -29 0
-4973 346 0
-4974 -64 0
-4974 236 0
-4975 -70 0
-4975 230 0
-232 4973 4974 4975 0
-4976 -30 0
-4976 349 0
-4977 -65 0
-4977 239 0
-4978 -73 0
-4978 231 0
-232 4976 4977 4978 0
-4979 -32 0
-4979 352 0
-4980 -67 0
-4980 242 0
-4981 -76 0
-4981 233 0
-232 4979 4980 4981 0
-4982 -33 0
-4982 353 0
-4983 -68 0
-4983 243 0
-4984 -77 0
-4984 234 0
-232 4982 4983 4984 0
-4985 -2 0
-4985 133 0
-4986 -7 0
-4986 98 0
-4987 -11 0
-4987 94 0
-233 4985 4986 4987 0
-4988 -13 0
-4988 188 0
-4989 -18 0
-4989 153 0
-4990 -22 0
-4990 149 0
-233 4988 4989 4990 0
-4991 -24 0
-4991 269 0
-4992 -37 0
-4992 207 0
-4993 -41 0
-4993 203 0
-233 4991 4992 4993 0
-4994 -25 0
-4994 297 0
-4995 -45 0
-4995 215 0
-4996 -49 0
-4996 211 0
-233 4994 4995 4996 0
-4997 -26 0
-4997 318 0
-4998 -52 0
-4998 222 0
-4999 -56 0
-4999 218 0
-233 4997 4998 4999 0
-5000 -27 0
-5000 333 0
-5001 -58 0
-5001 228 0
-5002 -62 0
-5002 224 0
-233 5000 5001 5002 0
-5003 -29 0
-5003 347 0
-5004 -64 0
-5004 237 0
-5005 -71 0
-5005 230 0
-233 5003 5004 5005 0
-5006 -30 0
-5006 350 0
-5007 -65 0
-5007 240 0
-5008 -74 0
-5008 231 0
-233 5006 5007 5008 0
-5009 -31 0
-5009 352 0
-5010 -66 0
-5010 242 0
-5011 -76 0
-5011 232 0
-233 5009 5010 5011 0
-5012 -33 0
-5012 354 0
-5013 -68 0
-5013 244 0
-5014 -78 0
-5014 234 0
-233 5012 5013 5014 0
-5015 -2 0
-5015 134 0
-5016 -7 0
-5016 99 0
-5017 -12 0
-5017 94 0
-234 5015 5016 5017 0
-5018 -13 0
-5018 189 0
-5019 -18 0
-5019 154 0
-5020 -23 0
-5020 149 0
-234 5018 5019 5020 0
-5021 -24 0
-5021 270 0
-5022 -37 0
-5022 208 0
-5023 -42 0
-5023 203 0
-234 5021 5022 5023 0
-5024 -25 0
-5024 298 0
-5025 -45 0
-5025 216 0
-5026 -50 0
-5026 211 0
-234 5024 5025 5026 0
-5027 -26 0
-5027 319 0
-5028 -52 0
-5028 223 0
-5029 -57 0
-5029 218 0
-234 5027 5028 5029 0
-5030 -27 0
-5030 334 0
-5031 -58 0
-5031 229 0
-5032 -63 0
-5032 224 0
-234 5030 5031 5032 0
-5033 -29 0
-5033 348 0
-5034 -64 0
-5034 238 0
-5035 -72 0
-5035 230 0
-234 5033 5034 5035 0
-5036 -30 0
-5036 351 0
-5037 -65 0
-5037 241 0
-5038 -75 0
-5038 231 0
-234 5036 5037 5038 0
-5039 -31 0
-5039 353 0
-5040 -66 0
-5040 243 0
-5041 -77 0
-5041 232 0
-234 5039 5040 5041 0
-5042 -32 0
-5042 354 0
-5043 -67 0
-5043 244 0
-5044 -78 0
-5044 233 0
-234 5042 5043 5044 0
-5045 -2 0
-5045 135 0
-5046 -8 0
-5046 96 0
-5047 -9 0
-5047 95 0
-235 5045 5046 5047 0
-5048 -13 0
-5048 190 0
-5049 -19 0
-5049 151 0
-5050 -20 0
-5050 150 0
-235 5048 5049 5050 0
-5051 -24 0
-5051 271 0
-5052 -38 0
-5052 205 0
-5053 -39 0
-5053 204 0
-235 5051 5052 5053 0
-5054 -25 0
-5054 299 0
-5055 -46 0
-5055 213 0
-5056 -47 0
-5056 212 0
-235 5054 5055 5056 0
-5057 -26 0
-5057 320 0
-5058 -53 0
-5058 220 0
-5059 -54 0
-5059 219 0
-235 5057 5058 5059 0
-5060 -27 0
-5060 335 0
-5061 -59 0
-5061 226 0
-5062 -60 0
-5062 225 0
-235 5060 5061 5062 0
-5063 -28 0
-5063 345 0
-5064 -64 0
-5064 231 0
-5065 -65 0
-5065 230 0
-235 5063 5064 5065 0
-5066 -31 0
-5066 355 0
-5067 -70 0
-5067 239 0
-5068 -73 0
-5068 236 0
-235 5066 5067 5068 0
-5069 -32 0
-5069 356 0
-5070 -71 0
-5070 240 0
-5071 -74 0
-5071 237 0
-235 5069 5070 5071 0
-5072 -33 0
-5072 357 0
-5073 -72 0
-5073 241 0
-5074 -75 0
-5074 238 0
-235 5072 5073 5074 0
-5075 -2 0
-5075 136 0
-5076 -8 0
-5076 97 0
-5077 -10 0
-5077 95 0
-236 5075 5076 5077 0
-5078 -13 0
-5078 191 0
-5079 -19 0
-5079 152 0
-5080 -21 0
-5080 150 0
-236 5078 5079 5080 0
-5081 -24 0
-5081 272 0
-5082 -38 0
-5082 206 0
-5083 -40 0
-5083 204 0
-236 5081 5082 5083 0
-5084 -25 0
-5084 300 0
-5085 -46 0
-5085 214 0
-5086 -48 0
-5086 212 0
-236 5084 5085 5086 0
-5087 -26 0
-5087 321 0
-5088 -53 0
-5088 221 0
-5089 -55 0
-5089 219 0
-236 5087 5088 5089 0
-5090 -27 0
-5090 336 0
-5091 -59 0
-5091 227 0
-5092 -61 0
-5092 225 0
-236 5090 5091 5092 0
-5093 -28 0
-5093 346 0
-5094 -64 0
-5094 232 0
-5095 -66 0
-5095 230 0
-236 5093 5094 5095 0
-5096 -30 0
-5096 355 0
-5097 -69 0
-5097 239 0
-5098 -73 0
-5098 235 0
-236 5096 5097 5098 0
-5099 -32 0
-5099 358 0
-5100 -71 0
-5100 242 0
-5101 -76 0
-5101 237 0
-236 5099 5100 5101 0
-5102 -33 0
-5102 359 0
-5103 -72 0
-5103 243 0
-5104 -77 0
-5104 238 0
-236 5102 5103 5104 0
-5105 -2 0
-5105 137 0
-5106 -8 0
-5106 98 0
-5107 -11 0
-5107 95 0
-237 5105 5106 5107 0
-5108 -13 0
-5108 192 0
-5109 -19 0
-5109 153 0
-5110 -22 0
-5110 150 0
-237 5108 5109 5110 0
-5111 -24 0
-5111 273 0
-5112 -38 0
-5112 207 0
-5113 -41 0
-5113 204 0
-237 5111 5112 5113 0
-5114 -25 0
-5114 301 0
-5115 -46 0
-5115 215 0
-5116 -49 0
-5116 212 0
-237 5114 5115 5116 0
-5117 -26 0
-5117 322 0
-5118 -53 0
-5118 222 0
-5119 -56 0
-5119 219 0
-237 5117 5118 5119 0
-5120 -27 0
-5120 337 0
-5121 -59 0
-5121 228 0
-5122 -62 0
-5122 225 0
-237 5120 5121 5122 0
-5123 -28 0
-5123 347 0
-5124 -64 0
-5124 233 0
-5125 -67 0
-5125 230 0
-237 5123 5124 5125 0
-5126 -30 0
-5126 356 0
-5127 -69 0
-5127 240 0
-5128 -74 0
-5128 235 0
-237 5126 5127 5128 0
-5129 -31 0
-5129 358 0
-5130 -70 0
-5130 242 0
-5131 -76 0
-5131 236 0
-237 5129 5130 5131 0
-5132 -33 0
-5132 360 0
-5133 -72 0
-5133 244 0
-5134 -78 0
-5134 238 0
-237 5132 5133 5134 0
-5135 -2 0
-5135 138 0
-5136 -8 0
-5136 99 0
-5137 -12 0
-5137 95 0
-238 5135 5136 5137 0
-5138 -13 0
-5138 193 0
-5139 -19 0
-5139 154 0
-5140 -23 0
-5140 150 0
-238 5138 5139 5140 0
-5141 -24 0
-5141 274 0
-5142 -38 0
-5142 208 0
-5143 -42 0
-5143 204 0
-238 5141 5142 5143 0
-5144 -25 0
-5144 302 0
-5145 -46 0
-5145 216 0
-5146 -50 0
-5146 212 0
-238 5144 5145 5146 0
-5147 -26 0
-5147 323 0
-5148 -53 0
-5148 223 0
-5149 -57 0
-5149 219 0
-238 5147 5148 5149 0
-5150 -27 0
-5150 338 0
-5151 -59 0
-5151 229 0
-5152 -63 0
-5152 225 0
-238 5150 5151 5152 0
-5153 -28 0
-5153 348 0
-5154 -64 0
-5154 234 0
-5155 -68 0
-5155 230 0
-238 5153 5154 5155 0
-5156 -30 0
-5156 357 0
-5157 -69 0
-5157 241 0
-5158 -75 0
-5158 235 0
-238 5156 5157 5158 0
-5159 -31 0
-5159 359 0
-5160 -70 0
-5160 243 0
-5161 -77 0
-5161 236 0
-238 5159 5160 5161 0
-5162 -32 0
-5162 360 0
-5163 -71 0
-5163 244 0
-5164 -78 0
-5164 237 0
-238 5162 5163 5164 0
-5165 -2 0
-5165 139 0
-5166 -9 0
-5166 97 0
-5167 -10 0
-5167 96 0
-239 5165 5166 5167 0
-5168 -13 0
-5168 194 0
-5169 -20 0
-5169 152 0
-5170 -21 0
-5170 151 0
-239 5168 5169 5170 0
-5171 -24 0
-5171 275 0
-5172 -39 0
-5172 206 0
-5173 -40 0
-5173 205 0
-239 5171 5172 5173 0
-5174 -25 0
-5174 303 0
-5175 -47 0
-5175 214 0
-5176 -48 0
-5176 213 0
-239 5174 5175 5176 0
-5177 -26 0
-5177 324 0
-5178 -54 0
-5178 221 0
-5179 -55 0
-5179 220 0
-239 5177 5178 5179 0
-5180 -27 0
-5180 339 0
-5181 -60 0
-5181 227 0
-5182 -61 0
-5182 226 0
-239 5180 5181 5182 0
-5183 -28 0
-5183 349 0
-5184 -65 0
-5184 232 0
-5185 -66 0
-5185 231 0
-239 5183 5184 5185 0
-5186 -29 0
-5186 355 0
-5187 -69 0
-5187 236 0
-5188 -70 0
-5188 235 0
-239 5186 5187 5188 0
-5189 -32 0
-5189 361 0
-5190 -74 0
-5190 242 0
-5191 -76 0
-5191 240 0
-239 5189 5190 5191 0
-5192 -33 0
-5192 362 0
-5193 -75 0
-5193 243 0
-5194 -77 0
-5194 241 0
-239 5192 5193 5194 0
-5195 -2 0
-5195 140 0
-5196 -9 0
-5196 98 0
-5197 -11 0
-5197 96 0
-240 5195 5196 5197 0
-5198 -13 0
-5198 195 0
-5199 -20 0
-5199 153 0
-5200 -22 0
-5200 151 0
-240 5198 5199 5200 0
-5201 -24 0
-5201 276 0
-5202 -39 0
-5202 207 0
-5203 -41 0
-5203 205 0
-240 5201 5202 5203 0
-5204 -25 0
-5204 304 0
-5205 -47 0
-5205 215 0
-5206 -49 0
-5206 213 0
-240 5204 5205 5206 0
-5207 -26 0
-5207 325 0
-5208 -54 0
-5208 222 0
-5209 -56 0
-5209 220 0
-240 5207 5208 5209 0
-5210 -27 0
-5210 340 0
-5211 -60 0
-5211 228 0
-5212 -62 0
-5212 226 0
-240 5210 5211 5212 0
-5213 -28 0
-5213 350 0
-5214 -65 0
-5214 233 0
-5215 -67 0
-5215 231 0
-240 5213 5214 5215 0
-5216 -29 0
-5216 356 0
-5217 -69 0
-5217 237 0
-5218 -71 0
-5218 235 0
-240 5216 5217 5218 0
-5219 -31 0
-5219 361 0
-5220 -73 0
-5220 242 0
-5221 -76 0
-5221 239 0
-240 5219 5220 5221 0
-5222 -33 0
-5222 363 0
-5223 -75 0
-5223 244 0
-5224 -78 0
-5224 241 0
-240 5222 5223 5224 0
-5225 -2 0
-5225 141 0
-5226 -9 0
-5226 99 0
-5227 -12 0
-5227 96 0
-241 5225 5226 5227 0
-5228 -13 0
-5228 196 0
-5229 -20 0
-5229 154 0
-5230 -23 0
-5230 151 0
-241 5228 5229 5230 0
-5231 -24 0
-5231 277 0
-5232 -39 0
-5232 208 0
-5233 -42 0
-5233 205 0
-241 5231 5232 5233 0
-5234 -25 0
-5234 305 0
-5235 -47 0
-5235 216 0
-5236 -50 0
-5236 213 0
-241 5234 5235 5236 0
-5237 -26 0
-5237 326 0
-5238 -54 0
-5238 223 0
-5239 -57 0
-5239 220 0
-241 5237 5238 5239 0
-5240 -27 0
-5240 341 0
-5241 -60 0
-5241 229 0
-5242 -63 0
-5242 226 0
-241 5240 5241 5242 0
-5243 -28 0
-5243 351 0
-5244 -65 0
-5244 234 0
-5245 -68 0
-5245 231 0
-241 5243 5244 5245 0
-5246 -29 0
-5246 357 0
-5247 -69 0
-5247 238 0
-5248 -72 0
-5248 235 0
-241 5246 5247 5248 0
-5249 -31 0
-5249 362 0
-5250 -73 0
-5250 243 0
-5251 -77 0
-5251 239 0
-241 5249 5250 5251 0
-5252 -32 0
-5252 363 0
-5253 -74 0
-5253 244 0
-5254 -78 0
-5254 240 0
-241 5252 5253 5254 0
-5255 -2 0
-5255 142 0
-5256 -10 0
-5256 98 0
-5257 -11 0
-5257 97 0
-242 5255 5256 5257 0
-5258 -13 0
-5258 197 0
-5259 -21 0
-5259 153 0
-5260 -22 0
-5260 152 0
-242 5258 5259 5260 0
-5261 -24 0
-5261 278 0
-5262 -40 0
-5262 207 0
-5263 -41 0
-5263 206 0
-242 5261 5262 5263 0
-5264 -25 0
-5264 306 0
-5265 -48 0
-5265 215 0
-5266 -49 0
-5266 214 0
-242 5264 5265 5266 0
-5267 -26 0
-5267 327 0
-5268 -55 0
-5268 222 0
-5269 -56 0
-5269 221 0
-242 5267 5268 5269 0
-5270 -27 0
-5270 342 0
-5271 -61 0
-5271 228 0
-5272 -62 0
-5272 227 0
-242 5270 5271 5272 0
-5273 -28 0
-5273 352 0
-5274 -66 0
-5274 233 0
-5275 -67 0
-5275 232 0
-242 5273 5274 5275 0
-5276 -29 0
-5276 358 0
-5277 -70 0
-5277 237 0
-5278 -71 0
-5278 236 0
-242 5276 5277 5278 0
-5279 -30 0
-5279 361 0
-5280 -73 0
-5280 240 0
-5281 -74 0
-5281 239 0
-242 5279 5280 5281 0
-5282 -33 0
-5282 364 0
-5283 -77 0
-5283 244 0
-5284 -78 0
-5284 243 0
-242 5282 5283 5284 0
-5285 -2 0
-5285 143 0
-5286 -10 0
-5286 99 0
-5287 -12 0
-5287 97 0
-243 5285 5286 5287 0
-5288 -13 0
-5288 198 0
-5289 -21 0
-5289 154 0
-5290 -23 0
-5290 152 0
-243 5288 5289 5290 0
-5291 -24 0
-5291 279 0
-5292 -40 0
-5292 208 0
-5293 -42 0
-5293 206 0
-243 5291 5292 5293 0
-5294 -25 0
-5294 307 0
-5295 -48 0
-5295 216 0
-5296 -50 0
-5296 214 0
-243 5294 5295 5296 0
-5297 -26 0
-5297 328 0
-5298 -55 0
-5298 223 0
-5299 -57 0
-5299 221 0
-243 5297 5298 5299 0
-5300 -27 0
-5300 343 0
-5301 -61 0
-5301 229 0
-5302 -63 0
-5302 227 0
-243 5300 5301 5302 0
-5303 -28 0
-5303 353 0
-5304 -66 0
-5304 234 0
-5305 -68 0
-5305 232 0
-243 5303 5304 5305 0
-5306 -29 0
-5306 359 0
-5307 -70 0
-5307 238 0
-5308 -72 0
-5308 236 0
-243 5306 5307 5308 0
-5309 -30 0
-5309 362 0
-5310 -73 0
-5310 241 0
-5311 -75 0
-5311 239 0
-243 5309 5310 5311 0
-5312 -32 0
-5312 364 0
-5313 -76 0
-5313 244 0
-5314 -78 0
-5314 242 0
-243 5312 5313 5314 0
-5315 -2 0
-5315 144 0
-5316 -11 0
-5316 99 0
-5317 -12 0
-5317 98 0
-244 5315 5316 5317 0
-5318 -13 0
-5318 199 0
-5319 -22 0
-5319 154 0
-5320 -23 0
-5320 153 0
-244 5318 5319 5320 0
-5321 -24 0
-5321 280 0
-5322 -41 0
-5322 208 0
-5323 -42 0
-5323 207 0
-244 5321 5322 5323 0
-5324 -25 0
-5324 308 0
-5325 -49 0
-5325 216 0
-5326 -50 0
-5326 215 0
-244 5324 5325 5326 0
-5327 -26 0
-5327 329 0
-5328 -56 0
-5328 223 0
-5329 -57 0
-5329 222 0
-244 5327 5328 5329 0
-5330 -27 0
-5330 344 0
-5331 -62 0
-5331 229 0
-5332 -63 0
-5332 228 0
-244 5330 5331 5332 0
-5333 -28 0
-5333 354 0
-5334 -67 0
-5334 234 0
-5335 -68 0
-5335 233 0
-244 5333 5334 5335 0
-5336 -29 0
-5336 360 0
-5337 -71 0
-5337 238 0
-5338 -72 0
-5338 237 0
-244 5336 5337 5338 0
-5339 -30 0
-5339 363 0
-5340 -74 0
-5340 241 0
-5341 -75 0
-5341 240 0
-244 5339 5340 5341 0
-5342 -31 0
-5342 364 0
-5343 -76 0
-5343 243 0
-5344 -77 0
-5344 242 0
-244 5342 5343 5344 0
-5345 -3 0
-5345 109 0
-5346 -4 0
-5346 101 0
-5347 -5 0
-5347 100 0
-245 5345 5346 5347 0
-5348 -14 0
-5348 164 0
-5349 -15 0
-5349 156 0
-5350 -16 0
-5350 155 0
-245 5348 5349 5350 0
-5351 -24 0
-5351 209 0
-5352 -25 0
-5352 201 0
-5353 -26 0
-5353 200 0
-245 5351 5352 5353 0
-5354 -36 0
-5354 281 0
-5355 -44 0
-5355 253 0
-5356 -51 0
-5356 246 0
-245 5354 5355 5356 0
-5357 -37 0
-5357 282 0
-5358 -45 0
-5358 254 0
-5359 -52 0
-5359 247 0
-245 5357 5358 5359 0
-5360 -38 0
-5360 283 0
-5361 -46 0
-5361 255 0
-5362 -53 0
-5362 248 0
-245 5360 5361 5362 0
-5363 -39 0
-5363 284 0
-5364 -47 0
-5364 256 0
-5365 -54 0
-5365 249 0
-245 5363 5364 5365 0
-5366 -40 0
-5366 285 0
-5367 -48 0
-5367 257 0
-5368 -55 0
-5368 250 0
-245 5366 5367 5368 0
-5369 -41 0
-5369 286 0
-5370 -49 0
-5370 258 0
-5371 -56 0
-5371 251 0
-245 5369 5370 5371 0
-5372 -42 0
-5372 287 0
-5373 -50 0
-5373 259 0
-5374 -57 0
-5374 252 0
-245 5372 5373 5374 0
-5375 -3 0
-5375 110 0
-5376 -4 0
-5376 102 0
-5377 -6 0
-5377 100 0
-246 5375 5376 5377 0
-5378 -14 0
-5378 165 0
-5379 -15 0
-5379 157 0
-5380 -17 0
-5380 155 0
-246 5378 5379 5380 0
-5381 -24 0
-5381 210 0
-5382 -25 0
-5382 202 0
-5383 -27 0
-5383 200 0
-246 5381 5382 5383 0
-5384 -35 0
-5384 281 0
-5385 -43 0
-5385 253 0
-5386 -51 0
-5386 245 0
-246 5384 5385 5386 0
-5387 -37 0
-5387 288 0
-5388 -45 0
-5388 260 0
-5389 -58 0
-5389 247 0
-246 5387 5388 5389 0
-5390 -38 0
-5390 289 0
-5391 -46 0
-5391 261 0
-5392 -59 0
-5392 248 0
-246 5390 5391 5392 0
-5393 -39 0
-5393 290 0
-5394 -47 0
-5394 262 0
-5395 -60 0
-5395 249 0
-246 5393 5394 5395 0
-5396 -40 0
-5396 291 0
-5397 -48 0
-5397 263 0
-5398 -61 0
-5398 250 0
-246 5396 5397 5398 0
-5399 -41 0
-5399 292 0
-5400 -49 0
-5400 264 0
-5401 -62 0
-5401 251 0
-246 5399 5400 5401 0
-5402 -42 0
-5402 293 0
-5403 -50 0
-5403 265 0
-5404 -63 0
-5404 252 0
-246 5402 5403 5404 0
-5405 -3 0
-5405 111 0
-5406 -4 0
-5406 103 0
-5407 -7 0
-5407 100 0
-247 5405 5406 5407 0
-5408 -14 0
-5408 166 0
-5409 -15 0
-5409 158 0
-5410 -18 0
-5410 155 0
-247 5408 5409 5410 0
-5411 -24 0
-5411 211 0
-5412 -25 0
-5412 203 0
-5413 -28 0
-5413 200 0
-247 5411 5412 5413 0
-5414 -35 0
-5414 282 0
-5415 -43 0
-5415 254 0
-5416 -52 0
-5416 245 0
-247 5414 5415 5416 0
-5417 -36 0
-5417 288 0
-5418 -44 0
-5418 260 0
-5419 -58 0
-5419 246 0
-247 5417 5418 5419 0
-5420 -38 0
-5420 294 0
-5421 -46 0
-5421 266 0
-5422 -64 0
-5422 248 0
-247 5420 5421 5422 0
-5423 -39 0
-5423 295 0
-5424 -47 0
-5424 267 0
-5425 -65 0
-5425 249 0
-247 5423 5424 5425 0
-5426 -40 0
-5426 296 0
-5427 -48 0
-5427 268 0
-5428 -66 0
-5428 250 0
-247 5426 5427 5428 0
-5429 -41 0
-5429 297 0
-5430 -49 0
-5430 269 0
-5431 -67 0
-5431 251 0
-247 5429 5430 5431 0
-5432 -42 0
-5432 298 0
-5433 -50 0
-5433 270 0
-5434 -68 0
-5434 252 0
-247 5432 5433 5434 0
-5435 -3 0
-5435 112 0
-5436 -4 0
-5436 104 0
-5437 -8 0
-5437 100 0
-248 5435 5436 5437 0
-5438 -14 0
-5438 167 0
-5439 -15 0
-5439 159 0
-5440 -19 0
-5440 155 0
-248 5438 5439 5440 0
-5441 -24 0
-5441 212 0
-5442 -25 0
-5442 204 0
-5443 -29 0
-5443 200 0
-248 5441 5442 5443 0
-5444 -35 0
-5444 283 0
-5445 -43 0
-5445 255 0
-5446 -53 0
-5446 245 0
-248 5444 5445 5446 0
-5447 -36 0
-5447 289 0
-5448 -44 0
-5448 261 0
-5449 -59 0
-5449 246 0
-248 5447 5448 5449 0
-5450 -37 0
-5450 294 0
-5451 -45 0
-5451 266 0
-5452 -64 0
-5452 247 0
-248 5450 5451 5452 0
-5453 -39 0
-5453 299 0
-5454 -47 0
-5454 271 0
-5455 -69 0
-5455 249 0
-248 5453 5454 5455 0
-5456 -40 0
-5456 300 0
-5457 -48 0
-5457 272 0
-5458 -70 0
-5458 250 0
-248 5456 5457 5458 0
-5459 -41 0
-5459 301 0
-5460 -49 0
-5460 273 0
-5461 -71 0
-5461 251 0
-248 5459 5460 5461 0
-5462 -42 0
-5462 302 0
-5463 -50 0
-5463 274 0
-5464 -72 0
-5464 252 0
-248 5462 5463 5464 0
-5465 -3 0
-5465 113 0
-5466 -4 0
-5466 105 0
-5467 -9 0
-5467 100 0
-249 5465 5466 5467 0
-5468 -14 0
-5468 168 0
-5469 -15 0
-5469 160 0
-5470 -20 0
-5470 155 0
-249 5468 5469 5470 0
-5471 -24 0
-5471 213 0
-5472 -25 0
-5472 205 0
-5473 -30 0
-5473 200 0
-249 5471 5472 5473 0
-5474 -35 0
-5474 284 0
-5475 -43 0
-5475 256 0
-5476 -54 0
-5476 245 0
-249 5474 5475 5476 0
-5477 -36 0
-5477 290 0
-5478 -44 0
-5478 262 0
-5479 -60 0
-5479 246 0
-249 5477 5478 5479 0
-5480 -37 0
-5480 295 0
-5481 -45 0
-5481 267 0
-5482 -65 0
-5482 247 0
-249 5480 5481 5482 0
-5483 -38 0
-5483 299 0
-5484 -46 0
-5484 271 0
-5485 -69 0
-5485 248 0
-249 5483 5484 5485 0
-5486 -40 0
-5486 303 0
-5487 -48 0
-5487 275 0
-5488 -73 0
-5488 250 0
-249 5486 5487 5488 0
-5489 -41 0
-5489 304 0
-5490 -49 0
-5490 276 0
-5491 -74 0
-5491 251 0
-249 5489 5490 5491 0
-5492 -42 0
-5492 305 0
-5493 -50 0
-5493 277 0
-5494 -75 0
-5494 252 0
-249 5492 5493 5494 0
-5495 -3 0
-5495 114 0
-5496 -4 0
-5496 106 0
-5497 -10 0
-5497 100 0
-250 5495 5496 5497 0
-5498 -14 0
-5498 169 0
-5499 -15 0
-5499 161 0
-5500 -21 0
-5500 155 0
-250 5498 5499 5500 0
-5501 -24 0
-5501 214 0
-5502 -25 0
-5502 206 0
-5503 -31 0
-5503 200 0
-250 5501 5502 5503 0
-5504 -35 0
-5504 285 0
-5505 -43 0
-5505 257 0
-5506 -55 0
-5506 245 0
-250 5504 5505 5506 0
-5507 -36 0
-5507 291 0
-5508 -44 0
-5508 263 0
-5509 -61 0
-5509 246 0
-250 5507 5508 5509 0
-5510 -37 0
-5510 296 0
-5511 -45 0
-5511 268 0
-5512 -66 0
-5512 247 0
-250 5510 5511 5512 0
-5513 -38 0
-5513 300 0
-5514 -46 0
-5514 272 0
-5515 -70 0
-5515 248 0
-250 5513 5514 5515 0
-5516 -39 0
-5516 303 0
-5517 -47 0
-5517 275 0
-5518 -73 0
-5518 249 0
-250 5516 5517 5518 0
-5519 -41 0
-5519 306 0
-5520 -49 0
-5520 278 0
-5521 -76 0
-5521 251 0
-250 5519 5520 5521 0
-5522 -42 0
-5522 307 0
-5523 -50 0
-5523 279 0
-5524 -77 0
-5524 252 0
-250 5522 5523 5524 0
-5525 -3 0
-5525 115 0
-5526 -4 0
-5526 107 0
-5527 -11 0
-5527 100 0
-251 5525 5526 5527 0
-5528 -14 0
-5528 170 0
-5529 -15 0
-5529 162 0
-5530 -22 0
-5530 155 0
-251 5528 5529 5530 0
-5531 -24 0
-5531 215 0
-5532 -25 0
-5532 207 0
-5533 -32 0
-5533 200 0
-251 5531 5532 5533 0
-5534 -35 0
-5534 286 0
-5535 -43 0
-5535 258 0
-5536 -56 0
-5536 245 0
-251 5534 5535 5536 0
-5537 -36 0
-5537 292 0
-5538 -44 0
-5538 264 0
-5539 -62 0
-5539 246 0
-251 5537 5538 5539 0
-5540 -37 0
-5540 297 0
-5541 -45 0
-5541 269 0
-5542 -67 0
-5542 247 0
-251 5540 5541 5542 0
-5543 -38 0
-5543 301 0
-5544 -46 0
-5544 273 0
-5545 -71 0
-5545 248 0
-251 5543 5544 5545 0
-5546 -39 0
-5546 304 0
-5547 -47 0
-5547 276 0
-5548 -74 0
-5548 249 0
-251 5546 5547 5548 0
-5549 -40 0
-5549 306 0
-5550 -48 0
-5550 278 0
-5551 -76 0
-5551 250 0
-251 5549 5550 5551 0
-5552 -42 0
-5552 308 0
-5553 -50 0
-5553 280 0
-5554 -78 0
-5554 252 0
-251 5552 5553 5554 0
-5555 -3 0
-5555 116 0
-5556 -4 0
-5556 108 0
-5557 -12 0
-5557 100 0
-252 5555 5556 5557 0
-5558 -14 0
-5558 171 0
-5559 -15 0
-5559 163 0
-5560 -23 0
-5560 155 0
-252 5558 5559 5560 0
-5561 -24 0
-5561 216 0
-5562 -25 0
-5562 208 0
-5563 -33 0
-5563 200 0
-252 5561 5562 5563 0
-5564 -35 0
-5564 287 0
-5565 -43 0
-5565 259 0
-5566 -57 0
-5566 245 0
-252 5564 5565 5566 0
-5567 -36 0
-5567 293 0
-5568 -44 0
-5568 265 0
-5569 -63 0
-5569 246 0
-252 5567 5568 5569 0
-5570 -37 0
-5570 298 0
-5571 -45 0
-5571 270 0
-5572 -68 0
-5572 247 0
-252 5570 5571 5572 0
-5573 -38 0
-5573 302 0
-5574 -46 0
-5574 274 0
-5575 -72 0
-5575 248 0
-252 5573 5574 5575 0
-5576 -39 0
-5576 305 0
-5577 -47 0
-5577 277 0
-5578 -75 0
-5578 249 0
-252 5576 5577 5578 0
-5579 -40 0
-5579 307 0
-5580 -48 0
-5580 279 0
-5581 -77 0
-5581 250 0
-252 5579 5580 5581 0
-5582 -41 0
-5582 308 0
-5583 -49 0
-5583 280 0
-5584 -78 0
-5584 251 0
-252 5582 5583 5584 0
-5585 -3 0
-5585 117 0
-5586 -5 0
-5586 102 0
-5587 -6 0
-5587 101 0
-253 5585 5586 5587 0
-5588 -14 0
-5588 172 0
-5589 -16 0
-5589 157 0
-5590 -17 0
-5590 156 0
-253 5588 5589 5590 0
-5591 -24 0
-5591 217 0
-5592 -26 0
-5592 202 0
-5593 -27 0
-5593 201 0
-253 5591 5592 5593 0
-5594 -34 0
-5594 281 0
-5595 -43 0
-5595 246 0
-5596 -44 0
-5596 245 0
-253 5594 5595 5596 0
-5597 -37 0
-5597 309 0
-5598 -52 0
-5598 260 0
-5599 -58 0
-5599 254 0
-253 5597 5598 5599 0
-5600 -38 0
-5600 310 0
-5601 -53 0
-5601 261 0
-5602 -59 0
-5602 255 0
-253 5600 5601 5602 0
-5603 -39 0
-5603 311 0
-5604 -54 0
-5604 262 0
-5605 -60 0
-5605 256 0
-253 5603 5604 5605 0
-5606 -40 0
-5606 312 0
-5607 -55 0
-5607 263 0
-5608 -61 0
-5608 257 0
-253 5606 5607 5608 0
-5609 -41 0
-5609 313 0
-5610 -56 0
-5610 264 0
-5611 -62 0
-5611 258 0
-253 5609 5610 5611 0
-5612 -42 0
-5612 314 0
-5613 -57 0
-5613 265 0
-5614 -63 0
-5614 259 0
-253 5612 5613 5614 0
-5615 -3 0
-5615 118 0
-5616 -5 0
-5616 103 0
-5617 -7 0
-5617 101 0
-254 5615 5616 5617 0
-5618 -14 0
-5618 173 0
-5619 -16 0
-5619 158 0
-5620 -18 0
-5620 156 0
-254 5618 5619 5620 0
-5621 -24 0
-5621 218 0
-5622 -26 0
-5622 203 0
-5623 -28 0
-5623 201 0
-254 5621 5622 5623 0
-5624 -34 0
-5624 282 0
-5625 -43 0
-5625 247 0
-5626 -45 0
-5626 245 0
-254 5624 5625 5626 0
-5627 -36 0
-5627 309 0
-5628 -51 0
-5628 260 0
-5629 -58 0
-5629 253 0
-254 5627 5628 5629 0
-5630 -38 0
-5630 315 0
-5631 -53 0
-5631 266 0
-5632 -64 0
-5632 255 0
-254 5630 5631 5632 0
-5633 -39 0
-5633 316 0
-5634 -54 0
-5634 267 0
-5635 -65 0
-5635 256 0
-254 5633 5634 5635 0
-5636 -40 0
-5636 317 0
-5637 -55 0
-5637 268 0
-5638 -66 0
-5638 257 0
-254 5636 5637 5638 0
-5639 -41 0
-5639 318 0
-5640 -56 0
-5640 269 0
-5641 -67 0
-5641 258 0
-254 5639 5640 5641 0
-5642 -42 0
-5642 319 0
-5643 -57 0
-5643 270 0
-5644 -68 0
-5644 259 0
-254 5642 5643 5644 0
-5645 -3 0
-5645 119 0
-5646 -5 0
-5646 104 0
-5647 -8 0
-5647 101 0
-255 5645 5646 5647 0
-5648 -14 0
-5648 174 0
-5649 -16 0
-5649 159 0
-5650 -19 0
-5650 156 0
-255 5648 5649 5650 0
-5651 -24 0
-5651 219 0
-5652 -26 0
-5652 204 0
-5653 -29 0
-5653 201 0
-255 5651 5652 5653 0
-5654 -34 0
-5654 283 0
-5655 -43 0
-5655 248 0
-5656 -46 0
-5656 245 0
-255 5654 5655 5656 0
-5657 -36 0
-5657 310 0
-5658 -51 0
-5658 261 0
-5659 -59 0
-5659 253 0
-255 5657 5658 5659 0
-5660 -37 0
-5660 315 0
-5661 -52 0
-5661 266 0
-5662 -64 0
-5662 254 0
-255 5660 5661 5662 0
-5663 -39 0
-5663 320 0
-5664 -54 0
-5664 271 0
-5665 -69 0
-5665 256 0
-255 5663 5664 5665 0
-5666 -40 0
-5666 321 0
-5667 -55 0
-5667 272 0
-5668 -70 0
-5668 257 0
-255 5666 5667 5668 0
-5669 -41 0
-5669 322 0
-5670 -56 0
-5670 273 0
-5671 -71 0
-5671 258 0
-255 5669 5670 5671 0
-5672 -42 0
-5672 323 0
-5673 -57 0
-5673 274 0
-5674 -72 0
-5674 259 0
-255 5672 5673 5674 0
-5675 -3 0
-5675 120 0
-5676 -5 0
-5676 105 0
-5677 -9 0
-5677 101 0
-256 5675 5676 5677 0
-5678 -14 0
-5678 175 0
-5679 -16 0
-5679 160 0
-5680 -20 0
-5680 156 0
-256 5678 5679 5680 0
-5681 -24 0
-5681 220 0
-5682 -26 0
-5682 205 0
-5683 -30 0
-5683 201 0
-256 5681 5682 5683 0
-5684 -34 0
-5684 284 0
-5685 -43 0
-5685 249 0
-5686 -47 0
-5686 245 0
-256 5684 5685 5686 0
-5687 -36 0
-5687 311 0
-5688 -51 0
-5688 262 0
-5689 -60 0
-5689 253 0
-256 5687 5688 5689 0
-5690 -37 0
-5690 316 0
-5691 -52 0
-5691 267 0
-5692 -65 0
-5692 254 0
-256 5690 5691 5692 0
-5693 -38 0
-5693 320 0
-5694 -53 0
-5694 271 0
-5695 -69 0
-5695 255 0
-256 5693 5694 5695 0
-5696 -40 0
-5696 324 0
-5697 -55 0
-5697 275 0
-5698 -73 0
-5698 257 0
-256 5696 5697 5698 0
-5699 -41 0
-5699 325 0
-5700 -56 0
-5700 276 0
-5701 -74 0
-5701 258 0
-256 5699 5700 5701 0
-5702 -42 0
-5702 326 0
-5703 -57 0
-5703 277 0
-5704 -75 0
-5704 259 0
-256 5702 5703 5704 0
-5705 -3 0
-5705 121 0
-5706 -5 0
-5706 106 0
-5707 -10 0
-5707 101 0
-257 5705 5706 5707 0
-5708 -14 0
-5708 176 0
-5709 -16 0
-5709 161 0
-5710 -21 0
-5710 156 0
-257 5708 5709 5710 0
-5711 -24 0
-5711 221 0
-5712 -26 0
-5712 206 0
-5713 -31 0
-5713 201 0
-257 5711 5712 5713 0
-5714 -34 0
-5714 285 0
-5715 -43 0
-5715 250 0
-5716 -48 0
-5716 245 0
-257 5714 5715 5716 0
-5717 -36 0
-5717 312 0
-5718 -51 0
-5718 263 0
-5719 -61 0
-5719 253 0
-257 5717 5718 5719 0
-5720 -37 0
-5720 317 0
-5721 -52 0
-5721 268 0
-5722 -66 0
-5722 254 0
-257 5720 5721 5722 0
-5723 -38 0
-5723 321 0
-5724 -53 0
-5724 272 0
-5725 -70 0
-5725 255 0
-257 5723 5724 5725 0
-5726 -39 0
-5726 324 0
-5727 -54 0
-5727 275 0
-5728 -73 0
-5728 256 0
-257 5726 5727 5728 0
-5729 -41 0
-5729 327 0
-5730 -56 0
-5730 278 0
-5731 -76 0
-5731 258 0
-257 5729 5730 5731 0
-5732 -42 0
-5732 328 0
-5733 -57 0
-5733 279 0
-5734 -77 0
-5734 259 0
-257 5732 5733 5734 0
-5735 -3 0
-5735 122 0
-5736 -5 0
-5736 107 0
-5737 -11 0
-5737 101 0
-258 5735 5736 5737 0
-5738 -14 0
-5738 177 0
-5739 -16 0
-5739 162 0
-5740 -22 0
-5740 156 0
-258 5738 5739 5740 0
-5741 -24 0
-5741 222 0
-5742 -26 0
-5742 207 0
-5743 -32 0
-5743 201 0
-258 5741 5742 5743 0
-5744 -34 0
-5744 286 0
-5745 -43 0
-5745 251 0
-5746 -49 0
-5746 245 0
-258 5744 5745 5746 0
-5747 -36 0
-5747 313 0
-5748 -51 0
-5748 264 0
-5749 -62 0
-5749 253 0
-258 5747 5748 5749 0
-5750 -37 0
-5750 318 0
-5751 -52 0
-5751 269 0
-5752 -67 0
-5752 254 0
-258 5750 5751 5752 0
-5753 -38 0
-5753 322 0
-5754 -53 0
-5754 273 0
-5755 -71 0
-5755 255 0
-258 5753 5754 5755 0
-5756 -39 0
-5756 325 0
-5757 -54 0
-5757 276 0
-5758 -74 0
-5758 256 0
-258 5756 5757 5758 0
-5759 -40 0
-5759 327 0
-5760 -55 0
-5760 278 0
-5761 -76 0
-5761 257 0
-258 5759 5760 5761 0
-5762 -42 0
-5762 329 0
-5763 -57 0
-5763 280 0
-5764 -78 0
-5764 259 0
-258 5762 5763 5764 0
-5765 -3 0
-5765 123 0
-5766 -5 0
-5766 108 0
-5767 -12 0
-5767 101 0
-259 5765 5766 5767 0
-5768 -14 0
-5768 178 0
-5769 -16 0
-5769 163 0
-5770 -23 0
-5770 156 0
-259 5768 5769 5770 0
-5771 -24 0
-5771 223 0
-5772 -26 0
-5772 208 0
-5773 -33 0
-5773 201 0
-259 5771 5772 5773 0
-5774 -34 0
-5774 287 0
-5775 -43 0
-5775 252 0
-5776 -50 0
-5776 245 0
-259 5774 5775 5776 0
-5777 -36 0
-5777 314 0
-5778 -51 0
-5778 265 0
-5779 -63 0
-5779 253 0
-259 5777 5778 5779 0
-5780 -37 0
-5780 319 0
-5781 -52 0
-5781 270 0
-5782 -68 0
-5782 254 0
-259 5780 5781 5782 0
-5783 -38 0
-5783 323 0
-5784 -53 0
-5784 274 0
-5785 -72 0
-5785 255 0
-259 5783 5784 5785 0
-5786 -39 0
-5786 326 0
-5787 -54 0
-5787 277 0
-5788 -75 0
-5788 256 0
-259 5786 5787 5788 0
-5789 -40 0
-5789 328 0
-5790 -55 0
-5790 279 0
-5791 -77 0
-5791 257 0
-259 5789 5790 5791 0
-5792 -41 0
-5792 329 0
-5793 -56 0
-5793 280 0
-5794 -78 0
-5794 258 0
-259 5792 5793 5794 0
-5795 -3 0
-5795 124 0
-5796 -6 0
-5796 103 0
-5797 -7 0
-5797 102 0
-260 5795 5796 5797 0
-5798 -14 0
-5798 179 0
-5799 -17 0
-5799 158 0
-5800 -18 0
-5800 157 0
-260 5798 5799 5800 0
-5801 -24 0
-5801 224 0
-5802 -27 0
-5802 203 0
-5803 -28 0
-5803 202 0
-260 5801 5802 5803 0
-5804 -34 0
-5804 288 0
-5805 -44 0
-5805 247 0
-5806 -45 0
-5806 246 0
-260 5804 5805 5806 0
-5807 -35 0
-5807 309 0
-5808 -51 0
-5808 254 0
-5809 -52 0
-5809 253 0
-260 5807 5808 5809 0
-5810 -38 0
-5810 330 0
-5811 -59 0
-5811 266 0
-5812 -64 0
-5812 261 0
-260 5810 5811 5812 0
-5813 -39 0
-5813 331 0
-5814 -60 0
-5814 267 0
-5815 -65 0
-5815 262 0
-260 5813 5814 5815 0
-5816 -40 0
-5816 332 0
-5817 -61 0
-5817 268 0
-5818 -66 0
-5818 263 0
-260 5816 5817 5818 0
-5819 -41 0
-5819 333 0
-5820 -62 0
-5820 269 0
-5821 -67 0
-5821 264 0
-260 5819 5820 5821 0
-5822 -42 0
-5822 334 0
-5823 -63 0
-5823 270 0
-5824 -68 0
-5824 265 0
-260 5822 5823 5824 0
-5825 -3 0
-5825 125 0
-5826 -6 0
-5826 104 0
-5827 -8 0
-5827 102 0
-261 5825 5826 5827 0
-5828 -14 0
-5828 180 0
-5829 -17 0
-5829 159 0
-5830 -19 0
-5830 157 0
-261 5828 5829 5830 0
-5831 -24 0
-5831 225 0
-5832 -27 0
-5832 204 0
-5833 -29 0
-5833 202 0
-261 5831 5832 5833 0
-5834 -34 0
-5834 289 0
-5835 -44 0
-5835 248 0
-5836 -46 0
-5836 246 0
-261 5834 5835 5836 0
-5837 -35 0
-5837 310 0
-5838 -51 0
-5838 255 0
-5839 -53 0
-5839 253 0
-261 5837 5838 5839 0
-5840 -37 0
-5840 330 0
-5841 -58 0
-5841 266 0
-5842 -64 0
-5842 260 0
-261 5840 5841 5842 0
-5843 -39 0
-5843 335 0
-5844 -60 0
-5844 271 0
-5845 -69 0
-5845 262 0
-261 5843 5844 5845 0
-5846 -40 0
-5846 336 0
-5847 -61 0
-5847 272 0
-5848 -70 0
-5848 263 0
-261 5846 5847 5848 0
-5849 -41 0
-5849 337 0
-5850 -62 0
-5850 273 0
-5851 -71 0
-5851 264 0
-261 5849 5850 5851 0
-5852 -42 0
-5852 338 0
-5853 -63 0
-5853 274 0
-5854 -72 0
-5854 265 0
-261 5852 5853 5854 0
-5855 -3 0
-5855 126 0
-5856 -6 0
-5856 105 0
-5857 -9 0
-5857 102 0
-262 5855 5856 5857 0
-5858 -14 0
-5858 181 0
-5859 -17 0
-5859 160 0
-5860 -20 0
-5860 157 0
-262 5858 5859 5860 0
-5861 -24 0
-5861 226 0
-5862 -27 0
-5862 205 0
-5863 -30 0
-5863 202 0
-262 5861 5862 5863 0
-5864 -34 0
-5864 290 0
-5865 -44 0
-5865 249 0
-5866 -47 0
-5866 246 0
-262 5864 5865 5866 0
-5867 -35 0
-5867 311 0
-5868 -51 0
-5868 256 0
-5869 -54 0
-5869 253 0
-262 5867 5868 5869 0
-5870 -37 0
-5870 331 0
-5871 -58 0
-5871 267 0
-5872 -65 0
-5872 260 0
-262 5870 5871 5872 0
-5873 -38 0
-5873 335 0
-5874 -59 0
-5874 271 0
-5875 -69 0
-5875 261 0
-262 5873 5874 5875 0
-5876 -40 0
-5876 339 0
-5877 -61 0
-5877 275 0
-5878 -73 0
-5878 263 0
-262 5876 5877 5878 0
-5879 -41 0
-5879 340 0
-5880 -62 0
-5880 276 0
-5881 -74 0
-5881 264 0
-262 5879 5880 5881 0
-5882 -42 0
-5882 341 0
-5883 -63 0
-5883 277 0
-5884 -75 0
-5884 265 0
-262 5882 5883 5884 0
-5885 -3 0
-5885 127 0
-5886 -6 0
-5886 106 0
-5887 -10 0
-5887 102 0
-263 5885 5886 5887 0
-5888 -14 0
-5888 182 0
-5889 -17 0
-5889 161 0
-5890 -21 0
-5890 157 0
-263 5888 5889 5890 0
-5891 -24 0
-5891 227 0
-5892 -27 0
-5892 206 0
-5893 -31 0
-5893 202 0
-263 5891 5892 5893 0
-5894 -34 0
-5894 291 0
-5895 -44 0
-5895 250 0
-5896 -48 0
-5896 246 0
-263 5894 5895 5896 0
-5897 -35 0
-5897 312 0
-5898 -51 0
-5898 257 0
-5899 -55 0
-5899 253 0
-263 5897 5898 5899 0
-5900 -37 0
-5900 332 0
-5901 -58 0
-5901 268 0
-5902 -66 0
-5902 260 0
-263 5900 5901 5902 0
-5903 -38 0
-5903 336 0
-5904 -59 0
-5904 272 0
-5905 -70 0
-5905 261 0
-263 5903 5904 5905 0
-5906 -39 0
-5906 339 0
-5907 -60 0
-5907 275 0
-5908 -73 0
-5908 262 0
-263 5906 5907 5908 0
-5909 -41 0
-5909 342 0
-5910 -62 0
-5910 278 0
-5911 -76 0
-5911 264 0
-263 5909 5910 5911 0
-5912 -42 0
-5912 343 0
-5913 -63 0
-5913 279 0
-5914 -77 0
-5914 265 0
-263 5912 5913 5914 0
-5915 -3 0
-5915 128 0
-5916 -6 0
-5916 107 0
-5917 -11 0
-5917 102 0
-264 5915 5916 5917 0
-5918 -14 0
-5918 183 0
-5919 -17 0
-5919 162 0
-5920 -22 0
-5920 157 0
-264 5918 5919 5920 0
-5921 -24 0
-5921 228 0
-5922 -27 0
-5922 207 0
-5923 -32 0
-5923 202 0
-264 5921 5922 5923 0
-5924 -34 0
-5924 292 0
-5925 -44 0
-5925 251 0
-5926 -49 0
-5926 246 0
-264 5924 5925 5926 0
-5927 -35 0
-5927 313 0
-5928 -51 0
-5928 258 0
-5929 -56 0
-5929 253 0
-264 5927 5928 5929 0
-5930 -37 0
-5930 333 0
-5931 -58 0
-5931 269 0
-5932 -67 0
-5932 260 0
-264 5930 5931 5932 0
-5933 -38 0
-5933 337 0
-5934 -59 0
-5934 273 0
-5935 -71 0
-5935 261 0
-264 5933 5934 5935 0
-5936 -39 0
-5936 340 0
-5937 -60 0
-5937 276 0
-5938 -74 0
-5938 262 0
-264 5936 5937 5938 0
-5939 -40 0
-5939 342 0
-5940 -61 0
-5940 278 0
-5941 -76 0
-5941 263 0
-264 5939 5940 5941 0
-5942 -42 0
-5942 344 0
-5943 -63 0
-5943 280 0
-5944 -78 0
-5944 265 0
-264 5942 5943 5944 0
-5945 -3 0
-5945 129 0
-5946 -6 0
-5946 108 0
-5947 -12 0
-5947 102 0
-265 5945 5946 5947 0
-5948 -14 0
-5948 184 0
-5949 -17 0
-5949 163 0
-5950 -23 0
-5950 157 0
-265 5948 5949 5950 0
-5951 -24 0
-5951 229 0
-5952 -27 0
-5952 208 0
-5953 -33 0
-5953 202 0
-265 5951 5952 5953 0
-5954 -34 0
-5954 293 0
-5955 -44 0
-5955 252 0
-5956 -50 0
-5956 246 0
-265 5954 5955 5956 0
-5957 -35 0
-5957 314 0
-5958 -51 0
-5958 259 0
-5959 -57 0
-5959 253 0
-265 5957 5958 5959 0
-5960 -37 0
-5960 334 0
-5961 -58 0
-5961 270 0
-5962 -68 0
-5962 260 0
-265 5960 5961 5962 0
-5963 -38 0
-5963 338 0
-5964 -59 0
-5964 274 0
-5965 -72 0
-5965 261 0
-265 5963 5964 5965 0
-5966 -39 0
-5966 341 0
-5967 -60 0
-5967 277 0
-5968 -75 0
-5968 262 0
-265 5966 5967 5968 0
-5969 -40 0
-5969 343 0
-5970 -61 0
-5970 279 0
-5971 -77 0
-5971 263 0
-265 5969 5970 5971 0
-5972 -41 0
-5972 344 0
-5973 -62 0
-5973 280 0
-5974 -78 0
-5974 264 0
-265 5972 5973 5974 0
-5975 -3 0
-5975 130 0
-5976 -7 0
-5976 104 0
-5977 -8 0
-5977 103 0
-266 5975 5976 5977 0
-5978 -14 0
-5978 185 0
-5979 -18 0
-5979 159 0
-5980 -19 0
-5980 158 0
-266 5978 5979 5980 0
-5981 -24 0
-5981 230 0
-5982 -28 0
-5982 204 0
-5983 -29 0
-5983 203 0
-266 5981 5982 5983 0
-5984 -34 0
-5984 294 0
-5985 -45 0
-5985 248 0
-5986 -46 0
-5986 247 0
-266 5984 5985 5986 0
-5987 -35 0
-5987 315 0
-5988 -52 0
-5988 255 0
-5989 -53 0
-5989 254 0
-266 5987 5988 5989 0
-5990 -36 0
-5990 330 0
-5991 -58 0
-5991 261 0
-5992 -59 0
-5992 260 0
-266 5990 5991 5992 0
-5993 -39 0
-5993 345 0
-5994 -65 0
-5994 271 0
-5995 -69 0
-5995 267 0
-266 5993 5994 5995 0
-5996 -40 0
-5996 346 0
-5997 -66 0
-5997 272 0
-5998 -70 0
-5998 268 0
-266 5996 5997 5998 0
-5999 -41 0
-5999 347 0
-6000 -67 0
-6000 273 0
-6001 -71 0
-6001 269 0
-266 5999 6000 6001 0
-6002 -42 0
-6002 348 0
-6003 -68 0
-6003 274 0
-6004 -72 0
-6004 270 0
-266 6002 6003 6004 0
-6005 -3 0
-6005 131 0
-6006 -7 0
-6006 105 0
-6007 -9 0
-6007 103 0
-267 6005 6006 6007 0
-6008 -14 0
-6008 186 0
-6009 -18 0
-6009 160 0
-6010 -20 0
-6010 158 0
-267 6008 6009 6010 0
-6011 -24 0
-6011 231 0
-6012 -28 0
-6012 205 0
-6013 -30 0
-6013 203 0
-267 6011 6012 6013 0
-6014 -34 0
-6014 295 0
-6015 -45 0
-6015 249 0
-6016 -47 0
-6016 247 0
-267 6014 6015 6016 0
-6017 -35 0
-6017 316 0
-6018 -52 0
-6018 256 0
-6019 -54 0
-6019 254 0
-267 6017 6018 6019 0
-6020 -36 0
-6020 331 0
-6021 -58 0
-6021 262 0
-6022 -60 0
-6022 260 0
-267 6020 6021 6022 0
-6023 -38 0
-6023 345 0
-6024 -64 0
-6024 271 0
-6025 -69 0
-6025 266 0
-267 6023 6024 6025 0
-6026 -40 0
-6026 349 0
-6027 -66 0
-6027 275 0
-6028 -73 0
-6028 268 0
-267 6026 6027 6028 0
-6029 -41 0
-6029 350 0
-6030 -67 0
-6030 276 0
-6031 -74 0
-6031 269 0
-267 6029 6030 6031 0
-6032 -42 0
-6032 351 0
-6033 -68 0
-6033 277 0
-6034 -75 0
-6034 270 0
-267 6032 6033 6034 0
-6035 -3 0
-6035 132 0
-6036 -7 0
-6036 106 0
-6037 -10 0
-6037 103 0
-268 6035 6036 6037 0
-6038 -14 0
-6038 187 0
-6039 -18 0
-6039 161 0
-6040 -21 0
-6040 158 0
-268 6038 6039 6040 0
-6041 -24 0
-6041 232 0
-6042 -28 0
-6042 206 0
-6043 -31 0
-6043 203 0
-268 6041 6042 6043 0
-6044 -34 0
-6044 296 0
-6045 -45 0
-6045 250 0
-6046 -48 0
-6046 247 0
-268 6044 6045 6046 0
-6047 -35 0
-6047 317 0
-6048 -52 0
-6048 257 0
-6049 -55 0
-6049 254 0
-268 6047 6048 6049 0
-6050 -36 0
-6050 332 0
-6051 -58 0
-6051 263 0
-6052 -61 0
-6052 260 0
-268 6050 6051 6052 0
-6053 -38 0
-6053 346 0
-6054 -64 0
-6054 272 0
-6055 -70 0
-6055 266 0
-268 6053 6054 6055 0
-6056 -39 0
-6056 349 0
-6057 -65 0
-6057 275 0
-6058 -73 0
-6058 267 0
-268 6056 6057 6058 0
-6059 -41 0
-6059 352 0
-6060 -67 0
-6060 278 0
-6061 -76 0
-6061 269 0
-268 6059 6060 6061 0
-6062 -42 0
-6062 353 0
-6063 -68 0
-6063 279 0
-6064 -77 0
-6064 270 0
-268 6062 6063 6064 0
-6065 -3 0
-6065 133 0
-6066 -7 0
-6066 107 0
-6067 -11 0
-6067 103 0
-269 6065 6066 6067 0
-6068 -14 0
-6068 188 0
-6069 -18 0
-6069 162 0
-6070 -22 0
-6070 158 0
-269 6068 6069 6070 0
-6071 -24 0
-6071 233 0
-6072 -28 0
-6072 207 0
-6073 -32 0
-6073 203 0
-269 6071 6072 6073 0
-6074 -34 0
-6074 297 0
-6075 -45 0
-6075 251 0
-6076 -49 0
-6076 247 0
-269 6074 6075 6076 0
-6077 -35 0
-6077 318 0
-6078 -52 0
-6078 258 0
-6079 -56 0
-6079 254 0
-269 6077 6078 6079 0
-6080 -36 0
-6080 333 0
-6081 -58 0
-6081 264 0
-6082 -62 0
-6082 260 0
-269 6080 6081 6082 0
-6083 -38 0
-6083 347 0
-6084 -64 0
-6084 273 0
-6085 -71 0
-6085 266 0
-269 6083 6084 6085 0
-6086 -39 0
-6086 350 0
-6087 -65 0
-6087 276 0
-6088 -74 0
-6088 267 0
-269 6086 6087 6088 0
-6089 -40 0
-6089 352 0
-6090 -66 0
-6090 278 0
-6091 -76 0
-6091 268 0
-269 6089 6090 6091 0
-6092 -42 0
-6092 354 0
-6093 -68 0
-6093 280 0
-6094 -78 0
-6094 270 0
-269 6092 6093 6094 0
-6095 -3 0
-6095 134 0
-6096 -7 0
-6096 108 0
-6097 -12 0
-6097 103 0
-270 6095 6096 6097 0
-6098 -14 0
-6098 189 0
-6099 -18 0
-6099 163 0
-6100 -23 0
-6100 158 0
-270 6098 6099 6100 0
-6101 -24 0
-6101 234 0
-6102 -28 0
-6102 208 0
-6103 -33 0
-6103 203 0
-270 6101 6102 6103 0
-6104 -34 0
-6104 298 0
-6105 -45 0
-6105 252 0
-6106 -50 0
-6106 247 0
-270 6104 6105 6106 0
-6107 -35 0
-6107 319 0
-6108 -52 0
-6108 259 0
-6109 -57 0
-6109 254 0
-270 6107 6108 6109 0
-6110 -36 0
-6110 334 0
-6111 -58 0
-6111 265 0
-6112 -63 0
-6112 260 0
-270 6110 6111 6112 0
-6113 -38 0
-6113 348 0
-6114 -64 0
-6114 274 0
-6115 -72 0
-6115 266 0
-270 6113 6114 6115 0
-6116 -39 0
-6116 351 0
-6117 -65 0
-6117 277 0
-6118 -75 0
-6118 267 0
-270 6116 6117 6118 0
-6119 -40 0
-6119 353 0
-6120 -66 0
-6120 279 0
-6121 -77 0
-6121 268 0
-270 6119 6120 6121 0
-6122 -41 0
-6122 354 0
-6123 -67 0
-6123 280 0
-6124 -78 0
-6124 269 0
-270 6122 6123 6124 0
-6125 -3 0
-6125 135 0
-6126 -8 0
-6126 105 0
-6127 -9 0
-6127 104 0
-271 6125 6126 6127 0
-6128 -14 0
-6128 190 0
-6129 -19 0
-6129 160 0
-6130 -20 0
-6130 159 0
-271 6128 6129 6130 0
-6131 -24 0
-6131 235 0
-6132 -29 0
-6132 205 0
-6133 -30 0
-6133 204 0
-271 6131 6132 6133 0
-6134 -34 0
-6134 299 0
-6135 -46 0
-6135 249 0
-6136 -47 0
-6136 248 0
-271 6134 6135 6136 0
-6137 -35 0
-6137 320 0
-6138 -53 0
-6138 256 0
-6139 -54 0
-6139 255 0
-271 6137 6138 6139 0
-6140 -36 0
-6140 335 0
-6141 -59 0
-6141 262 0
-6142 -60 0
-6142 261 0
-271 6140 6141 6142 0
-6143 -37 0
-6143 345 0
-6144 -64 0
-6144 267 0
-6145 -65 0
-6145 266 0
-271 6143 6144 6145 0
-6146 -40 0
-6146 355 0
-6147 -70 0
-6147 275 0
-6148 -73 0
-6148 272 0
-271 6146 6147 6148 0
-6149 -41 0
-6149 356 0
-6150 -71 0
-6150 276 0
-6151 -74 0
-6151 273 0
-271 6149 6150 6151 0
-6152 -42 0
-6152 357 0
-6153 -72 0
-6153 277 0
-6154 -75 0
-6154 274 0
-271 6152 6153 6154 0
-6155 -3 0
-6155 136 0
-6156 -8 0
-6156 106 0
-6157 -10 0
-6157 104 0
-272 6155 6156 6157 0
-6158 -14 0
-6158 191 0
-6159 -19 0
-6159 161 0
-6160 -21 0
-6160 159 0
-272 6158 6159 6160 0
-6161 -24 0
-6161 236 0
-6162 -29 0
-6162 206 0
-6163 -31 0
-6163 204 0
-272 6161 6162 6163 0
-6164 -34 0
-6164 300 0
-6165 -46 0
-6165 250 0
-6166 -48 0
-6166 248 0
-272 6164 6165 6166 0
-6167 -35 0
-6167 321 0
-6168 -53 0
-6168 257 0
-6169 -55 0
-6169 255 0
-272 6167 6168 6169 0
-6170 -36 0
-6170 336 0
-6171 -59 0
-6171 263 0
-6172 -61 0
-6172 261 0
-272 6170 6171 6172 0
-6173 -37 0
-6173 346 0
-6174 -64 0
-6174 268 0
-6175 -66 0
-6175 266 0
-272 6173 6174 6175 0
-6176 -39 0
-6176 355 0
-6177 -69 0
-6177 275 0
-6178 -73 0
-6178 271 0
-272 6176 6177 6178 0
-6179 -41 0
-6179 358 0
-6180 -71 0
-6180 278 0
-6181 -76 0
-6181 273 0
-272 6179 6180 6181 0
-6182 -42 0
-6182 359 0
-6183 -72 0
-6183 279 0
-6184 -77 0
-6184 274 0
-272 6182 6183 6184 0
-6185 -3 0
-6185 137 0
-6186 -8 0
-6186 107 0
-6187 -11 0
-6187 104 0
-273 6185 6186 6187 0
-6188 -14 0
-6188 192 0
-6189 -19 0
-6189 162 0
-6190 -22 0
-6190 159 0
-273 6188 6189 6190 0
-6191 -24 0
-6191 237 0
-6192 -29 0
-6192 207 0
-6193 -32 0
-6193 204 0
-273 6191 6192 6193 0
-6194 -34 0
-6194 301 0
-6195 -46 0
-6195 251 0
-6196 -49 0
-6196 248 0
-273 6194 6195 6196 0
-6197 -35 0
-6197 322 0
-6198 -53 0
-6198 258 0
-6199 -56 0
-6199 255 0
-273 6197 6198 6199 0
-6200 -36 0
-6200 337 0
-6201 -59 0
-6201 264 0
-6202 -62 0
-6202 261 0
-273 6200 6201 6202 0
-6203 -37 0
-6203 347 0
-6204 -64 0
-6204 269 0
-6205 -67 0
-6205 266 0
-273 6203 6204 6205 0
-6206 -39 0
-6206 356 0
-6207 -69 0
-6207 276 0
-6208 -74 0
-6208 271 0
-273 6206 6207 6208 0
-6209 -40 0
-6209 358 0
-6210 -70 0
-6210 278 0
-6211 -76 0
-6211 272 0
-273 6209 6210 6211 0
-6212 -42 0
-6212 360 0
-6213 -72 0
-6213 280 0
-6214 -78 0
-6214 274 0
-273 6212 6213 6214 0
-6215 -3 0
-6215 138 0
-6216 -8 0
-6216 108 0
-6217 -12 0
-6217 104 0
-274 6215 6216 6217 0
-6218 -14 0
-6218 193 0
-6219 -19 0
-6219 163 0
-6220 -23 0
-6220 159 0
-274 6218 6219 6220 0
-6221 -24 0
-6221 238 0
-6222 -29 0
-6222 208 0
-6223 -33 0
-6223 204 0
-274 6221 6222 6223 0
-6224 -34 0
-6224 302 0
-6225 -46 0
-6225 252 0
-6226 -50 0
-6226 248 0
-274 6224 6225 6226 0
-6227 -35 0
-6227 323 0
-6228 -53 0
-6228 259 0
-6229 -57 0
-6229 255 0
-274 6227 6228 6229 0
-6230 -36 0
-6230 338 0
-6231 -59 0
-6231 265 0
-6232 -63 0
-6232 261 0
-274 6230 6231 6232 0
-6233 -37 0
-6233 348 0
-6234 -64 0
-6234 270 0
-6235 -68 0
-6235 266 0
-274 6233 6234 6235 0
-6236 -39 0
-6236 357 0
-6237 -69 0
-6237 277 0
-6238 -75 0
-6238 271 0
-274 6236 6237 6238 0
-6239 -40 0
-6239 359 0
-6240 -70 0
-6240 279 0
-6241 -77 0
-6241 272 0
-274 6239 6240 6241 0
-6242 -41 0
-6242 360 0
-6243 -71 0
-6243 280 0
-6244 -78 0
-6244 273 0
-274 6242 6243 6244 0
-6245 -3 0
-6245 139 0
-6246 -9 0
-6246 106 0
-6247 -10 0
-6247 105 0
-275 6245 6246 6247 0
-6248 -14 0
-6248 194 0
-6249 -20 0
-6249 161 0
-6250 -21 0
-6250 160 0
-275 6248 6249 6250 0
-6251 -24 0
-6251 239 0
-6252 -30 0
-6252 206 0
-6253 -31 0
-6253 205 0
-275 6251 6252 6253 0
-6254 -34 0
-6254 303 0
-6255 -47 0
-6255 250 0
-6256 -48 0
-6256 249 0
-275 6254 6255 6256 0
-6257 -35 0
-6257 324 0
-6258 -54 0
-6258 257 0
-6259 -55 0
-6259 256 0
-275 6257 6258 6259 0
-6260 -36 0
-6260 339 0
-6261 -60 0
-6261 263 0
-6262 -61 0
-6262 262 0
-275 6260 6261 6262 0
-6263 -37 0
-6263 349 0
-6264 -65 0
-6264 268 0
-6265 -66 0
-6265 267 0
-275 6263 6264 6265 0
-6266 -38 0
-6266 355 0
-6267 -69 0
-6267 272 0
-6268 -70 0
-6268 271 0
-275 6266 6267 6268 0
-6269 -41 0
-6269 361 0
-6270 -74 0
-6270 278 0
-6271 -76 0
-6271 276 0
-275 6269 6270 6271 0
-6272 -42 0
-6272 362 0
-6273 -75 0
-6273 279 0
-6274 -77 0
-6274 277 0
-275 6272 6273 6274 0
-6275 -3 0
-6275 140 0
-6276 -9 0
-6276 107 0
-6277 -11 0
-6277 105 0
-276 6275 6276 6277 0
-6278 -14 0
-6278 195 0
-6279 -20 0
-6279 162 0
-6280 -22 0
-6280 160 0
-276 6278 6279 6280 0
-6281 -24 0
-6281 240 0
-6282 -30 0
-6282 207 0
-6283 -32 0
-6283 205 0
-276 6281 6282 6283 0
-6284 -34 0
-6284 304 0
-6285 -47 0
-6285 251 0
-6286 -49 0
-6286 249 0
-276 6284 6285 6286 0
-6287 -35 0
-6287 325 0
-6288 -54 0
-6288 258 0
-6289 -56 0
-6289 256 0
-276 6287 6288 6289 0
-6290 -36 0
-6290 340 0
-6291 -60 0
-6291 264 0
-6292 -62 0
-6292 262 0
-276 6290 6291 6292 0
-6293 -37 0
-6293 350 0
-6294 -65 0
-6294 269 0
-6295 -67 0
-6295 267 0
-276 6293 6294 6295 0
-6296 -38 0
-6296 356 0
-6297 -69 0
-6297 273 0
-6298 -71 0
-6298 271 0
-276 6296 6297 6298 0
-6299 -40 0
-6299 361 0
-6300 -73 0
-6300 278 0
-6301 -76 0
-6301 275 0
-276 6299 6300 6301 0
-6302 -42 0
-6302 363 0
-6303 -75 0
-6303 280 0
-6304 -78 0
-6304 277 0
-276 6302 6303 6304 0
-6305 -3 0
-6305 141 0
-6306 -9 0
-6306 108 0
-6307 -12 0
-6307 105 0
-277 6305 6306 6307 0
-6308 -14 0
-6308 196 0
-6309 -20 0
-6309 163 0
-6310 -23 0
-6310 160 0
-277 6308 6309 6310 0
-6311 -24 0
-6311 241 0
-6312 -30 0
-6312 208 0
-6313 -33 0
-6313 205 0
-277 6311 6312 6313 0
-6314 -34 0
-6314 305 0
-6315 -47 0
-6315 252 0
-6316 -50 0
-6316 249 0
-277 6314 6315 6316 0
-6317 -35 0
-6317 326 0
-6318 -54 0
-6318 259 0
-6319 -57 0
-6319 256 0
-277 6317 6318 6319 0
-6320 -36 0
-6320 341 0
-6321 -60 0
-6321 265 0
-6322 -63 0
-6322 262 0
-277 6320 6321 6322 0
-6323 -37 0
-6323 351 0
-6324 -65 0
-6324 270 0
-6325 -68 0
-6325 267 0
-277 6323 6324 6325 0
-6326 -38 0
-6326 357 0
-6327 -69 0
-6327 274 0
-6328 -72 0
-6328 271 0
-277 6326 6327 6328 0
-6329 -40 0
-6329 362 0
-6330 -73 0
-6330 279 0
-6331 -77 0
-6331 275 0
-277 6329 6330 6331 0
-6332 -41 0
-6332 363 0
-6333 -74 0
-6333 280 0
-6334 -78 0
-6334 276 0
-277 6332 6333 6334 0
-6335 -3 0
-6335 142 0
-6336 -10 0
-6336 107 0
-6337 -11 0
-6337 106 0
-278 6335 6336 6337 0
-6338 -14 0
-6338 197 0
-6339 -21 0
-6339 162 0
-6340 -22 0
-6340 161 0
-278 6338 6339 6340 0
-6341 -24 0
-6341 242 0
-6342 -31 0
-6342 207 0
-6343 -32 0
-6343 206 0
-278 6341 6342 6343 0
-6344 -34 0
-6344 306 0
-6345 -48 0
-6345 251 0
-6346 -49 0
-6346 250 0
-278 6344 6345 6346 0
-6347 -35 0
-6347 327 0
-6348 -55 0
-6348 258 0
-6349 -56 0
-6349 257 0
-278 6347 6348 6349 0
-6350 -36 0
-6350 342 0
-6351 -61 0
-6351 264 0
-6352 -62 0
-6352 263 0
-278 6350 6351 6352 0
-6353 -37 0
-6353 352 0
-6354 -66 0
-6354 269 0
-6355 -67 0
-6355 268 0
-278 6353 6354 6355 0
-6356 -38 0
-6356 358 0
-6357 -70 0
-6357 273 0
-6358 -71 0
-6358 272 0
-278 6356 6357 6358 0
-6359 -39 0
-6359 361 0
-6360 -73 0
-6360 276 0
-6361 -74 0
-6361 275 0
-278 6359 6360 6361 0
-6362 -42 0
-6362 364 0
-6363 -77 0
-6363 280 0
-6364 -78 0
-6364 279 0
-278 6362 6363 6364 0
-6365 -3 0
-6365 143 0
-6366 -10 0
-6366 108 0
-6367 -12 0
-6367 106 0
-279 6365 6366 6367 0
-6368 -14 0
-6368 198 0
-6369 -21 0
-6369 163 0
-6370 -23 0
-6370 161 0
-279 6368 6369 6370 0
-6371 -24 0
-6371 243 0
-6372 -31 0
-6372 208 0
-6373 -33 0
-6373 206 0
-279 6371 6372 6373 0
-6374 -34 0
-6374 307 0
-6375 -48 0
-6375 252 0
-6376 -50 0
-6376 250 0
-279 6374 6375 6376 0
-6377 -35 0
-6377 328 0
-6378 -55 0
-6378 259 0
-6379 -57 0
-6379 257 0
-279 6377 6378 6379 0
-6380 -36 0
-6380 343 0
-6381 -61 0
-6381 265 0
-6382 -63 0
-6382 263 0
-279 6380 6381 6382 0
-6383 -37 0
-6383 353 0
-6384 -66 0
-6384 270 0
-6385 -68 0
-6385 268 0
-279 6383 6384 6385 0
-6386 -38 0
-6386 359 0
-6387 -70 0
-6387 274 0
-6388 -72 0
-6388 272 0
-279 6386 6387 6388 0
-6389 -39 0
-6389 362 0
-6390 -73 0
-6390 277 0
-6391 -75 0
-6391 275 0
-279 6389 6390 6391 0
-6392 -41 0
-6392 364 0
-6393 -76 0
-6393 280 0
-6394 -78 0
-6394 278 0
-279 6392 6393 6394 0
-6395 -3 0
-6395 144 0
-6396 -11 0
-6396 108 0
-6397 -12 0
-6397 107 0
-280 6395 6396 6397 0
-6398 -14 0
-6398 199 0
-6399 -22 0
-6399 163 0
-6400 -23 0
-6400 162 0
-280 6398 6399 6400 0
-6401 -24 0
-6401 244 0
-6402 -32 0
-6402 208 0
-6403 -33 0
-6403 207 0
-280 6401 6402 6403 0
-6404 -34 0
-6404 308 0
-6405 -49 0
-6405 252 0
-6406 -50 0
-6406 251 0
-280 6404 6405 6406 0
-6407 -35 0
-6407 329 0
-6408 -56 0
-6408 259 0
-6409 -57 0
-6409 258 0
-280 6407 6408 6409 0
-6410 -36 0
-6410 344 0
-6411 -62 0
-6411 265 0
-6412 -63 0
-6412 264 0
-280 6410 6411 6412 0
-6413 -37 0
-6413 354 0
-6414 -67 0
-6414 270 0
-6415 -68 0
-6415 269 0
-280 6413 6414 6415 0
-6416 -38 0
-6416 360 0
-6417 -71 0
-6417 274 0
-6418 -72 0
-6418 273 0
-280 6416 6417 6418 0
-6419 -39 0
-6419 363 0
-6420 -74 0
-6420 277 0
-6421 -75 0
-6421 276 0
-280 6419 6420 6421 0
-6422 -40 0
-6422 364 0
-6423 -76 0
-6423 279 0
-6424 -77 0
-6424 278 0
-280 6422 6423 6424 0
-6425 -4 0
-6425 117 0
-6426 -5 0
-6426 110 0
-6427 -6 0
-6427 109 0
-281 6425 6426 6427 0
-6428 -15 0
-6428 172 0
-6429 -16 0
-6429 165 0
-6430 -17 0
-6430 164 0
-281 6428 6429 6430 0
-6431 -25 0
-6431 217 0
-6432 -26 0
-6432 210 0
-6433 -27 0
-6433 209 0
-281 6431 6432 6433 0
-6434 -34 0
-6434 253 0
-6435 -35 0
-6435 246 0
-6436 -36 0
-6436 245 0
-281 6434 6435 6436 0
-6437 -45 0
-6437 309 0
-6438 -52 0
-6438 288 0
-6439 -58 0
-6439 282 0
-281 6437 6438 6439 0
-6440 -46 0
-6440 310 0
-6441 -53 0
-6441 289 0
-6442 -59 0
-6442 283 0
-281 6440 6441 6442 0
-6443 -47 0
-6443 311 0
-6444 -54 0
-6444 290 0
-6445 -60 0
-6445 284 0
-281 6443 6444 6445 0
-6446 -48 0
-6446 312 0
-6447 -55 0
-6447 291 0
-6448 -61 0
-6448 285 0
-281 6446 6447 6448 0
-6449 -49 0
-6449 313 0
-6450 -56 0
-6450 292 0
-6451 -62 0
-6451 286 0
-281 6449 6450 6451 0
-6452 -50 0
-6452 314 0
-6453 -57 0
-6453 293 0
-6454 -63 0
-6454 287 0
-281 6452 6453 6454 0
-6455 -4 0
-6455 118 0
-6456 -5 0
-6456 111 0
-6457 -7 0
-6457 109 0
-282 6455 6456 6457 0
-6458 -15 0
-6458 173 0
-6459 -16 0
-6459 166 0
-6460 -18 0
-6460 164 0
-282 6458 6459 6460 0
-6461 -25 0
-6461 218 0
-6462 -26 0
-6462 211 0
-6463 -28 0
-6463 209 0
-282 6461 6462 6463 0
-6464 -34 0
-6464 254 0
-6465 -35 0
-6465 247 0
-6466 -37 0
-6466 245 0
-282 6464 6465 6466 0
-6467 -44 0
-6467 309 0
-6468 -51 0
-6468 288 0
-6469 -58 0
-6469 281 0
-282 6467 6468 6469 0
-6470 -46 0
-6470 315 0
-6471 -53 0
-6471 294 0
-6472 -64 0
-6472 283 0
-282 6470 6471 6472 0
-6473 -47 0
-6473 316 0
-6474 -54 0
-6474 295 0
-6475 -65 0
-6475 284 0
-282 6473 6474 6475 0
-6476 -48 0
-6476 317 0
-6477 -55 0
-6477 296 0
-6478 -66 0
-6478 285 0
-282 6476 6477 6478 0
-6479 -49 0
-6479 318 0
-6480 -56 0
-6480 297 0
-6481 -67 0
-6481 286 0
-282 6479 6480 6481 0
-6482 -50 0
-6482 319 0
-6483 -57 0
-6483 298 0
-6484 -68 0
-6484 287 0
-282 6482 6483 6484 0
-6485 -4 0
-6485 119 0
-6486 -5 0
-6486 112 0
-6487 -8 0
-6487 109 0
-283 6485 6486 6487 0
-6488 -15 0
-6488 174 0
-6489 -16 0
-6489 167 0
-6490 -19 0
-6490 164 0
-283 6488 6489 6490 0
-6491 -25 0
-6491 219 0
-6492 -26 0
-6492 212 0
-6493 -29 0
-6493 209 0
-283 6491 6492 6493 0
-6494 -34 0
-6494 255 0
-6495 -35 0
-6495 248 0
-6496 -38 0
-6496 245 0
-283 6494 6495 6496 0
-6497 -44 0
-6497 310 0
-6498 -51 0
-6498 289 0
-6499 -59 0
-6499 281 0
-283 6497 6498 6499 0
-6500 -45 0
-6500 315 0
-6501 -52 0
-6501 294 0
-6502 -64 0
-6502 282 0
-283 6500 6501 6502 0
-6503 -47 0
-6503 320 0
-6504 -54 0
-6504 299 0
-6505 -69 0
-6505 284 0
-283 6503 6504 6505 0
-6506 -48 0
-6506 321 0
-6507 -55 0
-6507 300 0
-6508 -70 0
-6508 285 0
-283 6506 6507 6508 0
-6509 -49 0
-6509 322 0
-6510 -56 0
-6510 301 0
-6511 -71 0
-6511 286 0
-283 6509 6510 6511 0
-6512 -50 0
-6512 323 0
-6513 -57 0
-6513 302 0
-6514 -72 0
-6514 287 0
-283 6512 6513 6514 0
-6515 -4 0
-6515 120 0
-6516 -5 0
-6516 113 0
-6517 -9 0
-6517 109 0
-284 6515 6516 6517 0
-6518 -15 0
-6518 175 0
-6519 -16 0
-6519 168 0
-6520 -20 0
-6520 164 0
-284 6518 6519 6520 0
-6521 -25 0
-6521 220 0
-6522 -26 0
-6522 213 0
-6523 -30 0
-6523 209 0
-284 6521 6522 6523 0
-6524 -34 0
-6524 256 0
-6525 -35 0
-6525 249 0
-6526 -39 0
-6526 245 0
-284 6524 6525 6526 0
-6527 -44 0
-6527 311 0
-6528 -51 0
-6528 290 0
-6529 -60 0
-6529 281 0
-284 6527 6528 6529 0
-6530 -45 0
-6530 316 0
-6531 -52 0
-6531 295 0
-6532 -65 0
-6532 282 0
-284 6530 6531 6532 0
-6533 -46 0
-6533 320 0
-6534 -53 0
-6534 299 0
-6535 -69 0
-6535 283 0
-284 6533 6534 6535 0
-6536 -48 0
-6536 324 0
-6537 -55 0
-6537 303 0
-6538 -73 0
-6538 285 0
-284 6536 6537 6538 0
-6539 -49 0
-6539 325 0
-6540 -56 0
-6540 304 0
-6541 -74 0
-6541 286 0
-284 6539 6540 6541 0
-6542 -50 0
-6542 326 0
-6543 -57 0
-6543 305 0
-6544 -75 0
-6544 287 0
-284 6542 6543 6544 0
-6545 -4 0
-6545 121 0
-6546 -5 0
-6546 114 0
-6547 -10 0
-6547 109 0
-285 6545 6546 6547 0
-6548 -15 0
-6548 176 0
-6549 -16 0
-6549 169 0
-6550 -21 0
-6550 164 0
-285 6548 6549 6550 0
-6551 -25 0
-6551 221 0
-6552 -26 0
-6552 214 0
-6553 -31 0
-6553 209 0
-285 6551 6552 6553 0
-6554 -34 0
-6554 257 0
-6555 -35 0
-6555 250 0
-6556 -40 0
-6556 245 0
-285 6554 6555 6556 0
-6557 -44 0
-6557 312 0
-6558 -51 0
-6558 291 0
-6559 -61 0
-6559 281 0
-285 6557 6558 6559 0
-6560 -45 0
-6560 317 0
-6561 -52 0
-6561 296 0
-6562 -66 0
-6562 282 0
-285 6560 6561 6562 0
-6563 -46 0
-6563 321 0
-6564 -53 0
-6564 300 0
-6565 -70 0
-6565 283 0
-285 6563 6564 6565 0
-6566 -47 0
-6566 324 0
-6567 -54 0
-6567 303 0
-6568 -73 0
-6568 284 0
-285 6566 6567 6568 0
-6569 -49 0
-6569 327 0
-6570 -56 0
-6570 306 0
-6571 -76 0
-6571 286 0
-285 6569 6570 6571 0
-6572 -50 0
-6572 328 0
-6573 -57 0
-6573 307 0
-6574 -77 0
-6574 287 0
-285 6572 6573 6574 0
-6575 -4 0
-6575 122 0
-6576 -5 0
-6576 115 0
-6577 -11 0
-6577 109 0
-286 6575 6576 6577 0
-6578 -15 0
-6578 177 0
-6579 -16 0
-6579 170 0
-6580 -22 0
-6580 164 0
-286 6578 6579 6580 0
-6581 -25 0
-6581 222 0
-6582 -26 0
-6582 215 0
-6583 -32 0
-6583 209 0
-286 6581 6582 6583 0
-6584 -34 0
-6584 258 0
-6585 -35 0
-6585 251 0
-6586 -41 0
-6586 245 0
-286 6584 6585 6586 0
-6587 -44 0
-6587 313 0
-6588 -51 0
-6588 292 0
-6589 -62 0
-6589 281 0
-286 6587 6588 6589 0
-6590 -45 0
-6590 318 0
-6591 -52 0
-6591 297 0
-6592 -67 0
-6592 282 0
-286 6590 6591 6592 0
-6593 -46 0
-6593 322 0
-6594 -53 0
-6594 301 0
-6595 -71 0
-6595 283 0
-286 6593 6594 6595 0
-6596 -47 0
-6596 325 0
-6597 -54 0
-6597 304 0
-6598 -74 0
-6598 284 0
-286 6596 6597 6598 0
-6599 -48 0
-6599 327 0
-6600 -55 0
-6600 306 0
-6601 -76 0
-6601 285 0
-286 6599 6600 6601 0
-6602 -50 0
-6602 329 0
-6603 -57 0
-6603 308 0
-6604 -78 0
-6604 287 0
-286 6602 6603 6604 0
-6605 -4 0
-6605 123 0
-6606 -5 0
-6606 116 0
-6607 -12 0
-6607 109 0
-287 6605 6606 6607 0
-6608 -15 0
-6608 178 0
-6609 -16 0
-6609 171 0
-6610 -23 0
-6610 164 0
-287 6608 6609 6610 0
-6611 -25 0
-6611 223 0
-6612 -26 0
-6612 216 0
-6613 -33 0
-6613 209 0
-287 6611 6612 6613 0
-6614 -34 0
-6614 259 0
-6615 -35 0
-6615 252 0
-6616 -42 0
-6616 245 0
-287 6614 6615 6616 0
-6617 -44 0
-6617 314 0
-6618 -51 0
-6618 293 0
-6619 -63 0
-6619 281 0
-287 6617 6618 6619 0
-6620 -45 0
-6620 319 0
-6621 -52 0
-6621 298 0
-6622 -68 0
-6622 282 0
-287 6620 6621 6622 0
-6623 -46 0
-6623 323 0
-6624 -53 0
-6624 302 0
-6625 -72 0
-6625 283 0
-287 6623 6624 6625 0
-6626 -47 0
-6626 326 0
-6627 -54 0
-6627 305 0
-6628 -75 0
-6628 284 0
-287 6626 6627 6628 0
-6629 -48 0
-6629 328 0
-6630 -55 0
-6630 307 0
-6631 -77 0
-6631 285 0
-287 6629 6630 6631 0
-6632 -49 0
-6632 329 0
-6633 -56 0
-6633 308 0
-6634 -78 0
-6634 286 0
-287 6632 6633 6634 0
-6635 -4 0
-6635 124 0
-6636 -6 0
-6636 111 0
-6637 -7 0
-6637 110 0
-288 6635 6636 6637 0
-6638 -15 0
-6638 179 0
-6639 -17 0
-6639 166 0
-6640 -18 0
-6640 165 0
-288 6638 6639 6640 0
-6641 -25 0
-6641 224 0
-6642 -27 0
-6642 211 0
-6643 -28 0
-6643 210 0
-288 6641 6642 6643 0
-6644 -34 0
-6644 260 0
-6645 -36 0
-6645 247 0
-6646 -37 0
-6646 246 0
-288 6644 6645 6646 0
-6647 -43 0
-6647 309 0
-6648 -51 0
-6648 282 0
-6649 -52 0
-6649 281 0
-288 6647 6648 6649 0
-6650 -46 0
-6650 330 0
-6651 -59 0
-6651 294 0
-6652 -64 0
-6652 289 0
-288 6650 6651 6652 0
-6653 -47 0
-6653 331 0
-6654 -60 0
-6654 295 0
-6655 -65 0
-6655 290 0
-288 6653 6654 6655 0
-6656 -48 0
-6656 332 0
-6657 -61 0
-6657 296 0
-6658 -66 0
-6658 291 0
-288 6656 6657 6658 0
-6659 -49 0
-6659 333 0
-6660 -62 0
-6660 297 0
-6661 -67 0
-6661 292 0
-288 6659 6660 6661 0
-6662 -50 0
-6662 334 0
-6663 -63 0
-6663 298 0
-6664 -68 0
-6664 293 0
-288 6662 6663 6664 0
-6665 -4 0
-6665 125 0
-6666 -6 0
-6666 112 0
-6667 -8 0
-6667 110 0
-289 6665 6666 6667 0
-6668 -15 0
-6668 180 0
-6669 -17 0
-6669 167 0
-6670 -19 0
-6670 165 0
-289 6668 6669 6670 0
-6671 -25 0
-6671 225 0
-6672 -27 0
-6672 212 0
-6673 -29 0
-6673 210 0
-289 6671 6672 6673 0
-6674 -34 0
-6674 261 0
-6675 -36 0
-6675 248 0
-6676 -38 0
-6676 246 0
-289 6674 6675 6676 0
-6677 -43 0
-6677 310 0
-6678 -51 0
-6678 283 0
-6679 -53 0
-6679 281 0
-289 6677 6678 6679 0
-6680 -45 0
-6680 330 0
-6681 -58 0
-6681 294 0
-6682 -64 0
-6682 288 0
-289 6680 6681 6682 0
-6683 -47 0
-6683 335 0
-6684 -60 0
-6684 299 0
-6685 -69 0
-6685 290 0
-289 6683 6684 6685 0
-6686 -48 0
-6686 336 0
-6687 -61 0
-6687 300 0
-6688 -70 0
-6688 291 0
-289 6686 6687 6688 0
-6689 -49 0
-6689 337 0
-6690 -62 0
-6690 301 0
-6691 -71 0
-6691 292 0
-289 6689 6690 6691 0
-6692 -50 0
-6692 338 0
-6693 -63 0
-6693 302 0
-6694 -72 0
-6694 293 0
-289 6692 6693 6694 0
-6695 -4 0
-6695 126 0
-6696 -6 0
-6696 113 0
-6697 -9 0
-6697 110 0
-290 6695 6696 6697 0
-6698 -15 0
-6698 181 0
-6699 -17 0
-6699 168 0
-6700 -20 0
-6700 165 0
-290 6698 6699 6700 0
-6701 -25 0
-6701 226 0
-6702 -27 0
-6702 213 0
-6703 -30 0
-6703 210 0
-290 6701 6702 6703 0
-6704 -34 0
-6704 262 0
-6705 -36 0
-6705 249 0
-6706 -39 0
-6706 246 0
-290 6704 6705 6706 0
-6707 -43 0
-6707 311 0
-6708 -51 0
-6708 284 0
-6709 -54 0
-6709 281 0
-290 6707 6708 6709 0
-6710 -45 0
-6710 331 0
-6711 -58 0
-6711 295 0
-6712 -65 0
-6712 288 0
-290 6710 6711 6712 0
-6713 -46 0
-6713 335 0
-6714 -59 0
-6714 299 0
-6715 -69 0
-6715 289 0
-290 6713 6714 6715 0
-6716 -48 0
-6716 339 0
-6717 -61 0
-6717 303 0
-6718 -73 0
-6718 291 0
-290 6716 6717 6718 0
-6719 -49 0
-6719 340 0
-6720 -62 0
-6720 304 0
-6721 -74 0
-6721 292 0
-290 6719 6720 6721 0
-6722 -50 0
-6722 341 0
-6723 -63 0
-6723 305 0
-6724 -75 0
-6724 293 0
-290 6722 6723 6724 0
-6725 -4 0
-6725 127 0
-6726 -6 0
-6726 114 0
-6727 -10 0
-6727 110 0
-291 6725 6726 6727 0
-6728 -15 0
-6728 182 0
-6729 -17 0
-6729 169 0
-6730 -21 0
-6730 165 0
-291 6728 6729 6730 0
-6731 -25 0
-6731 227 0
-6732 -27 0
-6732 214 0
-6733 -31 0
-6733 210 0
-291 6731 6732 6733 0
-6734 -34 0
-6734 263 0
-6735 -36 0
-6735 250 0
-6736 -40 0
-6736 246 0
-291 6734 6735 6736 0
-6737 -43 0
-6737 312 0
-6738 -51 0
-6738 285 0
-6739 -55 0
-6739 281 0
-291 6737 6738 6739 0
-6740 -45 0
-6740 332 0
-6741 -58 0
-6741 296 0
-6742 -66 0
-6742 288 0
-291 6740 6741 6742 0
-6743 -46 0
-6743 336 0
-6744 -59 0
-6744 300 0
-6745 -70 0
-6745 289 0
-291 6743 6744 6745 0
-6746 -47 0
-6746 339 0
-6747 -60 0
-6747 303 0
-6748 -73 0
-6748 290 0
-291 6746 6747 6748 0
-6749 -49 0
-6749 342 0
-6750 -62 0
-6750 306 0
-6751 -76 0
-6751 292 0
-291 6749 6750 6751 0
-6752 -50 0
-6752 343 0
-6753 -63 0
-6753 307 0
-6754 -77 0
-6754 293 0
-291 6752 6753 6754 0
-6755 -4 0
-6755 128 0
-6756 -6 0
-6756 115 0
-6757 -11 0
-6757 110 0
-292 6755 6756 6757 0
-6758 -15 0
-6758 183 0
-6759 -17 0
-6759 170 0
-6760 -22 0
-6760 165 0
-292 6758 6759 6760 0
-6761 -25 0
-6761 228 0
-6762 -27 0
-6762 215 0
-6763 -32 0
-6763 210 0
-292 6761 6762 6763 0
-6764 -34 0
-6764 264 0
-6765 -36 0
-6765 251 0
-6766 -41 0
-6766 246 0
-292 6764 6765 6766 0
-6767 -43 0
-6767 313 0
-6768 -51 0
-6768 286 0
-6769 -56 0
-6769 281 0
-292 6767 6768 6769 0
-6770 -45 0
-6770 333 0
-6771 -58 0
-6771 297 0
-6772 -67 0
-6772 288 0
-292 6770 6771 6772 0
-6773 -46 0
-6773 337 0
-6774 -59 0
-6774 301 0
-6775 -71 0
-6775 289 0
-292 6773 6774 6775 0
-6776 -47 0
-6776 340 0
-6777 -60 0
-6777 304 0
-6778 -74 0
-6778 290 0
-292 6776 6777 6778 0
-6779 -48 0
-6779 342 0
-6780 -61 0
-6780 306 0
-6781 -76 0
-6781 291 0
-292 6779 6780 6781 0
-6782 -50 0
-6782 344 0
-6783 -63 0
-6783 308 0
-6784 -78 0
-6784 293 0
-292 6782 6783 6784 0
-6785 -4 0
-6785 129 0
-6786 -6 0
-6786 116 0
-6787 -12 0
-6787 110 0
-293 6785 6786 6787 0
-6788 -15 0
-6788 184 0
-6789 -17 0
-6789 171 0
-6790 -23 0
-6790 165 0
-293 6788 6789 6790 0
-6791 -25 0
-6791 229 0
-6792 -27 0
-6792 216 0
-6793 -33 0
-6793 210 0
-293 6791 6792 6793 0
-6794 -34 0
-6794 265 0
-6795 -36 0
-6795 252 0
-6796 -42 0
-6796 246 0
-293 6794 6795 6796 0
-6797 -43 0
-6797 314 0
-6798 -51 0
-6798 287 0
-6799 -57 0
-6799 281 0
-293 6797 6798 6799 0
-6800 -45 0
-6800 334 0
-6801 -58 0
-6801 298 0
-6802 -68 0
-6802 288 0
-293 6800 6801 6802 0
-6803 -46 0
-6803 338 0
-6804 -59 0
-6804 302 0
-6805 -72 0
-6805 289 0
-293 6803 6804 6805 0
-6806 -47 0
-6806 341 0
-6807 -60 0
-6807 305 0
-6808 -75 0
-6808 290 0
-293 6806 6807 6808 0
-6809 -48 0
-6809 343 0
-6810 -61 0
-6810 307 0
-6811 -77 0
-6811 291 0
-293 6809 6810 6811 0
-6812 -49 0
-6812 344 0
-6813 -62 0
-6813 308 0
-6814 -78 0
-6814 292 0
-293 6812 6813 6814 0
-6815 -4 0
-6815 130 0
-6816 -7 0
-6816 112 0
-6817 -8 0
-6817 111 0
-294 6815 6816 6817 0
-6818 -15 0
-6818 185 0
-6819 -18 0
-6819 167 0
-6820 -19 0
-6820 166 0
-294 6818 6819 6820 0
-6821 -25 0
-6821 230 0
-6822 -28 0
-6822 212 0
-6823 -29 0
-6823 211 0
-294 6821 6822 6823 0
-6824 -34 0
-6824 266 0
-6825 -37 0
-6825 248 0
-6826 -38 0
-6826 247 0
-294 6824 6825 6826 0
-6827 -43 0
-6827 315 0
-6828 -52 0
-6828 283 0
-6829 -53 0
-6829 282 0
-294 6827 6828 6829 0
-6830 -44 0
-6830 330 0
-6831 -58 0
-6831 289 0
-6832 -59 0
-6832 288 0
-294 6830 6831 6832 0
-6833 -47 0
-6833 345 0
-6834 -65 0
-6834 299 0
-6835 -69 0
-6835 295 0
-294 6833 6834 6835 0
-6836 -48 0
-6836 346 0
-6837 -66 0
-6837 300 0
-6838 -70 0
-6838 296 0
-294 6836 6837 6838 0
-6839 -49 0
-6839 347 0
-6840 -67 0
-6840 301 0
-6841 -71 0
-6841 297 0
-294 6839 6840 6841 0
-6842 -50 0
-6842 348 0
-6843 -68 0
-6843 302 0
-6844 -72 0
-6844 298 0
-294 6842 6843 6844 0
-6845 -4 0
-6845 131 0
-6846 -7 0
-6846 113 0
-6847 -9 0
-6847 111 0
-295 6845 6846 6847 0
-6848 -15 0
-6848 186 0
-6849 -18 0
-6849 168 0
-6850 -20 0
-6850 166 0
-295 6848 6849 6850 0
-6851 -25 0
-6851 231 0
-6852 -28 0
-6852 213 0
-6853 -30 0
-6853 211 0
-295 6851 6852 6853 0
-6854 -34 0
-6854 267 0
-6855 -37 0
-6855 249 0
-6856 -39 0
-6856 247 0
-295 6854 6855 6856 0
-6857 -43 0
-6857 316 0
-6858 -52 0
-6858 284 0
-6859 -54 0
-6859 282 0
-295 6857 6858 6859 0
-6860 -44 0
-6860 331 0
-6861 -58 0
-6861 290 0
-6862 -60 0
-6862 288 0
-295 6860 6861 6862 0
-6863 -46 0
-6863 345 0
-6864 -64 0
-6864 299 0
-6865 -69 0
-6865 294 0
-295 6863 6864 6865 0
-6866 -48 0
-6866 349 0
-6867 -66 0
-6867 303 0
-6868 -73 0
-6868 296 0
-295 6866 6867 6868 0
-6869 -49 0
-6869 350 0
-6870 -67 0
-6870 304 0
-6871 -74 0
-6871 297 0
-295 6869 6870 6871 0
-6872 -50 0
-6872 351 0
-6873 -68 0
-6873 305 0
-6874 -75 0
-6874 298 0
-295 6872 6873 6874 0
-6875 -4 0
-6875 132 0
-6876 -7 0
-6876 114 0
-6877 -10 0
-6877 111 0
-296 6875 6876 6877 0
-6878 -15 0
-6878 187 0
-6879 -18 0
-6879 169 0
-6880 -21 0
-6880 166 0
-296 6878 6879 6880 0
-6881 -25 0
-6881 232 0
-6882 -28 0
-6882 214 0
-6883 -31 0
-6883 211 0
-296 6881 6882 6883 0
-6884 -34 0
-6884 268 0
-6885 -37 0
-6885 250 0
-6886 -40 0
-6886 247 0
-296 6884 6885 6886 0
-6887 -43 0
-6887 317 0
-6888 -52 0
-6888 285 0
-6889 -55 0
-6889 282 0
-296 6887 6888 6889 0
-6890 -44 0
-6890 332 0
-6891 -58 0
-6891 291 0
-6892 -61 0
-6892 288 0
-296 6890 6891 6892 0
-6893 -46 0
-6893 346 0
-6894 -64 0
-6894 300 0
-6895 -70 0
-6895 294 0
-296 6893 6894 6895 0
-6896 -47 0
-6896 349 0
-6897 -65 0
-6897 303 0
-6898 -73 0
-6898 295 0
-296 6896 6897 6898 0
-6899 -49 0
-6899 352 0
-6900 -67 0
-6900 306 0
-6901 -76 0
-6901 297 0
-296 6899 6900 6901 0
-6902 -50 0
-6902 353 0
-6903 -68 0
-6903 307 0
-6904 -77 0
-6904 298 0
-296 6902 6903 6904 0
-6905 -4 0
-6905 133 0
-6906 -7 0
-6906 115 0
-6907 -11 0
-6907 111 0
-297 6905 6906 6907 0
-6908 -15 0
-6908 188 0
-6909 -18 0
-6909 170 0
-6910 -22 0
-6910 166 0
-297 6908 6909 6910 0
-6911 -25 0
-6911 233 0
-6912 -28 0
-6912 215 0
-6913 -32 0
-6913 211 0
-297 6911 6912 6913 0
-6914 -34 0
-6914 269 0
-6915 -37 0
-6915 251 0
-6916 -41 0
-6916 247 0
-297 6914 6915 6916 0
-6917 -43 0
-6917 318 0
-6918 -52 0
-6918 286 0
-6919 -56 0
-6919 282 0
-297 6917 6918 6919 0
-6920 -44 0
-6920 333 0
-6921 -58 0
-6921 292 0
-6922 -62 0
-6922 288 0
-297 6920 6921 6922 0
-6923 -46 0
-6923 347 0
-6924 -64 0
-6924 301 0
-6925 -71 0
-6925 294 0
-297 6923 6924 6925 0
-6926 -47 0
-6926 350 0
-6927 -65 0
-6927 304 0
-6928 -74 0
-6928 295 0
-297 6926 6927 6928 0
-6929 -48 0
-6929 352 0
-6930 -66 0
-6930 306 0
-6931 -76 0
-6931 296 0
-297 6929 6930 6931 0
-6932 -50 0
-6932 354 0
-6933 -68 0
-6933 308 0
-6934 -78 0
-6934 298 0
-297 6932 6933 6934 0
-6935 -4 0
-6935 134 0
-6936 -7 0
-6936 116 0
-6937 -12 0
-6937 111 0
-298 6935 6936 6937 0
-6938 -15 0
-6938 189 0
-6939 -18 0
-6939 171 0
-6940 -23 0
-6940 166 0
-298 6938 6939 6940 0
-6941 -25 0
-6941 234 0
-6942 -28 0
-6942 216 0
-6943 -33 0
-6943 211 0
-298 6941 6942 6943 0
-6944 -34 0
-6944 270 0
-6945 -37 0
-6945 252 0
-6946 -42 0
-6946 247 0
-298 6944 6945 6946 0
-6947 -43 0
-6947 319 0
-6948 -52 0
-6948 287 0
-6949 -57 0
-6949 282 0
-298 6947 6948 6949 0
-6950 -44 0
-6950 334 0
-6951 -58 0
-6951 293 0
-6952 -63 0
-6952 288 0
-298 6950 6951 6952 0
-6953 -46 0
-6953 348 0
-6954 -64 0
-6954 302 0
-6955 -72 0
-6955 294 0
-298 6953 6954 6955 0
-6956 -47 0
-6956 351 0
-6957 -65 0
-6957 305 0
-6958 -75 0
-6958 295 0
-298 6956 6957 6958 0
-6959 -48 0
-6959 353 0
-6960 -66 0
-6960 307 0
-6961 -77 0
-6961 296 0
-298 6959 6960 6961 0
-6962 -49 0
-6962 354 0
-6963 -67 0
-6963 308 0
-6964 -78 0
-6964 297 0
-298 6962 6963 6964 0
-6965 -4 0
-6965 135 0
-6966 -8 0
-6966 113 0
-6967 -9 0
-6967 112 0
-299 6965 6966 6967 0
-6968 -15 0
-6968 190 0
-6969 -19 0
-6969 168 0
-6970 -20 0
-6970 167 0
-299 6968 6969 6970 0
-6971 -25 0
-6971 235 0
-6972 -29 0
-6972 213 0
-6973 -30 0
-6973 212 0
-299 6971 6972 6973 0
-6974 -34 0
-6974 271 0
-6975 -38 0
-6975 249 0
-6976 -39 0
-6976 248 0
-299 6974 6975 6976 0
-6977 -43 0
-6977 320 0
-6978 -53 0
-6978 284 0
-6979 -54 0
-6979 283 0
-299 6977 6978 6979 0
-6980 -44 0
-6980 335 0
-6981 -59 0
-6981 290 0
-6982 -60 0
-6982 289 0
-299 6980 6981 6982 0
-6983 -45 0
-6983 345 0
-6984 -64 0
-6984 295 0
-6985 -65 0
-6985 294 0
-299 6983 6984 6985 0
-6986 -48 0
-6986 355 0
-6987 -70 0
-6987 303 0
-6988 -73 0
-6988 300 0
-299 6986 6987 6988 0
-6989 -49 0
-6989 356 0
-6990 -71 0
-6990 304 0
-6991 -74 0
-6991 301 0
-299 6989 6990 6991 0
-6992 -50 0
-6992 357 0
-6993 -72 0
-6993 305 0
-6994 -75 0
-6994 302 0
-299 6992 6993 6994 0
-6995 -4 0
-6995 136 0
-6996 -8 0
-6996 114 0
-6997 -10 0
-6997 112 0
-300 6995 6996 6997 0
-6998 -15 0
-6998 191 0
-6999 -19 0
-6999 169 0
-7000 -21 0
-7000 167 0
-300 6998 6999 7000 0
-7001 -25 0
-7001 236 0
-7002 -29 0
-7002 214 0
-7003 -31 0
-7003 212 0
-300 7001 7002 7003 0
-7004 -34 0
-7004 272 0
-7005 -38 0
-7005 250 0
-7006 -40 0
-7006 248 0
-300 7004 7005 7006 0
-7007 -43 0
-7007 321 0
-7008 -53 0
-7008 285 0
-7009 -55 0
-7009 283 0
-300 7007 7008 7009 0
-7010 -44 0
-7010 336 0
-7011 -59 0
-7011 291 0
-7012 -61 0
-7012 289 0
-300 7010 7011 7012 0
-7013 -45 0
-7013 346 0
-7014 -64 0
-7014 296 0
-7015 -66 0
-7015 294 0
-300 7013 7014 7015 0
-7016 -47 0
-7016 355 0
-7017 -69 0
-7017 303 0
-7018 -73 0
-7018 299 0
-300 7016 7017 7018 0
-7019 -49 0
-7019 358 0
-7020 -71 0
-7020 306 0
-7021 -76 0
-7021 301 0
-300 7019 7020 7021 0
-7022 -50 0
-7022 359 0
-7023 -72 0
-7023 307 0
-7024 -77 0
-7024 302 0
-300 7022 7023 7024 0
-7025 -4 0
-7025 137 0
-7026 -8 0
-7026 115 0
-7027 -11 0
-7027 112 0
-301 7025 7026 7027 0
-7028 -15 0
-7028 192 0
-7029 -19 0
-7029 170 0
-7030 -22 0
-7030 167 0
-301 7028 7029 7030 0
-7031 -25 0
-7031 237 0
-7032 -29 0
-7032 215 0
-7033 -32 0
-7033 212 0
-301 7031 7032 7033 0
-7034 -34 0
-7034 273 0
-7035 -38 0
-7035 251 0
-7036 -41 0
-7036 248 0
-301 7034 7035 7036 0
-7037 -43 0
-7037 322 0
-7038 -53 0
-7038 286 0
-7039 -56 0
-7039 283 0
-301 7037 7038 7039 0
-7040 -44 0
-7040 337 0
-7041 -59 0
-7041 292 0
-7042 -62 0
-7042 289 0
-301 7040 7041 7042 0
-7043 -45 0
-7043 347 0
-7044 -64 0
-7044 297 0
-7045 -67 0
-7045 294 0
-301 7043 7044 7045 0
-7046 -47 0
-7046 356 0
-7047 -69 0
-7047 304 0
-7048 -74 0
-7048 299 0
-301 7046 7047 7048 0
-7049 -48 0
-7049 358 0
-7050 -70 0
-7050 306 0
-7051 -76 0
-7051 300 0
-301 7049 7050 7051 0
-7052 -50 0
-7052 360 0
-7053 -72 0
-7053 308 0
-7054 -78 0
-7054 302 0
-301 7052 7053 7054 0
-7055 -4 0
-7055 138 0
-7056 -8 0
-7056 116 0
-7057 -12 0
-7057 112 0
-302 7055 7056 7057 0
-7058 -15 0
-7058 193 0
-7059 -19 0
-7059 171 0
-7060 -23 0
-7060 167 0
-302 7058 7059 7060 0
-7061 -25 0
-7061 238 0
-7062 -29 0
-7062 216 0
-7063 -33 0
-7063 212 0
-302 7061 7062 7063 0
-7064 -34 0
-7064 274 0
-7065 -38 0
-7065 252 0
-7066 -42 0
-7066 248 0
-302 7064 7065 7066 0
-7067 -43 0
-7067 323 0
-7068 -53 0
-7068 287 0
-7069 -57 0
-7069 283 0
-302 7067 7068 7069 0
-7070 -44 0
-7070 338 0
-7071 -59 0
-7071 293 0
-7072 -63 0
-7072 289 0
-302 7070 7071 7072 0
-7073 -45 0
-7073 348 0
-7074 -64 0
-7074 298 0
-7075 -68 0
-7075 294 0
-302 7073 7074 7075 0
-7076 -47 0
-7076 357 0
-7077 -69 0
-7077 305 0
-7078 -75 0
-7078 299 0
-302 7076 7077 7078 0
-7079 -48 0
-7079 359 0
-7080 -70 0
-7080 307 0
-7081 -77 0
-7081 300 0
-302 7079 7080 7081 0
-7082 -49 0
-7082 360 0
-7083 -71 0
-7083 308 0
-7084 -78 0
-7084 301 0
-302 7082 7083 7084 0
-7085 -4 0
-7085 139 0
-7086 -9 0
-7086 114 0
-7087 -10 0
-7087 113 0
-303 7085 7086 7087 0
-7088 -15 0
-7088 194 0
-7089 -20 0
-7089 169 0
-7090 -21 0
-7090 168 0
-303 7088 7089 7090 0
-7091 -25 0
-7091 239 0
-7092 -30 0
-7092 214 0
-7093 -31 0
-7093 213 0
-303 7091 7092 7093 0
-7094 -34 0
-7094 275 0
-7095 -39 0
-7095 250 0
-7096 -40 0
-7096 249 0
-303 7094 7095 7096 0
-7097 -43 0
-7097 324 0
-7098 -54 0
-7098 285 0
-7099 -55 0
-7099 284 0
-303 7097 7098 7099 0
-7100 -44 0
-7100 339 0
-7101 -60 0
-7101 291 0
-7102 -61 0
-7102 290 0
-303 7100 7101 7102 0
-7103 -45 0
-7103 349 0
-7104 -65 0
-7104 296 0
-7105 -66 0
-7105 295 0
-303 7103 7104 7105 0
-7106 -46 0
-7106 355 0
-7107 -69 0
-7107 300 0
-7108 -70 0
-7108 299 0
-303 7106 7107 7108 0
-7109 -49 0
-7109 361 0
-7110 -74 0
-7110 306 0
-7111 -76 0
-7111 304 0
-303 7109 7110 7111 0
-7112 -50 0
-7112 362 0
-7113 -75 0
-7113 307 0
-7114 -77 0
-7114 305 0
-303 7112 7113 7114 0
-7115 -4 0
-7115 140 0
-7116 -9 0
-7116 115 0
-7117 -11 0
-7117 113 0
-304 7115 7116 7117 0
-7118 -15 0
-7118 195 0
-7119 -20 0
-7119 170 0
-7120 -22 0
-7120 168 0
-304 7118 7119 7120 0
-7121 -25 0
-7121 240 0
-7122 -30 0
-7122 215 0
-7123 -32 0
-7123 213 0
-304 7121 7122 7123 0
-7124 -34 0
-7124 276 0
-7125 -39 0
-7125 251 0
-7126 -41 0
-7126 249 0
-304 7124 7125 7126 0
-7127 -43 0
-7127 325 0
-7128 -54 0
-7128 286 0
-7129 -56 0
-7129 284 0
-304 7127 7128 7129 0
-7130 -44 0
-7130 340 0
-7131 -60 0
-7131 292 0
-7132 -62 0
-7132 290 0
-304 7130 7131 7132 0
-7133 -45 0
-7133 350 0
-7134 -65 0
-7134 297 0
-7135 -67 0
-7135 295 0
-304 7133 7134 7135 0
-7136 -46 0
-7136 356 0
-7137 -69 0
-7137 301 0
-7138 -71 0
-7138 299 0
-304 7136 7137 7138 0
-7139 -48 0
-7139 361 0
-7140 -73 0
-7140 306 0
-7141 -76 0
-7141 303 0
-304 7139 7140 7141 0
-7142 -50 0
-7142 363 0
-7143 -75 0
-7143 308 0
-7144 -78 0
-7144 305 0
-304 7142 7143 7144 0
-7145 -4 0
-7145 141 0
-7146 -9 0
-7146 116 0
-7147 -12 0
-7147 113 0
-305 7145 7146 7147 0
-7148 -15 0
-7148 196 0
-7149 -20 0
-7149 171 0
-7150 -23 0
-7150 168 0
-305 7148 7149 7150 0
-7151 -25 0
-7151 241 0
-7152 -30 0
-7152 216 0
-7153 -33 0
-7153 213 0
-305 7151 7152 7153 0
-7154 -34 0
-7154 277 0
-7155 -39 0
-7155 252 0
-7156 -42 0
-7156 249 0
-305 7154 7155 7156 0
-7157 -43 0
-7157 326 0
-7158 -54 0
-7158 287 0
-7159 -57 0
-7159 284 0
-305 7157 7158 7159 0
-7160 -44 0
-7160 341 0
-7161 -60 0
-7161 293 0
-7162 -63 0
-7162 290 0
-305 7160 7161 7162 0
-7163 -45 0
-7163 351 0
-7164 -65 0
-7164 298 0
-7165 -68 0
-7165 295 0
-305 7163 7164 7165 0
-7166 -46 0
-7166 357 0
-7167 -69 0
-7167 302 0
-7168 -72 0
-7168 299 0
-305 7166 7167 7168 0
-7169 -48 0
-7169 362 0
-7170 -73 0
-7170 307 0
-7171 -77 0
-7171 303 0
-305 7169 7170 7171 0
-7172 -49 0
-7172 363 0
-7173 -74 0
-7173 308 0
-7174 -78 0
-7174 304 0
-305 7172 7173 7174 0
-7175 -4 0
-7175 142 0
-7176 -10 0
-7176 115 0
-7177 -11 0
-7177 114 0
-306 7175 7176 7177 0
-7178 -15 0
-7178 197 0
-7179 -21 0
-7179 170 0
-7180 -22 0
-7180 169 0
-306 7178 7179 7180 0
-7181 -25 0
-7181 242 0
-7182 -31 0
-7182 215 0
-7183 -32 0
-7183 214 0
-306 7181 7182 7183 0
-7184 -34 0
-7184 278 0
-7185 -40 0
-7185 251 0
-7186 -41 0
-7186 250 0
-306 7184 7185 7186 0
-7187 -43 0
-7187 327 0
-7188 -55 0
-7188 286 0
-7189 -56 0
-7189 285 0
-306 7187 7188 7189 0
-7190 -44 0
-7190 342 0
-7191 -61 0
-7191 292 0
-7192 -62 0
-7192 291 0
-306 7190 7191 7192 0
-7193 -45 0
-7193 352 0
-7194 -66 0
-7194 297 0
-7195 -67 0
-7195 296 0
-306 7193 7194 7195 0
-7196 -46 0
-7196 358 0
-7197 -70 0
-7197 301 0
-7198 -71 0
-7198 300 0
-306 7196 7197 7198 0
-7199 -47 0
-7199 361 0
-7200 -73 0
-7200 304 0
-7201 -74 0
-7201 303 0
-306 7199 7200 7201 0
-7202 -50 0
-7202 364 0
-7203 -77 0
-7203 308 0
-7204 -78 0
-7204 307 0
-306 7202 7203 7204 0
-7205 -4 0
-7205 143 0
-7206 -10 0
-7206 116 0
-7207 -12 0
-7207 114 0
-307 7205 7206 7207 0
-7208 -15 0
-7208 198 0
-7209 -21 0
-7209 171 0
-7210 -23 0
-7210 169 0
-307 7208 7209 7210 0
-7211 -25 0
-7211 243 0
-7212 -31 0
-7212 216 0
-7213 -33 0
-7213 214 0
-307 7211 7212 7213 0
-7214 -34 0
-7214 279 0
-7215 -40 0
-7215 252 0
-7216 -42 0
-7216 250 0
-307 7214 7215 7216 0
-7217 -43 0
-7217 328 0
-7218 -55 0
-7218 287 0
-7219 -57 0
-7219 285 0
-307 7217 7218 7219 0
-7220 -44 0
-7220 343 0
-7221 -61 0
-7221 293 0
-7222 -63 0
-7222 291 0
-307 7220 7221 7222 0
-7223 -45 0
-7223 353 0
-7224 -66 0
-7224 298 0
-7225 -68 0
-7225 296 0
-307 7223 7224 7225 0
-7226 -46 0
-7226 359 0
-7227 -70 0
-7227 302 0
-7228 -72 0
-7228 300 0
-307 7226 7227 7228 0
-7229 -47 0
-7229 362 0
-7230 -73 0
-7230 305 0
-7231 -75 0
-7231 303 0
-307 7229 7230 7231 0
-7232 -49 0
-7232 364 0
-7233 -76 0
-7233 308 0
-7234 -78 0
-7234 306 0
-307 7232 7233 7234 0
-7235 -4 0
-7235 144 0
-7236 -11 0
-7236 116 0
-7237 -12 0
-7237 115 0
-308 7235 7236 7237 0
-7238 -15 0
-7238 199 0
-7239 -22 0
-7239 171 0
-7240 -23 0
-7240 170 0
-308 7238 7239 7240 0
-7241 -25 0
-7241 244 0
-7242 -32 0
-7242 216 0
-7243 -33 0
-7243 215 0
-308 7241 7242 7243 0
-7244 -34 0
-7244 280 0
-7245 -41 0
-7245 252 0
-7246 -42 0
-7246 251 0
-308 7244 7245 7246 0
-7247 -43 0
-7247 329 0
-7248 -56 0
-7248 287 0
-7249 -57 0
-7249 286 0
-308 7247 7248 7249 0
-7250 -44 0
-7250 344 0
-7251 -62 0
-7251 293 0
-7252 -63 0
-7252 292 0
-308 7250 7251 7252 0
-7253 -45 0
-7253 354 0
-7254 -67 0
-7254 298 0
-7255 -68 0
-7255 297 0
-308 7253 7254 7255 0
-7256 -46 0
-7256 360 0
-7257 -71 0
-7257 302 0
-7258 -72 0
-7258 301 0
-308 7256 7257 7258 0
-7259 -47 0
-7259 363 0
-7260 -74 0
-7260 305 0
-7261 -75 0
-7261 304 0
-308 7259 7260 7261 0
-7262 -48 0
-7262 364 0
-7263 -76 0
-7263 307 0
-7264 -77 0
-7264 306 0
-308 7262 7263 7264 0
-7265 -5 0
-7265 124 0
-7266 -6 0
-7266 118 0
-7267 -7 0
-7267 117 0
-309 7265 7266 7267 0
-7268 -16 0
-7268 179 0
-7269 -17 0
-7269 173 0
-7270 -18 0
-7270 172 0
-309 7268 7269 7270 0
-7271 -26 0
-7271 224 0
-7272 -27 0
-7272 218 0
-7273 -28 0
-7273 217 0
-309 7271 7272 7273 0
-7274 -35 0
-7274 260 0
-7275 -36 0
-7275 254 0
-7276 -37 0
-7276 253 0
-309 7274 7275 7276 0
-7277 -43 0
-7277 288 0
-7278 -44 0
-7278 282 0
-7279 -45 0
-7279 281 0
-309 7277 7278 7279 0
-7280 -53 0
-7280 330 0
-7281 -59 0
-7281 315 0
-7282 -64 0
-7282 310 0
-309 7280 7281 7282 0
-7283 -54 0
-7283 331 0
-7284 -60 0
-7284 316 0
-7285 -65 0
-7285 311 0
-309 7283 7284 7285 0
-7286 -55 0
-7286 332 0
-7287 -61 0
-7287 317 0
-7288 -66 0
-7288 312 0
-309 7286 7287 7288 0
-7289 -56 0
-7289 333 0
-7290 -62 0
-7290 318 0
-7291 -67 0
-7291 313 0
-309 7289 7290 7291 0
-7292 -57 0
-7292 334 0
-7293 -63 0
-7293 319 0
-7294 -68 0
-7294 314 0
-309 7292 7293 7294 0
-7295 -5 0
-7295 125 0
-7296 -6 0
-7296 119 0
-7297 -8 0
-7297 117 0
-310 7295 7296 7297 0
-7298 -16 0
-7298 180 0
-7299 -17 0
-7299 174 0
-7300 -19 0
-7300 172 0
-310 7298 7299 7300 0
-7301 -26 0
-7301 225 0
-7302 -27 0
-7302 219 0
-7303 -29 0
-7303 217 0
-310 7301 7302 7303 0
-7304 -35 0
-7304 261 0
-7305 -36 0
-7305 255 0
-7306 -38 0
-7306 253 0
-310 7304 7305 7306 0
-7307 -43 0
-7307 289 0
-7308 -44 0
-7308 283 0
-7309 -46 0
-7309 281 0
-310 7307 7308 7309 0
-7310 -52 0
-7310 330 0
-7311 -58 0
-7311 315 0
-7312 -64 0
-7312 309 0
-310 7310 7311 7312 0
-7313 -54 0
-7313 335 0
-7314 -60 0
-7314 320 0
-7315 -69 0
-7315 311 0
-310 7313 7314 7315 0
-7316 -55 0
-7316 336 0
-7317 -61 0
-7317 321 0
-7318 -70 0
-7318 312 0
-310 7316 7317 7318 0
-7319 -56 0
-7319 337 0
-7320 -62 0
-7320 322 0
-7321 -71 0
-7321 313 0
-310 7319 7320 7321 0
-7322 -57 0
-7322 338 0
-7323 -63 0
-7323 323 0
-7324 -72 0
-7324 314 0
-310 7322 7323 7324 0
-7325 -5 0
-7325 126 0
-7326 -6 0
-7326 120 0
-7327 -9 0
-7327 117 0
-311 7325 7326 7327 0
-7328 -16 0
-7328 181 0
-7329 -17 0
-7329 175 0
-7330 -20 0
-7330 172 0
-311 7328 7329 7330 0
-7331 -26 0
-7331 226 0
-7332 -27 0
-7332 220 0
-7333 -30 0
-7333 217 0
-311 7331 7332 7333 0
-7334 -35 0
-7334 262 0
-7335 -36 0
-7335 256 0
-7336 -39 0
-7336 253 0
-311 7334 7335 7336 0
-7337 -43 0
-7337 290 0
-7338 -44 0
-7338 284 0
-7339 -47 0
-7339 281 0
-311 7337 7338 7339 0
-7340 -52 0
-7340 331 0
-7341 -58 0
-7341 316 0
-7342 -65 0
-7342 309 0
-311 7340 7341 7342 0
-7343 -53 0
-7343 335 0
-7344 -59 0
-7344 320 0
-7345 -69 0
-7345 310 0
-311 7343 7344 7345 0
-7346 -55 0
-7346 339 0
-7347 -61 0
-7347 324 0
-7348 -73 0
-7348 312 0
-311 7346 7347 7348 0
-7349 -56 0
-7349 340 0
-7350 -62 0
-7350 325 0
-7351 -74 0
-7351 313 0
-311 7349 7350 7351 0
-7352 -57 0
-7352 341 0
-7353 -63 0
-7353 326 0
-7354 -75 0
-7354 314 0
-311 7352 7353 7354 0
-7355 -5 0
-7355 127 0
-7356 -6 0
-7356 121 0
-7357 -10 0
-7357 117 0
-312 7355 7356 7357 0
-7358 -16 0
-7358 182 0
-7359 -17 0
-7359 176 0
-7360 -21 0
-7360 172 0
-312 7358 7359 7360 0
-7361 -26 0
-7361 227 0
-7362 -27 0
-7362 221 0
-7363 -31 0
-7363 217 0
-312 7361 7362 7363 0
-7364 -35 0
-7364 263 0
-7365 -36 0
-7365 257 0
-7366 -40 0
-7366 253 0
-312 7364 7365 7366 0
-7367 -43 0
-7367 291 0
-7368 -44 0
-7368 285 0
-7369 -48 0
-7369 281 0
-312 7367 7368 7369 0
-7370 -52 0
-7370 332 0
-7371 -58 0
-7371 317 0
-7372 -66 0
-7372 309 0
-312 7370 7371 7372 0
-7373 -53 0
-7373 336 0
-7374 -59 0
-7374 321 0
-7375 -70 0
-7375 310 0
-312 7373 7374 7375 0
-7376 -54 0
-7376 339 0
-7377 -60 0
-7377 324 0
-7378 -73 0
-7378 311 0
-312 7376 7377 7378 0
-7379 -56 0
-7379 342 0
-7380 -62 0
-7380 327 0
-7381 -76 0
-7381 313 0
-312 7379 7380 7381 0
-7382 -57 0
-7382 343 0
-7383 -63 0
-7383 328 0
-7384 -77 0
-7384 314 0
-312 7382 7383 7384 0
-7385 -5 0
-7385 128 0
-7386 -6 0
-7386 122 0
-7387 -11 0
-7387 117 0
-313 7385 7386 7387 0
-7388 -16 0
-7388 183 0
-7389 -17 0
-7389 177 0
-7390 -22 0
-7390 172 0
-313 7388 7389 7390 0
-7391 -26 0
-7391 228 0
-7392 -27 0
-7392 222 0
-7393 -32 0
-7393 217 0
-313 7391 7392 7393 0
-7394 -35 0
-7394 264 0
-7395 -36 0
-7395 258 0
-7396 -41 0
-7396 253 0
-313 7394 7395 7396 0
-7397 -43 0
-7397 292 0
-7398 -44 0
-7398 286 0
-7399 -49 0
-7399 281 0
-313 7397 7398 7399 0
-7400 -52 0
-7400 333 0
-7401 -58 0
-7401 318 0
-7402 -67 0
-7402 309 0
-313 7400 7401 7402 0
-7403 -53 0
-7403 337 0
-7404 -59 0
-7404 322 0
-7405 -71 0
-7405 310 0
-313 7403 7404 7405 0
-7406 -54 0
-7406 340 0
-7407 -60 0
-7407 325 0
-7408 -74 0
-7408 311 0
-313 7406 7407 7408 0
-7409 -55 0
-7409 342 0
-7410 -61 0
-7410 327 0
-7411 -76 0
-7411 312 0
-313 7409 7410 7411 0
-7412 -57 0
-7412 344 0
-7413 -63 0
-7413 329 0
-7414 -78 0
-7414 314 0
-313 7412 7413 7414 0
-7415 -5 0
-7415 129 0
-7416 -6 0
-7416 123 0
-7417 -12 0
-7417 117 0
-314 7415 7416 7417 0
-7418 -16 0
-7418 184 0
-7419 -17 0
-7419 178 0
-7420 -23 0
-7420 172 0
-314 7418 7419 7420 0
-7421 -26 0
-7421 229 0
-7422 -27 0
-7422 223 0
-7423 -33 0
-7423 217 0
-314 7421 7422 7423 0
-7424 -35 0
-7424 265 0
-7425 -36 0
-7425 259 0
-7426 -42 0
-7426 253 0
-314 7424 7425 7426 0
-7427 -43 0
-7427 293 0
-7428 -44 0
-7428 287 0
-7429 -50 0
-7429 281 0
-314 7427 7428 7429 0
-7430 -52 0
-7430 334 0
-7431 -58 0
-7431 319 0
-7432 -68 0
-7432 309 0
-314 7430 7431 7432 0
-7433 -53 0
-7433 338 0
-7434 -59 0
-7434 323 0
-7435 -72 0
-7435 310 0
-314 7433 7434 7435 0
-7436 -54 0
-7436 341 0
-7437 -60 0
-7437 326 0
-7438 -75 0
-7438 311 0
-314 7436 7437 7438 0
-7439 -55 0
-7439 343 0
-7440 -61 0
-7440 328 0
-7441 -77 0
-7441 312 0
-314 7439 7440 7441 0
-7442 -56 0
-7442 344 0
-7443 -62 0
-7443 329 0
-7444 -78 0
-7444 313 0
-314 7442 7443 7444 0
-7445 -5 0
-7445 130 0
-7446 -7 0
-7446 119 0
-7447 -8 0
-7447 118 0
-315 7445 7446 7447 0
-7448 -16 0
-7448 185 0
-7449 -18 0
-7449 174 0
-7450 -19 0
-7450 173 0
-315 7448 7449 7450 0
-7451 -26 0
-7451 230 0
-7452 -28 0
-7452 219 0
-7453 -29 0
-7453 218 0
-315 7451 7452 7453 0
-7454 -35 0
-7454 266 0
-7455 -37 0
-7455 255 0
-7456 -38 0
-7456 254 0
-315 7454 7455 7456 0
-7457 -43 0
-7457 294 0
-7458 -45 0
-7458 283 0
-7459 -46 0
-7459 282 0
-315 7457 7458 7459 0
-7460 -51 0
-7460 330 0
-7461 -58 0
-7461 310 0
-7462 -59 0
-7462 309 0
-315 7460 7461 7462 0
-7463 -54 0
-7463 345 0
-7464 -65 0
-7464 320 0
-7465 -69 0
-7465 316 0
-315 7463 7464 7465 0
-7466 -55 0
-7466 346 0
-7467 -66 0
-7467 321 0
-7468 -70 0
-7468 317 0
-315 7466 7467 7468 0
-7469 -56 0
-7469 347 0
-7470 -67 0
-7470 322 0
-7471 -71 0
-7471 318 0
-315 7469 7470 7471 0
-7472 -57 0
-7472 348 0
-7473 -68 0
-7473 323 0
-7474 -72 0
-7474 319 0
-315 7472 7473 7474 0
-7475 -5 0
-7475 131 0
-7476 -7 0
-7476 120 0
-7477 -9 0
-7477 118 0
-316 7475 7476 7477 0
-7478 -16 0
-7478 186 0
-7479 -18 0
-7479 175 0
-7480 -20 0
-7480 173 0
-316 7478 7479 7480 0
-7481 -26 0
-7481 231 0
-7482 -28 0
-7482 220 0
-7483 -30 0
-7483 218 0
-316 7481 7482 7483 0
-7484 -35 0
-7484 267 0
-7485 -37 0
-7485 256 0
-7486 -39 0
-7486 254 0
-316 7484 7485 7486 0
-7487 -43 0
-7487 295 0
-7488 -45 0
-7488 284 0
-7489 -47 0
-7489 282 0
-316 7487 7488 7489 0
-7490 -51 0
-7490 331 0
-7491 -58 0
-7491 311 0
-7492 -60 0
-7492 309 0
-316 7490 7491 7492 0
-7493 -53 0
-7493 345 0
-7494 -64 0
-7494 320 0
-7495 -69 0
-7495 315 0
-316 7493 7494 7495 0
-7496 -55 0
-7496 349 0
-7497 -66 0
-7497 324 0
-7498 -73 0
-7498 317 0
-316 7496 7497 7498 0
-7499 -56 0
-7499 350 0
-7500 -67 0
-7500 325 0
-7501 -74 0
-7501 318 0
-316 7499 7500 7501 0
-7502 -57 0
-7502 351 0
-7503 -68 0
-7503 326 0
-7504 -75 0
-7504 319 0
-316 7502 7503 7504 0
-7505 -5 0
-7505 132 0
-7506 -7 0
-7506 121 0
-7507 -10 0
-7507 118 0
-317 7505 7506 7507 0
-7508 -16 0
-7508 187 0
-7509 -18 0
-7509 176 0
-7510 -21 0
-7510 173 0
-317 7508 7509 7510 0
-7511 -26 0
-7511 232 0
-7512 -28 0
-7512 221 0
-7513 -31 0
-7513 218 0
-317 7511 7512 7513 0
-7514 -35 0
-7514 268 0
-7515 -37 0
-7515 257 0
-7516 -40 0
-7516 254 0
-317 7514 7515 7516 0
-7517 -43 0
-7517 296 0
-7518 -45 0
-7518 285 0
-7519 -48 0
-7519 282 0
-317 7517 7518 7519 0
-7520 -51 0
-7520 332 0
-7521 -58 0
-7521 312 0
-7522 -61 0
-7522 309 0
-317 7520 7521 7522 0
-7523 -53 0
-7523 346 0
-7524 -64 0
-7524 321 0
-7525 -70 0
-7525 315 0
-317 7523 7524 7525 0
-7526 -54 0
-7526 349 0
-7527 -65 0
-7527 324 0
-7528 -73 0
-7528 316 0
-317 7526 7527 7528 0
-7529 -56 0
-7529 352 0
-7530 -67 0
-7530 327 0
-7531 -76 0
-7531 318 0
-317 7529 7530 7531 0
-7532 -57 0
-7532 353 0
-7533 -68 0
-7533 328 0
-7534 -77 0
-7534 319 0
-317 7532 7533 7534 0
-7535 -5 0
-7535 133 0
-7536 -7 0
-7536 122 0
-7537 -11 0
-7537 118 0
-318 7535 7536 7537 0
-7538 -16 0
-7538 188 0
-7539 -18 0
-7539 177 0
-7540 -22 0
-7540 173 0
-318 7538 7539 7540 0
-7541 -26 0
-7541 233 0
-7542 -28 0
-7542 222 0
-7543 -32 0
-7543 218 0
-318 7541 7542 7543 0
-7544 -35 0
-7544 269 0
-7545 -37 0
-7545 258 0
-7546 -41 0
-7546 254 0
-318 7544 7545 7546 0
-7547 -43 0
-7547 297 0
-7548 -45 0
-7548 286 0
-7549 -49 0
-7549 282 0
-318 7547 7548 7549 0
-7550 -51 0
-7550 333 0
-7551 -58 0
-7551 313 0
-7552 -62 0
-7552 309 0
-318 7550 7551 7552 0
-7553 -53 0
-7553 347 0
-7554 -64 0
-7554 322 0
-7555 -71 0
-7555 315 0
-318 7553 7554 7555 0
-7556 -54 0
-7556 350 0
-7557 -65 0
-7557 325 0
-7558 -74 0
-7558 316 0
-318 7556 7557 7558 0
-7559 -55 0
-7559 352 0
-7560 -66 0
-7560 327 0
-7561 -76 0
-7561 317 0
-318 7559 7560 7561 0
-7562 -57 0
-7562 354 0
-7563 -68 0
-7563 329 0
-7564 -78 0
-7564 319 0
-318 7562 7563 7564 0
-7565 -5 0
-7565 134 0
-7566 -7 0
-7566 123 0
-7567 -12 0
-7567 118 0
-319 7565 7566 7567 0
-7568 -16 0
-7568 189 0
-7569 -18 0
-7569 178 0
-7570 -23 0
-7570 173 0
-319 7568 7569 7570 0
-7571 -26 0
-7571 234 0
-7572 -28 0
-7572 223 0
-7573 -33 0
-7573 218 0
-319 7571 7572 7573 0
-7574 -35 0
-7574 270 0
-7575 -37 0
-7575 259 0
-7576 -42 0
-7576 254 0
-319 7574 7575 7576 0
-7577 -43 0
-7577 298 0
-7578 -45 0
-7578 287 0
-7579 -50 0
-7579 282 0
-319 7577 7578 7579 0
-7580 -51 0
-7580 334 0
-7581 -58 0
-7581 314 0
-7582 -63 0
-7582 309 0
-319 7580 7581 7582 0
-7583 -53 0
-7583 348 0
-7584 -64 0
-7584 323 0
-7585 -72 0
-7585 315 0
-319 7583 7584 7585 0
-7586 -54 0
-7586 351 0
-7587 -65 0
-7587 326 0
-7588 -75 0
-7588 316 0
-319 7586 7587 7588 0
-7589 -55 0
-7589 353 0
-7590 -66 0
-7590 328 0
-7591 -77 0
-7591 317 0
-319 7589 7590 7591 0
-7592 -56 0
-7592 354 0
-7593 -67 0
-7593 329 0
-7594 -78 0
-7594 318 0
-319 7592 7593 7594 0
-7595 -5 0
-7595 135 0
-7596 -8 0
-7596 120 0
-7597 -9 0
-7597 119 0
-320 7595 7596 7597 0
-7598 -16 0
-7598 190 0
-7599 -19 0
-7599 175 0
-7600 -20 0
-7600 174 0
-320 7598 7599 7600 0
-7601 -26 0
-7601 235 0
-7602 -29 0
-7602 220 0
-7603 -30 0
-7603 219 0
-320 7601 7602 7603 0
-7604 -35 0
-7604 271 0
-7605 -38 0
-7605 256 0
-7606 -39 0
-7606 255 0
-320 7604 7605 7606 0
-7607 -43 0
-7607 299 0
-7608 -46 0
-7608 284 0
-7609 -47 0
-7609 283 0
-320 7607 7608 7609 0
-7610 -51 0
-7610 335 0
-7611 -59 0
-7611 311 0
-7612 -60 0
-7612 310 0
-320 7610 7611 7612 0
-7613 -52 0
-7613 345 0
-7614 -64 0
-7614 316 0
-7615 -65 0
-7615 315 0
-320 7613 7614 7615 0
-7616 -55 0
-7616 355 0
-7617 -70 0
-7617 324 0
-7618 -73 0
-7618 321 0
-320 7616 7617 7618 0
-7619 -56 0
-7619 356 0
-7620 -71 0
-7620 325 0
-7621 -74 0
-7621 322 0
-320 7619 7620 7621 0
-7622 -57 0
-7622 357 0
-7623 -72 0
-7623 326 0
-7624 -75 0
-7624 323 0
-320 7622 7623 7624 0
-7625 -5 0
-7625 136 0
-7626 -8 0
-7626 121 0
-7627 -10 0
-7627 119 0
-321 7625 7626 7627 0
-7628 -16 0
-7628 191 0
-7629 -19 0
-7629 176 0
-7630 -21 0
-7630 174 0
-321 7628 7629 7630 0
-7631 -26 0
-7631 236 0
-7632 -29 0
-7632 221 0
-7633 -31 0
-7633 219 0
-321 7631 7632 7633 0
-7634 -35 0
-7634 272 0
-7635 -38 0
-7635 257 0
-7636 -40 0
-7636 255 0
-321 7634 7635 7636 0
-7637 -43 0
-7637 300 0
-7638 -46 0
-7638 285 0
-7639 -48 0
-7639 283 0
-321 7637 7638 7639 0
-7640 -51 0
-7640 336 0
-7641 -59 0
-7641 312 0
-7642 -61 0
-7642 310 0
-321 7640 7641 7642 0
-7643 -52 0
-7643 346 0
-7644 -64 0
-7644 317 0
-7645 -66 0
-7645 315 0
-321 7643 7644 7645 0
-7646 -54 0
-7646 355 0
-7647 -69 0
-7647 324 0
-7648 -73 0
-7648 320 0
-321 7646 7647 7648 0
-7649 -56 0
-7649 358 0
-7650 -71 0
-7650 327 0
-7651 -76 0
-7651 322 0
-321 7649 7650 7651 0
-7652 -57 0
-7652 359 0
-7653 -72 0
-7653 328 0
-7654 -77 0
-7654 323 0
-321 7652 7653 7654 0
-7655 -5 0
-7655 137 0
-7656 -8 0
-7656 122 0
-7657 -11 0
-7657 119 0
-322 7655 7656 7657 0
-7658 -16 0
-7658 192 0
-7659 -19 0
-7659 177 0
-7660 -22 0
-7660 174 0
-322 7658 7659 7660 0
-7661 -26 0
-7661 237 0
-7662 -29 0
-7662 222 0
-7663 -32 0
-7663 219 0
-322 7661 7662 7663 0
-7664 -35 0
-7664 273 0
-7665 -38 0
-7665 258 0
-7666 -41 0
-7666 255 0
-322 7664 7665 7666 0
-7667 -43 0
-7667 301 0
-7668 -46 0
-7668 286 0
-7669 -49 0
-7669 283 0
-322 7667 7668 7669 0
-7670 -51 0
-7670 337 0
-7671 -59 0
-7671 313 0
-7672 -62 0
-7672 310 0
-322 7670 7671 7672 0
-7673 -52 0
-7673 347 0
-7674 -64 0
-7674 318 0
-7675 -67 0
-7675 315 0
-322 7673 7674 7675 0
-7676 -54 0
-7676 356 0
-7677 -69 0
-7677 325 0
-7678 -74 0
-7678 320 0
-322 7676 7677 7678 0
-7679 -55 0
-7679 358 0
-7680 -70 0
-7680 327 0
-7681 -76 0
-7681 321 0
-322 7679 7680 7681 0
-7682 -57 0
-7682 360 0
-7683 -72 0
-7683 329 0
-7684 -78 0
-7684 323 0
-322 7682 7683 7684 0
-7685 -5 0
-7685 138 0
-7686 -8 0
-7686 123 0
-7687 -12 0
-7687 119 0
-323 7685 7686 7687 0
-7688 -16 0
-7688 193 0
-7689 -19 0
-7689 178 0
-7690 -23 0
-7690 174 0
-323 7688 7689 7690 0
-7691 -26 0
-7691 238 0
-7692 -29 0
-7692 223 0
-7693 -33 0
-7693 219 0
-323 7691 7692 7693 0
-7694 -35 0
-7694 274 0
-7695 -38 0
-7695 259 0
-7696 -42 0
-7696 255 0
-323 7694 7695 7696 0
-7697 -43 0
-7697 302 0
-7698 -46 0
-7698 287 0
-7699 -50 0
-7699 283 0
-323 7697 7698 7699 0
-7700 -51 0
-7700 338 0
-7701 -59 0
-7701 314 0
-7702 -63 0
-7702 310 0
-323 7700 7701 7702 0
-7703 -52 0
-7703 348 0
-7704 -64 0
-7704 319 0
-7705 -68 0
-7705 315 0
-323 7703 7704 7705 0
-7706 -54 0
-7706 357 0
-7707 -69 0
-7707 326 0
-7708 -75 0
-7708 320 0
-323 7706 7707 7708 0
-7709 -55 0
-7709 359 0
-7710 -70 0
-7710 328 0
-7711 -77 0
-7711 321 0
-323 7709 7710 7711 0
-7712 -56 0
-7712 360 0
-7713 -71 0
-7713 329 0
-7714 -78 0
-7714 322 0
-323 7712 7713 7714 0
-7715 -5 0
-7715 139 0
-7716 -9 0
-7716 121 0
-7717 -10 0
-7717 120 0
-324 7715 7716 7717 0
-7718 -16 0
-7718 194 0
-7719 -20 0
-7719 176 0
-7720 -21 0
-7720 175 0
-324 7718 7719 7720 0
-7721 -26 0
-7721 239 0
-7722 -30 0
-7722 221 0
-7723 -31 0
-7723 220 0
-324 7721 7722 7723 0
-7724 -35 0
-7724 275 0
-7725 -39 0
-7725 257 0
-7726 -40 0
-7726 256 0
-324 7724 7725 7726 0
-7727 -43 0
-7727 303 0
-7728 -47 0
-7728 285 0
-7729 -48 0
-7729 284 0
-324 7727 7728 7729 0
-7730 -51 0
-7730 339 0
-7731 -60 0
-7731 312 0
-7732 -61 0
-7732 311 0
-324 7730 7731 7732 0
-7733 -52 0
-7733 349 0
-7734 -65 0
-7734 317 0
-7735 -66 0
-7735 316 0
-324 7733 7734 7735 0
-7736 -53 0
-7736 355 0
-7737 -69 0
-7737 321 0
-7738 -70 0
-7738 320 0
-324 7736 7737 7738 0
-7739 -56 0
-7739 361 0
-7740 -74 0
-7740 327 0
-7741 -76 0
-7741 325 0
-324 7739 7740 7741 0
-7742 -57 0
-7742 362 0
-7743 -75 0
-7743 328 0
-7744 -77 0
-7744 326 0
-324 7742 7743 7744 0
-7745 -5 0
-7745 140 0
-7746 -9 0
-7746 122 0
-7747 -11 0
-7747 120 0
-325 7745 7746 7747 0
-7748 -16 0
-7748 195 0
-7749 -20 0
-7749 177 0
-7750 -22 0
-7750 175 0
-325 7748 7749 7750 0
-7751 -26 0
-7751 240 0
-7752 -30 0
-7752 222 0
-7753 -32 0
-7753 220 0
-325 7751 7752 7753 0
-7754 -35 0
-7754 276 0
-7755 -39 0
-7755 258 0
-7756 -41 0
-7756 256 0
-325 7754 7755 7756 0
-7757 -43 0
-7757 304 0
-7758 -47 0
-7758 286 0
-7759 -49 0
-7759 284 0
-325 7757 7758 7759 0
-7760 -51 0
-7760 340 0
-7761 -60 0
-7761 313 0
-7762 -62 0
-7762 311 0
-325 7760 7761 7762 0
-7763 -52 0
-7763 350 0
-7764 -65 0
-7764 318 0
-7765 -67 0
-7765 316 0
-325 7763 7764 7765 0
-7766 -53 0
-7766 356 0
-7767 -69 0
-7767 322 0
-7768 -71 0
-7768 320 0
-325 7766 7767 7768 0
-7769 -55 0
-7769 361 0
-7770 -73 0
-7770 327 0
-7771 -76 0
-7771 324 0
-325 7769 7770 7771 0
-7772 -57 0
-7772 363 0
-7773 -75 0
-7773 329 0
-7774 -78 0
-7774 326 0
-325 7772 7773 7774 0
-7775 -5 0
-7775 141 0
-7776 -9 0
-7776 123 0
-7777 -12 0
-7777 120 0
-326 7775 7776 7777 0
-7778 -16 0
-7778 196 0
-7779 -20 0
-7779 178 0
-7780 -23 0
-7780 175 0
-326 7778 7779 7780 0
-7781 -26 0
-7781 241 0
-7782 -30 0
-7782 223 0
-7783 -33 0
-7783 220 0
-326 7781 7782 7783 0
-7784 -35 0
-7784 277 0
-7785 -39 0
-7785 259 0
-7786 -42 0
-7786 256 0
-326 7784 7785 7786 0
-7787 -43 0
-7787 305 0
-7788 -47 0
-7788 287 0
-7789 -50 0
-7789 284 0
-326 7787 7788 7789 0
-7790 -51 0
-7790 341 0
-7791 -60 0
-7791 314 0
-7792 -63 0
-7792 311 0
-326 7790 7791 7792 0
-7793 -52 0
-7793 351 0
-7794 -65 0
-7794 319 0
-7795 -68 0
-7795 316 0
-326 7793 7794 7795 0
-7796 -53 0
-7796 357 0
-7797 -69 0
-7797 323 0
-7798 -72 0
-7798 320 0
-326 7796 7797 7798 0
-7799 -55 0
-7799 362 0
-7800 -73 0
-7800 328 0
-7801 -77 0
-7801 324 0
-326 7799 7800 7801 0
-7802 -56 0
-7802 363 0
-7803 -74 0
-7803 329 0
-7804 -78 0
-7804 325 0
-326 7802 7803 7804 0
-7805 -5 0
-7805 142 0
-7806 -10 0
-7806 122 0
-7807 -11 0
-7807 121 0
-327 7805 7806 7807 0
-7808 -16 0
-7808 197 0
-7809 -21 0
-7809 177 0
-7810 -22 0
-7810 176 0
-327 7808 7809 7810 0
-7811 -26 0
-7811 242 0
-7812 -31 0
-7812 222 0
-7813 -32 0
-7813 221 0
-327 7811 7812 7813 0
-7814 -35 0
-7814 278 0
-7815 -40 0
-7815 258 0
-7816 -41 0
-7816 257 0
-327 7814 7815 7816 0
-7817 -43 0
-7817 306 0
-7818 -48 0
-7818 286 0
-7819 -49 0
-7819 285 0
-327 7817 7818 7819 0
-7820 -51 0
-7820 342 0
-7821 -61 0
-7821 313 0
-7822 -62 0
-7822 312 0
-327 7820 7821 7822 0
-7823 -52 0
-7823 352 0
-7824 -66 0
-7824 318 0
-7825 -67 0
-7825 317 0
-327 7823 7824 7825 0
-7826 -53 0
-7826 358 0
-7827 -70 0
-7827 322 0
-7828 -71 0
-7828 321 0
-327 7826 7827 7828 0
-7829 -54 0
-7829 361 0
-7830 -73 0
-7830 325 0
-7831 -74 0
-7831 324 0
-327 7829 7830 7831 0
-7832 -57 0
-7832 364 0
-7833 -77 0
-7833 329 0
-7834 -78 0
-7834 328 0
-327 7832 7833 7834 0
-7835 -5 0
-7835 143 0
-7836 -10 0
-7836 123 0
-7837 -12 0
-7837 121 0
-328 7835 7836 7837 0
-7838 -16 0
-7838 198 0
-7839 -21 0
-7839 178 0
-7840 -23 0
-7840 176 0
-328 7838 7839 7840 0
-7841 -26 0
-7841 243 0
-7842 -31 0
-7842 223 0
-7843 -33 0
-7843 221 0
-328 7841 7842 7843 0
-7844 -35 0
-7844 279 0
-7845 -40 0
-7845 259 0
-7846 -42 0
-7846 257 0
-328 7844 7845 7846 0
-7847 -43 0
-7847 307 0
-7848 -48 0
-7848 287 0
-7849 -50 0
-7849 285 0
-328 7847 7848 7849 0
-7850 -51 0
-7850 343 0
-7851 -61 0
-7851 314 0
-7852 -63 0
-7852 312 0
-328 7850 7851 7852 0
-7853 -52 0
-7853 353 0
-7854 -66 0
-7854 319 0
-7855 -68 0
-7855 317 0
-328 7853 7854 7855 0
-7856 -53 0
-7856 359 0
-7857 -70 0
-7857 323 0
-7858 -72 0
-7858 321 0
-328 7856 7857 7858 0
-7859 -54 0
-7859 362 0
-7860 -73 0
-7860 326 0
-7861 -75 0
-7861 324 0
-328 7859 7860 7861 0
-7862 -56 0
-7862 364 0
-7863 -76 0
-7863 329 0
-7864 -78 0
-7864 327 0
-328 7862 7863 7864 0
-7865 -5 0
-7865 144 0
-7866 -11 0
-7866 123 0
-7867 -12 0
-7867 122 0
-329 7865 7866 7867 0
-7868 -16 0
-7868 199 0
-7869 -22 0
-7869 178 0
-7870 -23 0
-7870 177 0
-329 7868 7869 7870 0
-7871 -26 0
-7871 244 0
-7872 -32 0
-7872 223 0
-7873 -33 0
-7873 222 0
-329 7871 7872 7873 0
-7874 -35 0
-7874 280 0
-7875 -41 0
-7875 259 0
-7876 -42 0
-7876 258 0
-329 7874 7875 7876 0
-7877 -43 0
-7877 308 0
-7878 -49 0
-7878 287 0
-7879 -50 0
-7879 286 0
-329 7877 7878 7879 0
-7880 -51 0
-7880 344 0
-7881 -62 0
-7881 314 0
-7882 -63 0
-7882 313 0
-329 7880 7881 7882 0
-7883 -52 0
-7883 354 0
-7884 -67 0
-7884 319 0
-7885 -68 0
-7885 318 0
-329 7883 7884 7885 0
-7886 -53 0
-7886 360 0
-7887 -71 0
-7887 323 0
-7888 -72 0
-7888 322 0
-329 7886 7887 7888 0
-7889 -54 0
-7889 363 0
-7890 -74 0
-7890 326 0
-7891 -75 0
-7891 325 0
-329 7889 7890 7891 0
-7892 -55 0
-7892 364 0
-7893 -76 0
-7893 328 0
-7894 -77 0
-7894 327 0
-329 7892 7893 7894 0
-7895 -6 0
-7895 130 0
-7896 -7 0
-7896 125 0
-7897 -8 0
-7897 124 0
-330 7895 7896 7897 0
-7898 -17 0
-7898 185 0
-7899 -18 0
-7899 180 0
-7900 -19 0
-7900 179 0
-330 7898 7899 7900 0
-7901 -27 0
-7901 230 0
-7902 -28 0
-7902 225 0
-7903 -29 0
-7903 224 0
-330 7901 7902 7903 0
-7904 -36 0
-7904 266 0
-7905 -37 0
-7905 261 0
-7906 -38 0
-7906 260 0
-330 7904 7905 7906 0
-7907 -44 0
-7907 294 0
-7908 -45 0
-7908 289 0
-7909 -46 0
-7909 288 0
-330 7907 7908 7909 0
-7910 -51 0
-7910 315 0
-7911 -52 0
-7911 310 0
-7912 -53 0
-7912 309 0
-330 7910 7911 7912 0
-7913 -60 0
-7913 345 0
-7914 -65 0
-7914 335 0
-7915 -69 0
-7915 331 0
-330 7913 7914 7915 0
-7916 -61 0
-7916 346 0
-7917 -66 0
-7917 336 0
-7918 -70 0
-7918 332 0
-330 7916 7917 7918 0
-7919 -62 0
-7919 347 0
-7920 -67 0
-7920 337 0
-7921 -71 0
-7921 333 0
-330 7919 7920 7921 0
-7922 -63 0
-7922 348 0
-7923 -68 0
-7923 338 0
-7924 -72 0
-7924 334 0
-330 7922 7923 7924 0
-7925 -6 0
-7925 131 0
-7926 -7 0
-7926 126 0
-7927 -9 0
-7927 124 0
-331 7925 7926 7927 0
-7928 -17 0
-7928 186 0
-7929 -18 0
-7929 181 0
-7930 -20 0
-7930 179 0
-331 7928 7929 7930 0
-7931 -27 0
-7931 231 0
-7932 -28 0
-7932 226 0
-7933 -30 0
-7933 224 0
-331 7931 7932 7933 0
-7934 -36 0
-7934 267 0
-7935 -37 0
-7935 262 0
-7936 -39 0
-7936 260 0
-331 7934 7935 7936 0
-7937 -44 0
-7937 295 0
-7938 -45 0
-7938 290 0
-7939 -47 0
-7939 288 0
-331 7937 7938 7939 0
-7940 -51 0
-7940 316 0
-7941 -52 0
-7941 311 0
-7942 -54 0
-7942 309 0
-331 7940 7941 7942 0
-7943 -59 0
-7943 345 0
-7944 -64 0
-7944 335 0
-7945 -69 0
-7945 330 0
-331 7943 7944 7945 0
-7946 -61 0
-7946 349 0
-7947 -66 0
-7947 339 0
-7948 -73 0
-7948 332 0
-331 7946 7947 7948 0
-7949 -62 0
-7949 350 0
-7950 -67 0
-7950 340 0
-7951 -74 0
-7951 333 0
-331 7949 7950 7951 0
-7952 -63 0
-7952 351 0
-7953 -68 0
-7953 341 0
-7954 -75 0
-7954 334 0
-331 7952 7953 7954 0
-7955 -6 0
-7955 132 0
-7956 -7 0
-7956 127 0
-7957 -10 0
-7957 124 0
-332 7955 7956 7957 0
-7958 -17 0
-7958 187 0
-7959 -18 0
-7959 182 0
-7960 -21 0
-7960 179 0
-332 7958 7959 7960 0
-7961 -27 0
-7961 232 0
-7962 -28 0
-7962 227 0
-7963 -31 0
-7963 224 0
-332 7961 7962 7963 0
-7964 -36 0
-7964 268 0
-7965 -37 0
-7965 263 0
-7966 -40 0
-7966 260 0
-332 7964 7965 7966 0
-7967 -44 0
-7967 296 0
-7968 -45 0
-7968 291 0
-7969 -48 0
-7969 288 0
-332 7967 7968 7969 0
-7970 -51 0
-7970 317 0
-7971 -52 0
-7971 312 0
-7972 -55 0
-7972 309 0
-332 7970 7971 7972 0
-7973 -59 0
-7973 346 0
-7974 -64 0
-7974 336 0
-7975 -70 0
-7975 330 0
-332 7973 7974 7975 0
-7976 -60 0
-7976 349 0
-7977 -65 0
-7977 339 0
-7978 -73 0
-7978 331 0
-332 7976 7977 7978 0
-7979 -62 0
-7979 352 0
-7980 -67 0
-7980 342 0
-7981 -76 0
-7981 333 0
-332 7979 7980 7981 0
-7982 -63 0
-7982 353 0
-7983 -68 0
-7983 343 0
-7984 -77 0
-7984 334 0
-332 7982 7983 7984 0
-7985 -6 0
-7985 133 0
-7986 -7 0
-7986 128 0
-7987 -11 0
-7987 124 0
-333 7985 7986 7987 0
-7988 -17 0
-7988 188 0
-7989 -18 0
-7989 183 0
-7990 -22 0
-7990 179 0
-333 7988 7989 7990 0
-7991 -27 0
-7991 233 0
-7992 -28 0
-7992 228 0
-7993 -32 0
-7993 224 0
-333 7991 7992 7993 0
-7994 -36 0
-7994 269 0
-7995 -37 0
-7995 264 0
-7996 -41 0
-7996 260 0
-333 7994 7995 7996 0
-7997 -44 0
-7997 297 0
-7998 -45 0
-7998 292 0
-7999 -49 0
-7999 288 0
-333 7997 7998 7999 0
-8000 -51 0
-8000 318 0
-8001 -52 0
-8001 313 0
-8002 -56 0
-8002 309 0
-333 8000 8001 8002 0
-8003 -59 0
-8003 347 0
-8004 -64 0
-8004 337 0
-8005 -71 0
-8005 330 0
-333 8003 8004 8005 0
-8006 -60 0
-8006 350 0
-8007 -65 0
-8007 340 0
-8008 -74 0
-8008 331 0
-333 8006 8007 8008 0
-8009 -61 0
-8009 352 0
-8010 -66 0
-8010 342 0
-8011 -76 0
-8011 332 0
-333 8009 8010 8011 0
-8012 -63 0
-8012 354 0
-8013 -68 0
-8013 344 0
-8014 -78 0
-8014 334 0
-333 8012 8013 8014 0
-8015 -6 0
-8015 134 0
-8016 -7 0
-8016 129 0
-8017 -12 0
-8017 124 0
-334 8015 8016 8017 0
-8018 -17 0
-8018 189 0
-8019 -18 0
-8019 184 0
-8020 -23 0
-8020 179 0
-334 8018 8019 8020 0
-8021 -27 0
-8021 234 0
-8022 -28 0
-8022 229 0
-8023 -33 0
-8023 224 0
-334 8021 8022 8023 0
-8024 -36 0
-8024 270 0
-8025 -37 0
-8025 265 0
-8026 -42 0
-8026 260 0
-334 8024 8025 8026 0
-8027 -44 0
-8027 298 0
-8028 -45 0
-8028 293 0
-8029 -50 0
-8029 288 0
-334 8027 8028 8029 0
-8030 -51 0
-8030 319 0
-8031 -52 0
-8031 314 0
-8032 -57 0
-8032 309 0
-334 8030 8031 8032 0
-8033 -59 0
-8033 348 0
-8034 -64 0
-8034 338 0
-8035 -72 0
-8035 330 0
-334 8033 8034 8035 0
-8036 -60 0
-8036 351 0
-8037 -65 0
-8037 341 0
-8038 -75 0
-8038 331 0
-334 8036 8037 8038 0
-8039 -61 0
-8039 353 0
-8040 -66 0
-8040 343 0
-8041 -77 0
-8041 332 0
-334 8039 8040 8041 0
-8042 -62 0
-8042 354 0
-8043 -67 0
-8043 344 0
-8044 -78 0
-8044 333 0
-334 8042 8043 8044 0
-8045 -6 0
-8045 135 0
-8046 -8 0
-8046 126 0
-8047 -9 0
-8047 125 0
-335 8045 8046 8047 0
-8048 -17 0
-8048 190 0
-8049 -19 0
-8049 181 0
-8050 -20 0
-8050 180 0
-335 8048 8049 8050 0
-8051 -27 0
-8051 235 0
-8052 -29 0
-8052 226 0
-8053 -30 0
-8053 225 0
-335 8051 8052 8053 0
-8054 -36 0
-8054 271 0
-8055 -38 0
-8055 262 0
-8056 -39 0
-8056 261 0
-335 8054 8055 8056 0
-8057 -44 0
-8057 299 0
-8058 -46 0
-8058 290 0
-8059 -47 0
-8059 289 0
-335 8057 8058 8059 0
-8060 -51 0
-8060 320 0
-8061 -53 0
-8061 311 0
-8062 -54 0
-8062 310 0
-335 8060 8061 8062 0
-8063 -58 0
-8063 345 0
-8064 -64 0
-8064 331 0
-8065 -65 0
-8065 330 0
-335 8063 8064 8065 0
-8066 -61 0
-8066 355 0
-8067 -70 0
-8067 339 0
-8068 -73 0
-8068 336 0
-335 8066 8067 8068 0
-8069 -62 0
-8069 356 0
-8070 -71 0
-8070 340 0
-8071 -74 0
-8071 337 0
-335 8069 8070 8071 0
-8072 -63 0
-8072 357 0
-8073 -72 0
-8073 341 0
-8074 -75 0
-8074 338 0
-335 8072 8073 8074 0
-8075 -6 0
-8075 136 0
-8076 -8 0
-8076 127 0
-8077 -10 0
-8077 125 0
-336 8075 8076 8077 0
-8078 -17 0
-8078 191 0
-8079 -19 0
-8079 182 0
-8080 -21 0
-8080 180 0
-336 8078 8079 8080 0
-8081 -27 0
-8081 236 0
-8082 -29 0
-8082 227 0
-8083 -31 0
-8083 225 0
-336 8081 8082 8083 0
-8084 -36 0
-8084 272 0
-8085 -38 0
-8085 263 0
-8086 -40 0
-8086 261 0
-336 8084 8085 8086 0
-8087 -44 0
-8087 300 0
-8088 -46 0
-8088 291 0
-8089 -48 0
-8089 289 0
-336 8087 8088 8089 0
-8090 -51 0
-8090 321 0
-8091 -53 0
-8091 312 0
-8092 -55 0
-8092 310 0
-336 8090 8091 8092 0
-8093 -58 0
-8093 346 0
-8094 -64 0
-8094 332 0
-8095 -66 0
-8095 330 0
-336 8093 8094 8095 0
-8096 -60 0
-8096 355 0
-8097 -69 0
-8097 339 0
-8098 -73 0
-8098 335 0
-336 8096 8097 8098 0
-8099 -62 0
-8099 358 0
-8100 -71 0
-8100 342 0
-8101 -76 0
-8101 337 0
-336 8099 8100 8101 0
-8102 -63 0
-8102 359 0
-8103 -72 0
-8103 343 0
-8104 -77 0
-8104 338 0
-336 8102 8103 8104 0
-8105 -6 0
-8105 137 0
-8106 -8 0
-8106 128 0
-8107 -11 0
-8107 125 0
-337 8105 8106 8107 0
-8108 -17 0
-8108 192 0
-8109 -19 0
-8109 183 0
-8110 -22 0
-8110 180 0
-337 8108 8109 8110 0
-8111 -27 0
-8111 237 0
-8112 -29 0
-8112 228 0
-8113 -32 0
-8113 225 0
-337 8111 8112 8113 0
-8114 -36 0
-8114 273 0
-8115 -38 0
-8115 264 0
-8116 -41 0
-8116 261 0
-337 8114 8115 8116 0
-8117 -44 0
-8117 301 0
-8118 -46 0
-8118 292 0
-8119 -49 0
-8119 289 0
-337 8117 8118 8119 0
-8120 -51 0
-8120 322 0
-8121 -53 0
-8121 313 0
-8122 -56 0
-8122 310 0
-337 8120 8121 8122 0
-8123 -58 0
-8123 347 0
-8124 -64 0
-8124 333 0
-8125 -67 0
-8125 330 0
-337 8123 8124 8125 0
-8126 -60 0
-8126 356 0
-8127 -69 0
-8127 340 0
-8128 -74 0
-8128 335 0
-337 8126 8127 8128 0
-8129 -61 0
-8129 358 0
-8130 -70 0
-8130 342 0
-8131 -76 0
-8131 336 0
-337 8129 8130 8131 0
-8132 -63 0
-8132 360 0
-8133 -72 0
-8133 344 0
-8134 -78 0
-8134 338 0
-337 8132 8133 8134 0
-8135 -6 0
-8135 138 0
-8136 -8 0
-8136 129 0
-8137 -12 0
-8137 125 0
-338 8135 8136 8137 0
-8138 -17 0
-8138 193 0
-8139 -19 0
-8139 184 0
-8140 -23 0
-8140 180 0
-338 8138 8139 8140 0
-8141 -27 0
-8141 238 0
-8142 -29 0
-8142 229 0
-8143 -33 0
-8143 225 0
-338 8141 8142 8143 0
-8144 -36 0
-8144 274 0
-8145 -38 0
-8145 265 0
-8146 -42 0
-8146 261 0
-338 8144 8145 8146 0
-8147 -44 0
-8147 302 0
-8148 -46 0
-8148 293 0
-8149 -50 0
-8149 289 0
-338 8147 8148 8149 0
-8150 -51 0
-8150 323 0
-8151 -53 0
-8151 314 0
-8152 -57 0
-8152 310 0
-338 8150 8151 8152 0
-8153 -58 0
-8153 348 0
-8154 -64 0
-8154 334 0
-8155 -68 0
-8155 330 0
-338 8153 8154 8155 0
-8156 -60 0
-8156 357 0
-8157 -69 0
-8157 341 0
-8158 -75 0
-8158 335 0
-338 8156 8157 8158 0
-8159 -61 0
-8159 359 0
-8160 -70 0
-8160 343 0
-8161 -77 0
-8161 336 0
-338 8159 8160 8161 0
-8162 -62 0
-8162 360 0
-8163 -71 0
-8163 344 0
-8164 -78 0
-8164 337 0
-338 8162 8163 8164 0
-8165 -6 0
-8165 139 0
-8166 -9 0
-8166 127 0
-8167 -10 0
-8167 126 0
-339 8165 8166 8167 0
-8168 -17 0
-8168 194 0
-8169 -20 0
-8169 182 0
-8170 -21 0
-8170 181 0
-339 8168 8169 8170 0
-8171 -27 0
-8171 239 0
-8172 -30 0
-8172 227 0
-8173 -31 0
-8173 226 0
-339 8171 8172 8173 0
-8174 -36 0
-8174 275 0
-8175 -39 0
-8175 263 0
-8176 -40 0
-8176 262 0
-339 8174 8175 8176 0
-8177 -44 0
-8177 303 0
-8178 -47 0
-8178 291 0
-8179 -48 0
-8179 290 0
-339 8177 8178 8179 0
-8180 -51 0
-8180 324 0
-8181 -54 0
-8181 312 0
-8182 -55 0
-8182 311 0
-339 8180 8181 8182 0
-8183 -58 0
-8183 349 0
-8184 -65 0
-8184 332 0
-8185 -66 0
-8185 331 0
-339 8183 8184 8185 0
-8186 -59 0
-8186 355 0
-8187 -69 0
-8187 336 0
-8188 -70 0
-8188 335 0
-339 8186 8187 8188 0
-8189 -62 0
-8189 361 0
-8190 -74 0
-8190 342 0
-8191 -76 0
-8191 340 0
-339 8189 8190 8191 0
-8192 -63 0
-8192 362 0
-8193 -75 0
-8193 343 0
-8194 -77 0
-8194 341 0
-339 8192 8193 8194 0
-8195 -6 0
-8195 140 0
-8196 -9 0
-8196 128 0
-8197 -11 0
-8197 126 0
-340 8195 8196 8197 0
-8198 -17 0
-8198 195 0
-8199 -20 0
-8199 183 0
-8200 -22 0
-8200 181 0
-340 8198 8199 8200 0
-8201 -27 0
-8201 240 0
-8202 -30 0
-8202 228 0
-8203 -32 0
-8203 226 0
-340 8201 8202 8203 0
-8204 -36 0
-8204 276 0
-8205 -39 0
-8205 264 0
-8206 -41 0
-8206 262 0
-340 8204 8205 8206 0
-8207 -44 0
-8207 304 0
-8208 -47 0
-8208 292 0
-8209 -49 0
-8209 290 0
-340 8207 8208 8209 0
-8210 -51 0
-8210 325 0
-8211 -54 0
-8211 313 0
-8212 -56 0
-8212 311 0
-340 8210 8211 8212 0
-8213 -58 0
-8213 350 0
-8214 -65 0
-8214 333 0
-8215 -67 0
-8215 331 0
-340 8213 8214 8215 0
-8216 -59 0
-8216 356 0
-8217 -69 0
-8217 337 0
-8218 -71 0
-8218 335 0
-340 8216 8217 8218 0
-8219 -61 0
-8219 361 0
-8220 -73 0
-8220 342 0
-8221 -76 0
-8221 339 0
-340 8219 8220 8221 0
-8222 -63 0
-8222 363 0
-8223 -75 0
-8223 344 0
-8224 -78 0
-8224 341 0
-340 8222 8223 8224 0
-8225 -6 0
-8225 141 0
-8226 -9 0
-8226 129 0
-8227 -12 0
-8227 126 0
-341 8225 8226 8227 0
-8228 -17 0
-8228 196 0
-8229 -20 0
-8229 184 0
-8230 -23 0
-8230 181 0
-341 8228 8229 8230 0
-8231 -27 0
-8231 241 0
-8232 -30 0
-8232 229 0
-8233 -33 0
-8233 226 0
-341 8231 8232 8233 0
-8234 -36 0
-8234 277 0
-8235 -39 0
-8235 265 0
-8236 -42 0
-8236 262 0
-341 8234 8235 8236 0
-8237 -44 0
-8237 305 0
-8238 -47 0
-8238 293 0
-8239 -50 0
-8239 290 0
-341 8237 8238 8239 0
-8240 -51 0
-8240 326 0
-8241 -54 0
-8241 314 0
-8242 -57 0
-8242 311 0
-341 8240 8241 8242 0
-8243 -58 0
-8243 351 0
-8244 -65 0
-8244 334 0
-8245 -68 0
-8245 331 0
-341 8243 8244 8245 0
-8246 -59 0
-8246 357 0
-8247 -69 0
-8247 338 0
-8248 -72 0
-8248 335 0
-341 8246 8247 8248 0
-8249 -61 0
-8249 362 0
-8250 -73 0
-8250 343 0
-8251 -77 0
-8251 339 0
-341 8249 8250 8251 0
-8252 -62 0
-8252 363 0
-8253 -74 0
-8253 344 0
-8254 -78 0
-8254 340 0
-341 8252 8253 8254 0
-8255 -6 0
-8255 142 0
-8256 -10 0
-8256 128 0
-8257 -11 0
-8257 127 0
-342 8255 8256 8257 0
-8258 -17 0
-8258 197 0
-8259 -21 0
-8259 183 0
-8260 -22 0
-8260 182 0
-342 8258 8259 8260 0
-8261 -27 0
-8261 242 0
-8262 -31 0
-8262 228 0
-8263 -32 0
-8263 227 0
-342 8261 8262 8263 0
-8264 -36 0
-8264 278 0
-8265 -40 0
-8265 264 0
-8266 -41 0
-8266 263 0
-342 8264 8265 8266 0
-8267 -44 0
-8267 306 0
-8268 -48 0
-8268 292 0
-8269 -49 0
-8269 291 0
-342 8267 8268 8269 0
-8270 -51 0
-8270 327 0
-8271 -55 0
-8271 313 0
-8272 -56 0
-8272 312 0
-342 8270 8271 8272 0
-8273 -58 0
-8273 352 0
-8274 -66 0
-8274 333 0
-8275 -67 0
-8275 332 0
-342 8273 8274 8275 0
-8276 -59 0
-8276 358 0
-8277 -70 0
-8277 337 0
-8278 -71 0
-8278 336 0
-342 8276 8277 8278 0
-8279 -60 0
-8279 361 0
-8280 -73 0
-8280 340 0
-8281 -74 0
-8281 339 0
-342 8279 8280 8281 0
-8282 -63 0
-8282 364 0
-8283 -77 0
-8283 344 0
-8284 -78 0
-8284 343 0
-342 8282 8283 8284 0
-8285 -6 0
-8285 143 0
-8286 -10 0
-8286 129 0
-8287 -12 0
-8287 127 0
-343 8285 8286 8287 0
-8288 -17 0
-8288 198 0
-8289 -21 0
-8289 184 0
-8290 -23 0
-8290 182 0
-343 8288 8289 8290 0
-8291 -27 0
-8291 243 0
-8292 -31 0
-8292 229 0
-8293 -33 0
-8293 227 0
-343 8291 8292 8293 0
-8294 -36 0
-8294 279 0
-8295 -40 0
-8295 265 0
-8296 -42 0
-8296 263 0
-343 8294 8295 8296 0
-8297 -44 0
-8297 307 0
-8298 -48 0
-8298 293 0
-8299 -50 0
-8299 291 0
-343 8297 8298 8299 0
-8300 -51 0
-8300 328 0
-8301 -55 0
-8301 314 0
-8302 -57 0
-8302 312 0
-343 8300 8301 8302 0
-8303 -58 0
-8303 353 0
-8304 -66 0
-8304 334 0
-8305 -68 0
-8305 332 0
-343 8303 8304 8305 0
-8306 -59 0
-8306 359 0
-8307 -70 0
-8307 338 0
-8308 -72 0
-8308 336 0
-343 8306 8307 8308 0
-8309 -60 0
-8309 362 0
-8310 -73 0
-8310 341 0
-8311 -75 0
-8311 339 0
-343 8309 8310 8311 0
-8312 -62 0
-8312 364 0
-8313 -76 0
-8313 344 0
-8314 -78 0
-8314 342 0
-343 8312 8313 8314 0
-8315 -6 0
-8315 144 0
-8316 -11 0
-8316 129 0
-8317 -12 0
-8317 128 0
-344 8315 8316 8317 0
-8318 -17 0
-8318 199 0
-8319 -22 0
-8319 184 0
-8320 -23 0
-8320 183 0
-344 8318 8319 8320 0
-8321 -27 0
-8321 244 0
-8322 -32 0
-8322 229 0
-8323 -33 0
-8323 228 0
-344 8321 8322 8323 0
-8324 -36 0
-8324 280 0
-8325 -41 0
-8325 265 0
-8326 -42 0
-8326 264 0
-344 8324 8325 8326 0
-8327 -44 0
-8327 308 0
-8328 -49 0
-8328 293 0
-8329 -50 0
-8329 292 0
-344 8327 8328 8329 0
-8330 -51 0
-8330 329 0
-8331 -56 0
-8331 314 0
-8332 -57 0
-8332 313 0
-344 8330 8331 8332 0
-8333 -58 0
-8333 354 0
-8334 -67 0
-8334 334 0
-8335 -68 0
-8335 333 0
-344 8333 8334 8335 0
-8336 -59 0
-8336 360 0
-8337 -71 0
-8337 338 0
-8338 -72 0
-8338 337 0
-344 8336 8337 8338 0
-8339 -60 0
-8339 363 0
-8340 -74 0
-8340 341 0
-8341 -75 0
-8341 340 0
-344 8339 8340 8341 0
-8342 -61 0
-8342 364 0
-8343 -76 0
-8343 343 0
-8344 -77 0
-8344 342 0
-344 8342 8343 8344 0
-8345 -7 0
-8345 135 0
-8346 -8 0
-8346 131 0
-8347 -9 0
-8347 130 0
-345 8345 8346 8347 0
-8348 -18 0
-8348 190 0
-8349 -19 0
-8349 186 0
-8350 -20 0
-8350 185 0
-345 8348 8349 8350 0
-8351 -28 0
-8351 235 0
-8352 -29 0
-8352 231 0
-8353 -30 0
-8353 230 0
-345 8351 8352 8353 0
-8354 -37 0
-8354 271 0
-8355 -38 0
-8355 267 0
-8356 -39 0
-8356 266 0
-345 8354 8355 8356 0
-8357 -45 0
-8357 299 0
-8358 -46 0
-8358 295 0
-8359 -47 0
-8359 294 0
-345 8357 8358 8359 0
-8360 -52 0
-8360 320 0
-8361 -53 0
-8361 316 0
-8362 -54 0
-8362 315 0
-345 8360 8361 8362 0
-8363 -58 0
-8363 335 0
-8364 -59 0
-8364 331 0
-8365 -60 0
-8365 330 0
-345 8363 8364 8365 0
-8366 -66 0
-8366 355 0
-8367 -70 0
-8367 349 0
-8368 -73 0
-8368 346 0
-345 8366 8367 8368 0
-8369 -67 0
-8369 356 0
-8370 -71 0
-8370 350 0
-8371 -74 0
-8371 347 0
-345 8369 8370 8371 0
-8372 -68 0
-8372 357 0
-8373 -72 0
-8373 351 0
-8374 -75 0
-8374 348 0
-345 8372 8373 8374 0
-8375 -7 0
-8375 136 0
-8376 -8 0
-8376 132 0
-8377 -10 0
-8377 130 0
-346 8375 8376 8377 0
-8378 -18 0
-8378 191 0
-8379 -19 0
-8379 187 0
-8380 -21 0
-8380 185 0
-346 8378 8379 8380 0
-8381 -28 0
-8381 236 0
-8382 -29 0
-8382 232 0
-8383 -31 0
-8383 230 0
-346 8381 8382 8383 0
-8384 -37 0
-8384 272 0
-8385 -38 0
-8385 268 0
-8386 -40 0
-8386 266 0
-346 8384 8385 8386 0
-8387 -45 0
-8387 300 0
-8388 -46 0
-8388 296 0
-8389 -48 0
-8389 294 0
-346 8387 8388 8389 0
-8390 -52 0
-8390 321 0
-8391 -53 0
-8391 317 0
-8392 -55 0
-8392 315 0
-346 8390 8391 8392 0
-8393 -58 0
-8393 336 0
-8394 -59 0
-8394 332 0
-8395 -61 0
-8395 330 0
-346 8393 8394 8395 0
-8396 -65 0
-8396 355 0
-8397 -69 0
-8397 349 0
-8398 -73 0
-8398 345 0
-346 8396 8397 8398 0
-8399 -67 0
-8399 358 0
-8400 -71 0
-8400 352 0
-8401 -76 0
-8401 347 0
-346 8399 8400 8401 0
-8402 -68 0
-8402 359 0
-8403 -72 0
-8403 353 0
-8404 -77 0
-8404 348 0
-346 8402 8403 8404 0
-8405 -7 0
-8405 137 0
-8406 -8 0
-8406 133 0
-8407 -11 0
-8407 130 0
-347 8405 8406 8407 0
-8408 -18 0
-8408 192 0
-8409 -19 0
-8409 188 0
-8410 -22 0
-8410 185 0
-347 8408 8409 8410 0
-8411 -28 0
-8411 237 0
-8412 -29 0
-8412 233 0
-8413 -32 0
-8413 230 0
-347 8411 8412 8413 0
-8414 -37 0
-8414 273 0
-8415 -38 0
-8415 269 0
-8416 -41 0
-8416 266 0
-347 8414 8415 8416 0
-8417 -45 0
-8417 301 0
-8418 -46 0
-8418 297 0
-8419 -49 0
-8419 294 0
-347 8417 8418 8419 0
-8420 -52 0
-8420 322 0
-8421 -53 0
-8421 318 0
-8422 -56 0
-8422 315 0
-347 8420 8421 8422 0
-8423 -58 0
-8423 337 0
-8424 -59 0
-8424 333 0
-8425 -62 0
-8425 330 0
-347 8423 8424 8425 0
-8426 -65 0
-8426 356 0
-8427 -69 0
-8427 350 0
-8428 -74 0
-8428 345 0
-347 8426 8427 8428 0
-8429 -66 0
-8429 358 0
-8430 -70 0
-8430 352 0
-8431 -76 0
-8431 346 0
-347 8429 8430 8431 0
-8432 -68 0
-8432 360 0
-8433 -72 0
-8433 354 0
-8434 -78 0
-8434 348 0
-347 8432 8433 8434 0
-8435 -7 0
-8435 138 0
-8436 -8 0
-8436 134 0
-8437 -12 0
-8437 130 0
-348 8435 8436 8437 0
-8438 -18 0
-8438 193 0
-8439 -19 0
-8439 189 0
-8440 -23 0
-8440 185 0
-348 8438 8439 8440 0
-8441 -28 0
-8441 238 0
-8442 -29 0
-8442 234 0
-8443 -33 0
-8443 230 0
-348 8441 8442 8443 0
-8444 -37 0
-8444 274 0
-8445 -38 0
-8445 270 0
-8446 -42 0
-8446 266 0
-348 8444 8445 8446 0
-8447 -45 0
-8447 302 0
-8448 -46 0
-8448 298 0
-8449 -50 0
-8449 294 0
-348 8447 8448 8449 0
-8450 -52 0
-8450 323 0
-8451 -53 0
-8451 319 0
-8452 -57 0
-8452 315 0
-348 8450 8451 8452 0
-8453 -58 0
-8453 338 0
-8454 -59 0
-8454 334 0
-8455 -63 0
-8455 330 0
-348 8453 8454 8455 0
-8456 -65 0
-8456 357 0
-8457 -69 0
-8457 351 0
-8458 -75 0
-8458 345 0
-348 8456 8457 8458 0
-8459 -66 0
-8459 359 0
-8460 -70 0
-8460 353 0
-8461 -77 0
-8461 346 0
-348 8459 8460 8461 0
-8462 -67 0
-8462 360 0
-8463 -71 0
-8463 354 0
-8464 -78 0
-8464 347 0
-348 8462 8463 8464 0
-8465 -7 0
-8465 139 0
-8466 -9 0
-8466 132 0
-8467 -10 0
-8467 131 0
-349 8465 8466 8467 0
-8468 -18 0
-8468 194 0
-8469 -20 0
-8469 187 0
-8470 -21 0
-8470 186 0
-349 8468 8469 8470 0
-8471 -28 0
-8471 239 0
-8472 -30 0
-8472 232 0
-8473 -31 0
-8473 231 0
-349 8471 8472 8473 0
-8474 -37 0
-8474 275 0
-8475 -39 0
-8475 268 0
-8476 -40 0
-8476 267 0
-349 8474 8475 8476 0
-8477 -45 0
-8477 303 0
-8478 -47 0
-8478 296 0
-8479 -48 0
-8479 295 0
-349 8477 8478 8479 0
-8480 -52 0
-8480 324 0
-8481 -54 0
-8481 317 0
-8482 -55 0
-8482 316 0
-349 8480 8481 8482 0
-8483 -58 0
-8483 339 0
-8484 -60 0
-8484 332 0
-8485 -61 0
-8485 331 0
-349 8483 8484 8485 0
-8486 -64 0
-8486 355 0
-8487 -69 0
-8487 346 0
-8488 -70 0
-8488 345 0
-349 8486 8487 8488 0
-8489 -67 0
-8489 361 0
-8490 -74 0
-8490 352 0
-8491 -76 0
-8491 350 0
-349 8489 8490 8491 0
-8492 -68 0
-8492 362 0
-8493 -75 0
-8493 353 0
-8494 -77 0
-8494 351 0
-349 8492 8493 8494 0
-8495 -7 0
-8495 140 0
-8496 -9 0
-8496 133 0
-8497 -11 0
-8497 131 0
-350 8495 8496 8497 0
-8498 -18 0
-8498 195 0
-8499 -20 0
-8499 188 0
-8500 -22 0
-8500 186 0
-350 8498 8499 8500 0
-8501 -28 0
-8501 240 0
-8502 -30 0
-8502 233 0
-8503 -32 0
-8503 231 0
-350 8501 8502 8503 0
-8504 -37 0
-8504 276 0
-8505 -39 0
-8505 269 0
-8506 -41 0
-8506 267 0
-350 8504 8505 8506 0
-8507 -45 0
-8507 304 0
-8508 -47 0
-8508 297 0
-8509 -49 0
-8509 295 0
-350 8507 8508 8509 0
-8510 -52 0
-8510 325 0
-8511 -54 0
-8511 318 0
-8512 -56 0
-8512 316 0
-350 8510 8511 8512 0
-8513 -58 0
-8513 340 0
-8514 -60 0
-8514 333 0
-8515 -62 0
-8515 331 0
-350 8513 8514 8515 0
-8516 -64 0
-8516 356 0
-8517 -69 0
-8517 347 0
-8518 -71 0
-8518 345 0
-350 8516 8517 8518 0
-8519 -66 0
-8519 361 0
-8520 -73 0
-8520 352 0
-8521 -76 0
-8521 349 0
-350 8519 8520 8521 0
-8522 -68 0
-8522 363 0
-8523 -75 0
-8523 354 0
-8524 -78 0
-8524 351 0
-350 8522 8523 8524 0
-8525 -7 0
-8525 141 0
-8526 -9 0
-8526 134 0
-8527 -12 0
-8527 131 0
-351 8525 8526 8527 0
-8528 -18 0
-8528 196 0
-8529 -20 0
-8529 189 0
-8530 -23 0
-8530 186 0
-351 8528 8529 8530 0
-8531 -28 0
-8531 241 0
-8532 -30 0
-8532 234 0
-8533 -33 0
-8533 231 0
-351 8531 8532 8533 0
-8534 -37 0
-8534 277 0
-8535 -39 0
-8535 270 0
-8536 -42 0
-8536 267 0
-351 8534 8535 8536 0
-8537 -45 0
-8537 305 0
-8538 -47 0
-8538 298 0
-8539 -50 0
-8539 295 0
-351 8537 8538 8539 0
-8540 -52 0
-8540 326 0
-8541 -54 0
-8541 319 0
-8542 -57 0
-8542 316 0
-351 8540 8541 8542 0
-8543 -58 0
-8543 341 0
-8544 -60 0
-8544 334 0
-8545 -63 0
-8545 331 0
-351 8543 8544 8545 0
-8546 -64 0
-8546 357 0
-8547 -69 0
-8547 348 0
-8548 -72 0
-8548 345 0
-351 8546 8547 8548 0
-8549 -66 0
-8549 362 0
-8550 -73 0
-8550 353 0
-8551 -77 0
-8551 349 0
-351 8549 8550 8551 0
-8552 -67 0
-8552 363 0
-8553 -74 0
-8553 354 0
-8554 -78 0
-8554 350 0
-351 8552 8553 8554 0
-8555 -7 0
-8555 142 0
-8556 -10 0
-8556 133 0
-8557 -11 0
-8557 132 0
-352 8555 8556 8557 0
-8558 -18 0
-8558 197 0
-8559 -21 0
-8559 188 0
-8560 -22 0
-8560 187 0
-352 8558 8559 8560 0
-8561 -28 0
-8561 242 0
-8562 -31 0
-8562 233 0
-8563 -32 0
-8563 232 0
-352 8561 8562 8563 0
-8564 -37 0
-8564 278 0
-8565 -40 0
-8565 269 0
-8566 -41 0
-8566 268 0
-352 8564 8565 8566 0
-8567 -45 0
-8567 306 0
-8568 -48 0
-8568 297 0
-8569 -49 0
-8569 296 0
-352 8567 8568 8569 0
-8570 -52 0
-8570 327 0
-8571 -55 0
-8571 318 0
-8572 -56 0
-8572 317 0
-352 8570 8571 8572 0
-8573 -58 0
-8573 342 0
-8574 -61 0
-8574 333 0
-8575 -62 0
-8575 332 0
-352 8573 8574 8575 0
-8576 -64 0
-8576 358 0
-8577 -70 0
-8577 347 0
-8578 -71 0
-8578 346 0
-352 8576 8577 8578 0
-8579 -65 0
-8579 361 0
-8580 -73 0
-8580 350 0
-8581 -74 0
-8581 349 0
-352 8579 8580 8581 0
-8582 -68 0
-8582 364 0
-8583 -77 0
-8583 354 0
-8584 -78 0
-8584 353 0
-352 8582 8583 8584 0
-8585 -7 0
-8585 143 0
-8586 -10 0
-8586 134 0
-8587 -12 0
-8587 132 0
-353 8585 8586 8587 0
-8588 -18 0
-8588 198 0
-8589 -21 0
-8589 189 0
-8590 -23 0
-8590 187 0
-353 8588 8589 8590 0
-8591 -28 0
-8591 243 0
-8592 -31 0
-8592 234 0
-8593 -33 0
-8593 232 0
-353 8591 8592 8593 0
-8594 -37 0
-8594 279 0
-8595 -40 0
-8595 270 0
-8596 -42 0
-8596 268 0
-353 8594 8595 8596 0
-8597 -45 0
-8597 307 0
-8598 -48 0
-8598 298 0
-8599 -50 0
-8599 296 0
-353 8597 8598 8599 0
-8600 -52 0
-8600 328 0
-8601 -55 0
-8601 319 0
-8602 -57 0
-8602 317 0
-353 8600 8601 8602 0
-8603 -58 0
-8603 343 0
-8604 -61 0
-8604 334 0
-8605 -63 0
-8605 332 0
-353 8603 8604 8605 0
-8606 -64 0
-8606 359 0
-8607 -70 0
-8607 348 0
-8608 -72 0
-8608 346 0
-353 8606 8607 8608 0
-8609 -65 0
-8609 362 0
-8610 -73 0
-8610 351 0
-8611 -75 0
-8611 349 0
-353 8609 8610 8611 0
-8612 -67 0
-8612 364 0
-8613 -76 0
-8613 354 0
-8614 -78 0
-8614 352 0
-353 8612 8613 8614 0
-8615 -7 0
-8615 144 0
-8616 -11 0
-8616 134 0
-8617 -12 0
-8617 133 0
-354 8615 8616 8617 0
-8618 -18 0
-8618 199 0
-8619 -22 0
-8619 189 0
-8620 -23 0
-8620 188 0
-354 8618 8619 8620 0
-8621 -28 0
-8621 244 0
-8622 -32 0
-8622 234 0
-8623 -33 0
-8623 233 0
-354 8621 8622 8623 0
-8624 -37 0
-8624 280 0
-8625 -41 0
-8625 270 0
-8626 -42 0
-8626 269 0
-354 8624 8625 8626 0
-8627 -45 0
-8627 308 0
-8628 -49 0
-8628 298 0
-8629 -50 0
-8629 297 0
-354 8627 8628 8629 0
-8630 -52 0
-8630 329 0
-8631 -56 0
-8631 319 0
-8632 -57 0
-8632 318 0
-354 8630 8631 8632 0
-8633 -58 0
-8633 344 0
-8634 -62 0
-8634 334 0
-8635 -63 0
-8635 333 0
-354 8633 8634 8635 0
-8636 -64 0
-8636 360 0
-8637 -71 0
-8637 348 0
-8638 -72 0
-8638 347 0
-354 8636 8637 8638 0
-8639 -65 0
-8639 363 0
-8640 -74 0
-8640 351 0
-8641 -75 0
-8641 350 0
-354 8639 8640 8641 0
-8642 -66 0
-8642 364 0
-8643 -76 0
-8643 353 0
-8644 -77 0
-8644 352 0
-354 8642 8643 8644 0
-8645 -8 0
-8645 139 0
-8646 -9 0
-8646 136 0
-8647 -10 0
-8647 135 0
-355 8645 8646 8647 0
-8648 -19 0
-8648 194 0
-8649 -20 0
-8649 191 0
-8650 -21 0
-8650 190 0
-355 8648 8649 8650 0
-8651 -29 0
-8651 239 0
-8652 -30 0
-8652 236 0
-8653 -31 0
-8653 235 0
-355 8651 8652 8653 0
-8654 -38 0
-8654 275 0
-8655 -39 0
-8655 272 0
-8656 -40 0
-8656 271 0
-355 8654 8655 8656 0
-8657 -46 0
-8657 303 0
-8658 -47 0
-8658 300 0
-8659 -48 0
-8659 299 0
-355 8657 8658 8659 0
-8660 -53 0
-8660 324 0
-8661 -54 0
-8661 321 0
-8662 -55 0
-8662 320 0
-355 8660 8661 8662 0
-8663 -59 0
-8663 339 0
-8664 -60 0
-8664 336 0
-8665 -61 0
-8665 335 0
-355 8663 8664 8665 0
-8666 -64 0
-8666 349 0
-8667 -65 0
-8667 346 0
-8668 -66 0
-8668 345 0
-355 8666 8667 8668 0
-8669 -71 0
-8669 361 0
-8670 -74 0
-8670 358 0
-8671 -76 0
-8671 356 0
-355 8669 8670 8671 0
-8672 -72 0
-8672 362 0
-8673 -75 0
-8673 359 0
-8674 -77 0
-8674 357 0
-355 8672 8673 8674 0
-8675 -8 0
-8675 140 0
-8676 -9 0
-8676 137 0
-8677 -11 0
-8677 135 0
-356 8675 8676 8677 0
-8678 -19 0
-8678 195 0
-8679 -20 0
-8679 192 0
-8680 -22 0
-8680 190 0
-356 8678 8679 8680 0
-8681 -29 0
-8681 240 0
-8682 -30 0
-8682 237 0
-8683 -32 0
-8683 235 0
-356 8681 8682 8683 0
-8684 -38 0
-8684 276 0
-8685 -39 0
-8685 273 0
-8686 -41 0
-8686 271 0
-356 8684 8685 8686 0
-8687 -46 0
-8687 304 0
-8688 -47 0
-8688 301 0
-8689 -49 0
-8689 299 0
-356 8687 8688 8689 0
-8690 -53 0
-8690 325 0
-8691 -54 0
-8691 322 0
-8692 -56 0
-8692 320 0
-356 8690 8691 8692 0
-8693 -59 0
-8693 340 0
-8694 -60 0
-8694 337 0
-8695 -62 0
-8695 335 0
-356 8693 8694 8695 0
-8696 -64 0
-8696 350 0
-8697 -65 0
-8697 347 0
-8698 -67 0
-8698 345 0
-356 8696 8697 8698 0
-8699 -70 0
-8699 361 0
-8700 -73 0
-8700 358 0
-8701 -76 0
-8701 355 0
-356 8699 8700 8701 0
-8702 -72 0
-8702 363 0
-8703 -75 0
-8703 360 0
-8704 -78 0
-8704 357 0
-356 8702 8703 8704 0
-8705 -8 0
-8705 141 0
-8706 -9 0
-8706 138 0
-8707 -12 0
-8707 135 0
-357 8705 8706 8707 0
-8708 -19 0
-8708 196 0
-8709 -20 0
-8709 193 0
-8710 -23 0
-8710 190 0
-357 8708 8709 8710 0
-8711 -29 0
-8711 241 0
-8712 -30 0
-8712 238 0
-8713 -33 0
-8713 235 0
-357 8711 8712 8713 0
-8714 -38 0
-8714 277 0
-8715 -39 0
-8715 274 0
-8716 -42 0
-8716 271 0
-357 8714 8715 8716 0
-8717 -46 0
-8717 305 0
-8718 -47 0
-8718 302 0
-8719 -50 0
-8719 299 0
-357 8717 8718 8719 0
-8720 -53 0
-8720 326 0
-8721 -54 0
-8721 323 0
-8722 -57 0
-8722 320 0
-357 8720 8721 8722 0
-8723 -59 0
-8723 341 0
-8724 -60 0
-8724 338 0
-8725 -63 0
-8725 335 0
-357 8723 8724 8725 0
-8726 -64 0
-8726 351 0
-8727 -65 0
-8727 348 0
-8728 -68 0
-8728 345 0
-357 8726 8727 8728 0
-8729 -70 0
-8729 362 0
-8730 -73 0
-8730 359 0
-8731 -77 0
-8731 355 0
-357 8729 8730 8731 0
-8732 -71 0
-8732 363 0
-8733 -74 0
-8733 360 0
-8734 -78 0
-8734 356 0
-357 8732 8733 8734 0
-8735 -8 0
-8735 142 0
-8736 -10 0
-8736 137 0
-8737 -11 0
-8737 136 0
-358 8735 8736 8737 0
-8738 -19 0
-8738 197 0
-8739 -21 0
-8739 192 0
-8740 -22 0
-8740 191 0
-358 8738 8739 8740 0
-8741 -29 0
-8741 242 0
-8742 -31 0
-8742 237 0
-8743 -32 0
-8743 236 0
-358 8741 8742 8743 0
-8744 -38 0
-8744 278 0
-8745 -40 0
-8745 273 0
-8746 -41 0
-8746 272 0
-358 8744 8745 8746 0
-8747 -46 0
-8747 306 0
-8748 -48 0
-8748 301 0
-8749 -49 0
-8749 300 0
-358 8747 8748 8749 0
-8750 -53 0
-8750 327 0
-8751 -55 0
-8751 322 0
-8752 -56 0
-8752 321 0
-358 8750 8751 8752 0
-8753 -59 0
-8753 342 0
-8754 -61 0
-8754 337 0
-8755 -62 0
-8755 336 0
-358 8753 8754 8755 0
-8756 -64 0
-8756 352 0
-8757 -66 0
-8757 347 0
-8758 -67 0
-8758 346 0
-358 8756 8757 8758 0
-8759 -69 0
-8759 361 0
-8760 -73 0
-8760 356 0
-8761 -74 0
-8761 355 0
-358 8759 8760 8761 0
-8762 -72 0
-8762 364 0
-8763 -77 0
-8763 360 0
-8764 -78 0
-8764 359 0
-358 8762 8763 8764 0
-8765 -8 0
-8765 143 0
-8766 -10 0
-8766 138 0
-8767 -12 0
-8767 136 0
-359 8765 8766 8767 0
-8768 -19 0
-8768 198 0
-8769 -21 0
-8769 193 0
-8770 -23 0
-8770 191 0
-359 8768 8769 8770 0
-8771 -29 0
-8771 243 0
-8772 -31 0
-8772 238 0
-8773 -33 0
-8773 236 0
-359 8771 8772 8773 0
-8774 -38 0
-8774 279 0
-8775 -40 0
-8775 274 0
-8776 -42 0
-8776 272 0
-359 8774 8775 8776 0
-8777 -46 0
-8777 307 0
-8778 -48 0
-8778 302 0
-8779 -50 0
-8779 300 0
-359 8777 8778 8779 0
-8780 -53 0
-8780 328 0
-8781 -55 0
-8781 323 0
-8782 -57 0
-8782 321 0
-359 8780 8781 8782 0
-8783 -59 0
-8783 343 0
-8784 -61 0
-8784 338 0
-8785 -63 0
-8785 336 0
-359 8783 8784 8785 0
-8786 -64 0
-8786 353 0
-8787 -66 0
-8787 348 0
-8788 -68 0
-8788 346 0
-359 8786 8787 8788 0
-8789 -69 0
-8789 362 0
-8790 -73 0
-8790 357 0
-8791 -75 0
-8791 355 0
-359 8789 8790 8791 0
-8792 -71 0
-8792 364 0
-8793 -76 0
-8793 360 0
-8794 -78 0
-8794 358 0
-359 8792 8793 8794 0
-8795 -8 0
-8795 144 0
-8796 -11 0
-8796 138 0
-8797 -12 0
-8797 137 0
-360 8795 8796 8797 0
-8798 -19 0
-8798 199 0
-8799 -22 0
-8799 193 0
-8800 -23 0
-8800 192 0
-360 8798 8799 8800 0
-8801 -29 0
-8801 244 0
-8802 -32 0
-8802 238 0
-8803 -33 0
-8803 237 0
-360 8801 8802 8803 0
-8804 -38 0
-8804 280 0
-8805 -41 0
-8805 274 0
-8806 -42 0
-8806 273 0
-360 8804 8805 8806 0
-8807 -46 0
-8807 308 0
-8808 -49 0
-8808 302 0
-8809 -50 0
-8809 301 0
-360 8807 8808 8809 0
-8810 -53 0
-8810 329 0
-8811 -56 0
-8811 323 0
-8812 -57 0
-8812 322 0
-360 8810 8811 8812 0
-8813 -59 0
-8813 344 0
-8814 -62 0
-8814 338 0
-8815 -63 0
-8815 337 0
-360 8813 8814 8815 0
-8816 -64 0
-8816 354 0
-8817 -67 0
-8817 348 0
-8818 -68 0
-8818 347 0
-360 8816 8817 8818 0
-8819 -69 0
-8819 363 0
-8820 -74 0
-8820 357 0
-8821 -75 0
-8821 356 0
-360 8819 8820 8821 0
-8822 -70 0
-8822 364 0
-8823 -76 0
-8823 359 0
-8824 -77 0
-8824 358 0
-360 8822 8823 8824 0
-8825 -9 0
-8825 142 0
-8826 -10 0
-8826 140 0
-8827 -11 0
-8827 139 0
-361 8825 8826 8827 0
-8828 -20 0
-8828 197 0
-8829 -21 0
-8829 195 0
-8830 -22 0
-8830 194 0
-361 8828 8829 8830 0
-8831 -30 0
-8831 242 0
-8832 -31 0
-8832 240 0
-8833 -32 0
-8833 239 0
-361 8831 8832 8833 0
-8834 -39 0
-8834 278 0
-8835 -40 0
-8835 276 0
-8836 -41 0
-8836 275 0
-361 8834 8835 8836 0
-8837 -47 0
-8837 306 0
-8838 -48 0
-8838 304 0
-8839 -49 0
-8839 303 0
-361 8837 8838 8839 0
-8840 -54 0
-8840 327 0
-8841 -55 0
-8841 325 0
-8842 -56 0
-8842 324 0
-361 8840 8841 8842 0
-8843 -60 0
-8843 342 0
-8844 -61 0
-8844 340 0
-8845 -62 0
-8845 339 0
-361 8843 8844 8845 0
-8846 -65 0
-8846 352 0
-8847 -66 0
-8847 350 0
-8848 -67 0
-8848 349 0
-361 8846 8847 8848 0
-8849 -69 0
-8849 358 0
-8850 -70 0
-8850 356 0
-8851 -71 0
-8851 355 0
-361 8849 8850 8851 0
-8852 -75 0
-8852 364 0
-8853 -77 0
-8853 363 0
-8854 -78 0
-8854 362 0
-361 8852 8853 8854 0
-8855 -9 0
-8855 143 0
-8856 -10 0
-8856 141 0
-8857 -12 0
-8857 139 0
-362 8855 8856 8857 0
-8858 -20 0
-8858 198 0
-8859 -21 0
-8859 196 0
-8860 -23 0
-8860 194 0
-362 8858 8859 8860 0
-8861 -30 0
-8861 243 0
-8862 -31 0
-8862 241 0
-8863 -33 0
-8863 239 0
-362 8861 8862 8863 0
-8864 -39 0
-8864 279 0
-8865 -40 0
-8865 277 0
-8866 -42 0
-8866 275 0
-362 8864 8865 8866 0
-8867 -47 0
-8867 307 0
-8868 -48 0
-8868 305 0
-8869 -50 0
-8869 303 0
-362 8867 8868 8869 0
-8870 -54 0
-8870 328 0
-8871 -55 0
-8871 326 0
-8872 -57 0
-8872 324 0
-362 8870 8871 8872 0
-8873 -60 0
-8873 343 0
-8874 -61 0
-8874 341 0
-8875 -63 0
-8875 339 0
-362 8873 8874 8875 0
-8876 -65 0
-8876 353 0
-8877 -66 0
-8877 351 0
-8878 -68 0
-8878 349 0
-362 8876 8877 8878 0
-8879 -69 0
-8879 359 0
-8880 -70 0
-8880 357 0
-8881 -72 0
-8881 355 0
-362 8879 8880 8881 0
-8882 -74 0
-8882 364 0
-8883 -76 0
-8883 363 0
-8884 -78 0
-8884 361 0
-362 8882 8883 8884 0
-8885 -9 0
-8885 144 0
-8886 -11 0
-8886 141 0
-8887 -12 0
-8887 140 0
-363 8885 8886 8887 0
-8888 -20 0
-8888 199 0
-8889 -22 0
-8889 196 0
-8890 -23 0
-8890 195 0
-363 8888 8889 8890 0
-8891 -30 0
-8891 244 0
-8892 -32 0
-8892 241 0
-8893 -33 0
-8893 240 0
-363 8891 8892 8893 0
-8894 -39 0
-8894 280 0
-8895 -41 0
-8895 277 0
-8896 -42 0
-8896 276 0
-363 8894 8895 8896 0
-8897 -47 0
-8897 308 0
-8898 -49 0
-8898 305 0
-8899 -50 0
-8899 304 0
-363 8897 8898 8899 0
-8900 -54 0
-8900 329 0
-8901 -56 0
-8901 326 0
-8902 -57 0
-8902 325 0
-363 8900 8901 8902 0
-8903 -60 0
-8903 344 0
-8904 -62 0
-8904 341 0
-8905 -63 0
-8905 340 0
-363 8903 8904 8905 0
-8906 -65 0
-8906 354 0
-8907 -67 0
-8907 351 0
-8908 -68 0
-8908 350 0
-363 8906 8907 8908 0
-8909 -69 0
-8909 360 0
-8910 -71 0
-8910 357 0
-8911 -72 0
-8911 356 0
-363 8909 8910 8911 0
-8912 -73 0
-8912 364 0
-8913 -76 0
-8913 362 0
-8914 -77 0
-8914 361 0
-363 8912 8913 8914 0
-8915 -10 0
-8915 144 0
-8916 -11 0
-8916 143 0
-8917 -12 0
-8917 142 0
-364 8915 8916 8917 0
-8918 -21 0
-8918 199 0
-8919 -22 0
-8919 198 0
-8920 -23 0
-8920 197 0
-364 8918 8919 8920 0
-8921 -31 0
-8921 244 0
-8922 -32 0
-8922 243 0
-8923 -33 0
-8923 242 0
-364 8921 8922 8923 0
-8924 -40 0
-8924 280 0
-8925 -41 0
-8925 279 0
-8926 -42 0
-8926 278 0
-364 8924 8925 8926 0
-8927 -48 0
-8927 308 0
-8928 -49 0
-8928 307 0
-8929 -50 0
-8929 306 0
-364 8927 8928 8929 0
-8930 -55 0
-8930 329 0
-8931 -56 0
-8931 328 0
-8932 -57 0
-8932 327 0
-364 8930 8931 8932 0
-8933 -61 0
-8933 344 0
-8934 -62 0
-8934 343 0
-8935 -63 0
-8935 342 0
-364 8933 8934 8935 0
-8936 -66 0
-8936 354 0
-8937 -67 0
-8937 353 0
-8938 -68 0
-8938 352 0
-364 8936 8937 8938 0
-8939 -70 0
-8939 360 0
-8940 -71 0
-8940 359 0
-8941 -72 0
-8941 358 0
-364 8939 8940 8941 0
-8942 -73 0
-8942 363 0
-8943 -74 0
-8943 362 0
-8944 -75 0
-8944 361 0
-364 8942 8943 8944 0
1 0
-2 0
-3 0
-4 0
-5 0
6 0
13 0
-14 0
-15 0
-16 0
-17 0
24 0
-25 0
-26 0
-27 0
34 0
-35 0
-36 0
43 0
-44 0
51 0
7 0
18 0
84 0
-189 0
-134 0
19 0
29 0
150 0
-238 0
-193 0
28 0
37 0
203 0
-270 0
-234 0
39 0
47 0
249 0
-305 0
-277 0
46 0
53 0
283 0
-323 0
-302 0
55 0
61 0
312 0
-343 0
-328 0
62 0
11 0
128 0
-144 0
-344 0
