p cnf 12467 32088
-92 -3 -15 -26 0
-92 -4 -16 -27 0
-92 -5 -17 -28 0
-92 -6 -18 -29 0
-92 -7 -19 -30 0
-92 -8 -20 -31 0
-92 -9 -21 -32 0
-92 -10 -22 -33 0
-92 -11 -23 -34 0
-92 -12 -24 -35 0
-92 -13 -25 -36 0
-93 -2 -14 -26 0
-93 -4 -16 -37 0
-93 -5 -17 -38 0
-93 -6 -18 -39 0
-93 -7 -19 -40 0
-93 -8 -20 -41 0
-93 -9 -21 -42 0
-93 -10 -22 -43 0
-93 -11 -23 -44 0
-93 -12 -24 -45 0
-93 -13 -25 -46 0
-94 -2 -14 -27 0
-94 -3 -15 -37 0
-94 -5 -17 -47 0
-94 -6 -18 -48 0
-94 -7 -19 -49 0
-94 -8 -20 -50 0
-94 -9 -21 -51 0
-94 -10 -22 -52 0
-94 -11 -23 -53 0
-94 -12 -24 -54 0
-94 -13 -25 -55 0
-95 -2 -14 -28 0
-95 -3 -15 -38 0
-95 -4 -16 -47 0
-95 -6 -18 -56 0
-95 -7 -19 -57 0
-95 -8 -20 -58 0
-95 -9 -21 -59 0
-95 -10 -22 -60 0
-95 -11 -23 -61 0
-95 -12 -24 -62 0
-95 -13 -25 -63 0
-96 -2 -14 -29 0
-96 -3 -15 -39 0
-96 -4 -16 -48 0
-96 -5 -17 -56 0
-96 -7 -19 -64 0
-96 -8 -20 -65 0
-96 -9 -21 -66 0
-96 -10 -22 -67 0
-96 -11 -23 -68 0
-96 -12 -24 -69 0
-96 -13 -25 -70 0
-97 -2 -14 -30 0
-97 -3 -15 -40 0
-97 -4 -16 -49 0
-97 -5 -17 -57 0
-97 -6 -18 -64 0
-97 -8 -20 -71 0
-97 -9 -21 -72 0
-97 -10 -22 -73 0
-97 -11 -23 -74 0
-97 -12 -24 -75 0
-97 -13 -25 -76 0
-98 -2 -14 -31 0
-98 -3 -15 -41 0
-98 -4 -16 -50 0
-98 -5 -17 -58 0
-98 -6 -18 -65 0
-98 -7 -19 -71 0
-98 -9 -21 -77 0
-98 -10 -22 -78 0
-98 -11 -23 -79 0
-98 -12 -24 -80 0
-98 -13 -25 -81 0
-99 -2 -14 -32 0
-99 -3 -15 -42 0
-99 -4 -16 -51 0
-99 -5 -17 -59 0
-99 -6 -18 -66 0
-99 -7 -19 -72 0
-99 -8 -20 -77 0
-99 -10 -22 -82 0
-99 -11 -23 -83 0
-99 -12 -24 -84 0
-99 -13 -25 -85 0
-100 -2 -14 -33 0
-100 -3 -15 -43 0
-100 -4 -16 -52 0
-100 -5 -17 -60 0
-100 -6 -18 -67 0
-100 -7 -19 -73 0
-100 -8 -20 -78 0
-100 -9 -21 -82 0
-100 -11 -23 -86 0
-100 -12 -24 -87 0
-100 -13 -25 -88 0
-101 -2 -14 -34 0
-101 -3 -15 -44 0
-101 -4 -16 -53 0
-101 -5 -17 -61 0
-101 -6 -18 -68 0
-101 -7 -19 -74 0
-101 -8 -20 -79 0
-101 -9 -21 -83 0
-101 -10 -22 -86 0
-101 -12 -24 -89 0
-101 -13 -25 -90 0
-102 -2 -14 -35 0
-102 -3 -15 -45 0
-102 -4 -16 -54 0
-102 -5 -17 -62 0
-102 -6 -18 -69 0
-102 -7 -19 -75 0
-102 -8 -20 -80 0
-102 -9 -21 -84 0
-102 -10 -22 -87 0
-102 -11 -23 -89 0
-102 -13 -25 -91 0
-103 -2 -14 -36 0
-103 -3 -15 -46 0
-103 -4 -16 -55 0
-103 -5 -17 -63 0
-103 -6 -18 -70 0
-103 -7 -19 -76 0
-103 -8 -20 -81 0
-103 -9 -21 -85 0
-103 -10 -22 -88 0
-103 -11 -23 -90 0
-103 -12 -24 -91 0
-104 -1 -14 -15 0
-104 -4 -27 -37 0
-104 -5 -28 -38 0
-104 -6 -29 -39 0
-104 -7 -30 -40 0
-104 -8 -31 -41 0
-104 -9 -32 -42 0
-104 -10 -33 -43 0
-104 -11 -34 -44 0
-104 -12 -35 -45 0
-104 -13 -36 -46 0
-105 -1 -14 -16 0
-105 -3 -26 -37 0
-105 -5 -28 -47 0
-105 -6 -29 -48 0
-105 -7 -30 -49 0
-105 -8 -31 -50 0
-105 -9 -32 -51 0
-105 -10 -33 -52 0
-105 -11 -34 -53 0
-105 -12 -35 -54 0
-105 -13 -36 -55 0
-106 -1 -14 -17 0
-106 -3 -26 -38 0
-106 -4 -27 -47 0
-106 -6 -29 -56 0
-106 -7 -30 -57 0
-106 -8 -31 -58 0
-106 -9 -32 -59 0
-106 -10 -33 -60 0
-106 -11 -34 -61 0
-106 -12 -35 -62 0
-106 -13 -36 -63 0
-107 -1 -14 -18 0
-107 -3 -26 -39 0
-107 -4 -27 -48 0
-107 -5 -28 -56 0
-107 -7 -30 -64 0
-107 -8 -31 -65 0
-107 -9 -32 -66 0
-107 -10 -33 -67 0
-107 -11 -34 -68 0
-107 -12 -35 -69 0
-107 -13 -36 -70 0
-108 -1 -14 -19 0
-108 -3 -26 -40 0
-108 -4 -27 -49 0
-108 -5 -28 -57 0
-108 -6 -29 -64 0
-108 -8 -31 -71 0
-108 -9 -32 -72 0
-108 -10 -33 -73 0
-108 -11 -34 -74 0
-108 -12 -35 -75 0
-108 -13 -36 -76 0
-109 -1 -14 -20 0
-109 -3 -26 -41 0
-109 -4 -27 -50 0
-109 -5 -28 -58 0
-109 -6 -29 -65 0
-109 -7 -30 -71 0
-109 -9 -32 -77 0
-109 -10 -33 -78 0
-109 -11 -34 -79 0
-109 -12 -35 -80 0
-109 -13 -36 -81 0
-110 -1 -14 -21 0
-110 -3 -26 -42 0
-110 -4 -27 -51 0
-110 -5 -28 -59 0
-110 -6 -29 -66 0
-110 -7 -30 -72 0
-110 -8 -31 -77 0
-110 -10 -33 -82 0
-110 -11 -34 -83 0
-110 -12 -35 -84 0
-110 -13 -36 -85 0
-111 -1 -14 -22 0
-111 -3 -26 -43 0
-111 -4 -27 -52 0
-111 -5 -28 -60 0
-111 -6 -29 -67 0
-111 -7 -30 -73 0
-111 -8 -31 -78 0
-111 -9 -32 -82 0
-111 -11 -34 -86 0
-111 -12 -35 -87 0
-111 -13 -36 -88 0
-112 -1 -14 -23 0
-112 -3 -26 -44 0
-112 -4 -27 -53 0
-112 -5 -28 -61 0
-112 -6 -29 -68 0
-112 -7 -30 -74 0
-112 -8 -31 -79 0
-112 -9 -32 -83 0
-112 -10 -33 -86 0
-112 -12 -35 -89 0
-112 -13 -36 -90 0
-113 -1 -14 -24 0
-113 -3 -26 -45 0
-113 -4 -27 -54 0
-113 -5 -28 -62 0
-113 -6 -29 -69 0
-113 -7 -30 -75 0
-113 -8 -31 -80 0
-113 -9 -32 -84 0
-113 -10 -33 -87 0
-113 -11 -34 -89 0
-113 -13 -36 -91 0
-114 -1 -14 -25 0
-114 -3 -26 -46 0
-114 -4 -27 -55 0
-114 -5 -28 -63 0
-114 -6 -29 -70 0
-114 -7 -30 -76 0
-114 -8 -31 -81 0
-114 -9 -32 -85 0
-114 -10 -33 -88 0
-114 -11 -34 -90 0
-114 -12 -35 -91 0
-115 -1 -15 -16 0
-115 -2 -26 -27 0
-115 -5 -38 -47 0
-115 -6 -39 -48 0
-115 -7 -40 -49 0
-115 -8 -41 -50 0
-115 -9 -42 -51 0
-115 -10 -43 -52 0
-115 -11 -44 -53 0
-115 -12 -45 -54 0
-115 -13 -46 -55 0
-116 -1 -15 -17 0
-116 -2 -26 -28 0
-116 -4 -37 -47 0
-116 -6 -39 -56 0
-116 -7 -40 -57 0
-116 -8 -41 -58 0
-116 -9 -42 -59 0
-116 -10 -43 -60 0
-116 -11 -44 -61 0
-116 -12 -45 -62 0
-116 -13 -46 -63 0
-117 -1 -15 -18 0
-117 -2 -26 -29 0
-117 -4 -37 -48 0
-117 -5 -38 -56 0
-117 -7 -40 -64 0
-117 -8 -41 -65 0
-117 -9 -42 -66 0
-117 -10 -43 -67 0
-117 -11 -44 -68 0
-117 -12 -45 -69 0
-117 -13 -46 -70 0
-118 -1 -15 -19 0
-118 -2 -26 -30 0
-118 -4 -37 -49 0
-118 -5 -38 -57 0
-118 -6 -39 -64 0
-118 -8 -41 -71 0
-118 -9 -42 -72 0
-118 -10 -43 -73 0
-118 -11 -44 -74 0
-118 -12 -45 -75 0
-118 -13 -46 -76 0
-119 -1 -15 -20 0
-119 -2 -26 -31 0
-119 -4 -37 -50 0
-119 -5 -38 -58 0
-119 -6 -39 -65 0
-119 -7 -40 -71 0
-119 -9 -42 -77 0
-119 -10 -43 -78 0
-119 -11 -44 -79 0
-119 -12 -45 -80 0
-119 -13 -46 -81 0
-120 -1 -15 -21 0
-120 -2 -26 -32 0
-120 -4 -37 -51 0
-120 -5 -38 -59 0
-120 -6 -39 -66 0
-120 -7 -40 -72 0
-120 -8 -41 -77 0
-120 -10 -43 -82 0
-120 -11 -44 -83 0
-120 -12 -45 -84 0
-120 -13 -46 -85 0
-121 -1 -15 -22 0
-121 -2 -26 -33 0
-121 -4 -37 -52 0
-121 -5 -38 -60 0
-121 -6 -39 -67 0
-121 -7 -40 -73 0
-121 -8 -41 -78 0
-121 -9 -42 -82 0
-121 -11 -44 -86 0
-121 -12 -45 -87 0
-121 -13 -46 -88 0
-122 -1 -15 -23 0
-122 -2 -26 -34 0
-122 -4 -37 -53 0
-122 -5 -38 -61 0
-122 -6 -39 -68 0
-122 -7 -40 -74 0
-122 -8 -41 -79 0
-122 -9 -42 -83 0
-122 -10 -43 -86 0
-122 -12 -45 -89 0
-122 -13 -46 -90 0
-123 -1 -15 -24 0
-123 -2 -26 -35 0
-123 -4 -37 -54 0
-123 -5 -38 -62 0
-123 -6 -39 -69 0
-123 -7 -40 -75 0
-123 -8 -41 -80 0
-123 -9 -42 -84 0
-123 -10 -43 -87 0
-123 -11 -44 -89 0
-123 -13 -46 -91 0
-124 -1 -15 -25 0
-124 -2 -26 -36 0
-124 -4 -37 -55 0
-124 -5 -38 -63 0
-124 -6 -39 -70 0
-124 -7 -40 -76 0
-124 -8 -41 -81 0
-124 -9 -42 -85 0
-124 -10 -43 -88 0
-124 -11 -44 -90 0
-124 -12 -45 -91 0
-125 -1 -16 -17 0
-125 -2 -27 -28 0
-125 -3 -37 -38 0
-125 -6 -48 -56 0
-125 -7 -49 -57 0
-125 -8 -50 -58 0
-125 -9 -51 -59 0
-125 -10 -52 -60 0
-125 -11 -53 -61 0
-125 -12 -54 -62 0
-125 -13 -55 -63 0
-126 -1 -16 -18 0
-126 -2 -27 -29 0
-126 -3 -37 -39 0
-126 -5 -47 -56 0
-126 -7 -49 -64 0
-126 -8 -50 -65 0
-126 -9 -51 -66 0
-126 -10 -52 -67 0
-126 -11 -53 -68 0
-126 -12 -54 -69 0
-126 -13 -55 -70 0
-127 -1 -16 -19 0
-127 -2 -27 -30 0
-127 -3 -37 -40 0
-127 -5 -47 -57 0
-127 -6 -48 -64 0
-127 -8 -50 -71 0
-127 -9 -51 -72 0
-127 -10 -52 -73 0
-127 -11 -53 -74 0
-127 -12 -54 -75 0
-127 -13 -55 -76 0
-128 -1 -16 -20 0
-128 -2 -27 -31 0
-128 -3 -37 -41 0
-128 -5 -47 -58 0
-128 -6 -48 -65 0
-128 -7 -49 -71 0
-128 -9 -51 -77 0
-128 -10 -52 -78 0
-128 -11 -53 -79 0
-128 -12 -54 -80 0
-128 -13 -55 -81 0
-129 -1 -16 -21 0
-129 -2 -27 -32 0
-129 -3 -37 -42 0
-129 -5 -47 -59 0
-129 -6 -48 -66 0
-129 -7 -49 -72 0
-129 -8 -50 -77 0
-129 -10 -52 -82 0
-129 -11 -53 -83 0
-129 -12 -54 -84 0
-129 -13 -55 -85 0
-130 -1 -16 -22 0
-130 -2 -27 -33 0
-130 -3 -37 -43 0
-130 -5 -47 -60 0
-130 -6 -48 -67 0
-130 -7 -49 -73 0
-130 -8 -50 -78 0
-130 -9 -51 -82 0
-130 -11 -53 -86 0
-130 -12 -54 -87 0
-130 -13 -55 -88 0
-131 -1 -16 -23 0
-131 -2 -27 -34 0
-131 -3 -37 -44 0
-131 -5 -47 -61 0
-131 -6 -48 -68 0
-131 -7 -49 -74 0
-131 -8 -50 -79 0
-131 -9 -51 -83 0
-131 -10 -52 -86 0
-131 -12 -54 -89 0
-131 -13 -55 -90 0
-132 -1 -16 -24 0
-132 -2 -27 -35 0
-132 -3 -37 -45 0
-132 -5 -47 -62 0
-132 -6 -48 -69 0
-132 -7 -49 -75 0
-132 -8 -50 -80 0
-132 -9 -51 -84 0
-132 -10 -52 -87 0
-132 -11 -53 -89 0
-132 -13 -55 -91 0
-133 -1 -16 -25 0
-133 -2 -27 -36 0
-133 -3 -37 -46 0
-133 -5 -47 -63 0
-133 -6 -48 -70 0
-133 -7 -49 -76 0
-133 -8 -50 -81 0
-133 -9 -51 -85 0
-133 -10 -52 -88 0
-133 -11 -53 -90 0
-133 -12 -54 -91 0
-134 -1 -17 -18 0
-134 -2 -28 -29 0
-134 -3 -38 -39 0
-134 -4 -47 -48 0
-134 -7 -57 -64 0
-134 -8 -58 -65 0
-134 -9 -59 -66 0
-134 -10 -60 -67 0
-134 -11 -61 -68 0
-134 -12 -62 -69 0
-134 -13 -63 -70 0
-135 -1 -17 -19 0
-135 -2 -28 -30 0
-135 -3 -38 -40 0
-135 -4 -47 -49 0
-135 -6 -56 -64 0
-135 -8 -58 -71 0
-135 -9 -59 -72 0
-135 -10 -60 -73 0
-135 -11 -61 -74 0
-135 -12 -62 -75 0
-135 -13 -63 -76 0
-136 -1 -17 -20 0
-136 -2 -28 -31 0
-136 -3 -38 -41 0
-136 -4 -47 -50 0
-136 -6 -56 -65 0
-136 -7 -57 -71 0
-136 -9 -59 -77 0
-136 -10 -60 -78 0
-136 -11 -61 -79 0
-136 -12 -62 -80 0
-136 -13 -63 -81 0
-137 -1 -17 -21 0
-137 -2 -28 -32 0
-137 -3 -38 -42 0
-137 -4 -47 -51 0
-137 -6 -56 -66 0
-137 -7 -57 -72 0
-137 -8 -58 -77 0
-137 -10 -60 -82 0
-137 -11 -61 -83 0
-137 -12 -62 -84 0
-137 -13 -63 -85 0
-138 -1 -17 -22 0
-138 -2 -28 -33 0
-138 -3 -38 -43 0
-138 -4 -47 -52 0
-138 -6 -56 -67 0
-138 -7 -57 -73 0
-138 -8 -58 -78 0
-138 -9 -59 -82 0
-138 -11 -61 -86 0
-138 -12 -62 -87 0
-138 -13 -63 -88 0
-139 -1 -17 -23 0
-139 -2 -28 -34 0
-139 -3 -38 -44 0
-139 -4 -47 -53 0
-139 -6 -56 -68 0
-139 -7 -57 -74 0
-139 -8 -58 -79 0
-139 -9 -59 -83 0
-139 -10 -60 -86 0
-139 -12 -62 -89 0
-139 -13 -63 -90 0
-140 -1 -17 -24 0
-140 -2 -28 -35 0
-140 -3 -38 -45 0
-140 -4 -47 -54 0
-140 -6 -56 -69 0
-140 -7 -57 -75 0
-140 -8 -58 -80 0
-140 -9 -59 -84 0
-140 -10 -60 -87 0
-140 -11 -61 -89 0
-140 -13 -63 -91 0
-141 -1 -17 -25 0
-141 -2 -28 -36 0
-141 -3 -38 -46 0
-141 -4 -47 -55 0
-141 -6 -56 -70 0
-141 -7 -57 -76 0
-141 -8 -58 -81 0
-141 -9 -59 -85 0
-141 -10 -60 -88 0
-141 -11 -61 -90 0
-141 -12 -62 -91 0
-142 -1 -18 -19 0
-142 -2 -29 -30 0
-142 -3 -39 -40 0
-142 -4 -48 -49 0
-142 -5 -56 -57 0
-142 -8 -65 -71 0
-142 -9 -66 -72 0
-142 -10 -67 -73 0
-142 -11 -68 -74 0
-142 -12 -69 -75 0
-142 -13 -70 -76 0
-143 -1 -18 -20 0
-143 -2 -29 -31 0
-143 -3 -39 -41 0
-143 -4 -48 -50 0
-143 -5 -56 -58 0
-143 -7 -64 -71 0
-143 -9 -66 -77 0
-143 -10 -67 -78 0
-143 -11 -68 -79 0
-143 -12 -69 -80 0
-143 -13 -70 -81 0
-144 -1 -18 -21 0
-144 -2 -29 -32 0
-144 -3 -39 -42 0
-144 -4 -48 -51 0
-144 -5 -56 -59 0
-144 -7 -64 -72 0
-144 -8 -65 -77 0
-144 -10 -67 -82 0
-144 -11 -68 -83 0
-144 -12 -69 -84 0
-144 -13 -70 -85 0
-145 -1 -18 -22 0
-145 -2 -29 -33 0
-145 -3 -39 -43 0
-145 -4 -48 -52 0
-145 -5 -56 -60 0
-145 -7 -64 -73 0
-145 -8 -65 -78 0
-145 -9 -66 -82 0
-145 -11 -68 -86 0
-145 -12 -69 -87 0
-145 -13 -70 -88 0
-146 -1 -18 -23 0
-146 -2 -29 -34 0
-146 -3 -39 -44 0
-146 -4 -48 -53 0
-146 -5 -56 -61 0
-146 -7 -64 -74 0
-146 -8 -65 -79 0
-146 -9 -66 -83 0
-146 -10 -67 -86 0
-146 -12 -69 -89 0
-146 -13 -70 -90 0
-147 -1 -18 -24 0
-147 -2 -29 -35 0
-147 -3 -39 -45 0
-147 -4 -48 -54 0
-147 -5 -56 -62 0
-147 -7 -64 -75 0
-147 -8 -65 -80 0
-147 -9 -66 -84 0
-147 -10 -67 -87 0
-147 -11 -68 -89 0
-147 -13 -70 -91 0
-148 -1 -18 -25 0
-148 -2 -29 -36 0
-148 -3 -39 -46 0
-148 -4 -48 -55 0
-148 -5 -56 -63 0
-148 -7 -64 -76 0
-148 -8 -65 -81 0
-148 -9 -66 -85 0
-148 -10 -67 -88 0
-148 -11 -68 -90 0
-148 -12 -69 -91 0
-149 -1 -19 -20 0
-149 -2 -30 -31 0
-149 -3 -40 -41 0
-149 -4 -49 -50 0
-149 -5 -57 -58 0
-149 -6 -64 -65 0
-149 -9 -72 -77 0
-149 -10 -73 -78 0
-149 -11 -74 -79 0
-149 -12 -75 -80 0
-149 -13 -76 -81 0
-150 -1 -19 -21 0
-150 -2 -30 -32 0
-150 -3 -40 -42 0
-150 -4 -49 -51 0
-150 -5 -57 -59 0
-150 -6 -64 -66 0
-150 -8 -71 -77 0
-150 -10 -73 -82 0
-150 -11 -74 -83 0
-150 -12 -75 -84 0
-150 -13 -76 -85 0
-151 -1 -19 -22 0
-151 -2 -30 -33 0
-151 -3 -40 -43 0
-151 -4 -49 -52 0
-151 -5 -57 -60 0
-151 -6 -64 -67 0
-151 -8 -71 -78 0
-151 -9 -72 -82 0
-151 -11 -74 -86 0
-151 -12 -75 -87 0
-151 -13 -76 -88 0
-152 -1 -19 -23 0
-152 -2 -30 -34 0
-152 -3 -40 -44 0
-152 -4 -49 -53 0
-152 -5 -57 -61 0
-152 -6 -64 -68 0
-152 -8 -71 -79 0
-152 -9 -72 -83 0
-152 -10 -73 -86 0
-152 -12 -75 -89 0
-152 -13 -76 -90 0
-153 -1 -19 -24 0
-153 -2 -30 -35 0
-153 -3 -40 -45 0
-153 -4 -49 -54 0
-153 -5 -57 -62 0
-153 -6 -64 -69 0
-153 -8 -71 -80 0
-153 -9 -72 -84 0
-153 -10 -73 -87 0
-153 -11 -74 -89 0
-153 -13 -76 -91 0
-154 -1 -19 -25 0
-154 -2 -30 -36 0
-154 -3 -40 -46 0
-154 -4 -49 -55 0
-154 -5 -57 -63 0
-154 -6 -64 -70 0
-154 -8 -71 -81 0
-154 -9 -72 -85 0
-154 -10 -73 -88 0
-154 -11 -74 -90 0
-154 -12 -75 -91 0
-155 -1 -20 -21 0
-155 -2 -31 -32 0
-155 -3 -41 -42 0
-155 -4 -50 -51 0
-155 -5 -58 -59 0
-155 -6 -65 -66 0
-155 -7 -71 -72 0
-155 -10 -78 -82 0
-155 -11 -79 -83 0
-155 -12 -80 -84 0
-155 -13 -81 -85 0
-156 -1 -20 -22 0
-156 -2 -31 -33 0
-156 -3 -41 -43 0
-156 -4 -50 -52 0
-156 -5 -58 -60 0
-156 -6 -65 -67 0
-156 -7 -71 -73 0
-156 -9 -77 -82 0
-156 -11 -79 -86 0
-156 -12 -80 -87 0
-156 -13 -81 -88 0
-157 -1 -20 -23 0
-157 -2 -31 -34 0
-157 -3 -41 -44 0
-157 -4 -50 -53 0
-157 -5 -58 -61 0
-157 -6 -65 -68 0
-157 -7 -71 -74 0
-157 -9 -77 -83 0
-157 -10 -78 -86 0
-157 -12 -80 -89 0
-157 -13 -81 -90 0
-158 -1 -20 -24 0
-158 -2 -31 -35 0
-158 -3 -41 -45 0
-158 -4 -50 -54 0
-158 -5 -58 -62 0
-158 -6 -65 -69 0
-158 -7 -71 -75 0
-158 -9 -77 -84 0
-158 -10 -78 -87 0
-158 -11 -79 -89 0
-158 -13 -81 -91 0
-159 -1 -20 -25 0
-159 -2 -31 -36 0
-159 -3 -41 -46 0
-159 -4 -50 -55 0
-159 -5 -58 -63 0
-159 -6 -65 -70 0
-159 -7 -71 -76 0
-159 -9 -77 -85 0
-159 -10 -78 -88 0
-159 -11 -79 -90 0
-159 -12 -80 -91 0
-160 -1 -21 -22 0
-160 -2 -32 -33 0
-160 -3 -42 -43 0
-160 -4 -51 -52 0
-160 -5 -59 -60 0
-160 -6 -66 -67 0
-160 -7 -72 -73 0
-160 -8 -77 -78 0
-160 -11 -83 -86 0
-160 -12 -84 -87 0
-160 -13 -85 -88 0
-161 -1 -21 -23 0
-161 -2 -32 -34 0
-161 -3 -42 -44 0
-161 -4 -51 -53 0
-161 -5 -59 -61 0
-161 -6 -66 -68 0
-161 -7 -72 -74 0
-161 -8 -77 -79 0
-161 -10 -82 -86 0
-161 -12 -84 -89 0
-161 -13 -85 -90 0
-162 -1 -21 -24 0
-162 -2 -32 -35 0
-162 -3 -42 -45 0
-162 -4 -51 -54 0
-162 -5 -59 -62 0
-162 -6 -66 -69 0
-162 -7 -72 -75 0
-162 -8 -77 -80 0
-162 -10 -82 -87 0
-162 -11 -83 -89 0
-162 -13 -85 -91 0
-163 -1 -21 -25 0
-163 -2 -32 -36 0
-163 -3 -42 -46 0
-163 -4 -51 -55 0
-163 -5 -59 -63 0
-163 -6 -66 -70 0
-163 -7 -72 -76 0
-163 -8 -77 -81 0
-163 -10 -82 -88 0
-163 -11 -83 -90 0
-163 -12 -84 -91 0
-164 -1 -22 -23 0
-164 -2 -33 -34 0
-164 -3 -43 -44 0
-164 -4 -52 -53 0
-164 -5 -60 -61 0
-164 -6 -67 -68 0
-164 -7 -73 -74 0
-164 -8 -78 -79 0
-164 -9 -82 -83 0
-164 -12 -87 -89 0
-164 -13 -88 -90 0
-165 -1 -22 -24 0
-165 -2 -33 -35 0
-165 -3 -43 -45 0
-165 -4 -52 -54 0
-165 -5 -60 -62 0
-165 -6 -67 -69 0
-165 -7 -73 -75 0
-165 -8 -78 -80 0
-165 -9 -82 -84 0
-165 -11 -86 -89 0
-165 -13 -88 -91 0
-166 -1 -22 -25 0
-166 -2 -33 -36 0
-166 -3 -43 -46 0
-166 -4 -52 -55 0
-166 -5 -60 -63 0
-166 -6 -67 -70 0
-166 -7 -73 -76 0
-166 -8 -78 -81 0
-166 -9 -82 -85 0
-166 -11 -86 -90 0
-166 -12 -87 -91 0
-167 -1 -23 -24 0
-167 -2 -34 -35 0
-167 -3 -44 -45 0
-167 -4 -53 -54 0
-167 -5 -61 -62 0
-167 -6 -68 -69 0
-167 -7 -74 -75 0
-167 -8 -79 -80 0
-167 -9 -83 -84 0
-167 -10 -86 -87 0
-167 -13 -90 -91 0
-168 -1 -23 -25 0
-168 -2 -34 -36 0
-168 -3 -44 -46 0
-168 -4 -53 -55 0
-168 -5 -61 -63 0
-168 -6 -68 -70 0
-168 -7 -74 -76 0
-168 -8 -79 -81 0
-168 -9 -83 -85 0
-168 -10 -86 -88 0
-168 -12 -89 -91 0
-169 -1 -24 -25 0
-169 -2 -35 -36 0
-169 -3 -45 -46 0
-169 -4 -54 -55 0
-169 -5 -62 -63 0
-169 -6 -69 -70 0
-169 -7 -75 -76 0
-169 -8 -80 -81 0
-169 -9 -84 -85 0
-169 -10 -87 -88 0
-169 -11 -89 -90 0
-170 -1 -2 -3 0
-170 -16 -27 -37 0
-170 -17 -28 -38 0
-170 -18 -29 -39 0
-170 -19 -30 -40 0
-170 -20 -31 -41 0
-170 -21 -32 -42 0
-170 -22 -33 -43 0
-170 -23 -34 -44 0
-170 -24 -35 -45 0
-170 -25 -36 -46 0
-171 -1 -2 -4 0
-171 -15 -26 -37 0
-171 -17 -28 -47 0
-171 -18 -29 -48 0
-171 -19 -30 -49 0
-171 -20 -31 -50 0
-171 -21 -32 -51 0
-171 -22 -33 -52 0
-171 -23 -34 -53 0
-171 -24 -35 -54 0
-171 -25 -36 -55 0
-172 -1 -2 -5 0
-172 -15 -26 -38 0
-172 -16 -27 -47 0
-172 -18 -29 -56 0
-172 -19 -30 -57 0
-172 -20 -31 -58 0
-172 -21 -32 -59 0
-172 -22 -33 -60 0
-172 -23 -34 -61 0
-172 -24 -35 -62 0
-172 -25 -36 -63 0
-173 -1 -2 -6 0
-173 -15 -26 -39 0
-173 -16 -27 -48 0
-173 -17 -28 -56 0
-173 -19 -30 -64 0
-173 -20 -31 -65 0
-173 -21 -32 -66 0
-173 -22 -33 -67 0
-173 -23 -34 -68 0
-173 -24 -35 -69 0
-173 -25 -36 -70 0
-174 -1 -2 -7 0
-174 -15 -26 -40 0
-174 -16 -27 -49 0
-174 -17 -28 -57 0
-174 -18 -29 -64 0
-174 -20 -31 -71 0
-174 -21 -32 -72 0
-174 -22 -33 -73 0
-174 -23 -34 -74 0
-174 -24 -35 -75 0
-174 -25 -36 -76 0
-175 -1 -2 -8 0
-175 -15 -26 -41 0
-175 -16 -27 -50 0
-175 -17 -28 -58 0
-175 -18 -29 -65 0
-175 -19 -30 -71 0
-175 -21 -32 -77 0
-175 -22 -33 -78 0
-175 -23 -34 -79 0
-175 -24 -35 -80 0
-175 -25 -36 -81 0
-176 -1 -2 -9 0
-176 -15 -26 -42 0
-176 -16 -27 -51 0
-176 -17 -28 -59 0
-176 -18 -29 -66 0
-176 -19 -30 -72 0
-176 -20 -31 -77 0
-176 -22 -33 -82 0
-176 -23 -34 -83 0
-176 -24 -35 -84 0
-176 -25 -36 -85 0
-177 -1 -2 -10 0
-177 -15 -26 -43 0
-177 -16 -27 -52 0
-177 -17 -28 -60 0
-177 -18 -29 -67 0
-177 -19 -30 -73 0
-177 -20 -31 -78 0
-177 -21 -32 -82 0
-177 -23 -34 -86 0
-177 -24 -35 -87 0
-177 -25 -36 -88 0
-178 -1 -2 -11 0
-178 -15 -26 -44 0
-178 -16 -27 -53 0
-178 -17 -28 -61 0
-178 -18 -29 -68 0
-178 -19 -30 -74 0
-178 -20 -31 -79 0
-178 -21 -32 -83 0
-178 -22 -33 -86 0
-178 -24 -35 -89 0
-178 -25 -36 -90 0
-179 -1 -2 -12 0
-179 -15 -26 -45 0
-179 -16 -27 -54 0
-179 -17 -28 -62 0
-179 -18 -29 -69 0
-179 -19 -30 -75 0
-179 -20 -31 -80 0
-179 -21 -32 -84 0
-179 -22 -33 -87 0
-179 -23 -34 -89 0
-179 -25 -36 -91 0
-180 -1 -2 -13 0
-180 -15 -26 -46 0
-180 -16 -27 -55 0
-180 -17 -28 -63 0
-180 -18 -29 -70 0
-180 -19 -30 -76 0
-180 -20 -31 -81 0
-180 -21 -32 -85 0
-180 -22 -33 -88 0
-180 -23 -34 -90 0
-180 -24 -35 -91 0
-181 -1 -3 -4 0
-181 -14 -26 -27 0
-181 -17 -38 -47 0
-181 -18 -39 -48 0
-181 -19 -40 -49 0
-181 -20 -41 -50 0
-181 -21 -42 -51 0
-181 -22 -43 -52 0
-181 -23 -44 -53 0
-181 -24 -45 -54 0
-181 -25 -46 -55 0
-182 -1 -3 -5 0
-182 -14 -26 -28 0
-182 -16 -37 -47 0
-182 -18 -39 -56 0
-182 -19 -40 -57 0
-182 -20 -41 -58 0
-182 -21 -42 -59 0
-182 -22 -43 -60 0
-182 -23 -44 -61 0
-182 -24 -45 -62 0
-182 -25 -46 -63 0
-183 -1 -3 -6 0
-183 -14 -26 -29 0
-183 -16 -37 -48 0
-183 -17 -38 -56 0
-183 -19 -40 -64 0
-183 -20 -41 -65 0
-183 -21 -42 -66 0
-183 -22 -43 -67 0
-183 -23 -44 -68 0
-183 -24 -45 -69 0
-183 -25 -46 -70 0
-184 -1 -3 -7 0
-184 -14 -26 -30 0
-184 -16 -37 -49 0
-184 -17 -38 -57 0
-184 -18 -39 -64 0
-184 -20 -41 -71 0
-184 -21 -42 -72 0
-184 -22 -43 -73 0
-184 -23 -44 -74 0
-184 -24 -45 -75 0
-184 -25 -46 -76 0
-185 -1 -3 -8 0
-185 -14 -26 -31 0
-185 -16 -37 -50 0
-185 -17 -38 -58 0
-185 -18 -39 -65 0
-185 -19 -40 -71 0
-185 -21 -42 -77 0
-185 -22 -43 -78 0
-185 -23 -44 -79 0
-185 -24 -45 -80 0
-185 -25 -46 -81 0
-186 -1 -3 -9 0
-186 -14 -26 -32 0
-186 -16 -37 -51 0
-186 -17 -38 -59 0
-186 -18 -39 -66 0
-186 -19 -40 -72 0
-186 -20 -41 -77 0
-186 -22 -43 -82 0
-186 -23 -44 -83 0
-186 -24 -45 -84 0
-186 -25 -46 -85 0
-187 -1 -3 -10 0
-187 -14 -26 -33 0
-187 -16 -37 -52 0
-187 -17 -38 -60 0
-187 -18 -39 -67 0
-187 -19 -40 -73 0
-187 -20 -41 -78 0
-187 -21 -42 -82 0
-187 -23 -44 -86 0
-187 -24 -45 -87 0
-187 -25 -46 -88 0
-188 -1 -3 -11 0
-188 -14 -26 -34 0
-188 -16 -37 -53 0
-188 -17 -38 -61 0
-188 -18 -39 -68 0
-188 -19 -40 -74 0
-188 -20 -41 -79 0
-188 -21 -42 -83 0
-188 -22 -43 -86 0
-188 -24 -45 -89 0
-188 -25 -46 -90 0
-189 -1 -3 -12 0
-189 -14 -26 -35 0
-189 -16 -37 -54 0
-189 -17 -38 -62 0
-189 -18 -39 -69 0
-189 -19 -40 -75 0
-189 -20 -41 -80 0
-189 -21 -42 -84 0
-189 -22 -43 -87 0
-189 -23 -44 -89 0
-189 -25 -46 -91 0
-190 -1 -3 -13 0
-190 -14 -26 -36 0
-190 -16 -37 -55 0
-190 -17 -38 -63 0
-190 -18 -39 -70 0
-190 -19 -40 -76 0
-190 -20 -41 -81 0
-190 -21 -42 -85 0
-190 -22 -43 -88 0
-190 -23 -44 -90 0
-190 -24 -45 -91 0
-191 -1 -4 -5 0
-191 -14 -27 -28 0
-191 -15 -37 -38 0
-191 -18 -48 -56 0
-191 -19 -49 -57 0
-191 -20 -50 -58 0
-191 -21 -51 -59 0
-191 -22 -52 -60 0
-191 -23 -53 -61 0
-191 -24 -54 -62 0
-191 -25 -55 -63 0
-192 -1 -4 -6 0
-192 -14 -27 -29 0
-192 -15 -37 -39 0
-192 -17 -47 -56 0
-192 -19 -49 -64 0
-192 -20 -50 -65 0
-192 -21 -51 -66 0
-192 -22 -52 -67 0
-192 -23 -53 -68 0
-192 -24 -54 -69 0
-192 -25 -55 -70 0
-193 -1 -4 -7 0
-193 -14 -27 -30 0
-193 -15 -37 -40 0
-193 -17 -47 -57 0
-193 -18 -48 -64 0
-193 -20 -50 -71 0
-193 -21 -51 -72 0
-193 -22 -52 -73 0
-193 -23 -53 -74 0
-193 -24 -54 -75 0
-193 -25 -55 -76 0
-194 -1 -4 -8 0
-194 -14 -27 -31 0
-194 -15 -37 -41 0
-194 -17 -47 -58 0
-194 -18 -48 -65 0
-194 -19 -49 -71 0
-194 -21 -51 -77 0
-194 -22 -52 -78 0
-194 -23 -53 -79 0
-194 -24 -54 -80 0
-194 -25 -55 -81 0
-195 -1 -4 -9 0
-195 -14 -27 -32 0
-195 -15 -37 -42 0
-195 -17 -47 -59 0
-195 -18 -48 -66 0
-195 -19 -49 -72 0
-195 -20 -50 -77 0
-195 -22 -52 -82 0
-195 -23 -53 -83 0
-195 -24 -54 -84 0
-195 -25 -55 -85 0
-196 -1 -4 -10 0
-196 -14 -27 -33 0
-196 -15 -37 -43 0
-196 -17 -47 -60 0
-196 -18 -48 -67 0
-196 -19 -49 -73 0
-196 -20 -50 -78 0
-196 -21 -51 -82 0
-196 -23 -53 -86 0
-196 -24 -54 -87 0
-196 -25 -55 -88 0
-197 -1 -4 -11 0
-197 -14 -27 -34 0
-197 -15 -37 -44 0
-197 -17 -47 -61 0
-197 -18 -48 -68 0
-197 -19 -49 -74 0
-197 -20 -50 -79 0
-197 -21 -51 -83 0
-197 -22 -52 -86 0
-197 -24 -54 -89 0
-197 -25 -55 -90 0
-198 -1 -4 -12 0
-198 -14 -27 -35 0
-198 -15 -37 -45 0
-198 -17 -47 -62 0
-198 -18 -48 -69 0
-198 -19 -49 -75 0
-198 -20 -50 -80 0
-198 -21 -51 -84 0
-198 -22 -52 -87 0
-198 -23 -53 -89 0
-198 -25 -55 -91 0
-199 -1 -4 -13 0
-199 -14 -27 -36 0
-199 -15 -37 -46 0
-199 -17 -47 -63 0
-199 -18 -48 -70 0
-199 -19 -49 -76 0
-199 -20 -50 -81 0
-199 -21 -51 -85 0
-199 -22 -52 -88 0
-199 -23 -53 -90 0
-199 -24 -54 -91 0
-200 -1 -5 -6 0
-200 -14 -28 -29 0
-200 -15 -38 -39 0
-200 -16 -47 -48 0
-200 -19 -57 -64 0
-200 -20 -58 -65 0
-200 -21 -59 -66 0
-200 -22 -60 -67 0
-200 -23 -61 -68 0
-200 -24 -62 -69 0
-200 -25 -63 -70 0
-201 -1 -5 -7 0
-201 -14 -28 -30 0
-201 -15 -38 -40 0
-201 -16 -47 -49 0
-201 -18 -56 -64 0
-201 -20 -58 -71 0
-201 -21 -59 -72 0
-201 -22 -60 -73 0
-201 -23 -61 -74 0
-201 -24 -62 -75 0
-201 -25 -63 -76 0
-202 -1 -5 -8 0
-202 -14 -28 -31 0
-202 -15 -38 -41 0
-202 -16 -47 -50 0
-202 -18 -56 -65 0
-202 -19 -57 -71 0
-202 -21 -59 -77 0
-202 -22 -60 -78 0
-202 -23 -61 -79 0
-202 -24 -62 -80 0
-202 -25 -63 -81 0
-203 -1 -5 -9 0
-203 -14 -28 -32 0
-203 -15 -38 -42 0
-203 -16 -47 -51 0
-203 -18 -56 -66 0
-203 -19 -57 -72 0
-203 -20 -58 -77 0
-203 -22 -60 -82 0
-203 -23 -61 -83 0
-203 -24 -62 -84 0
-203 -25 -63 -85 0
-204 -1 -5 -10 0
-204 -14 -28 -33 0
-204 -15 -38 -43 0
-204 -16 -47 -52 0
-204 -18 -56 -67 0
-204 -19 -57 -73 0
-204 -20 -58 -78 0
-204 -21 -59 -82 0
-204 -23 -61 -86 0
-204 -24 -62 -87 0
-204 -25 -63 -88 0
-205 -1 -5 -11 0
-205 -14 -28 -34 0
-205 -15 -38 -44 0
-205 -16 -47 -53 0
-205 -18 -56 -68 0
-205 -19 -57 -74 0
-205 -20 -58 -79 0
-205 -21 -59 -83 0
-205 -22 -60 -86 0
-205 -24 -62 -89 0
-205 -25 -63 -90 0
-206 -1 -5 -12 0
-206 -14 -28 -35 0
-206 -15 -38 -45 0
-206 -16 -47 -54 0
-206 -18 -56 -69 0
-206 -19 -57 -75 0
-206 -20 -58 -80 0
-206 -21 -59 -84 0
-206 -22 -60 -87 0
-206 -23 -61 -89 0
-206 -25 -63 -91 0
-207 -1 -5 -13 0
-207 -14 -28 -36 0
-207 -15 -38 -46 0
-207 -16 -47 -55 0
-207 -18 -56 -70 0
-207 -19 -57 -76 0
-207 -20 -58 -81 0
-207 -21 -59 -85 0
-207 -22 -60 -88 0
-207 -23 -61 -90 0
-207 -24 -62 -91 0
-208 -1 -6 -7 0
-208 -14 -29 -30 0
-208 -15 -39 -40 0
-208 -16 -48 -49 0
-208 -17 -56 -57 0
-208 -20 -65 -71 0
-208 -21 -66 -72 0
-208 -22 -67 -73 0
-208 -23 -68 -74 0
-208 -24 -69 -75 0
-208 -25 -70 -76 0
-209 -1 -6 -8 0
-209 -14 -29 -31 0
-209 -15 -39 -41 0
-209 -16 -48 -50 0
-209 -17 -56 -58 0
-209 -19 -64 -71 0
-209 -21 -66 -77 0
-209 -22 -67 -78 0
-209 -23 -68 -79 0
-209 -24 -69 -80 0
-209 -25 -70 -81 0
-210 -1 -6 -9 0
-210 -14 -29 -32 0
-210 -15 -39 -42 0
-210 -16 -48 -51 0
-210 -17 -56 -59 0
-210 -19 -64 -72 0
-210 -20 -65 -77 0
-210 -22 -67 -82 0
-210 -23 -68 -83 0
-210 -24 -69 -84 0
-210 -25 -70 -85 0
-211 -1 -6 -10 0
-211 -14 -29 -33 0
-211 -15 -39 -43 0
-211 -16 -48 -52 0
-211 -17 -56 -60 0
-211 -19 -64 -73 0
-211 -20 -65 -78 0
-211 -21 -66 -82 0
-211 -23 -68 -86 0
-211 -24 -69 -87 0
-211 -25 -70 -88 0
-212 -1 -6 -11 0
-212 -14 -29 -34 0
-212 -15 -39 -44 0
-212 -16 -48 -53 0
-212 -17 -56 -61 0
-212 -19 -64 -74 0
-212 -20 -65 -79 0
-212 -21 -66 -83 0
-212 -22 -67 -86 0
-212 -24 -69 -89 0
-212 -25 -70 -90 0
-213 -1 -6 -12 0
-213 -14 -29 -35 0
-213 -15 -39 -45 0
-213 -16 -48 -54 0
-213 -17 -56 -62 0
-213 -19 -64 -75 0
-213 -20 -65 -80 0
-213 -21 -66 -84 0
-213 -22 -67 -87 0
-213 -23 -68 -89 0
-213 -25 -70 -91 0
-214 -1 -6 -13 0
-214 -14 -29 -36 0
-214 -15 -39 -46 0
-214 -16 -48 -55 0
-214 -17 -56 -63 0
-214 -19 -64 -76 0
-214 -20 -65 -81 0
-214 -21 -66 -85 0
-214 -22 -67 -88 0
-214 -23 -68 -90 0
-214 -24 -69 -91 0
-215 -1 -7 -8 0
-215 -14 -30 -31 0
-215 -15 -40 -41 0
-215 -16 -49 -50 0
-215 -17 -57 -58 0
-215 -18 -64 -65 0
-215 -21 -72 -77 0
-215 -22 -73 -78 0
-215 -23 -74 -79 0
-215 -24 -75 -80 0
-215 -25 -76 -81 0
-216 -1 -7 -9 0
-216 -14 -30 -32 0
-216 -15 -40 -42 0
-216 -16 -49 -51 0
-216 -17 -57 -59 0
-216 -18 -64 -66 0
-216 -20 -71 -77 0
-216 -22 -73 -82 0
-216 -23 -74 -83 0
-216 -24 -75 -84 0
-216 -25 -76 -85 0
-217 -1 -7 -10 0
-217 -14 -30 -33 0
-217 -15 -40 -43 0
-217 -16 -49 -52 0
-217 -17 -57 -60 0
-217 -18 -64 -67 0
-217 -20 -71 -78 0
-217 -21 -72 -82 0
-217 -23 -74 -86 0
-217 -24 -75 -87 0
-217 -25 -76 -88 0
-218 -1 -7 -11 0
-218 -14 -30 -34 0
-218 -15 -40 -44 0
-218 -16 -49 -53 0
-218 -17 -57 -61 0
-218 -18 -64 -68 0
-218 -20 -71 -79 0
-218 -21 -72 -83 0
-218 -22 -73 -86 0
-218 -24 -75 -89 0
-218 -25 -76 -90 0
-219 -1 -7 -12 0
-219 -14 -30 -35 0
-219 -15 -40 -45 0
-219 -16 -49 -54 0
-219 -17 -57 -62 0
-219 -18 -64 -69 0
-219 -20 -71 -80 0
-219 -21 -72 -84 0
-219 -22 -73 -87 0
-219 -23 -74 -89 0
-219 -25 -76 -91 0
-220 -1 -7 -13 0
-220 -14 -30 -36 0
-220 -15 -40 -46 0
-220 -16 -49 -55 0
-220 -17 -57 -63 0
-220 -18 -64 -70 0
-220 -20 -71 -81 0
-220 -21 -72 -85 0
-220 -22 -73 -88 0
-220 -23 -74 -90 0
-220 -24 -75 -91 0
-221 -1 -8 -9 0
-221 -14 -31 -32 0
-221 -15 -41 -42 0
-221 -16 -50 -51 0
-221 -17 -58 -59 0
-221 -18 -65 -66 0
-221 -19 -71 -72 0
-221 -22 -78 -82 0
-221 -23 -79 -83 0
-221 -24 -80 -84 0
-221 -25 -81 -85 0
-222 -1 -8 -10 0
-222 -14 -31 -33 0
-222 -15 -41 -43 0
-222 -16 -50 -52 0
-222 -17 -58 -60 0
-222 -18 -65 -67 0
-222 -19 -71 -73 0
-222 -21 -77 -82 0
-222 -23 -79 -86 0
-222 -24 -80 -87 0
-222 -25 -81 -88 0
-223 -1 -8 -11 0
-223 -14 -31 -34 0
-223 -15 -41 -44 0
-223 -16 -50 -53 0
-223 -17 -58 -61 0
-223 -18 -65 -68 0
-223 -19 -71 -74 0
-223 -21 -77 -83 0
-223 -22 -78 -86 0
-223 -24 -80 -89 0
-223 -25 -81 -90 0
-224 -1 -8 -12 0
-224 -14 -31 -35 0
-224 -15 -41 -45 0
-224 -16 -50 -54 0
-224 -17 -58 -62 0
-224 -18 -65 -69 0
-224 -19 -71 -75 0
-224 -21 -77 -84 0
-224 -22 -78 -87 0
-224 -23 -79 -89 0
-224 -25 -81 -91 0
-225 -1 -8 -13 0
-225 -14 -31 -36 0
-225 -15 -41 -46 0
-225 -16 -50 -55 0
-225 -17 -58 -63 0
-225 -18 -65 -70 0
-225 -19 -71 -76 0
-225 -21 -77 -85 0
-225 -22 -78 -88 0
-225 -23 -79 -90 0
-225 -24 -80 -91 0
-226 -1 -9 -10 0
-226 -14 -32 -33 0
-226 -15 -42 -43 0
-226 -16 -51 -52 0
-226 -17 -59 -60 0
-226 -18 -66 -67 0
-226 -19 -72 -73 0
-226 -20 -77 -78 0
-226 -23 -83 -86 0
-226 -24 -84 -87 0
-226 -25 -85 -88 0
-227 -1 -9 -11 0
-227 -14 -32 -34 0
-227 -15 -42 -44 0
-227 -16 -51 -53 0
-227 -17 -59 -61 0
-227 -18 -66 -68 0
-227 -19 -72 -74 0
-227 -20 -77 -79 0
-227 -22 -82 -86 0
-227 -24 -84 -89 0
-227 -25 -85 -90 0
-228 -1 -9 -12 0
-228 -14 -32 -35 0
-228 -15 -42 -45 0
-228 -16 -51 -54 0
-228 -17 -59 -62 0
-228 -18 -66 -69 0
-228 -19 -72 -75 0
-228 -20 -77 -80 0
-228 -22 -82 -87 0
-228 -23 -83 -89 0
-228 -25 -85 -91 0
-229 -1 -9 -13 0
-229 -14 -32 -36 0
-229 -15 -42 -46 0
-229 -16 -51 -55 0
-229 -17 -59 -63 0
-229 -18 -66 -70 0
-229 -19 -72 -76 0
-229 -20 -77 -81 0
-229 -22 -82 -88 0
-229 -23 -83 -90 0
-229 -24 -84 -91 0
-230 -1 -10 -11 0
-230 -14 -33 -34 0
-230 -15 -43 -44 0
-230 -16 -52 -53 0
-230 -17 -60 -61 0
-230 -18 -67 -68 0
-230 -19 -73 -74 0
-230 -20 -78 -79 0
-230 -21 -82 -83 0
-230 -24 -87 -89 0
-230 -25 -88 -90 0
-231 -1 -10 -12 0
-231 -14 -33 -35 0
-231 -15 -43 -45 0
-231 -16 -52 -54 0
-231 -17 -60 -62 0
-231 -18 -67 -69 0
-231 -19 -73 -75 0
-231 -20 -78 -80 0
-231 -21 -82 -84 0
-231 -23 -86 -89 0
-231 -25 -88 -91 0
-232 -1 -10 -13 0
-232 -14 -33 -36 0
-232 -15 -43 -46 0
-232 -16 -52 -55 0
-232 -17 -60 -63 0
-232 -18 -67 -70 0
-232 -19 -73 -76 0
-232 -20 -78 -81 0
-232 -21 -82 -85 0
-232 -23 -86 -90 0
-232 -24 -87 -91 0
-233 -1 -11 -12 0
-233 -14 -34 -35 0
-233 -15 -44 -45 0
-233 -16 -53 -54 0
-233 -17 -61 -62 0
-233 -18 -68 -69 0
-233 -19 -74 -75 0
-233 -20 -79 -80 0
-233 -21 -83 -84 0
-233 -22 -86 -87 0
-233 -25 -90 -91 0
-234 -1 -11 -13 0
-234 -14 -34 -36 0
-234 -15 -44 -46 0
-234 -16 -53 -55 0
-234 -17 -61 -63 0
-234 -18 -68 -70 0
-234 -19 -74 -76 0
-234 -20 -79 -81 0
-234 -21 -83 -85 0
-234 -22 -86 -88 0
-234 -24 -89 -91 0
-235 -1 -12 -13 0
-235 -14 -35 -36 0
-235 -15 -45 -46 0
-235 -16 -54 -55 0
-235 -17 -62 -63 0
-235 -18 -69 -70 0
-235 -19 -75 -76 0
-235 -20 -80 -81 0
-235 -21 -84 -85 0
-235 -22 -87 -88 0
-235 -23 -89 -90 0
-236 -2 -3 -4 0
-236 -14 -15 -16 0
-236 -28 -38 -47 0
-236 -29 -39 -48 0
-236 -30 -40 -49 0
-236 -31 -41 -50 0
-236 -32 -42 -51 0
-236 -33 -43 -52 0
-236 -34 -44 -53 0
-236 -35 -45 -54 0
-236 -36 -46 -55 0
-237 -2 -3 -5 0
-237 -14 -15 -17 0
-237 -27 -37 -47 0
-237 -29 -39 -56 0
-237 -30 -40 -57 0
-237 -31 -41 -58 0
-237 -32 -42 -59 0
-237 -33 -43 -60 0
-237 -34 -44 -61 0
-237 -35 -45 -62 0
-237 -36 -46 -63 0
-238 -2 -3 -6 0
-238 -14 -15 -18 0
-238 -27 -37 -48 0
-238 -28 -38 -56 0
-238 -30 -40 -64 0
-238 -31 -41 -65 0
-238 -32 -42 -66 0
-238 -33 -43 -67 0
-238 -34 -44 -68 0
-238 -35 -45 -69 0
-238 -36 -46 -70 0
-239 -2 -3 -7 0
-239 -14 -15 -19 0
-239 -27 -37 -49 0
-239 -28 -38 -57 0
-239 -29 -39 -64 0
-239 -31 -41 -71 0
-239 -32 -42 -72 0
-239 -33 -43 -73 0
-239 -34 -44 -74 0
-239 -35 -45 -75 0
-239 -36 -46 -76 0
-240 -2 -3 -8 0
-240 -14 -15 -20 0
-240 -27 -37 -50 0
-240 -28 -38 -58 0
-240 -29 -39 -65 0
-240 -30 -40 -71 0
-240 -32 -42 -77 0
-240 -33 -43 -78 0
-240 -34 -44 -79 0
-240 -35 -45 -80 0
-240 -36 -46 -81 0
-241 -2 -3 -9 0
-241 -14 -15 -21 0
-241 -27 -37 -51 0
-241 -28 -38 -59 0
-241 -29 -39 -66 0
-241 -30 -40 -72 0
-241 -31 -41 -77 0
-241 -33 -43 -82 0
-241 -34 -44 -83 0
-241 -35 -45 -84 0
-241 -36 -46 -85 0
-242 -2 -3 -10 0
-242 -14 -15 -22 0
-242 -27 -37 -52 0
-242 -28 -38 -60 0
-242 -29 -39 -67 0
-242 -30 -40 -73 0
-242 -31 -41 -78 0
-242 -32 -42 -82 0
-242 -34 -44 -86 0
-242 -35 -45 -87 0
-242 -36 -46 -88 0
-243 -2 -3 -11 0
-243 -14 -15 -23 0
-243 -27 -37 -53 0
-243 -28 -38 -61 0
-243 -29 -39 -68 0
-243 -30 -40 -74 0
-243 -31 -41 -79 0
-243 -32 -42 -83 0
-243 -33 -43 -86 0
-243 -35 -45 -89 0
-243 -36 -46 -90 0
-244 -2 -3 -12 0
-244 -14 -15 -24 0
-244 -27 -37 -54 0
-244 -28 -38 -62 0
-244 -29 -39 -69 0
-244 -30 -40 -75 0
-244 -31 -41 -80 0
-244 -32 -42 -84 0
-244 -33 -43 -87 0
-244 -34 -44 -89 0
-244 -36 -46 -91 0
-245 -2 -3 -13 0
-245 -14 -15 -25 0
-245 -27 -37 -55 0
-245 -28 -38 -63 0
-245 -29 -39 -70 0
-245 -30 -40 -76 0
-245 -31 -41 -81 0
-245 -32 -42 -85 0
-245 -33 -43 -88 0
-245 -34 -44 -90 0
-245 -35 -45 -91 0
-246 -2 -4 -5 0
-246 -14 -16 -17 0
-246 -26 -37 -38 0
-246 -29 -48 -56 0
-246 -30 -49 -57 0
-246 -31 -50 -58 0
-246 -32 -51 -59 0
-246 -33 -52 -60 0
-246 -34 -53 -61 0
-246 -35 -54 -62 0
-246 -36 -55 -63 0
-247 -2 -4 -6 0
-247 -14 -16 -18 0
-247 -26 -37 -39 0
-247 -28 -47 -56 0
-247 -30 -49 -64 0
-247 -31 -50 -65 0
-247 -32 -51 -66 0
-247 -33 -52 -67 0
-247 -34 -53 -68 0
-247 -35 -54 -69 0
-247 -36 -55 -70 0
-248 -2 -4 -7 0
-248 -14 -16 -19 0
-248 -26 -37 -40 0
-248 -28 -47 -57 0
-248 -29 -48 -64 0
-248 -31 -50 -71 0
-248 -32 -51 -72 0
-248 -33 -52 -73 0
-248 -34 -53 -74 0
-248 -35 -54 -75 0
-248 -36 -55 -76 0
-249 -2 -4 -8 0
-249 -14 -16 -20 0
-249 -26 -37 -41 0
-249 -28 -47 -58 0
-249 -29 -48 -65 0
-249 -30 -49 -71 0
-249 -32 -51 -77 0
-249 -33 -52 -78 0
-249 -34 -53 -79 0
-249 -35 -54 -80 0
-249 -36 -55 -81 0
-250 -2 -4 -9 0
-250 -14 -16 -21 0
-250 -26 -37 -42 0
-250 -28 -47 -59 0
-250 -29 -48 -66 0
-250 -30 -49 -72 0
-250 -31 -50 -77 0
-250 -33 -52 -82 0
-250 -34 -53 -83 0
-250 -35 -54 -84 0
-250 -36 -55 -85 0
-251 -2 -4 -10 0
-251 -14 -16 -22 0
-251 -26 -37 -43 0
-251 -28 -47 -60 0
-251 -29 -48 -67 0
-251 -30 -49 -73 0
-251 -31 -50 -78 0
-251 -32 -51 -82 0
-251 -34 -53 -86 0
-251 -35 -54 -87 0
-251 -36 -55 -88 0
-252 -2 -4 -11 0
-252 -14 -16 -23 0
-252 -26 -37 -44 0
-252 -28 -47 -61 0
-252 -29 -48 -68 0
-252 -30 -49 -74 0
-252 -31 -50 -79 0
-252 -32 -51 -83 0
-252 -33 -52 -86 0
-252 -35 -54 -89 0
-252 -36 -55 -90 0
-253 -2 -4 -12 0
-253 -14 -16 -24 0
-253 -26 -37 -45 0
-253 -28 -47 -62 0
-253 -29 -48 -69 0
-253 -30 -49 -75 0
-253 -31 -50 -80 0
-253 -32 -51 -84 0
-253 -33 -52 -87 0
-253 -34 -53 -89 0
-253 -36 -55 -91 0
-254 -2 -4 -13 0
-254 -14 -16 -25 0
-254 -26 -37 -46 0
-254 -28 -47 -63 0
-254 -29 -48 -70 0
-254 -30 -49 -76 0
-254 -31 -50 -81 0
-254 -32 -51 -85 0
-254 -33 -52 -88 0
-254 -34 -53 -90 0
-254 -35 -54 -91 0
-255 -2 -5 -6 0
-255 -14 -17 -18 0
-255 -26 -38 -39 0
-255 -27 -47 -48 0
-255 -30 -57 -64 0
-255 -31 -58 -65 0
-255 -32 -59 -66 0
-255 -33 -60 -67 0
-255 -34 -61 -68 0
-255 -35 -62 -69 0
-255 -36 -63 -70 0
-256 -2 -5 -7 0
-256 -14 -17 -19 0
-256 -26 -38 -40 0
-256 -27 -47 -49 0
-256 -29 -56 -64 0
-256 -31 -58 -71 0
-256 -32 -59 -72 0
-256 -33 -60 -73 0
-256 -34 -61 -74 0
-256 -35 -62 -75 0
-256 -36 -63 -76 0
-257 -2 -5 -8 0
-257 -14 -17 -20 0
-257 -26 -38 -41 0
-257 -27 -47 -50 0
-257 -29 -56 -65 0
-257 -30 -57 -71 0
-257 -32 -59 -77 0
-257 -33 -60 -78 0
-257 -34 -61 -79 0
-257 -35 -62 -80 0
-257 -36 -63 -81 0
-258 -2 -5 -9 0
-258 -14 -17 -21 0
-258 -26 -38 -42 0
-258 -27 -47 -51 0
-258 -29 -56 -66 0
-258 -30 -57 -72 0
-258 -31 -58 -77 0
-258 -33 -60 -82 0
-258 -34 -61 -83 0
-258 -35 -62 -84 0
-258 -36 -63 -85 0
-259 -2 -5 -10 0
-259 -14 -17 -22 0
-259 -26 -38 -43 0
-259 -27 -47 -52 0
-259 -29 -56 -67 0
-259 -30 -57 -73 0
-259 -31 -58 -78 0
-259 -32 -59 -82 0
-259 -34 -61 -86 0
-259 -35 -62 -87 0
-259 -36 -63 -88 0
-260 -2 -5 -11 0
-260 -14 -17 -23 0
-260 -26 -38 -44 0
-260 -27 -47 -53 0
-260 -29 -56 -68 0
-260 -30 -57 -74 0
-260 -31 -58 -79 0
-260 -32 -59 -83 0
-260 -33 -60 -86 0
-260 -35 -62 -89 0
-260 -36 -63 -90 0
-261 -2 -5 -12 0
-261 -14 -17 -24 0
-261 -26 -38 -45 0
-261 -27 -47 -54 0
-261 -29 -56 -69 0
-261 -30 -57 -75 0
-261 -31 -58 -80 0
-261 -32 -59 -84 0
-261 -33 -60 -87 0
-261 -34 -61 -89 0
-261 -36 -63 -91 0
-262 -2 -5 -13 0
-262 -14 -17 -25 0
-262 -26 -38 -46 0
-262 -27 -47 -55 0
-262 -29 -56 -70 0
-262 -30 -57 -76 0
-262 -31 -58 -81 0
-262 -32 -59 -85 0
-262 -33 -60 -88 0
-262 -34 -61 -90 0
-262 -35 -62 -91 0
-263 -2 -6 -7 0
-263 -14 -18 -19 0
-263 -26 -39 -40 0
-263 -27 -48 -49 0
-263 -28 -56 -57 0
-263 -31 -65 -71 0
-263 -32 -66 -72 0
-263 -33 -67 -73 0
-263 -34 -68 -74 0
-263 -35 -69 -75 0
-263 -36 -70 -76 0
-264 -2 -6 -8 0
-264 -14 -18 -20 0
-264 -26 -39 -41 0
-264 -27 -48 -50 0
-264 -28 -56 -58 0
-264 -30 -64 -71 0
-264 -32 -66 -77 0
-264 -33 -67 -78 0
-264 -34 -68 -79 0
-264 -35 -69 -80 0
-264 -36 -70 -81 0
-265 -2 -6 -9 0
-265 -14 -18 -21 0
-265 -26 -39 -42 0
-265 -27 -48 -51 0
-265 -28 -56 -59 0
-265 -30 -64 -72 0
-265 -31 -65 -77 0
-265 -33 -67 -82 0
-265 -34 -68 -83 0
-265 -35 -69 -84 0
-265 -36 -70 -85 0
-266 -2 -6 -10 0
-266 -14 -18 -22 0
-266 -26 -39 -43 0
-266 -27 -48 -52 0
-266 -28 -56 -60 0
-266 -30 -64 -73 0
-266 -31 -65 -78 0
-266 -32 -66 -82 0
-266 -34 -68 -86 0
-266 -35 -69 -87 0
-266 -36 -70 -88 0
-267 -2 -6 -11 0
-267 -14 -18 -23 0
-267 -26 -39 -44 0
-267 -27 -48 -53 0
-267 -28 -56 -61 0
-267 -30 -64 -74 0
-267 -31 -65 -79 0
-267 -32 -66 -83 0
-267 -33 -67 -86 0
-267 -35 -69 -89 0
-267 -36 -70 -90 0
-268 -2 -6 -12 0
-268 -14 -18 -24 0
-268 -26 -39 -45 0
-268 -27 -48 -54 0
-268 -28 -56 -62 0
-268 -30 -64 -75 0
-268 -31 -65 -80 0
-268 -32 -66 -84 0
-268 -33 -67 -87 0
-268 -34 -68 -89 0
-268 -36 -70 -91 0
-269 -2 -6 -13 0
-269 -14 -18 -25 0
-269 -26 -39 -46 0
-269 -27 -48 -55 0
-269 -28 -56 -63 0
-269 -30 -64 -76 0
-269 -31 -65 -81 0
-269 -32 -66 -85 0
-269 -33 -67 -88 0
-269 -34 -68 -90 0
-269 -35 -69 -91 0
-270 -2 -7 -8 0
-270 -14 -19 -20 0
-270 -26 -40 -41 0
-270 -27 -49 -50 0
-270 -28 -57 -58 0
-270 -29 -64 -65 0
-270 -32 -72 -77 0
-270 -33 -73 -78 0
-270 -34 -74 -79 0
-270 -35 -75 -80 0
-270 -36 -76 -81 0
-271 -2 -7 -9 0
-271 -14 -19 -21 0
-271 -26 -40 -42 0
-271 -27 -49 -51 0
-271 -28 -57 -59 0
-271 -29 -64 -66 0
-271 -31 -71 -77 0
-271 -33 -73 -82 0
-271 -34 -74 -83 0
-271 -35 -75 -84 0
-271 -36 -76 -85 0
-272 -2 -7 -10 0
-272 -14 -19 -22 0
-272 -26 -40 -43 0
-272 -27 -49 -52 0
-272 -28 -57 -60 0
-272 -29 -64 -67 0
-272 -31 -71 -78 0
-272 -32 -72 -82 0
-272 -34 -74 -86 0
-272 -35 -75 -87 0
-272 -36 -76 -88 0
-273 -2 -7 -11 0
-273 -14 -19 -23 0
-273 -26 -40 -44 0
-273 -27 -49 -53 0
-273 -28 -57 -61 0
-273 -29 -64 -68 0
-273 -31 -71 -79 0
-273 -32 -72 -83 0
-273 -33 -73 -86 0
-273 -35 -75 -89 0
-273 -36 -76 -90 0
-274 -2 -7 -12 0
-274 -14 -19 -24 0
-274 -26 -40 -45 0
-274 -27 -49 -54 0
-274 -28 -57 -62 0
-274 -29 -64 -69 0
-274 -31 -71 -80 0
-274 -32 -72 -84 0
-274 -33 -73 -87 0
-274 -34 -74 -89 0
-274 -36 -76 -91 0
-275 -2 -7 -13 0
-275 -14 -19 -25 0
-275 -26 -40 -46 0
-275 -27 -49 -55 0
-275 -28 -57 -63 0
-275 -29 -64 -70 0
-275 -31 -71 -81 0
-275 -32 -72 -85 0
-275 -33 -73 -88 0
-275 -34 -74 -90 0
-275 -35 -75 -91 0
-276 -2 -8 -9 0
-276 -14 -20 -21 0
-276 -26 -41 -42 0
-276 -27 -50 -51 0
-276 -28 -58 -59 0
-276 -29 -65 -66 0
-276 -30 -71 -72 0
-276 -33 -78 -82 0
-276 -34 -79 -83 0
-276 -35 -80 -84 0
-276 -36 -81 -85 0
-277 -2 -8 -10 0
-277 -14 -20 -22 0
-277 -26 -41 -43 0
-277 -27 -50 -52 0
-277 -28 -58 -60 0
-277 -29 -65 -67 0
-277 -30 -71 -73 0
-277 -32 -77 -82 0
-277 -34 -79 -86 0
-277 -35 -80 -87 0
-277 -36 -81 -88 0
-278 -2 -8 -11 0
-278 -14 -20 -23 0
-278 -26 -41 -44 0
-278 -27 -50 -53 0
-278 -28 -58 -61 0
-278 -29 -65 -68 0
-278 -30 -71 -74 0
-278 -32 -77 -83 0
-278 -33 -78 -86 0
-278 -35 -80 -89 0
-278 -36 -81 -90 0
-279 -2 -8 -12 0
-279 -14 -20 -24 0
-279 -26 -41 -45 0
-279 -27 -50 -54 0
-279 -28 -58 -62 0
-279 -29 -65 -69 0
-279 -30 -71 -75 0
-279 -32 -77 -84 0
-279 -33 -78 -87 0
-279 -34 -79 -89 0
-279 -36 -81 -91 0
-280 -2 -8 -13 0
-280 -14 -20 -25 0
-280 -26 -41 -46 0
-280 -27 -50 -55 0
-280 -28 -58 -63 0
-280 -29 -65 -70 0
-280 -30 -71 -76 0
-280 -32 -77 -85 0
-280 -33 -78 -88 0
-280 -34 -79 -90 0
-280 -35 -80 -91 0
-281 -2 -9 -10 0
-281 -14 -21 -22 0
-281 -26 -42 -43 0
-281 -27 -51 -52 0
-281 -28 -59 -60 0
-281 -29 -66 -67 0
-281 -30 -72 -73 0
-281 -31 -77 -78 0
-281 -34 -83 -86 0
-281 -35 -84 -87 0
-281 -36 -85 -88 0
-282 -2 -9 -11 0
-282 -14 -21 -23 0
-282 -26 -42 -44 0
-282 -27 -51 -53 0
-282 -28 -59 -61 0
-282 -29 -66 -68 0
-282 -30 -72 -74 0
-282 -31 -77 -79 0
-282 -33 -82 -86 0
-282 -35 -84 -89 0
-282 -36 -85 -90 0
-283 -2 -9 -12 0
-283 -14 -21 -24 0
-283 -26 -42 -45 0
-283 -27 -51 -54 0
-283 -28 -59 -62 0
-283 -29 -66 -69 0
-283 -30 -72 -75 0
-283 -31 -77 -80 0
-283 -33 -82 -87 0
-283 -34 -83 -89 0
-283 -36 -85 -91 0
-284 -2 -9 -13 0
-284 -14 -21 -25 0
-284 -26 -42 -46 0
-284 -27 -51 -55 0
-284 -28 -59 -63 0
-284 -29 -66 -70 0
-284 -30 -72 -76 0
-284 -31 -77 -81 0
-284 -33 -82 -88 0
-284 -34 -83 -90 0
-284 -35 -84 -91 0
-285 -2 -10 -11 0
-285 -14 -22 -23 0
-285 -26 -43 -44 0
-285 -27 -52 -53 0
-285 -28 -60 -61 0
-285 -29 -67 -68 0
-285 -30 -73 -74 0
-285 -31 -78 -79 0
-285 -32 -82 -83 0
-285 -35 -87 -89 0
-285 -36 -88 -90 0
-286 -2 -10 -12 0
-286 -14 -22 -24 0
-286 -26 -43 -45 0
-286 -27 -52 -54 0
-286 -28 -60 -62 0
-286 -29 -67 -69 0
-286 -30 -73 -75 0
-286 -31 -78 -80 0
-286 -32 -82 -84 0
-286 -34 -86 -89 0
-286 -36 -88 -91 0
-287 -2 -10 -13 0
-287 -14 -22 -25 0
-287 -26 -43 -46 0
-287 -27 -52 -55 0
-287 -28 -60 -63 0
-287 -29 -67 -70 0
-287 -30 -73 -76 0
-287 -31 -78 -81 0
-287 -32 -82 -85 0
-287 -34 -86 -90 0
-287 -35 -87 -91 0
-288 -2 -11 -12 0
-288 -14 -23 -24 0
-288 -26 -44 -45 0
-288 -27 -53 -54 0
-288 -28 -61 -62 0
-288 -29 -68 -69 0
-288 -30 -74 -75 0
-288 -31 -79 -80 0
-288 -32 -83 -84 0
-288 -33 -86 -87 0
-288 -36 -90 -91 0
-289 -2 -11 -13 0
-289 -14 -23 -25 0
-289 -26 -44 -46 0
-289 -27 -53 -55 0
-289 -28 -61 -63 0
-289 -29 -68 -70 0
-289 -30 -74 -76 0
-289 -31 -79 -81 0
-289 -32 -83 -85 0
-289 -33 -86 -88 0
-289 -35 -89 -91 0
-290 -2 -12 -13 0
-290 -14 -24 -25 0
-290 -26 -45 -46 0
-290 -27 -54 -55 0
-290 -28 -62 -63 0
-290 -29 -69 -70 0
-290 -30 -75 -76 0
-290 -31 -80 -81 0
-290 -32 -84 -85 0
-290 -33 -87 -88 0
-290 -34 -89 -90 0
-291 -3 -4 -5 0
-291 -15 -16 -17 0
-291 -26 -27 -28 0
-291 -39 -48 -56 0
-291 -40 -49 -57 0
-291 -41 -50 -58 0
-291 -42 -51 -59 0
-291 -43 -52 -60 0
-291 -44 -53 -61 0
-291 -45 -54 -62 0
-291 -46 -55 -63 0
-292 -3 -4 -6 0
-292 -15 -16 -18 0
-292 -26 -27 -29 0
-292 -38 -47 -56 0
-292 -40 -49 -64 0
-292 -41 -50 -65 0
-292 -42 -51 -66 0
-292 -43 -52 -67 0
-292 -44 -53 -68 0
-292 -45 -54 -69 0
-292 -46 -55 -70 0
-293 -3 -4 -7 0
-293 -15 -16 -19 0
-293 -26 -27 -30 0
-293 -38 -47 -57 0
-293 -39 -48 -64 0
-293 -41 -50 -71 0
-293 -42 -51 -72 0
-293 -43 -52 -73 0
-293 -44 -53 -74 0
-293 -45 -54 -75 0
-293 -46 -55 -76 0
-294 -3 -4 -8 0
-294 -15 -16 -20 0
-294 -26 -27 -31 0
-294 -38 -47 -58 0
-294 -39 -48 -65 0
-294 -40 -49 -71 0
-294 -42 -51 -77 0
-294 -43 -52 -78 0
-294 -44 -53 -79 0
-294 -45 -54 -80 0
-294 -46 -55 -81 0
-295 -3 -4 -9 0
-295 -15 -16 -21 0
-295 -26 -27 -32 0
-295 -38 -47 -59 0
-295 -39 -48 -66 0
-295 -40 -49 -72 0
-295 -41 -50 -77 0
-295 -43 -52 -82 0
-295 -44 -53 -83 0
-295 -45 -54 -84 0
-295 -46 -55 -85 0
-296 -3 -4 -10 0
-296 -15 -16 -22 0
-296 -26 -27 -33 0
-296 -38 -47 -60 0
-296 -39 -48 -67 0
-296 -40 -49 -73 0
-296 -41 -50 -78 0
-296 -42 -51 -82 0
-296 -44 -53 -86 0
-296 -45 -54 -87 0
-296 -46 -55 -88 0
-297 -3 -4 -11 0
-297 -15 -16 -23 0
-297 -26 -27 -34 0
-297 -38 -47 -61 0
-297 -39 -48 -68 0
-297 -40 -49 -74 0
-297 -41 -50 -79 0
-297 -42 -51 -83 0
-297 -43 -52 -86 0
-297 -45 -54 -89 0
-297 -46 -55 -90 0
-298 -3 -4 -12 0
-298 -15 -16 -24 0
-298 -26 -27 -35 0
-298 -38 -47 -62 0
-298 -39 -48 -69 0
-298 -40 -49 -75 0
-298 -41 -50 -80 0
-298 -42 -51 -84 0
-298 -43 -52 -87 0
-298 -44 -53 -89 0
-298 -46 -55 -91 0
-299 -3 -4 -13 0
-299 -15 -16 -25 0
-299 -26 -27 -36 0
-299 -38 -47 -63 0
-299 -39 -48 -70 0
-299 -40 -49 -76 0
-299 -41 -50 -81 0
-299 -42 -51 -85 0
-299 -43 -52 -88 0
-299 -44 -53 -90 0
-299 -45 -54 -91 0
-300 -3 -5 -6 0
-300 -15 -17 -18 0
-300 -26 -28 -29 0
-300 -37 -47 -48 0
-300 -40 -57 -64 0
-300 -41 -58 -65 0
-300 -42 -59 -66 0
-300 -43 -60 -67 0
-300 -44 -61 -68 0
-300 -45 -62 -69 0
-300 -46 -63 -70 0
-301 -3 -5 -7 0
-301 -15 -17 -19 0
-301 -26 -28 -30 0
-301 -37 -47 -49 0
-301 -39 -56 -64 0
-301 -41 -58 -71 0
-301 -42 -59 -72 0
-301 -43 -60 -73 0
-301 -44 -61 -74 0
-301 -45 -62 -75 0
-301 -46 -63 -76 0
-302 -3 -5 -8 0
-302 -15 -17 -20 0
-302 -26 -28 -31 0
-302 -37 -47 -50 0
-302 -39 -56 -65 0
-302 -40 -57 -71 0
-302 -42 -59 -77 0
-302 -43 -60 -78 0
-302 -44 -61 -79 0
-302 -45 -62 -80 0
-302 -46 -63 -81 0
-303 -3 -5 -9 0
-303 -15 -17 -21 0
-303 -26 -28 -32 0
-303 -37 -47 -51 0
-303 -39 -56 -66 0
-303 -40 -57 -72 0
-303 -41 -58 -77 0
-303 -43 -60 -82 0
-303 -44 -61 -83 0
-303 -45 -62 -84 0
-303 -46 -63 -85 0
-304 -3 -5 -10 0
-304 -15 -17 -22 0
-304 -26 -28 -33 0
-304 -37 -47 -52 0
-304 -39 -56 -67 0
-304 -40 -57 -73 0
-304 -41 -58 -78 0
-304 -42 -59 -82 0
-304 -44 -61 -86 0
-304 -45 -62 -87 0
-304 -46 -63 -88 0
-305 -3 -5 -11 0
-305 -15 -17 -23 0
-305 -26 -28 -34 0
-305 -37 -47 -53 0
-305 -39 -56 -68 0
-305 -40 -57 -74 0
-305 -41 -58 -79 0
-305 -42 -59 -83 0
-305 -43 -60 -86 0
-305 -45 -62 -89 0
-305 -46 -63 -90 0
-306 -3 -5 -12 0
-306 -15 -17 -24 0
-306 -26 -28 -35 0
-306 -37 -47 -54 0
-306 -39 -56 -69 0
-306 -40 -57 -75 0
-306 -41 -58 -80 0
-306 -42 -59 -84 0
-306 -43 -60 -87 0
-306 -44 -61 -89 0
-306 -46 -63 -91 0
-307 -3 -5 -13 0
-307 -15 -17 -25 0
-307 -26 -28 -36 0
-307 -37 -47 -55 0
-307 -39 -56 -70 0
-307 -40 -57 -76 0
-307 -41 -58 -81 0
-307 -42 -59 -85 0
-307 -43 -60 -88 0
-307 -44 -61 -90 0
-307 -45 -62 -91 0
-308 -3 -6 -7 0
-308 -15 -18 -19 0
-308 -26 -29 -30 0
-308 -37 -48 -49 0
-308 -38 -56 -57 0
-308 -41 -65 -71 0
-308 -42 -66 -72 0
-308 -43 -67 -73 0
-308 -44 -68 -74 0
-308 -45 -69 -75 0
-308 -46 -70 -76 0
-309 -3 -6 -8 0
-309 -15 -18 -20 0
-309 -26 -29 -31 0
-309 -37 -48 -50 0
-309 -38 -56 -58 0
-309 -40 -64 -71 0
-309 -42 -66 -77 0
-309 -43 -67 -78 0
-309 -44 -68 -79 0
-309 -45 -69 -80 0
-309 -46 -70 -81 0
-310 -3 -6 -9 0
-310 -15 -18 -21 0
-310 -26 -29 -32 0
-310 -37 -48 -51 0
-310 -38 -56 -59 0
-310 -40 -64 -72 0
-310 -41 -65 -77 0
-310 -43 -67 -82 0
-310 -44 -68 -83 0
-310 -45 -69 -84 0
-310 -46 -70 -85 0
-311 -3 -6 -10 0
-311 -15 -18 -22 0
-311 -26 -29 -33 0
-311 -37 -48 -52 0
-311 -38 -56 -60 0
-311 -40 -64 -73 0
-311 -41 -65 -78 0
-311 -42 -66 -82 0
-311 -44 -68 -86 0
-311 -45 -69 -87 0
-311 -46 -70 -88 0
-312 -3 -6 -11 0
-312 -15 -18 -23 0
-312 -26 -29 -34 0
-312 -37 -48 -53 0
-312 -38 -56 -61 0
-312 -40 -64 -74 0
-312 -41 -65 -79 0
-312 -42 -66 -83 0
-312 -43 -67 -86 0
-312 -45 -69 -89 0
-312 -46 -70 -90 0
-313 -3 -6 -12 0
-313 -15 -18 -24 0
-313 -26 -29 -35 0
-313 -37 -48 -54 0
-313 -38 -56 -62 0
-313 -40 -64 -75 0
-313 -41 -65 -80 0
-313 -42 -66 -84 0
-313 -43 -67 -87 0
-313 -44 -68 -89 0
-313 -46 -70 -91 0
-314 -3 -6 -13 0
-314 -15 -18 -25 0
-314 -26 -29 -36 0
-314 -37 -48 -55 0
-314 -38 -56 -63 0
-314 -40 -64 -76 0
-314 -41 -65 -81 0
-314 -42 -66 -85 0
-314 -43 -67 -88 0
-314 -44 -68 -90 0
-314 -45 -69 -91 0
-315 -3 -7 -8 0
-315 -15 -19 -20 0
-315 -26 -30 -31 0
-315 -37 -49 -50 0
-315 -38 -57 -58 0
-315 -39 -64 -65 0
-315 -42 -72 -77 0
-315 -43 -73 -78 0
-315 -44 -74 -79 0
-315 -45 -75 -80 0
-315 -46 -76 -81 0
-316 -3 -7 -9 0
-316 -15 -19 -21 0
-316 -26 -30 -32 0
-316 -37 -49 -51 0
-316 -38 -57 -59 0
-316 -39 -64 -66 0
-316 -41 -71 -77 0
-316 -43 -73 -82 0
-316 -44 -74 -83 0
-316 -45 -75 -84 0
-316 -46 -76 -85 0
-317 -3 -7 -10 0
-317 -15 -19 -22 0
-317 -26 -30 -33 0
-317 -37 -49 -52 0
-317 -38 -57 -60 0
-317 -39 -64 -67 0
-317 -41 -71 -78 0
-317 -42 -72 -82 0
-317 -44 -74 -86 0
-317 -45 -75 -87 0
-317 -46 -76 -88 0
-318 -3 -7 -11 0
-318 -15 -19 -23 0
-318 -26 -30 -34 0
-318 -37 -49 -53 0
-318 -38 -57 -61 0
-318 -39 -64 -68 0
-318 -41 -71 -79 0
-318 -42 -72 -83 0
-318 -43 -73 -86 0
-318 -45 -75 -89 0
-318 -46 -76 -90 0
-319 -3 -7 -12 0
-319 -15 -19 -24 0
-319 -26 -30 -35 0
-319 -37 -49 -54 0
-319 -38 -57 -62 0
-319 -39 -64 -69 0
-319 -41 -71 -80 0
-319 -42 -72 -84 0
-319 -43 -73 -87 0
-319 -44 -74 -89 0
-319 -46 -76 -91 0
-320 -3 -7 -13 0
-320 -15 -19 -25 0
-320 -26 -30 -36 0
-320 -37 -49 -55 0
-320 -38 -57 -63 0
-320 -39 -64 -70 0
-320 -41 -71 -81 0
-320 -42 -72 -85 0
-320 -43 -73 -88 0
-320 -44 -74 -90 0
-320 -45 -75 -91 0
-321 -3 -8 -9 0
-321 -15 -20 -21 0
-321 -26 -31 -32 0
-321 -37 -50 -51 0
-321 -38 -58 -59 0
-321 -39 -65 -66 0
-321 -40 -71 -72 0
-321 -43 -78 -82 0
-321 -44 -79 -83 0
-321 -45 -80 -84 0
-321 -46 -81 -85 0
-322 -3 -8 -10 0
-322 -15 -20 -22 0
-322 -26 -31 -33 0
-322 -37 -50 -52 0
-322 -38 -58 -60 0
-322 -39 -65 -67 0
-322 -40 -71 -73 0
-322 -42 -77 -82 0
-322 -44 -79 -86 0
-322 -45 -80 -87 0
-322 -46 -81 -88 0
-323 -3 -8 -11 0
-323 -15 -20 -23 0
-323 -26 -31 -34 0
-323 -37 -50 -53 0
-323 -38 -58 -61 0
-323 -39 -65 -68 0
-323 -40 -71 -74 0
-323 -42 -77 -83 0
-323 -43 -78 -86 0
-323 -45 -80 -89 0
-323 -46 -81 -90 0
-324 -3 -8 -12 0
-324 -15 -20 -24 0
-324 -26 -31 -35 0
-324 -37 -50 -54 0
-324 -38 -58 -62 0
-324 -39 -65 -69 0
-324 -40 -71 -75 0
-324 -42 -77 -84 0
-324 -43 -78 -87 0
-324 -44 -79 -89 0
-324 -46 -81 -91 0
-325 -3 -8 -13 0
-325 -15 -20 -25 0
-325 -26 -31 -36 0
-325 -37 -50 -55 0
-325 -38 -58 -63 0
-325 -39 -65 -70 0
-325 -40 -71 -76 0
-325 -42 -77 -85 0
-325 -43 -78 -88 0
-325 -44 -79 -90 0
-325 -45 -80 -91 0
-326 -3 -9 -10 0
-326 -15 -21 -22 0
-326 -26 -32 -33 0
-326 -37 -51 -52 0
-326 -38 -59 -60 0
-326 -39 -66 -67 0
-326 -40 -72 -73 0
-326 -41 -77 -78 0
-326 -44 -83 -86 0
-326 -45 -84 -87 0
-326 -46 -85 -88 0
-327 -3 -9 -11 0
-327 -15 -21 -23 0
-327 -26 -32 -34 0
-327 -37 -51 -53 0
-327 -38 -59 -61 0
-327 -39 -66 -68 0
-327 -40 -72 -74 0
-327 -41 -77 -79 0
-327 -43 -82 -86 0
-327 -45 -84 -89 0
-327 -46 -85 -90 0
-328 -3 -9 -12 0
-328 -15 -21 -24 0
-328 -26 -32 -35 0
-328 -37 -51 -54 0
-328 -38 -59 -62 0
-328 -39 -66 -69 0
-328 -40 -72 -75 0
-328 -41 -77 -80 0
-328 -43 -82 -87 0
-328 -44 -83 -89 0
-328 -46 -85 -91 0
-329 -3 -9 -13 0
-329 -15 -21 -25 0
-329 -26 -32 -36 0
-329 -37 -51 -55 0
-329 -38 -59 -63 0
-329 -39 -66 -70 0
-329 -40 -72 -76 0
-329 -41 -77 -81 0
-329 -43 -82 -88 0
-329 -44 -83 -90 0
-329 -45 -84 -91 0
-330 -3 -10 -11 0
-330 -15 -22 -23 0
-330 -26 -33 -34 0
-330 -37 -52 -53 0
-330 -38 -60 -61 0
-330 -39 -67 -68 0
-330 -40 -73 -74 0
-330 -41 -78 -79 0
-330 -42 -82 -83 0
-330 -45 -87 -89 0
-330 -46 -88 -90 0
-331 -3 -10 -12 0
-331 -15 -22 -24 0
-331 -26 -33 -35 0
-331 -37 -52 -54 0
-331 -38 -60 -62 0
-331 -39 -67 -69 0
-331 -40 -73 -75 0
-331 -41 -78 -80 0
-331 -42 -82 -84 0
-331 -44 -86 -89 0
-331 -46 -88 -91 0
-332 -3 -10 -13 0
-332 -15 -22 -25 0
-332 -26 -33 -36 0
-332 -37 -52 -55 0
-332 -38 -60 -63 0
-332 -39 -67 -70 0
-332 -40 -73 -76 0
-332 -41 -78 -81 0
-332 -42 -82 -85 0
-332 -44 -86 -90 0
-332 -45 -87 -91 0
-333 -3 -11 -12 0
-333 -15 -23 -24 0
-333 -26 -34 -35 0
-333 -37 -53 -54 0
-333 -38 -61 -62 0
-333 -39 -68 -69 0
-333 -40 -74 -75 0
-333 -41 -79 -80 0
-333 -42 -83 -84 0
-333 -43 -86 -87 0
-333 -46 -90 -91 0
-334 -3 -11 -13 0
-334 -15 -23 -25 0
-334 -26 -34 -36 0
-334 -37 -53 -55 0
-334 -38 -61 -63 0
-334 -39 -68 -70 0
-334 -40 -74 -76 0
-334 -41 -79 -81 0
-334 -42 -83 -85 0
-334 -43 -86 -88 0
-334 -45 -89 -91 0
-335 -3 -12 -13 0
-335 -15 -24 -25 0
-335 -26 -35 -36 0
-335 -37 -54 -55 0
-335 -38 -62 -63 0
-335 -39 -69 -70 0
-335 -40 -75 -76 0
-335 -41 -80 -81 0
-335 -42 -84 -85 0
-335 -43 -87 -88 0
-335 -44 -89 -90 0
-336 -4 -5 -6 0
-336 -16 -17 -18 0
-336 -27 -28 -29 0
-336 -37 -38 -39 0
-336 -49 -57 -64 0
-336 -50 -58 -65 0
-336 -51 -59 -66 0
-336 -52 -60 -67 0
-336 -53 -61 -68 0
-336 -54 -62 -69 0
-336 -55 -63 -70 0
-337 -4 -5 -7 0
-337 -16 -17 -19 0
-337 -27 -28 -30 0
-337 -37 -38 -40 0
-337 -48 -56 -64 0
-337 -50 -58 -71 0
-337 -51 -59 -72 0
-337 -52 -60 -73 0
-337 -53 -61 -74 0
-337 -54 -62 -75 0
-337 -55 -63 -76 0
-338 -4 -5 -8 0
-338 -16 -17 -20 0
-338 -27 -28 -31 0
-338 -37 -38 -41 0
-338 -48 -56 -65 0
-338 -49 -57 -71 0
-338 -51 -59 -77 0
-338 -52 -60 -78 0
-338 -53 -61 -79 0
-338 -54 -62 -80 0
-338 -55 -63 -81 0
-339 -4 -5 -9 0
-339 -16 -17 -21 0
-339 -27 -28 -32 0
-339 -37 -38 -42 0
-339 -48 -56 -66 0
-339 -49 -57 -72 0
-339 -50 -58 -77 0
-339 -52 -60 -82 0
-339 -53 -61 -83 0
-339 -54 -62 -84 0
-339 -55 -63 -85 0
-340 -4 -5 -10 0
-340 -16 -17 -22 0
-340 -27 -28 -33 0
-340 -37 -38 -43 0
-340 -48 -56 -67 0
-340 -49 -57 -73 0
-340 -50 -58 -78 0
-340 -51 -59 -82 0
-340 -53 -61 -86 0
-340 -54 -62 -87 0
-340 -55 -63 -88 0
-341 -4 -5 -11 0
-341 -16 -17 -23 0
-341 -27 -28 -34 0
-341 -37 -38 -44 0
-341 -48 -56 -68 0
-341 -49 -57 -74 0
-341 -50 -58 -79 0
-341 -51 -59 -83 0
-341 -52 -60 -86 0
-341 -54 -62 -89 0
-341 -55 -63 -90 0
-342 -4 -5 -12 0
-342 -16 -17 -24 0
-342 -27 -28 -35 0
-342 -37 -38 -45 0
-342 -48 -56 -69 0
-342 -49 -57 -75 0
-342 -50 -58 -80 0
-342 -51 -59 -84 0
-342 -52 -60 -87 0
-342 -53 -61 -89 0
-342 -55 -63 -91 0
-343 -4 -5 -13 0
-343 -16 -17 -25 0
-343 -27 -28 -36 0
-343 -37 -38 -46 0
-343 -48 -56 -70 0
-343 -49 -57 -76 0
-343 -50 -58 -81 0
-343 -51 -59 -85 0
-343 -52 -60 -88 0
-343 -53 -61 -90 0
-343 -54 -62 -91 0
-344 -4 -6 -7 0
-344 -16 -18 -19 0
-344 -27 -29 -30 0
-344 -37 -39 -40 0
-344 -47 -56 -57 0
-344 -50 -65 -71 0
-344 -51 -66 -72 0
-344 -52 -67 -73 0
-344 -53 -68 -74 0
-344 -54 -69 -75 0
-344 -55 -70 -76 0
-345 -4 -6 -8 0
-345 -16 -18 -20 0
-345 -27 -29 -31 0
-345 -37 -39 -41 0
-345 -47 -56 -58 0
-345 -49 -64 -71 0
-345 -51 -66 -77 0
-345 -52 -67 -78 0
-345 -53 -68 -79 0
-345 -54 -69 -80 0
-345 -55 -70 -81 0
-346 -4 -6 -9 0
-346 -16 -18 -21 0
-346 -27 -29 -32 0
-346 -37 -39 -42 0
-346 -47 -56 -59 0
-346 -49 -64 -72 0
-346 -50 -65 -77 0
-346 -52 -67 -82 0
-346 -53 -68 -83 0
-346 -54 -69 -84 0
-346 -55 -70 -85 0
-347 -4 -6 -10 0
-347 -16 -18 -22 0
-347 -27 -29 -33 0
-347 -37 -39 -43 0
-347 -47 -56 -60 0
-347 -49 -64 -73 0
-347 -50 -65 -78 0
-347 -51 -66 -82 0
-347 -53 -68 -86 0
-347 -54 -69 -87 0
-347 -55 -70 -88 0
-348 -4 -6 -11 0
-348 -16 -18 -23 0
-348 -27 -29 -34 0
-348 -37 -39 -44 0
-348 -47 -56 -61 0
-348 -49 -64 -74 0
-348 -50 -65 -79 0
-348 -51 -66 -83 0
-348 -52 -67 -86 0
-348 -54 -69 -89 0
-348 -55 -70 -90 0
-349 -4 -6 -12 0
-349 -16 -18 -24 0
-349 -27 -29 -35 0
-349 -37 -39 -45 0
-349 -47 -56 -62 0
-349 -49 -64 -75 0
-349 -50 -65 -80 0
-349 -51 -66 -84 0
-349 -52 -67 -87 0
-349 -53 -68 -89 0
-349 -55 -70 -91 0
-350 -4 -6 -13 0
-350 -16 -18 -25 0
-350 -27 -29 -36 0
-350 -37 -39 -46 0
-350 -47 -56 -63 0
-350 -49 -64 -76 0
-350 -50 -65 -81 0
-350 -51 -66 -85 0
-350 -52 -67 -88 0
-350 -53 -68 -90 0
-350 -54 -69 -91 0
-351 -4 -7 -8 0
-351 -16 -19 -20 0
-351 -27 -30 -31 0
-351 -37 -40 -41 0
-351 -47 -57 -58 0
-351 -48 -64 -65 0
-351 -51 -72 -77 0
-351 -52 -73 -78 0
-351 -53 -74 -79 0
-351 -54 -75 -80 0
-351 -55 -76 -81 0
-352 -4 -7 -9 0
-352 -16 -19 -21 0
-352 -27 -30 -32 0
-352 -37 -40 -42 0
-352 -47 -57 -59 0
-352 -48 -64 -66 0
-352 -50 -71 -77 0
-352 -52 -73 -82 0
-352 -53 -74 -83 0
-352 -54 -75 -84 0
-352 -55 -76 -85 0
-353 -4 -7 -10 0
-353 -16 -19 -22 0
-353 -27 -30 -33 0
-353 -37 -40 -43 0
-353 -47 -57 -60 0
-353 -48 -64 -67 0
-353 -50 -71 -78 0
-353 -51 -72 -82 0
-353 -53 -74 -86 0
-353 -54 -75 -87 0
-353 -55 -76 -88 0
-354 -4 -7 -11 0
-354 -16 -19 -23 0
-354 -27 -30 -34 0
-354 -37 -40 -44 0
-354 -47 -57 -61 0
-354 -48 -64 -68 0
-354 -50 -71 -79 0
-354 -51 -72 -83 0
-354 -52 -73 -86 0
-354 -54 -75 -89 0
-354 -55 -76 -90 0
-355 -4 -7 -12 0
-355 -16 -19 -24 0
-355 -27 -30 -35 0
-355 -37 -40 -45 0
-355 -47 -57 -62 0
-355 -48 -64 -69 0
-355 -50 -71 -80 0
-355 -51 -72 -84 0
-355 -52 -73 -87 0
-355 -53 -74 -89 0
-355 -55 -76 -91 0
-356 -4 -7 -13 0
-356 -16 -19 -25 0
-356 -27 -30 -36 0
-356 -37 -40 -46 0
-356 -47 -57 -63 0
-356 -48 -64 -70 0
-356 -50 -71 -81 0
-356 -51 -72 -85 0
-356 -52 -73 -88 0
-356 -53 -74 -90 0
-356 -54 -75 -91 0
-357 -4 -8 -9 0
-357 -16 -20 -21 0
-357 -27 -31 -32 0
-357 -37 -41 -42 0
-357 -47 -58 -59 0
-357 -48 -65 -66 0
-357 -49 -71 -72 0
-357 -52 -78 -82 0
-357 -53 -79 -83 0
-357 -54 -80 -84 0
-357 -55 -81 -85 0
-358 -4 -8 -10 0
-358 -16 -20 -22 0
-358 -27 -31 -33 0
-358 -37 -41 -43 0
-358 -47 -58 -60 0
-358 -48 -65 -67 0
-358 -49 -71 -73 0
-358 -51 -77 -82 0
-358 -53 -79 -86 0
-358 -54 -80 -87 0
-358 -55 -81 -88 0
-359 -4 -8 -11 0
-359 -16 -20 -23 0
-359 -27 -31 -34 0
-359 -37 -41 -44 0
-359 -47 -58 -61 0
-359 -48 -65 -68 0
-359 -49 -71 -74 0
-359 -51 -77 -83 0
-359 -52 -78 -86 0
-359 -54 -80 -89 0
-359 -55 -81 -90 0
-360 -4 -8 -12 0
-360 -16 -20 -24 0
-360 -27 -31 -35 0
-360 -37 -41 -45 0
-360 -47 -58 -62 0
-360 -48 -65 -69 0
-360 -49 -71 -75 0
-360 -51 -77 -84 0
-360 -52 -78 -87 0
-360 -53 -79 -89 0
-360 -55 -81 -91 0
-361 -4 -8 -13 0
-361 -16 -20 -25 0
-361 -27 -31 -36 0
-361 -37 -41 -46 0
-361 -47 -58 -63 0
-361 -48 -65 -70 0
-361 -49 -71 -76 0
-361 -51 -77 -85 0
-361 -52 -78 -88 0
-361 -53 -79 -90 0
-361 -54 -80 -91 0
-362 -4 -9 -10 0
-362 -16 -21 -22 0
-362 -27 -32 -33 0
-362 -37 -42 -43 0
-362 -47 -59 -60 0
-362 -48 -66 -67 0
-362 -49 -72 -73 0
-362 -50 -77 -78 0
-362 -53 -83 -86 0
-362 -54 -84 -87 0
-362 -55 -85 -88 0
-363 -4 -9 -11 0
-363 -16 -21 -23 0
-363 -27 -32 -34 0
-363 -37 -42 -44 0
-363 -47 -59 -61 0
-363 -48 -66 -68 0
-363 -49 -72 -74 0
-363 -50 -77 -79 0
-363 -52 -82 -86 0
-363 -54 -84 -89 0
-363 -55 -85 -90 0
-364 -4 -9 -12 0
-364 -16 -21 -24 0
-364 -27 -32 -35 0
-364 -37 -42 -45 0
-364 -47 -59 -62 0
-364 -48 -66 -69 0
-364 -49 -72 -75 0
-364 -50 -77 -80 0
-364 -52 -82 -87 0
-364 -53 -83 -89 0
-364 -55 -85 -91 0
-365 -4 -9 -13 0
-365 -16 -21 -25 0
-365 -27 -32 -36 0
-365 -37 -42 -46 0
-365 -47 -59 -63 0
-365 -48 -66 -70 0
-365 -49 -72 -76 0
-365 -50 -77 -81 0
-365 -52 -82 -88 0
-365 -53 -83 -90 0
-365 -54 -84 -91 0
-366 -4 -10 -11 0
-366 -16 -22 -23 0
-366 -27 -33 -34 0
-366 -37 -43 -44 0
-366 -47 -60 -61 0
-366 -48 -67 -68 0
-366 -49 -73 -74 0
-366 -50 -78 -79 0
-366 -51 -82 -83 0
-366 -54 -87 -89 0
-366 -55 -88 -90 0
-367 -4 -10 -12 0
-367 -16 -22 -24 0
-367 -27 -33 -35 0
-367 -37 -43 -45 0
-367 -47 -60 -62 0
-367 -48 -67 -69 0
-367 -49 -73 -75 0
-367 -50 -78 -80 0
-367 -51 -82 -84 0
-367 -53 -86 -89 0
-367 -55 -88 -91 0
-368 -4 -10 -13 0
-368 -16 -22 -25 0
-368 -27 -33 -36 0
-368 -37 -43 -46 0
-368 -47 -60 -63 0
-368 -48 -67 -70 0
-368 -49 -73 -76 0
-368 -50 -78 -81 0
-368 -51 -82 -85 0
-368 -53 -86 -90 0
-368 -54 -87 -91 0
-369 -4 -11 -12 0
-369 -16 -23 -24 0
-369 -27 -34 -35 0
-369 -37 -44 -45 0
-369 -47 -61 -62 0
-369 -48 -68 -69 0
-369 -49 -74 -75 0
-369 -50 -79 -80 0
-369 -51 -83 -84 0
-369 -52 -86 -87 0
-369 -55 -90 -91 0
-370 -4 -11 -13 0
-370 -16 -23 -25 0
-370 -27 -34 -36 0
-370 -37 -44 -46 0
-370 -47 -61 -63 0
-370 -48 -68 -70 0
-370 -49 -74 -76 0
-370 -50 -79 -81 0
-370 -51 -83 -85 0
-370 -52 -86 -88 0
-370 -54 -89 -91 0
-371 -4 -12 -13 0
-371 -16 -24 -25 0
-371 -27 -35 -36 0
-371 -37 -45 -46 0
-371 -47 -62 -63 0
-371 -48 -69 -70 0
-371 -49 -75 -76 0
-371 -50 -80 -81 0
-371 -51 -84 -85 0
-371 -52 -87 -88 0
-371 -53 -89 -90 0
-372 -5 -6 -7 0
-372 -17 -18 -19 0
-372 -28 -29 -30 0
-372 -38 -39 -40 0
-372 -47 -48 -49 0
-372 -58 -65 -71 0
-372 -59 -66 -72 0
-372 -60 -67 -73 0
-372 -61 -68 -74 0
-372 -62 -69 -75 0
-372 -63 -70 -76 0
-373 -5 -6 -8 0
-373 -17 -18 -20 0
-373 -28 -29 -31 0
-373 -38 -39 -41 0
-373 -47 -48 -50 0
-373 -57 -64 -71 0
-373 -59 -66 -77 0
-373 -60 -67 -78 0
-373 -61 -68 -79 0
-373 -62 -69 -80 0
-373 -63 -70 -81 0
-374 -5 -6 -9 0
-374 -17 -18 -21 0
-374 -28 -29 -32 0
-374 -38 -39 -42 0
-374 -47 -48 -51 0
-374 -57 -64 -72 0
-374 -58 -65 -77 0
-374 -60 -67 -82 0
-374 -61 -68 -83 0
-374 -62 -69 -84 0
-374 -63 -70 -85 0
-375 -5 -6 -10 0
-375 -17 -18 -22 0
-375 -28 -29 -33 0
-375 -38 -39 -43 0
-375 -47 -48 -52 0
-375 -57 -64 -73 0
-375 -58 -65 -78 0
-375 -59 -66 -82 0
-375 -61 -68 -86 0
-375 -62 -69 -87 0
-375 -63 -70 -88 0
-376 -5 -6 -11 0
-376 -17 -18 -23 0
-376 -28 -29 -34 0
-376 -38 -39 -44 0
-376 -47 -48 -53 0
-376 -57 -64 -74 0
-376 -58 -65 -79 0
-376 -59 -66 -83 0
-376 -60 -67 -86 0
-376 -62 -69 -89 0
-376 -63 -70 -90 0
-377 -5 -6 -12 0
-377 -17 -18 -24 0
-377 -28 -29 -35 0
-377 -38 -39 -45 0
-377 -47 -48 -54 0
-377 -57 -64 -75 0
-377 -58 -65 -80 0
-377 -59 -66 -84 0
-377 -60 -67 -87 0
-377 -61 -68 -89 0
-377 -63 -70 -91 0
-378 -5 -6 -13 0
-378 -17 -18 -25 0
-378 -28 -29 -36 0
-378 -38 -39 -46 0
-378 -47 -48 -55 0
-378 -57 -64 -76 0
-378 -58 -65 -81 0
-378 -59 -66 -85 0
-378 -60 -67 -88 0
-378 -61 -68 -90 0
-378 -62 -69 -91 0
-379 -5 -7 -8 0
-379 -17 -19 -20 0
-379 -28 -30 -31 0
-379 -38 -40 -41 0
-379 -47 -49 -50 0
-379 -56 -64 -65 0
-379 -59 -72 -77 0
-379 -60 -73 -78 0
-379 -61 -74 -79 0
-379 -62 -75 -80 0
-379 -63 -76 -81 0
-380 -5 -7 -9 0
-380 -17 -19 -21 0
-380 -28 -30 -32 0
-380 -38 -40 -42 0
-380 -47 -49 -51 0
-380 -56 -64 -66 0
-380 -58 -71 -77 0
-380 -60 -73 -82 0
-380 -61 -74 -83 0
-380 -62 -75 -84 0
-380 -63 -76 -85 0
-381 -5 -7 -10 0
-381 -17 -19 -22 0
-381 -28 -30 -33 0
-381 -38 -40 -43 0
-381 -47 -49 -52 0
-381 -56 -64 -67 0
-381 -58 -71 -78 0
-381 -59 -72 -82 0
-381 -61 -74 -86 0
-381 -62 -75 -87 0
-381 -63 -76 -88 0
-382 -5 -7 -11 0
-382 -17 -19 -23 0
-382 -28 -30 -34 0
-382 -38 -40 -44 0
-382 -47 -49 -53 0
-382 -56 -64 -68 0
-382 -58 -71 -79 0
-382 -59 -72 -83 0
-382 -60 -73 -86 0
-382 -62 -75 -89 0
-382 -63 -76 -90 0
-383 -5 -7 -12 0
-383 -17 -19 -24 0
-383 -28 -30 -35 0
-383 -38 -40 -45 0
-383 -47 -49 -54 0
-383 -56 -64 -69 0
-383 -58 -71 -80 0
-383 -59 -72 -84 0
-383 -60 -73 -87 0
-383 -61 -74 -89 0
-383 -63 -76 -91 0
-384 -5 -7 -13 0
-384 -17 -19 -25 0
-384 -28 -30 -36 0
-384 -38 -40 -46 0
-384 -47 -49 -55 0
-384 -56 -64 -70 0
-384 -58 -71 -81 0
-384 -59 -72 -85 0
-384 -60 -73 -88 0
-384 -61 -74 -90 0
-384 -62 -75 -91 0
-385 -5 -8 -9 0
-385 -17 -20 -21 0
-385 -28 -31 -32 0
-385 -38 -41 -42 0
-385 -47 -50 -51 0
-385 -56 -65 -66 0
-385 -57 -71 -72 0
-385 -60 -78 -82 0
-385 -61 -79 -83 0
-385 -62 -80 -84 0
-385 -63 -81 -85 0
-386 -5 -8 -10 0
-386 -17 -20 -22 0
-386 -28 -31 -33 0
-386 -38 -41 -43 0
-386 -47 -50 -52 0
-386 -56 -65 -67 0
-386 -57 -71 -73 0
-386 -59 -77 -82 0
-386 -61 -79 -86 0
-386 -62 -80 -87 0
-386 -63 -81 -88 0
-387 -5 -8 -11 0
-387 -17 -20 -23 0
-387 -28 -31 -34 0
-387 -38 -41 -44 0
-387 -47 -50 -53 0
-387 -56 -65 -68 0
-387 -57 -71 -74 0
-387 -59 -77 -83 0
-387 -60 -78 -86 0
-387 -62 -80 -89 0
-387 -63 -81 -90 0
-388 -5 -8 -12 0
-388 -17 -20 -24 0
-388 -28 -31 -35 0
-388 -38 -41 -45 0
-388 -47 -50 -54 0
-388 -56 -65 -69 0
-388 -57 -71 -75 0
-388 -59 -77 -84 0
-388 -60 -78 -87 0
-388 -61 -79 -89 0
-388 -63 -81 -91 0
-389 -5 -8 -13 0
-389 -17 -20 -25 0
-389 -28 -31 -36 0
-389 -38 -41 -46 0
-389 -47 -50 -55 0
-389 -56 -65 -70 0
-389 -57 -71 -76 0
-389 -59 -77 -85 0
-389 -60 -78 -88 0
-389 -61 -79 -90 0
-389 -62 -80 -91 0
-390 -5 -9 -10 0
-390 -17 -21 -22 0
-390 -28 -32 -33 0
-390 -38 -42 -43 0
-390 -47 -51 -52 0
-390 -56 -66 -67 0
-390 -57 -72 -73 0
-390 -58 -77 -78 0
-390 -61 -83 -86 0
-390 -62 -84 -87 0
-390 -63 -85 -88 0
-391 -5 -9 -11 0
-391 -17 -21 -23 0
-391 -28 -32 -34 0
-391 -38 -42 -44 0
-391 -47 -51 -53 0
-391 -56 -66 -68 0
-391 -57 -72 -74 0
-391 -58 -77 -79 0
-391 -60 -82 -86 0
-391 -62 -84 -89 0
-391 -63 -85 -90 0
-392 -5 -9 -12 0
-392 -17 -21 -24 0
-392 -28 -32 -35 0
-392 -38 -42 -45 0
-392 -47 -51 -54 0
-392 -56 -66 -69 0
-392 -57 -72 -75 0
-392 -58 -77 -80 0
-392 -60 -82 -87 0
-392 -61 -83 -89 0
-392 -63 -85 -91 0
-393 -5 -9 -13 0
-393 -17 -21 -25 0
-393 -28 -32 -36 0
-393 -38 -42 -46 0
-393 -47 -51 -55 0
-393 -56 -66 -70 0
-393 -57 -72 -76 0
-393 -58 -77 -81 0
-393 -60 -82 -88 0
-393 -61 -83 -90 0
-393 -62 -84 -91 0
-394 -5 -10 -11 0
-394 -17 -22 -23 0
-394 -28 -33 -34 0
-394 -38 -43 -44 0
-394 -47 -52 -53 0
-394 -56 -67 -68 0
-394 -57 -73 -74 0
-394 -58 -78 -79 0
-394 -59 -82 -83 0
-394 -62 -87 -89 0
-394 -63 -88 -90 0
-395 -5 -10 -12 0
-395 -17 -22 -24 0
-395 -28 -33 -35 0
-395 -38 -43 -45 0
-395 -47 -52 -54 0
-395 -56 -67 -69 0
-395 -57 -73 -75 0
-395 -58 -78 -80 0
-395 -59 -82 -84 0
-395 -61 -86 -89 0
-395 -63 -88 -91 0
-396 -5 -10 -13 0
-396 -17 -22 -25 0
-396 -28 -33 -36 0
-396 -38 -43 -46 0
-396 -47 -52 -55 0
-396 -56 -67 -70 0
-396 -57 -73 -76 0
-396 -58 -78 -81 0
-396 -59 -82 -85 0
-396 -61 -86 -90 0
-396 -62 -87 -91 0
-397 -5 -11 -12 0
-397 -17 -23 -24 0
-397 -28 -34 -35 0
-397 -38 -44 -45 0
-397 -47 -53 -54 0
-397 -56 -68 -69 0
-397 -57 -74 -75 0
-397 -58 -79 -80 0
-397 -59 -83 -84 0
-397 -60 -86 -87 0
-397 -63 -90 -91 0
-398 -5 -11 -13 0
-398 -17 -23 -25 0
-398 -28 -34 -36 0
-398 -38 -44 -46 0
-398 -47 -53 -55 0
-398 -56 -68 -70 0
-398 -57 -74 -76 0
-398 -58 -79 -81 0
-398 -59 -83 -85 0
-398 -60 -86 -88 0
-398 -62 -89 -91 0
-399 -5 -12 -13 0
-399 -17 -24 -25 0
-399 -28 -35 -36 0
-399 -38 -45 -46 0
-399 -47 -54 -55 0
-399 -56 -69 -70 0
-399 -57 -75 -76 0
-399 -58 -80 -81 0
-399 -59 -84 -85 0
-399 -60 -87 -88 0
-399 -61 -89 -90 0
-400 -6 -7 -8 0
-400 -18 -19 -20 0
-400 -29 -30 -31 0
-400 -39 -40 -41 0
-400 -48 -49 -50 0
-400 -56 -57 -58 0
-400 -66 -72 -77 0
-400 -67 -73 -78 0
-400 -68 -74 -79 0
-400 -69 -75 -80 0
-400 -70 -76 -81 0
-401 -6 -7 -9 0
-401 -18 -19 -21 0
-401 -29 -30 -32 0
-401 -39 -40 -42 0
-401 -48 -49 -51 0
-401 -56 -57 -59 0
-401 -65 -71 -77 0
-401 -67 -73 -82 0
-401 -68 -74 -83 0
-401 -69 -75 -84 0
-401 -70 -76 -85 0
-402 -6 -7 -10 0
-402 -18 -19 -22 0
-402 -29 -30 -33 0
-402 -39 -40 -43 0
-402 -48 -49 -52 0
-402 -56 -57 -60 0
-402 -65 -71 -78 0
-402 -66 -72 -82 0
-402 -68 -74 -86 0
-402 -69 -75 -87 0
-402 -70 -76 -88 0
-403 -6 -7 -11 0
-403 -18 -19 -23 0
-403 -29 -30 -34 0
-403 -39 -40 -44 0
-403 -48 -49 -53 0
-403 -56 -57 -61 0
-403 -65 -71 -79 0
-403 -66 -72 -83 0
-403 -67 -73 -86 0
-403 -69 -75 -89 0
-403 -70 -76 -90 0
-404 -6 -7 -12 0
-404 -18 -19 -24 0
-404 -29 -30 -35 0
-404 -39 -40 -45 0
-404 -48 -49 -54 0
-404 -56 -57 -62 0
-404 -65 -71 -80 0
-404 -66 -72 -84 0
-404 -67 -73 -87 0
-404 -68 -74 -89 0
-404 -70 -76 -91 0
-405 -6 -7 -13 0
-405 -18 -19 -25 0
-405 -29 -30 -36 0
-405 -39 -40 -46 0
-405 -48 -49 -55 0
-405 -56 -57 -63 0
-405 -65 -71 -81 0
-405 -66 -72 -85 0
-405 -67 -73 -88 0
-405 -68 -74 -90 0
-405 -69 -75 -91 0
-406 -6 -8 -9 0
-406 -18 -20 -21 0
-406 -29 -31 -32 0
-406 -39 -41 -42 0
-406 -48 -50 -51 0
-406 -56 -58 -59 0
-406 -64 -71 -72 0
-406 -67 -78 -82 0
-406 -68 -79 -83 0
-406 -69 -80 -84 0
-406 -70 -81 -85 0
-407 -6 -8 -10 0
-407 -18 -20 -22 0
-407 -29 -31 -33 0
-407 -39 -41 -43 0
-407 -48 -50 -52 0
-407 -56 -58 -60 0
-407 -64 -71 -73 0
-407 -66 -77 -82 0
-407 -68 -79 -86 0
-407 -69 -80 -87 0
-407 -70 -81 -88 0
-408 -6 -8 -11 0
-408 -18 -20 -23 0
-408 -29 -31 -34 0
-408 -39 -41 -44 0
-408 -48 -50 -53 0
-408 -56 -58 -61 0
-408 -64 -71 -74 0
-408 -66 -77 -83 0
-408 -67 -78 -86 0
-408 -69 -80 -89 0
-408 -70 -81 -90 0
-409 -6 -8 -12 0
-409 -18 -20 -24 0
-409 -29 -31 -35 0
-409 -39 -41 -45 0
-409 -48 -50 -54 0
-409 -56 -58 -62 0
-409 -64 -71 -75 0
-409 -66 -77 -84 0
-409 -67 -78 -87 0
-409 -68 -79 -89 0
-409 -70 -81 -91 0
-410 -6 -8 -13 0
-410 -18 -20 -25 0
-410 -29 -31 -36 0
-410 -39 -41 -46 0
-410 -48 -50 -55 0
-410 -56 -58 -63 0
-410 -64 -71 -76 0
-410 -66 -77 -85 0
-410 -67 -78 -88 0
-410 -68 -79 -90 0
-410 -69 -80 -91 0
-411 -6 -9 -10 0
-411 -18 -21 -22 0
-411 -29 -32 -33 0
-411 -39 -42 -43 0
-411 -48 -51 -52 0
-411 -56 -59 -60 0
-411 -64 -72 -73 0
-411 -65 -77 -78 0
-411 -68 -83 -86 0
-411 -69 -84 -87 0
-411 -70 -85 -88 0
-412 -6 -9 -11 0
-412 -18 -21 -23 0
-412 -29 -32 -34 0
-412 -39 -42 -44 0
-412 -48 -51 -53 0
-412 -56 -59 -61 0
-412 -64 -72 -74 0
-412 -65 -77 -79 0
-412 -67 -82 -86 0
-412 -69 -84 -89 0
-412 -70 -85 -90 0
-413 -6 -9 -12 0
-413 -18 -21 -24 0
-413 -29 -32 -35 0
-413 -39 -42 -45 0
-413 -48 -51 -54 0
-413 -56 -59 -62 0
-413 -64 -72 -75 0
-413 -65 -77 -80 0
-413 -67 -82 -87 0
-413 -68 -83 -89 0
-413 -70 -85 -91 0
-414 -6 -9 -13 0
-414 -18 -21 -25 0
-414 -29 -32 -36 0
-414 -39 -42 -46 0
-414 -48 -51 -55 0
-414 -56 -59 -63 0
-414 -64 -72 -76 0
-414 -65 -77 -81 0
-414 -67 -82 -88 0
-414 -68 -83 -90 0
-414 -69 -84 -91 0
-415 -6 -10 -11 0
-415 -18 -22 -23 0
-415 -29 -33 -34 0
-415 -39 -43 -44 0
-415 -48 -52 -53 0
-415 -56 -60 -61 0
-415 -64 -73 -74 0
-415 -65 -78 -79 0
-415 -66 -82 -83 0
-415 -69 -87 -89 0
-415 -70 -88 -90 0
-416 -6 -10 -12 0
-416 -18 -22 -24 0
-416 -29 -33 -35 0
-416 -39 -43 -45 0
-416 -48 -52 -54 0
-416 -56 -60 -62 0
-416 -64 -73 -75 0
-416 -65 -78 -80 0
-416 -66 -82 -84 0
-416 -68 -86 -89 0
-416 -70 -88 -91 0
-417 -6 -10 -13 0
-417 -18 -22 -25 0
-417 -29 -33 -36 0
-417 -39 -43 -46 0
-417 -48 -52 -55 0
-417 -56 -60 -63 0
-417 -64 -73 -76 0
-417 -65 -78 -81 0
-417 -66 -82 -85 0
-417 -68 -86 -90 0
-417 -69 -87 -91 0
-418 -6 -11 -12 0
-418 -18 -23 -24 0
-418 -29 -34 -35 0
-418 -39 -44 -45 0
-418 -48 -53 -54 0
-418 -56 -61 -62 0
-418 -64 -74 -75 0
-418 -65 -79 -80 0
-418 -66 -83 -84 0
-418 -67 -86 -87 0
-418 -70 -90 -91 0
-419 -6 -11 -13 0
-419 -18 -23 -25 0
-419 -29 -34 -36 0
-419 -39 -44 -46 0
-419 -48 -53 -55 0
-419 -56 -61 -63 0
-419 -64 -74 -76 0
-419 -65 -79 -81 0
-419 -66 -83 -85 0
-419 -67 -86 -88 0
-419 -69 -89 -91 0
-420 -6 -12 -13 0
-420 -18 -24 -25 0
-420 -29 -35 -36 0
-420 -39 -45 -46 0
-420 -48 -54 -55 0
-420 -56 -62 -63 0
-420 -64 -75 -76 0
-420 -65 -80 -81 0
-420 -66 -84 -85 0
-420 -67 -87 -88 0
-420 -68 -89 -90 0
-421 -7 -8 -9 0
-421 -19 -20 -21 0
-421 -30 -31 -32 0
-421 -40 -41 -42 0
-421 -49 -50 -51 0
-421 -57 -58 -59 0
-421 -64 -65 -66 0
-421 -73 -78 -82 0
-421 -74 -79 -83 0
-421 -75 -80 -84 0
-421 -76 -81 -85 0
-422 -7 -8 -10 0
-422 -19 -20 -22 0
-422 -30 -31 -33 0
-422 -40 -41 -43 0
-422 -49 -50 -52 0
-422 -57 -58 -60 0
-422 -64 -65 -67 0
-422 -72 -77 -82 0
-422 -74 -79 -86 0
-422 -75 -80 -87 0
-422 -76 -81 -88 0
-423 -7 -8 -11 0
-423 -19 -20 -23 0
-423 -30 -31 -34 0
-423 -40 -41 -44 0
-423 -49 -50 -53 0
-423 -57 -58 -61 0
-423 -64 -65 -68 0
-423 -72 -77 -83 0
-423 -73 -78 -86 0
-423 -75 -80 -89 0
-423 -76 -81 -90 0
-424 -7 -8 -12 0
-424 -19 -20 -24 0
-424 -30 -31 -35 0
-424 -40 -41 -45 0
-424 -49 -50 -54 0
-424 -57 -58 -62 0
-424 -64 -65 -69 0
-424 -72 -77 -84 0
-424 -73 -78 -87 0
-424 -74 -79 -89 0
-424 -76 -81 -91 0
-425 -7 -8 -13 0
-425 -19 -20 -25 0
-425 -30 -31 -36 0
-425 -40 -41 -46 0
-425 -49 -50 -55 0
-425 -57 -58 -63 0
-425 -64 -65 -70 0
-425 -72 -77 -85 0
-425 -73 -78 -88 0
-425 -74 -79 -90 0
-425 -75 -80 -91 0
-426 -7 -9 -10 0
-426 -19 -21 -22 0
-426 -30 -32 -33 0
-426 -40 -42 -43 0
-426 -49 -51 -52 0
-426 -57 -59 -60 0
-426 -64 -66 -67 0
-426 -71 -77 -78 0
-426 -74 -83 -86 0
-426 -75 -84 -87 0
-426 -76 -85 -88 0
-427 -7 -9 -11 0
-427 -19 -21 -23 0
-427 -30 -32 -34 0
-427 -40 -42 -44 0
-427 -49 -51 -53 0
-427 -57 -59 -61 0
-427 -64 -66 -68 0
-427 -71 -77 -79 0
-427 -73 -82 -86 0
-427 -75 -84 -89 0
-427 -76 -85 -90 0
-428 -7 -9 -12 0
-428 -19 -21 -24 0
-428 -30 -32 -35 0
-428 -40 -42 -45 0
-428 -49 -51 -54 0
-428 -57 -59 -62 0
-428 -64 -66 -69 0
-428 -71 -77 -80 0
-428 -73 -82 -87 0
-428 -74 -83 -89 0
-428 -76 -85 -91 0
-429 -7 -9 -13 0
-429 -19 -21 -25 0
-429 -30 -32 -36 0
-429 -40 -42 -46 0
-429 -49 -51 -55 0
-429 -57 -59 -63 0
-429 -64 -66 -70 0
-429 -71 -77 -81 0
-429 -73 -82 -88 0
-429 -74 -83 -90 0
-429 -75 -84 -91 0
-430 -7 -10 -11 0
-430 -19 -22 -23 0
-430 -30 -33 -34 0
-430 -40 -43 -44 0
-430 -49 -52 -53 0
-430 -57 -60 -61 0
-430 -64 -67 -68 0
-430 -71 -78 -79 0
-430 -72 -82 -83 0
-430 -75 -87 -89 0
-430 -76 -88 -90 0
-431 -7 -10 -12 0
-431 -19 -22 -24 0
-431 -30 -33 -35 0
-431 -40 -43 -45 0
-431 -49 -52 -54 0
-431 -57 -60 -62 0
-431 -64 -67 -69 0
-431 -71 -78 -80 0
-431 -72 -82 -84 0
-431 -74 -86 -89 0
-431 -76 -88 -91 0
-432 -7 -10 -13 0
-432 -19 -22 -25 0
-432 -30 -33 -36 0
-432 -40 -43 -46 0
-432 -49 -52 -55 0
-432 -57 -60 -63 0
-432 -64 -67 -70 0
-432 -71 -78 -81 0
-432 -72 -82 -85 0
-432 -74 -86 -90 0
-432 -75 -87 -91 0
-433 -7 -11 -12 0
-433 -19 -23 -24 0
-433 -30 -34 -35 0
-433 -40 -44 -45 0
-433 -49 -53 -54 0
-433 -57 -61 -62 0
-433 -64 -68 -69 0
-433 -71 -79 -80 0
-433 -72 -83 -84 0
-433 -73 -86 -87 0
-433 -76 -90 -91 0
-434 -7 -11 -13 0
-434 -19 -23 -25 0
-434 -30 -34 -36 0
-434 -40 -44 -46 0
-434 -49 -53 -55 0
-434 -57 -61 -63 0
-434 -64 -68 -70 0
-434 -71 -79 -81 0
-434 -72 -83 -85 0
-434 -73 -86 -88 0
-434 -75 -89 -91 0
-435 -7 -12 -13 0
-435 -19 -24 -25 0
-435 -30 -35 -36 0
-435 -40 -45 -46 0
-435 -49 -54 -55 0
-435 -57 -62 -63 0
-435 -64 -69 -70 0
-435 -71 -80 -81 0
-435 -72 -84 -85 0
-435 -73 -87 -88 0
-435 -74 -89 -90 0
-436 -8 -9 -10 0
-436 -20 -21 -22 0
-436 -31 -32 -33 0
-436 -41 -42 -43 0
-436 -50 -51 -52 0
-436 -58 -59 -60 0
-436 -65 -66 -67 0
-436 -71 -72 -73 0
-436 -79 -83 -86 0
-436 -80 -84 -87 0
-436 -81 -85 -88 0
-437 -8 -9 -11 0
-437 -20 -21 -23 0
-437 -31 -32 -34 0
-437 -41 -42 -44 0
-437 -50 -51 -53 0
-437 -58 -59 -61 0
-437 -65 -66 -68 0
-437 -71 -72 -74 0
-437 -78 -82 -86 0
-437 -80 -84 -89 0
-437 -81 -85 -90 0
-438 -8 -9 -12 0
-438 -20 -21 -24 0
-438 -31 -32 -35 0
-438 -41 -42 -45 0
-438 -50 -51 -54 0
-438 -58 -59 -62 0
-438 -65 -66 -69 0
-438 -71 -72 -75 0
-438 -78 -82 -87 0
-438 -79 -83 -89 0
-438 -81 -85 -91 0
-439 -8 -9 -13 0
-439 -20 -21 -25 0
-439 -31 -32 -36 0
-439 -41 -42 -46 0
-439 -50 -51 -55 0
-439 -58 -59 -63 0
-439 -65 -66 -70 0
-439 -71 -72 -76 0
-439 -78 -82 -88 0
-439 -79 -83 -90 0
-439 -80 -84 -91 0
-440 -8 -10 -11 0
-440 -20 -22 -23 0
-440 -31 -33 -34 0
-440 -41 -43 -44 0
-440 -50 -52 -53 0
-440 -58 -60 -61 0
-440 -65 -67 -68 0
-440 -71 -73 -74 0
-440 -77 -82 -83 0
-440 -80 -87 -89 0
-440 -81 -88 -90 0
-441 -8 -10 -12 0
-441 -20 -22 -24 0
-441 -31 -33 -35 0
-441 -41 -43 -45 0
-441 -50 -52 -54 0
-441 -58 -60 -62 0
-441 -65 -67 -69 0
-441 -71 -73 -75 0
-441 -77 -82 -84 0
-441 -79 -86 -89 0
-441 -81 -88 -91 0
-442 -8 -10 -13 0
-442 -20 -22 -25 0
-442 -31 -33 -36 0
-442 -41 -43 -46 0
-442 -50 -52 -55 0
-442 -58 -60 -63 0
-442 -65 -67 -70 0
-442 -71 -73 -76 0
-442 -77 -82 -85 0
-442 -79 -86 -90 0
-442 -80 -87 -91 0
-443 -8 -11 -12 0
-443 -20 -23 -24 0
-443 -31 -34 -35 0
-443 -41 -44 -45 0
-443 -50 -53 -54 0
-443 -58 -61 -62 0
-443 -65 -68 -69 0
-443 -71 -74 -75 0
-443 -77 -83 -84 0
-443 -78 -86 -87 0
-443 -81 -90 -91 0
-444 -8 -11 -13 0
-444 -20 -23 -25 0
-444 -31 -34 -36 0
-444 -41 -44 -46 0
-444 -50 -53 -55 0
-444 -58 -61 -63 0
-444 -65 -68 -70 0
-444 -71 -74 -76 0
-444 -77 -83 -85 0
-444 -78 -86 -88 0
-444 -80 -89 -91 0
-445 -8 -12 -13 0
-445 -20 -24 -25 0
-445 -31 -35 -36 0
-445 -41 -45 -46 0
-445 -50 -54 -55 0
-445 -58 -62 -63 0
-445 -65 -69 -70 0
-445 -71 -75 -76 0
-445 -77 -84 -85 0
-445 -78 -87 -88 0
-445 -79 -89 -90 0
-446 -9 -10 -11 0
-446 -21 -22 -23 0
-446 -32 -33 -34 0
-446 -42 -43 -44 0
-446 -51 -52 -53 0
-446 -59 -60 -61 0
-446 -66 -67 -68 0
-446 -72 -73 -74 0
-446 -77 -78 -79 0
-446 -84 -87 -89 0
-446 -85 -88 -90 0
-447 -9 -10 -12 0
-447 -21 -22 -24 0
-447 -32 -33 -35 0
-447 -42 -43 -45 0
-447 -51 -52 -54 0
-447 -59 -60 -62 0
-447 -66 -67 -69 0
-447 -72 -73 -75 0
-447 -77 -78 -80 0
-447 -83 -86 -89 0
-447 -85 -88 -91 0
-448 -9 -10 -13 0
-448 -21 -22 -25 0
-448 -32 -33 -36 0
-448 -42 -43 -46 0
-448 -51 -52 -55 0
-448 -59 -60 -63 0
-448 -66 -67 -70 0
-448 -72 -73 -76 0
-448 -77 -78 -81 0
-448 -83 -86 -90 0
-448 -84 -87 -91 0
-449 -9 -11 -12 0
-449 -21 -23 -24 0
-449 -32 -34 -35 0
-449 -42 -44 -45 0
-449 -51 -53 -54 0
-449 -59 -61 -62 0
-449 -66 -68 -69 0
-449 -72 -74 -75 0
-449 -77 -79 -80 0
-449 -82 -86 -87 0
-449 -85 -90 -91 0
-450 -9 -11 -13 0
-450 -21 -23 -25 0
-450 -32 -34 -36 0
-450 -42 -44 -46 0
-450 -51 -53 -55 0
-450 -59 -61 -63 0
-450 -66 -68 -70 0
-450 -72 -74 -76 0
-450 -77 -79 -81 0
-450 -82 -86 -88 0
-450 -84 -89 -91 0
-451 -9 -12 -13 0
-451 -21 -24 -25 0
-451 -32 -35 -36 0
-451 -42 -45 -46 0
-451 -51 -54 -55 0
-451 -59 -62 -63 0
-451 -66 -69 -70 0
-451 -72 -75 -76 0
-451 -77 -80 -81 0
-451 -82 -87 -88 0
-451 -83 -89 -90 0
-452 -10 -11 -12 0
-452 -22 -23 -24 0
-452 -33 -34 -35 0
-452 -43 -44 -45 0
-452 -52 -53 -54 0
-452 -60 -61 -62 0
-452 -67 -68 -69 0
-452 -73 -74 -75 0
-452 -78 -79 -80 0
-452 -82 -83 -84 0
-452 -88 -90 -91 0
-453 -10 -11 -13 0
-453 -22 -23 -25 0
-453 -33 -34 -36 0
-453 -43 -44 -46 0
-453 -52 -53 -55 0
-453 -60 -61 -63 0
-453 -67 -68 -70 0
-453 -73 -74 -76 0
-453 -78 -79 -81 0
-453 -82 -83 -85 0
-453 -87 -89 -91 0
-454 -10 -12 -13 0
-454 -22 -24 -25 0
-454 -33 -35 -36 0
-454 -43 -45 -46 0
-454 -52 -54 -55 0
-454 -60 -62 -63 0
-454 -67 -69 -70 0
-454 -73 -75 -76 0
-454 -78 -80 -81 0
-454 -82 -84 -85 0
-454 -86 -89 -90 0
-455 -11 -12 -13 0
-455 -23 -24 -25 0
-455 -34 -35 -36 0
-455 -44 -45 -46 0
-455 -53 -54 -55 0
-455 -61 -62 -63 0
-455 -68 -69 -70 0
-455 -74 -75 -76 0
-455 -79 -80 -81 0
-455 -83 -84 -85 0
-455 -86 -87 -88 0
-456 -3 0
-456 170 0
-457 -15 0
-457 104 0
-458 -26 0
-458 93 0
-92 456 457 458 0
-459 -4 0
-459 171 0
-460 -16 0
-460 105 0
-461 -27 0
-461 94 0
-92 459 460 461 0
-462 -5 0
-462 172 0
-463 -17 0
-463 106 0
-464 -28 0
-464 95 0
-92 462 463 464 0
-465 -6 0
-465 173 0
-466 -18 0
-466 107 0
-467 -29 0
-467 96 0
-92 465 466 467 0
-468 -7 0
-468 174 0
-469 -19 0
-469 108 0
-470 -30 0
-470 97 0
-92 468 469 470 0
-471 -8 0
-471 175 0
-472 -20 0
-472 109 0
-473 -31 0
-473 98 0
-92 471 472 473 0
-474 -9 0
-474 176 0
-475 -21 0
-475 110 0
-476 -32 0
-476 99 0
-92 474 475 476 0
-477 -10 0
-477 177 0
-478 -22 0
-478 111 0
-479 -33 0
-479 100 0
-92 477 478 479 0
-480 -11 0
-480 178 0
-481 -23 0
-481 112 0
-482 -34 0
-482 101 0
-92 480 481 482 0
-483 -12 0
-483 179 0
-484 -24 0
-484 113 0
-485 -35 0
-485 102 0
-92 483 484 485 0
-486 -13 0
-486 180 0
-487 -25 0
-487 114 0
-488 -36 0
-488 103 0
-92 486 487 488 0
-489 -2 0
-489 170 0
-490 -14 0
-490 104 0
-491 -26 0
-491 92 0
-93 489 490 491 0
-492 -4 0
-492 181 0
-493 -16 0
-493 115 0
-494 -37 0
-494 94 0
-93 492 493 494 0
-495 -5 0
-495 182 0
-496 -17 0
-496 116 0
-497 -38 0
-497 95 0
-93 495 496 497 0
-498 -6 0
-498 183 0
-499 -18 0
-499 117 0
-500 -39 0
-500 96 0
-93 498 499 500 0
-501 -7 0
-501 184 0
-502 -19 0
-502 118 0
-503 -40 0
-503 97 0
-93 501 502 503 0
-504 -8 0
-504 185 0
-505 -20 0
-505 119 0
-506 -41 0
-506 98 0
-93 504 505 506 0
-507 -9 0
-507 186 0
-508 -21 0
-508 120 0
-509 -42 0
-509 99 0
-93 507 508 509 0
-510 -10 0
-510 187 0
-511 -22 0
-511 121 0
-512 -43 0
-512 100 0
-93 510 511 512 0
-513 -11 0
-513 188 0
-514 -23 0
-514 122 0
-515 -44 0
-515 101 0
-93 513 514 515 0
-516 -12 0
-516 189 0
-517 -24 0
-517 123 0
-518 -45 0
-518 102 0
-93 516 517 518 0
-519 -13 0
-519 190 0
-520 -25 0
-520 124 0
-521 -46 0
-521 103 0
-93 519 520 521 0
-522 -2 0
-522 171 0
-523 -14 0
-523 105 0
-524 -27 0
-524 92 0
-94 522 523 524 0
-525 -3 0
-525 181 0
-526 -15 0
-526 115 0
-527 -37 0
-527 93 0
-94 525 526 527 0
-528 -5 0
-528 191 0
-529 -17 0
-529 125 0
-530 -47 0
-530 95 0
-94 528 529 530 0
-531 -6 0
-531 192 0
-532 -18 0
-532 126 0
-533 -48 0
-533 96 0
-94 531 532 533 0
-534 -7 0
-534 193 0
-535 -19 0
-535 127 0
-536 -49 0
-536 97 0
-94 534 535 536 0
-537 -8 0
-537 194 0
-538 -20 0
-538 128 0
-539 -50 0
-539 98 0
-94 537 538 539 0
-540 -9 0
-540 195 0
-541 -21 0
-541 129 0
-542 -51 0
-542 99 0
-94 540 541 542 0
-543 -10 0
-543 196 0
-544 -22 0
-544 130 0
-545 -52 0
-545 100 0
-94 543 544 545 0
-546 -11 0
-546 197 0
-547 -23 0
-547 131 0
-548 -53 0
-548 101 0
-94 546 547 548 0
-549 -12 0
-549 198 0
-550 -24 0
-550 132 0
-551 -54 0
-551 102 0
-94 549 550 551 0
-552 -13 0
-552 199 0
-553 -25 0
-553 133 0
-554 -55 0
-554 103 0
-94 552 553 554 0
-555 -2 0
-555 172 0
-556 -14 0
-556 106 0
-557 -28 0
-557 92 0
-95 555 556 557 0
-558 -3 0
-558 182 0
-559 -15 0
-559 116 0
-560 -38 0
-560 93 0
-95 558 559 560 0
-561 -4 0
-561 191 0
-562 -16 0
-562 125 0
-563 -47 0
-563 94 0
-95 561 562 563 0
-564 -6 0
-564 200 0
-565 -18 0
-565 134 0
-566 -56 0
-566 96 0
-95 564 565 566 0
-567 -7 0
-567 201 0
-568 -19 0
-568 135 0
-569 -57 0
-569 97 0
-95 567 568 569 0
-570 -8 0
-570 202 0
-571 -20 0
-571 136 0
-572 -58 0
-572 98 0
-95 570 571 572 0
-573 -9 0
-573 203 0
-574 -21 0
-574 137 0
-575 -59 0
-575 99 0
-95 573 574 575 0
-576 -10 0
-576 204 0
-577 -22 0
-577 138 0
-578 -60 0
-578 100 0
-95 576 577 578 0
-579 -11 0
-579 205 0
-580 -23 0
-580 139 0
-581 -61 0
-581 101 0
-95 579 580 581 0
-582 -12 0
-582 206 0
-583 -24 0
-583 140 0
-584 -62 0
-584 102 0
-95 582 583 584 0
-585 -13 0
-585 207 0
-586 -25 0
-586 141 0
-587 -63 0
-587 103 0
-95 585 586 587 0
-588 -2 0
-588 173 0
-589 -14 0
-589 107 0
-590 -29 0
-590 92 0
-96 588 589 590 0
-591 -3 0
-591 183 0
-592 -15 0
-592 117 0
-593 -39 0
-593 93 0
-96 591 592 593 0
-594 -4 0
-594 192 0
-595 -16 0
-595 126 0
-596 -48 0
-596 94 0
-96 594 595 596 0
-597 -5 0
-597 200 0
-598 -17 0
-598 134 0
-599 -56 0
-599 95 0
-96 597 598 599 0
-600 -7 0
-600 208 0
-601 -19 0
-601 142 0
-602 -64 0
-602 97 0
-96 600 601 602 0
-603 -8 0
-603 209 0
-604 -20 0
-604 143 0
-605 -65 0
-605 98 0
-96 603 604 605 0
-606 -9 0
-606 210 0
-607 -21 0
-607 144 0
-608 -66 0
-608 99 0
-96 606 607 608 0
-609 -10 0
-609 211 0
-610 -22 0
-610 145 0
-611 -67 0
-611 100 0
-96 609 610 611 0
-612 -11 0
-612 212 0
-613 -23 0
-613 146 0
-614 -68 0
-614 101 0
-96 612 613 614 0
-615 -12 0
-615 213 0
-616 -24 0
-616 147 0
-617 -69 0
-617 102 0
-96 615 616 617 0
-618 -13 0
-618 214 0
-619 -25 0
-619 148 0
-620 -70 0
-620 103 0
-96 618 619 620 0
-621 -2 0
-621 174 0
-622 -14 0
-622 108 0
-623 -30 0
-623 92 0
-97 621 622 623 0
-624 -3 0
-624 184 0
-625 -15 0
-625 118 0
-626 -40 0
-626 93 0
-97 624 625 626 0
-627 -4 0
-627 193 0
-628 -16 0
-628 127 0
-629 -49 0
-629 94 0
-97 627 628 629 0
-630 -5 0
-630 201 0
-631 -17 0
-631 135 0
-632 -57 0
-632 95 0
-97 630 631 632 0
-633 -6 0
-633 208 0
-634 -18 0
-634 142 0
-635 -64 0
-635 96 0
-97 633 634 635 0
-636 -8 0
-636 215 0
-637 -20 0
-637 149 0
-638 -71 0
-638 98 0
-97 636 637 638 0
-639 -9 0
-639 216 0
-640 -21 0
-640 150 0
-641 -72 0
-641 99 0
-97 639 640 641 0
-642 -10 0
-642 217 0
-643 -22 0
-643 151 0
-644 -73 0
-644 100 0
-97 642 643 644 0
-645 -11 0
-645 218 0
-646 -23 0
-646 152 0
-647 -74 0
-647 101 0
-97 645 646 647 0
-648 -12 0
-648 219 0
-649 -24 0
-649 153 0
-650 -75 0
-650 102 0
-97 648 649 650 0
-651 -13 0
-651 220 0
-652 -25 0
-652 154 0
-653 -76 0
-653 103 0
-97 651 652 653 0
-654 -2 0
-654 175 0
-655 -14 0
-655 109 0
-656 -31 0
-656 92 0
-98 654 655 656 0
-657 -3 0
-657 185 0
-658 -15 0
-658 119 0
-659 -41 0
-659 93 0
-98 657 658 659 0
-660 -4 0
-660 194 0
-661 -16 0
-661 128 0
-662 -50 0
-662 94 0
-98 660 661 662 0
-663 -5 0
-663 202 0
-664 -17 0
-664 136 0
-665 -58 0
-665 95 0
-98 663 664 665 0
-666 -6 0
-666 209 0
-667 -18 0
-667 143 0
-668 -65 0
-668 96 0
-98 666 667 668 0
-669 -7 0
-669 215 0
-670 -19 0
-670 149 0
-671 -71 0
-671 97 0
-98 669 670 671 0
-672 -9 0
-672 221 0
-673 -21 0
-673 155 0
-674 -77 0
-674 99 0
-98 672 673 674 0
-675 -10 0
-675 222 0
-676 -22 0
-676 156 0
-677 -78 0
-677 100 0
-98 675 676 677 0
-678 -11 0
-678 223 0
-679 -23 0
-679 157 0
-680 -79 0
-680 101 0
-98 678 679 680 0
-681 -12 0
-681 224 0
-682 -24 0
-682 158 0
-683 -80 0
-683 102 0
-98 681 682 683 0
-684 -13 0
-684 225 0
-685 -25 0
-685 159 0
-686 -81 0
-686 103 0
-98 684 685 686 0
-687 -2 0
-687 176 0
-688 -14 0
-688 110 0
-689 -32 0
-689 92 0
-99 687 688 689 0
-690 -3 0
-690 186 0
-691 -15 0
-691 120 0
-692 -42 0
-692 93 0
-99 690 691 692 0
-693 -4 0
-693 195 0
-694 -16 0
-694 129 0
-695 -51 0
-695 94 0
-99 693 694 695 0
-696 -5 0
-696 203 0
-697 -17 0
-697 137 0
-698 -59 0
-698 95 0
-99 696 697 698 0
-699 -6 0
-699 210 0
-700 -18 0
-700 144 0
-701 -66 0
-701 96 0
-99 699 700 701 0
-702 -7 0
-702 216 0
-703 -19 0
-703 150 0
-704 -72 0
-704 97 0
-99 702 703 704 0
-705 -8 0
-705 221 0
-706 -20 0
-706 155 0
-707 -77 0
-707 98 0
-99 705 706 707 0
-708 -10 0
-708 226 0
-709 -22 0
-709 160 0
-710 -82 0
-710 100 0
-99 708 709 710 0
-711 -11 0
-711 227 0
-712 -23 0
-712 161 0
-713 -83 0
-713 101 0
-99 711 712 713 0
-714 -12 0
-714 228 0
-715 -24 0
-715 162 0
-716 -84 0
-716 102 0
-99 714 715 716 0
-717 -13 0
-717 229 0
-718 -25 0
-718 163 0
-719 -85 0
-719 103 0
-99 717 718 719 0
-720 -2 0
-720 177 0
-721 -14 0
-721 111 0
-722 -33 0
-722 92 0
-100 720 721 722 0
-723 -3 0
-723 187 0
-724 -15 0
-724 121 0
-725 -43 0
-725 93 0
-100 723 724 725 0
-726 -4 0
-726 196 0
-727 -16 0
-727 130 0
-728 -52 0
-728 94 0
-100 726 727 728 0
-729 -5 0
-729 204 0
-730 -17 0
-730 138 0
-731 -60 0
-731 95 0
-100 729 730 731 0
-732 -6 0
-732 211 0
-733 -18 0
-733 145 0
-734 -67 0
-734 96 0
-100 732 733 734 0
-735 -7 0
-735 217 0
-736 -19 0
-736 151 0
-737 -73 0
-737 97 0
-100 735 736 737 0
-738 -8 0
-738 222 0
-739 -20 0
-739 156 0
-740 -78 0
-740 98 0
-100 738 739 740 0
-741 -9 0
-741 226 0
-742 -21 0
-742 160 0
-743 -82 0
-743 99 0
-100 741 742 743 0
-744 -11 0
-744 230 0
-745 -23 0
-745 164 0
-746 -86 0
-746 101 0
-100 744 745 746 0
-747 -12 0
-747 231 0
-748 -24 0
-748 165 0
-749 -87 0
-749 102 0
-100 747 748 749 0
-750 -13 0
-750 232 0
-751 -25 0
-751 166 0
-752 -88 0
-752 103 0
-100 750 751 752 0
-753 -2 0
-753 178 0
-754 -14 0
-754 112 0
-755 -34 0
-755 92 0
-101 753 754 755 0
-756 -3 0
-756 188 0
-757 -15 0
-757 122 0
-758 -44 0
-758 93 0
-101 756 757 758 0
-759 -4 0
-759 197 0
-760 -16 0
-760 131 0
-761 -53 0
-761 94 0
-101 759 760 761 0
-762 -5 0
-762 205 0
-763 -17 0
-763 139 0
-764 -61 0
-764 95 0
-101 762 763 764 0
-765 -6 0
-765 212 0
-766 -18 0
-766 146 0
-767 -68 0
-767 96 0
-101 765 766 767 0
-768 -7 0
-768 218 0
-769 -19 0
-769 152 0
-770 -74 0
-770 97 0
-101 768 769 770 0
-771 -8 0
-771 223 0
-772 -20 0
-772 157 0
-773 -79 0
-773 98 0
-101 771 772 773 0
-774 -9 0
-774 227 0
-775 -21 0
-775 161 0
-776 -83 0
-776 99 0
-101 774 775 776 0
-777 -10 0
-777 230 0
-778 -22 0
-778 164 0
-779 -86 0
-779 100 0
-101 777 778 779 0
-780 -12 0
-780 233 0
-781 -24 0
-781 167 0
-782 -89 0
-782 102 0
-101 780 781 782 0
-783 -13 0
-783 234 0
-784 -25 0
-784 168 0
-785 -90 0
-785 103 0
-101 783 784 785 0
-786 -2 0
-786 179 0
-787 -14 0
-787 113 0
-788 -35 0
-788 92 0
-102 786 787 788 0
-789 -3 0
-789 189 0
-790 -15 0
-790 123 0
-791 -45 0
-791 93 0
-102 789 790 791 0
-792 -4 0
-792 198 0
-793 -16 0
-793 132 0
-794 -54 0
-794 94 0
-102 792 793 794 0
-795 -5 0
-795 206 0
-796 -17 0
-796 140 0
-797 -62 0
-797 95 0
-102 795 796 797 0
-798 -6 0
-798 213 0
-799 -18 0
-799 147 0
-800 -69 0
-800 96 0
-102 798 799 800 0
-801 -7 0
-801 219 0
-802 -19 0
-802 153 0
-803 -75 0
-803 97 0
-102 801 802 803 0
-804 -8 0
-804 224 0
-805 -20 0
-805 158 0
-806 -80 0
-806 98 0
-102 804 805 806 0
-807 -9 0
-807 228 0
-808 -21 0
-808 162 0
-809 -84 0
-809 99 0
-102 807 808 809 0
-810 -10 0
-810 231 0
-811 -22 0
-811 165 0
-812 -87 0
-812 100 0
-102 810 811 812 0
-813 -11 0
-813 233 0
-814 -23 0
-814 167 0
-815 -89 0
-815 101 0
-102 813 814 815 0
-816 -13 0
-816 235 0
-817 -25 0
-817 169 0
-818 -91 0
-818 103 0
-102 816 817 818 0
-819 -2 0
-819 180 0
-820 -14 0
-820 114 0
-821 -36 0
-821 92 0
-103 819 820 821 0
-822 -3 0
-822 190 0
-823 -15 0
-823 124 0
-824 -46 0
-824 93 0
-103 822 823 824 0
-825 -4 0
-825 199 0
-826 -16 0
-826 133 0
-827 -55 0
-827 94 0
-103 825 826 827 0
-828 -5 0
-828 207 0
-829 -17 0
-829 141 0
-830 -63 0
-830 95 0
-103 828 829 830 0
-831 -6 0
-831 214 0
-832 -18 0
-832 148 0
-833 -70 0
-833 96 0
-103 831 832 833 0
-834 -7 0
-834 220 0
-835 -19 0
-835 154 0
-836 -76 0
-836 97 0
-103 834 835 836 0
-837 -8 0
-837 225 0
-838 -20 0
-838 159 0
-839 -81 0
-839 98 0
-103 837 838 839 0
-840 -9 0
-840 229 0
-841 -21 0
-841 163 0
-842 -85 0
-842 99 0
-103 840 841 842 0
-843 -10 0
-843 232 0
-844 -22 0
-844 166 0
-845 -88 0
-845 100 0
-103 843 844 845 0
-846 -11 0
-846 234 0
-847 -23 0
-847 168 0
-848 -90 0
-848 101 0
-103 846 847 848 0
-849 -12 0
-849 235 0
-850 -24 0
-850 169 0
-851 -91 0
-851 102 0
-103 849 850 851 0
-852 -1 0
-852 170 0
-853 -14 0
-853 93 0
-854 -15 0
-854 92 0
-104 852 853 854 0
-855 -4 0
-855 236 0
-856 -27 0
-856 115 0
-857 -37 0
-857 105 0
-104 855 856 857 0
-858 -5 0
-858 237 0
-859 -28 0
-859 116 0
-860 -38 0
-860 106 0
-104 858 859 860 0
-861 -6 0
-861 238 0
-862 -29 0
-862 117 0
-863 -39 0
-863 107 0
-104 861 862 863 0
-864 -7 0
-864 239 0
-865 -30 0
-865 118 0
-866 -40 0
-866 108 0
-104 864 865 866 0
-867 -8 0
-867 240 0
-868 -31 0
-868 119 0
-869 -41 0
-869 109 0
-104 867 868 869 0
-870 -9 0
-870 241 0
-871 -32 0
-871 120 0
-872 -42 0
-872 110 0
-104 870 871 872 0
-873 -10 0
-873 242 0
-874 -33 0
-874 121 0
-875 -43 0
-875 111 0
-104 873 874 875 0
-876 -11 0
-876 243 0
-877 -34 0
-877 122 0
-878 -44 0
-878 112 0
-104 876 877 878 0
-879 -12 0
-879 244 0
-880 -35 0
-880 123 0
-881 -45 0
-881 113 0
-104 879 880 881 0
-882 -13 0
-882 245 0
-883 -36 0
-883 124 0
-884 -46 0
-884 114 0
-104 882 883 884 0
-885 -1 0
-885 171 0
-886 -14 0
-886 94 0
-887 -16 0
-887 92 0
-105 885 886 887 0
-888 -3 0
-888 236 0
-889 -26 0
-889 115 0
-890 -37 0
-890 104 0
-105 888 889 890 0
-891 -5 0
-891 246 0
-892 -28 0
-892 125 0
-893 -47 0
-893 106 0
-105 891 892 893 0
-894 -6 0
-894 247 0
-895 -29 0
-895 126 0
-896 -48 0
-896 107 0
-105 894 895 896 0
-897 -7 0
-897 248 0
-898 -30 0
-898 127 0
-899 -49 0
-899 108 0
-105 897 898 899 0
-900 -8 0
-900 249 0
-901 -31 0
-901 128 0
-902 -50 0
-902 109 0
-105 900 901 902 0
-903 -9 0
-903 250 0
-904 -32 0
-904 129 0
-905 -51 0
-905 110 0
-105 903 904 905 0
-906 -10 0
-906 251 0
-907 -33 0
-907 130 0
-908 -52 0
-908 111 0
-105 906 907 908 0
-909 -11 0
-909 252 0
-910 -34 0
-910 131 0
-911 -53 0
-911 112 0
-105 909 910 911 0
-912 -12 0
-912 253 0
-913 -35 0
-913 132 0
-914 -54 0
-914 113 0
-105 912 913 914 0
-915 -13 0
-915 254 0
-916 -36 0
-916 133 0
-917 -55 0
-917 114 0
-105 915 916 917 0
-918 -1 0
-918 172 0
-919 -14 0
-919 95 0
-920 -17 0
-920 92 0
-106 918 919 920 0
-921 -3 0
-921 237 0
-922 -26 0
-922 116 0
-923 -38 0
-923 104 0
-106 921 922 923 0
-924 -4 0
-924 246 0
-925 -27 0
-925 125 0
-926 -47 0
-926 105 0
-106 924 925 926 0
-927 -6 0
-927 255 0
-928 -29 0
-928 134 0
-929 -56 0
-929 107 0
-106 927 928 929 0
-930 -7 0
-930 256 0
-931 -30 0
-931 135 0
-932 -57 0
-932 108 0
-106 930 931 932 0
-933 -8 0
-933 257 0
-934 -31 0
-934 136 0
-935 -58 0
-935 109 0
-106 933 934 935 0
-936 -9 0
-936 258 0
-937 -32 0
-937 137 0
-938 -59 0
-938 110 0
-106 936 937 938 0
-939 -10 0
-939 259 0
-940 -33 0
-940 138 0
-941 -60 0
-941 111 0
-106 939 940 941 0
-942 -11 0
-942 260 0
-943 -34 0
-943 139 0
-944 -61 0
-944 112 0
-106 942 943 944 0
-945 -12 0
-945 261 0
-946 -35 0
-946 140 0
-947 -62 0
-947 113 0
-106 945 946 947 0
-948 -13 0
-948 262 0
-949 -36 0
-949 141 0
-950 -63 0
-950 114 0
-106 948 949 950 0
-951 -1 0
-951 173 0
-952 -14 0
-952 96 0
-953 -18 0
-953 92 0
-107 951 952 953 0
-954 -3 0
-954 238 0
-955 -26 0
-955 117 0
-956 -39 0
-956 104 0
-107 954 955 956 0
-957 -4 0
-957 247 0
-958 -27 0
-958 126 0
-959 -48 0
-959 105 0
-107 957 958 959 0
-960 -5 0
-960 255 0
-961 -28 0
-961 134 0
-962 -56 0
-962 106 0
-107 960 961 962 0
-963 -7 0
-963 263 0
-964 -30 0
-964 142 0
-965 -64 0
-965 108 0
-107 963 964 965 0
-966 -8 0
-966 264 0
-967 -31 0
-967 143 0
-968 -65 0
-968 109 0
-107 966 967 968 0
-969 -9 0
-969 265 0
-970 -32 0
-970 144 0
-971 -66 0
-971 110 0
-107 969 970 971 0
-972 -10 0
-972 266 0
-973 -33 0
-973 145 0
-974 -67 0
-974 111 0
-107 972 973 974 0
-975 -11 0
-975 267 0
-976 -34 0
-976 146 0
-977 -68 0
-977 112 0
-107 975 976 977 0
-978 -12 0
-978 268 0
-979 -35 0
-979 147 0
-980 -69 0
-980 113 0
-107 978 979 980 0
-981 -13 0
-981 269 0
-982 -36 0
-982 148 0
-983 -70 0
-983 114 0
-107 981 982 983 0
-984 -1 0
-984 174 0
-985 -14 0
-985 97 0
-986 -19 0
-986 92 0
-108 984 985 986 0
-987 -3 0
-987 239 0
-988 -26 0
-988 118 0
-989 -40 0
-989 104 0
-108 987 988 989 0
-990 -4 0
-990 248 0
-991 -27 0
-991 127 0
-992 -49 0
-992 105 0
-108 990 991 992 0
-993 -5 0
-993 256 0
-994 -28 0
-994 135 0
-995 -57 0
-995 106 0
-108 993 994 995 0
-996 -6 0
-996 263 0
-997 -29 0
-997 142 0
-998 -64 0
-998 107 0
-108 996 997 998 0
-999 -8 0
-999 270 0
-1000 -31 0
-1000 149 0
-1001 -71 0
-1001 109 0
-108 999 1000 1001 0
-1002 -9 0
-1002 271 0
-1003 -32 0
-1003 150 0
-1004 -72 0
-1004 110 0
-108 1002 1003 1004 0
-1005 -10 0
-1005 272 0
-1006 -33 0
-1006 151 0
-1007 -73 0
-1007 111 0
-108 1005 1006 1007 0
-1008 -11 0
-1008 273 0
-1009 -34 0
-1009 152 0
-1010 -74 0
-1010 112 0
-108 1008 1009 1010 0
-1011 -12 0
-1011 274 0
-1012 -35 0
-1012 153 0
-1013 -75 0
-1013 113 0
-108 1011 1012 1013 0
-1014 -13 0
-1014 275 0
-1015 -36 0
-1015 154 0
-1016 -76 0
-1016 114 0
-108 1014 1015 1016 0
-1017 -1 0
-1017 175 0
-1018 -14 0
-1018 98 0
-1019 -20 0
-1019 92 0
-109 1017 1018 1019 0
-1020 -3 0
-1020 240 0
-1021 -26 0
-1021 119 0
-1022 -41 0
-1022 104 0
-109 1020 1021 1022 0
-1023 -4 0
-1023 249 0
-1024 -27 0
-1024 128 0
-1025 -50 0
-1025 105 0
-109 1023 1024 1025 0
-1026 -5 0
-1026 257 0
-1027 -28 0
-1027 136 0
-1028 -58 0
-1028 106 0
-109 1026 1027 1028 0
-1029 -6 0
-1029 264 0
-1030 -29 0
-1030 143 0
-1031 -65 0
-1031 107 0
-109 1029 1030 1031 0
-1032 -7 0
-1032 270 0
-1033 -30 0
-1033 149 0
-1034 -71 0
-1034 108 0
-109 1032 1033 1034 0
-1035 -9 0
-1035 276 0
-1036 -32 0
-1036 155 0
-1037 -77 0
-1037 110 0
-109 1035 1036 1037 0
-1038 -10 0
-1038 277 0
-1039 -33 0
-1039 156 0
-1040 -78 0
-1040 111 0
-109 1038 1039 1040 0
-1041 -11 0
-1041 278 0
-1042 -34 0
-1042 157 0
-1043 -79 0
-1043 112 0
-109 1041 1042 1043 0
-1044 -12 0
-1044 279 0
-1045 -35 0
-1045 158 0
-1046 -80 0
-1046 113 0
-109 1044 1045 1046 0
-1047 -13 0
-1047 280 0
-1048 -36 0
-1048 159 0
-1049 -81 0
-1049 114 0
-109 1047 1048 1049 0
-1050 -1 0
-1050 176 0
-1051 -14 0
-1051 99 0
-1052 -21 0
-1052 92 0
-110 1050 1051 1052 0
-1053 -3 0
-1053 241 0
-1054 -26 0
-1054 120 0
-1055 -42 0
-1055 104 0
-110 1053 1054 1055 0
-1056 -4 0
-1056 250 0
-1057 -27 0
-1057 129 0
-1058 -51 0
-1058 105 0
-110 1056 1057 1058 0
-1059 -5 0
-1059 258 0
-1060 -28 0
-1060 137 0
-1061 -59 0
-1061 106 0
-110 1059 1060 1061 0
-1062 -6 0
-1062 265 0
-1063 -29 0
-1063 144 0
-1064 -66 0
-1064 107 0
-110 1062 1063 1064 0
-1065 -7 0
-1065 271 0
-1066 -30 0
-1066 150 0
-1067 -72 0
-1067 108 0
-110 1065 1066 1067 0
-1068 -8 0
-1068 276 0
-1069 -31 0
-1069 155 0
-1070 -77 0
-1070 109 0
-110 1068 1069 1070 0
-1071 -10 0
-1071 281 0
-1072 -33 0
-1072 160 0
-1073 -82 0
-1073 111 0
-110 1071 1072 1073 0
-1074 -11 0
-1074 282 0
-1075 -34 0
-1075 161 0
-1076 -83 0
-1076 112 0
-110 1074 1075 1076 0
-1077 -12 0
-1077 283 0
-1078 -35 0
-1078 162 0
-1079 -84 0
-1079 113 0
-110 1077 1078 1079 0
-1080 -13 0
-1080 284 0
-1081 -36 0
-1081 163 0
-1082 -85 0
-1082 114 0
-110 1080 1081 1082 0
-1083 -1 0
-1083 177 0
-1084 -14 0
-1084 100 0
-1085 -22 0
-1085 92 0
-111 1083 1084 1085 0
-1086 -3 0
-1086 242 0
-1087 -26 0
-1087 121 0
-1088 -43 0
-1088 104 0
-111 1086 1087 1088 0
-1089 -4 0
-1089 251 0
-1090 -27 0
-1090 130 0
-1091 -52 0
-1091 105 0
-111 1089 1090 1091 0
-1092 -5 0
-1092 259 0
-1093 -28 0
-1093 138 0
-1094 -60 0
-1094 106 0
-111 1092 1093 1094 0
-1095 -6 0
-1095 266 0
-1096 -29 0
-1096 145 0
-1097 -67 0
-1097 107 0
-111 1095 1096 1097 0
-1098 -7 0
-1098 272 0
-1099 -30 0
-1099 151 0
-1100 -73 0
-1100 108 0
-111 1098 1099 1100 0
-1101 -8 0
-1101 277 0
-1102 -31 0
-1102 156 0
-1103 -78 0
-1103 109 0
-111 1101 1102 1103 0
-1104 -9 0
-1104 281 0
-1105 -32 0
-1105 160 0
-1106 -82 0
-1106 110 0
-111 1104 1105 1106 0
-1107 -11 0
-1107 285 0
-1108 -34 0
-1108 164 0
-1109 -86 0
-1109 112 0
-111 1107 1108 1109 0
-1110 -12 0
-1110 286 0
-1111 -35 0
-1111 165 0
-1112 -87 0
-1112 113 0
-111 1110 1111 1112 0
-1113 -13 0
-1113 287 0
-1114 -36 0
-1114 166 0
-1115 -88 0
-1115 114 0
-111 1113 1114 1115 0
-1116 -1 0
-1116 178 0
-1117 -14 0
-1117 101 0
-1118 -23 0
-1118 92 0
-112 1116 1117 1118 0
-1119 -3 0
-1119 243 0
-1120 -26 0
-1120 122 0
-1121 -44 0
-1121 104 0
-112 1119 1120 1121 0
-1122 -4 0
-1122 252 0
-1123 -27 0
-1123 131 0
-1124 -53 0
-1124 105 0
-112 1122 1123 1124 0
-1125 -5 0
-1125 260 0
-1126 -28 0
-1126 139 0
-1127 -61 0
-1127 106 0
-112 1125 1126 1127 0
-1128 -6 0
-1128 267 0
-1129 -29 0
-1129 146 0
-1130 -68 0
-1130 107 0
-112 1128 1129 1130 0
-1131 -7 0
-1131 273 0
-1132 -30 0
-1132 152 0
-1133 -74 0
-1133 108 0
-112 1131 1132 1133 0
-1134 -8 0
-1134 278 0
-1135 -31 0
-1135 157 0
-1136 -79 0
-1136 109 0
-112 1134 1135 1136 0
-1137 -9 0
-1137 282 0
-1138 -32 0
-1138 161 0
-1139 -83 0
-1139 110 0
-112 1137 1138 1139 0
-1140 -10 0
-1140 285 0
-1141 -33 0
-1141 164 0
-1142 -86 0
-1142 111 0
-112 1140 1141 1142 0
-1143 -12 0
-1143 288 0
-1144 -35 0
-1144 167 0
-1145 -89 0
-1145 113 0
-112 1143 1144 1145 0
-1146 -13 0
-1146 289 0
-1147 -36 0
-1147 168 0
-1148 -90 0
-1148 114 0
-112 1146 1147 1148 0
-1149 -1 0
-1149 179 0
-1150 -14 0
-1150 102 0
-1151 -24 0
-1151 92 0
-113 1149 1150 1151 0
-1152 -3 0
-1152 244 0
-1153 -26 0
-1153 123 0
-1154 -45 0
-1154 104 0
-113 1152 1153 1154 0
-1155 -4 0
-1155 253 0
-1156 -27 0
-1156 132 0
-1157 -54 0
-1157 105 0
-113 1155 1156 1157 0
-1158 -5 0
-1158 261 0
-1159 -28 0
-1159 140 0
-1160 -62 0
-1160 106 0
-113 1158 1159 1160 0
-1161 -6 0
-1161 268 0
-1162 -29 0
-1162 147 0
-1163 -69 0
-1163 107 0
-113 1161 1162 1163 0
-1164 -7 0
-1164 274 0
-1165 -30 0
-1165 153 0
-1166 -75 0
-1166 108 0
-113 1164 1165 1166 0
-1167 -8 0
-1167 279 0
-1168 -31 0
-1168 158 0
-1169 -80 0
-1169 109 0
-113 1167 1168 1169 0
-1170 -9 0
-1170 283 0
-1171 -32 0
-1171 162 0
-1172 -84 0
-1172 110 0
-113 1170 1171 1172 0
-1173 -10 0
-1173 286 0
-1174 -33 0
-1174 165 0
-1175 -87 0
-1175 111 0
-113 1173 1174 1175 0
-1176 -11 0
-1176 288 0
-1177 -34 0
-1177 167 0
-1178 -89 0
-1178 112 0
-113 1176 1177 1178 0
-1179 -13 0
-1179 290 0
-1180 -36 0
-1180 169 0
-1181 -91 0
-1181 114 0
-113 1179 1180 1181 0
-1182 -1 0
-1182 180 0
-1183 -14 0
-1183 103 0
-1184 -25 0
-1184 92 0
-114 1182 1183 1184 0
-1185 -3 0
-1185 245 0
-1186 -26 0
-1186 124 0
-1187 -46 0
-1187 104 0
-114 1185 1186 1187 0
-1188 -4 0
-1188 254 0
-1189 -27 0
-1189 133 0
-1190 -55 0
-1190 105 0
-114 1188 1189 1190 0
-1191 -5 0
-1191 262 0
-1192 -28 0
-1192 141 0
-1193 -63 0
-1193 106 0
-114 1191 1192 1193 0
-1194 -6 0
-1194 269 0
-1195 -29 0
-1195 148 0
-1196 -70 0
-1196 107 0
-114 1194 1195 1196 0
-1197 -7 0
-1197 275 0
-1198 -30 0
-1198 154 0
-1199 -76 0
-1199 108 0
-114 1197 1198 1199 0
-1200 -8 0
-1200 280 0
-1201 -31 0
-1201 159 0
-1202 -81 0
-1202 109 0
-114 1200 1201 1202 0
-1203 -9 0
-1203 284 0
-1204 -32 0
-1204 163 0
-1205 -85 0
-1205 110 0
-114 1203 1204 1205 0
-1206 -10 0
-1206 287 0
-1207 -33 0
-1207 166 0
-1208 -88 0
-1208 111 0
-114 1206 1207 1208 0
-1209 -11 0
-1209 289 0
-1210 -34 0
-1210 168 0
-1211 -90 0
-1211 112 0
-114 1209 1210 1211 0
-1212 -12 0
-1212 290 0
-1213 -35 0
-1213 169 0
-1214 -91 0
-1214 113 0
-114 1212 1213 1214 0
-1215 -1 0
-1215 181 0
-1216 -15 0
-1216 94 0
-1217 -16 0
-1217 93 0
-115 1215 1216 1217 0
-1218 -2 0
-1218 236 0
-1219 -26 0
-1219 105 0
-1220 -27 0
-1220 104 0
-115 1218 1219 1220 0
-1221 -5 0
-1221 291 0
-1222 -38 0
-1222 125 0
-1223 -47 0
-1223 116 0
-115 1221 1222 1223 0
-1224 -6 0
-1224 292 0
-1225 -39 0
-1225 126 0
-1226 -48 0
-1226 117 0
-115 1224 1225 1226 0
-1227 -7 0
-1227 293 0
-1228 -40 0
-1228 127 0
-1229 -49 0
-1229 118 0
-115 1227 1228 1229 0
-1230 -8 0
-1230 294 0
-1231 -41 0
-1231 128 0
-1232 -50 0
-1232 119 0
-115 1230 1231 1232 0
-1233 -9 0
-1233 295 0
-1234 -42 0
-1234 129 0
-1235 -51 0
-1235 120 0
-115 1233 1234 1235 0
-1236 -10 0
-1236 296 0
-1237 -43 0
-1237 130 0
-1238 -52 0
-1238 121 0
-115 1236 1237 1238 0
-1239 -11 0
-1239 297 0
-1240 -44 0
-1240 131 0
-1241 -53 0
-1241 122 0
-115 1239 1240 1241 0
-1242 -12 0
-1242 298 0
-1243 -45 0
-1243 132 0
-1244 -54 0
-1244 123 0
-115 1242 1243 1244 0
-1245 -13 0
-1245 299 0
-1246 -46 0
-1246 133 0
-1247 -55 0
-1247 124 0
-115 1245 1246 1247 0
-1248 -1 0
-1248 182 0
-1249 -15 0
-1249 95 0
-1250 -17 0
-1250 93 0
-116 1248 1249 1250 0
-1251 -2 0
-1251 237 0
-1252 -26 0
-1252 106 0
-1253 -28 0
-1253 104 0
-116 1251 1252 1253 0
-1254 -4 0
-1254 291 0
-1255 -37 0
-1255 125 0
-1256 -47 0
-1256 115 0
-116 1254 1255 1256 0
-1257 -6 0
-1257 300 0
-1258 -39 0
-1258 134 0
-1259 -56 0
-1259 117 0
-116 1257 1258 1259 0
-1260 -7 0
-1260 301 0
-1261 -40 0
-1261 135 0
-1262 -57 0
-1262 118 0
-116 1260 1261 1262 0
-1263 -8 0
-1263 302 0
-1264 -41 0
-1264 136 0
-1265 -58 0
-1265 119 0
-116 1263 1264 1265 0
-1266 -9 0
-1266 303 0
-1267 -42 0
-1267 137 0
-1268 -59 0
-1268 120 0
-116 1266 1267 1268 0
-1269 -10 0
-1269 304 0
-1270 -43 0
-1270 138 0
-1271 -60 0
-1271 121 0
-116 1269 1270 1271 0
-1272 -11 0
-1272 305 0
-1273 -44 0
-1273 139 0
-1274 -61 0
-1274 122 0
-116 1272 1273 1274 0
-1275 -12 0
-1275 306 0
-1276 -45 0
-1276 140 0
-1277 -62 0
-1277 123 0
-116 1275 1276 1277 0
-1278 -13 0
-1278 307 0
-1279 -46 0
-1279 141 0
-1280 -63 0
-1280 124 0
-116 1278 1279 1280 0
-1281 -1 0
-1281 183 0
-1282 -15 0
-1282 96 0
-1283 -18 0
-1283 93 0
-117 1281 1282 1283 0
-1284 -2 0
-1284 238 0
-1285 -26 0
-1285 107 0
-1286 -29 0
-1286 104 0
-117 1284 1285 1286 0
-1287 -4 0
-1287 292 0
-1288 -37 0
-1288 126 0
-1289 -48 0
-1289 115 0
-117 1287 1288 1289 0
-1290 -5 0
-1290 300 0
-1291 -38 0
-1291 134 0
-1292 -56 0
-1292 116 0
-117 1290 1291 1292 0
-1293 -7 0
-1293 308 0
-1294 -40 0
-1294 142 0
-1295 -64 0
-1295 118 0
-117 1293 1294 1295 0
-1296 -8 0
-1296 309 0
-1297 -41 0
-1297 143 0
-1298 -65 0
-1298 119 0
-117 1296 1297 1298 0
-1299 -9 0
-1299 310 0
-1300 -42 0
-1300 144 0
-1301 -66 0
-1301 120 0
-117 1299 1300 1301 0
-1302 -10 0
-1302 311 0
-1303 -43 0
-1303 145 0
-1304 -67 0
-1304 121 0
-117 1302 1303 1304 0
-1305 -11 0
-1305 312 0
-1306 -44 0
-1306 146 0
-1307 -68 0
-1307 122 0
-117 1305 1306 1307 0
-1308 -12 0
-1308 313 0
-1309 -45 0
-1309 147 0
-1310 -69 0
-1310 123 0
-117 1308 1309 1310 0
-1311 -13 0
-1311 314 0
-1312 -46 0
-1312 148 0
-1313 -70 0
-1313 124 0
-117 1311 1312 1313 0
-1314 -1 0
-1314 184 0
-1315 -15 0
-1315 97 0
-1316 -19 0
-1316 93 0
-118 1314 1315 1316 0
-1317 -2 0
-1317 239 0
-1318 -26 0
-1318 108 0
-1319 -30 0
-1319 104 0
-118 1317 1318 1319 0
-1320 -4 0
-1320 293 0
-1321 -37 0
-1321 127 0
-1322 -49 0
-1322 115 0
-118 1320 1321 1322 0
-1323 -5 0
-1323 301 0
-1324 -38 0
-1324 135 0
-1325 -57 0
-1325 116 0
-118 1323 1324 1325 0
-1326 -6 0
-1326 308 0
-1327 -39 0
-1327 142 0
-1328 -64 0
-1328 117 0
-118 1326 1327 1328 0
-1329 -8 0
-1329 315 0
-1330 -41 0
-1330 149 0
-1331 -71 0
-1331 119 0
-118 1329 1330 1331 0
-1332 -9 0
-1332 316 0
-1333 -42 0
-1333 150 0
-1334 -72 0
-1334 120 0
-118 1332 1333 1334 0
-1335 -10 0
-1335 317 0
-1336 -43 0
-1336 151 0
-1337 -73 0
-1337 121 0
-118 1335 1336 1337 0
-1338 -11 0
-1338 318 0
-1339 -44 0
-1339 152 0
-1340 -74 0
-1340 122 0
-118 1338 1339 1340 0
-1341 -12 0
-1341 319 0
-1342 -45 0
-1342 153 0
-1343 -75 0
-1343 123 0
-118 1341 1342 1343 0
-1344 -13 0
-1344 320 0
-1345 -46 0
-1345 154 0
-1346 -76 0
-1346 124 0
-118 1344 1345 1346 0
-1347 -1 0
-1347 185 0
-1348 -15 0
-1348 98 0
-1349 -20 0
-1349 93 0
-119 1347 1348 1349 0
-1350 -2 0
-1350 240 0
-1351 -26 0
-1351 109 0
-1352 -31 0
-1352 104 0
-119 1350 1351 1352 0
-1353 -4 0
-1353 294 0
-1354 -37 0
-1354 128 0
-1355 -50 0
-1355 115 0
-119 1353 1354 1355 0
-1356 -5 0
-1356 302 0
-1357 -38 0
-1357 136 0
-1358 -58 0
-1358 116 0
-119 1356 1357 1358 0
-1359 -6 0
-1359 309 0
-1360 -39 0
-1360 143 0
-1361 -65 0
-1361 117 0
-119 1359 1360 1361 0
-1362 -7 0
-1362 315 0
-1363 -40 0
-1363 149 0
-1364 -71 0
-1364 118 0
-119 1362 1363 1364 0
-1365 -9 0
-1365 321 0
-1366 -42 0
-1366 155 0
-1367 -77 0
-1367 120 0
-119 1365 1366 1367 0
-1368 -10 0
-1368 322 0
-1369 -43 0
-1369 156 0
-1370 -78 0
-1370 121 0
-119 1368 1369 1370 0
-1371 -11 0
-1371 323 0
-1372 -44 0
-1372 157 0
-1373 -79 0
-1373 122 0
-119 1371 1372 1373 0
-1374 -12 0
-1374 324 0
-1375 -45 0
-1375 158 0
-1376 -80 0
-1376 123 0
-119 1374 1375 1376 0
-1377 -13 0
-1377 325 0
-1378 -46 0
-1378 159 0
-1379 -81 0
-1379 124 0
-119 1377 1378 1379 0
-1380 -1 0
-1380 186 0
-1381 -15 0
-1381 99 0
-1382 -21 0
-1382 93 0
-120 1380 1381 1382 0
-1383 -2 0
-1383 241 0
-1384 -26 0
-1384 110 0
-1385 -32 0
-1385 104 0
-120 1383 1384 1385 0
-1386 -4 0
-1386 295 0
-1387 -37 0
-1387 129 0
-1388 -51 0
-1388 115 0
-120 1386 1387 1388 0
-1389 -5 0
-1389 303 0
-1390 -38 0
-1390 137 0
-1391 -59 0
-1391 116 0
-120 1389 1390 1391 0
-1392 -6 0
-1392 310 0
-1393 -39 0
-1393 144 0
-1394 -66 0
-1394 117 0
-120 1392 1393 1394 0
-1395 -7 0
-1395 316 0
-1396 -40 0
-1396 150 0
-1397 -72 0
-1397 118 0
-120 1395 1396 1397 0
-1398 -8 0
-1398 321 0
-1399 -41 0
-1399 155 0
-1400 -77 0
-1400 119 0
-120 1398 1399 1400 0
-1401 -10 0
-1401 326 0
-1402 -43 0
-1402 160 0
-1403 -82 0
-1403 121 0
-120 1401 1402 1403 0
-1404 -11 0
-1404 327 0
-1405 -44 0
-1405 161 0
-1406 -83 0
-1406 122 0
-120 1404 1405 1406 0
-1407 -12 0
-1407 328 0
-1408 -45 0
-1408 162 0
-1409 -84 0
-1409 123 0
-120 1407 1408 1409 0
-1410 -13 0
-1410 329 0
-1411 -46 0
-1411 163 0
-1412 -85 0
-1412 124 0
-120 1410 1411 1412 0
-1413 -1 0
-1413 187 0
-1414 -15 0
-1414 100 0
-1415 -22 0
-1415 93 0
-121 1413 1414 1415 0
-1416 -2 0
-1416 242 0
-1417 -26 0
-1417 111 0
-1418 -33 0
-1418 104 0
-121 1416 1417 1418 0
-1419 -4 0
-1419 296 0
-1420 -37 0
-1420 130 0
-1421 -52 0
-1421 115 0
-121 1419 1420 1421 0
-1422 -5 0
-1422 304 0
-1423 -38 0
-1423 138 0
-1424 -60 0
-1424 116 0
-121 1422 1423 1424 0
-1425 -6 0
-1425 311 0
-1426 -39 0
-1426 145 0
-1427 -67 0
-1427 117 0
-121 1425 1426 1427 0
-1428 -7 0
-1428 317 0
-1429 -40 0
-1429 151 0
-1430 -73 0
-1430 118 0
-121 1428 1429 1430 0
-1431 -8 0
-1431 322 0
-1432 -41 0
-1432 156 0
-1433 -78 0
-1433 119 0
-121 1431 1432 1433 0
-1434 -9 0
-1434 326 0
-1435 -42 0
-1435 160 0
-1436 -82 0
-1436 120 0
-121 1434 1435 1436 0
-1437 -11 0
-1437 330 0
-1438 -44 0
-1438 164 0
-1439 -86 0
-1439 122 0
-121 1437 1438 1439 0
-1440 -12 0
-1440 331 0
-1441 -45 0
-1441 165 0
-1442 -87 0
-1442 123 0
-121 1440 1441 1442 0
-1443 -13 0
-1443 332 0
-1444 -46 0
-1444 166 0
-1445 -88 0
-1445 124 0
-121 1443 1444 1445 0
-1446 -1 0
-1446 188 0
-1447 -15 0
-1447 101 0
-1448 -23 0
-1448 93 0
-122 1446 1447 1448 0
-1449 -2 0
-1449 243 0
-1450 -26 0
-1450 112 0
-1451 -34 0
-1451 104 0
-122 1449 1450 1451 0
-1452 -4 0
-1452 297 0
-1453 -37 0
-1453 131 0
-1454 -53 0
-1454 115 0
-122 1452 1453 1454 0
-1455 -5 0
-1455 305 0
-1456 -38 0
-1456 139 0
-1457 -61 0
-1457 116 0
-122 1455 1456 1457 0
-1458 -6 0
-1458 312 0
-1459 -39 0
-1459 146 0
-1460 -68 0
-1460 117 0
-122 1458 1459 1460 0
-1461 -7 0
-1461 318 0
-1462 -40 0
-1462 152 0
-1463 -74 0
-1463 118 0
-122 1461 1462 1463 0
-1464 -8 0
-1464 323 0
-1465 -41 0
-1465 157 0
-1466 -79 0
-1466 119 0
-122 1464 1465 1466 0
-1467 -9 0
-1467 327 0
-1468 -42 0
-1468 161 0
-1469 -83 0
-1469 120 0
-122 1467 1468 1469 0
-1470 -10 0
-1470 330 0
-1471 -43 0
-1471 164 0
-1472 -86 0
-1472 121 0
-122 1470 1471 1472 0
-1473 -12 0
-1473 333 0
-1474 -45 0
-1474 167 0
-1475 -89 0
-1475 123 0
-122 1473 1474 1475 0
-1476 -13 0
-1476 334 0
-1477 -46 0
-1477 168 0
-1478 -90 0
-1478 124 0
-122 1476 1477 1478 0
-1479 -1 0
-1479 189 0
-1480 -15 0
-1480 102 0
-1481 -24 0
-1481 93 0
-123 1479 1480 1481 0
-1482 -2 0
-1482 244 0
-1483 -26 0
-1483 113 0
-1484 -35 0
-1484 104 0
-123 1482 1483 1484 0
-1485 -4 0
-1485 298 0
-1486 -37 0
-1486 132 0
-1487 -54 0
-1487 115 0
-123 1485 1486 1487 0
-1488 -5 0
-1488 306 0
-1489 -38 0
-1489 140 0
-1490 -62 0
-1490 116 0
-123 1488 1489 1490 0
-1491 -6 0
-1491 313 0
-1492 -39 0
-1492 147 0
-1493 -69 0
-1493 117 0
-123 1491 1492 1493 0
-1494 -7 0
-1494 319 0
-1495 -40 0
-1495 153 0
-1496 -75 0
-1496 118 0
-123 1494 1495 1496 0
-1497 -8 0
-1497 324 0
-1498 -41 0
-1498 158 0
-1499 -80 0
-1499 119 0
-123 1497 1498 1499 0
-1500 -9 0
-1500 328 0
-1501 -42 0
-1501 162 0
-1502 -84 0
-1502 120 0
-123 1500 1501 1502 0
-1503 -10 0
-1503 331 0
-1504 -43 0
-1504 165 0
-1505 -87 0
-1505 121 0
-123 1503 1504 1505 0
-1506 -11 0
-1506 333 0
-1507 -44 0
-1507 167 0
-1508 -89 0
-1508 122 0
-123 1506 1507 1508 0
-1509 -13 0
-1509 335 0
-1510 -46 0
-1510 169 0
-1511 -91 0
-1511 124 0
-123 1509 1510 1511 0
-1512 -1 0
-1512 190 0
-1513 -15 0
-1513 103 0
-1514 -25 0
-1514 93 0
-124 1512 1513 1514 0
-1515 -2 0
-1515 245 0
-1516 -26 0
-1516 114 0
-1517 -36 0
-1517 104 0
-124 1515 1516 1517 0
-1518 -4 0
-1518 299 0
-1519 -37 0
-1519 133 0
-1520 -55 0
-1520 115 0
-124 1518 1519 1520 0
-1521 -5 0
-1521 307 0
-1522 -38 0
-1522 141 0
-1523 -63 0
-1523 116 0
-124 1521 1522 1523 0
-1524 -6 0
-1524 314 0
-1525 -39 0
-1525 148 0
-1526 -70 0
-1526 117 0
-124 1524 1525 1526 0
-1527 -7 0
-1527 320 0
-1528 -40 0
-1528 154 0
-1529 -76 0
-1529 118 0
-124 1527 1528 1529 0
-1530 -8 0
-1530 325 0
-1531 -41 0
-1531 159 0
-1532 -81 0
-1532 119 0
-124 1530 1531 1532 0
-1533 -9 0
-1533 329 0
-1534 -42 0
-1534 163 0
-1535 -85 0
-1535 120 0
-124 1533 1534 1535 0
-1536 -10 0
-1536 332 0
-1537 -43 0
-1537 166 0
-1538 -88 0
-1538 121 0
-124 1536 1537 1538 0
-1539 -11 0
-1539 334 0
-1540 -44 0
-1540 168 0
-1541 -90 0
-1541 122 0
-124 1539 1540 1541 0
-1542 -12 0
-1542 335 0
-1543 -45 0
-1543 169 0
-1544 -91 0
-1544 123 0
-124 1542 1543 1544 0
-1545 -1 0
-1545 191 0
-1546 -16 0
-1546 95 0
-1547 -17 0
-1547 94 0
-125 1545 1546 1547 0
-1548 -2 0
-1548 246 0
-1549 -27 0
-1549 106 0
-1550 -28 0
-1550 105 0
-125 1548 1549 1550 0
-1551 -3 0
-1551 291 0
-1552 -37 0
-1552 116 0
-1553 -38 0
-1553 115 0
-125 1551 1552 1553 0
-1554 -6 0
-1554 336 0
-1555 -48 0
-1555 134 0
-1556 -56 0
-1556 126 0
-125 1554 1555 1556 0
-1557 -7 0
-1557 337 0
-1558 -49 0
-1558 135 0
-1559 -57 0
-1559 127 0
-125 1557 1558 1559 0
-1560 -8 0
-1560 338 0
-1561 -50 0
-1561 136 0
-1562 -58 0
-1562 128 0
-125 1560 1561 1562 0
-1563 -9 0
-1563 339 0
-1564 -51 0
-1564 137 0
-1565 -59 0
-1565 129 0
-125 1563 1564 1565 0
-1566 -10 0
-1566 340 0
-1567 -52 0
-1567 138 0
-1568 -60 0
-1568 130 0
-125 1566 1567 1568 0
-1569 -11 0
-1569 341 0
-1570 -53 0
-1570 139 0
-1571 -61 0
-1571 131 0
-125 1569 1570 1571 0
-1572 -12 0
-1572 342 0
-1573 -54 0
-1573 140 0
-1574 -62 0
-1574 132 0
-125 1572 1573 1574 0
-1575 -13 0
-1575 343 0
-1576 -55 0
-1576 141 0
-1577 -63 0
-1577 133 0
-125 1575 1576 1577 0
-1578 -1 0
-1578 192 0
-1579 -16 0
-1579 96 0
-1580 -18 0
-1580 94 0
-126 1578 1579 1580 0
-1581 -2 0
-1581 247 0
-1582 -27 0
-1582 107 0
-1583 -29 0
-1583 105 0
-126 1581 1582 1583 0
-1584 -3 0
-1584 292 0
-1585 -37 0
-1585 117 0
-1586 -39 0
-1586 115 0
-126 1584 1585 1586 0
-1587 -5 0
-1587 336 0
-1588 -47 0
-1588 134 0
-1589 -56 0
-1589 125 0
-126 1587 1588 1589 0
-1590 -7 0
-1590 344 0
-1591 -49 0
-1591 142 0
-1592 -64 0
-1592 127 0
-126 1590 1591 1592 0
-1593 -8 0
-1593 345 0
-1594 -50 0
-1594 143 0
-1595 -65 0
-1595 128 0
-126 1593 1594 1595 0
-1596 -9 0
-1596 346 0
-1597 -51 0
-1597 144 0
-1598 -66 0
-1598 129 0
-126 1596 1597 1598 0
-1599 -10 0
-1599 347 0
-1600 -52 0
-1600 145 0
-1601 -67 0
-1601 130 0
-126 1599 1600 1601 0
-1602 -11 0
-1602 348 0
-1603 -53 0
-1603 146 0
-1604 -68 0
-1604 131 0
-126 1602 1603 1604 0
-1605 -12 0
-1605 349 0
-1606 -54 0
-1606 147 0
-1607 -69 0
-1607 132 0
-126 1605 1606 1607 0
-1608 -13 0
-1608 350 0
-1609 -55 0
-1609 148 0
-1610 -70 0
-1610 133 0
-126 1608 1609 1610 0
-1611 -1 0
-1611 193 0
-1612 -16 0
-1612 97 0
-1613 -19 0
-1613 94 0
-127 1611 1612 1613 0
-1614 -2 0
-1614 248 0
-1615 -27 0
-1615 108 0
-1616 -30 0
-1616 105 0
-127 1614 1615 1616 0
-1617 -3 0
-1617 293 0
-1618 -37 0
-1618 118 0
-1619 -40 0
-1619 115 0
-127 1617 1618 1619 0
-1620 -5 0
-1620 337 0
-1621 -47 0
-1621 135 0
-1622 -57 0
-1622 125 0
-127 1620 1621 1622 0
-1623 -6 0
-1623 344 0
-1624 -48 0
-1624 142 0
-1625 -64 0
-1625 126 0
-127 1623 1624 1625 0
-1626 -8 0
-1626 351 0
-1627 -50 0
-1627 149 0
-1628 -71 0
-1628 128 0
-127 1626 1627 1628 0
-1629 -9 0
-1629 352 0
-1630 -51 0
-1630 150 0
-1631 -72 0
-1631 129 0
-127 1629 1630 1631 0
-1632 -10 0
-1632 353 0
-1633 -52 0
-1633 151 0
-1634 -73 0
-1634 130 0
-127 1632 1633 1634 0
-1635 -11 0
-1635 354 0
-1636 -53 0
-1636 152 0
-1637 -74 0
-1637 131 0
-127 1635 1636 1637 0
-1638 -12 0
-1638 355 0
-1639 -54 0
-1639 153 0
-1640 -75 0
-1640 132 0
-127 1638 1639 1640 0
-1641 -13 0
-1641 356 0
-1642 -55 0
-1642 154 0
-1643 -76 0
-1643 133 0
-127 1641 1642 1643 0
-1644 -1 0
-1644 194 0
-1645 -16 0
-1645 98 0
-1646 -20 0
-1646 94 0
-128 1644 1645 1646 0
-1647 -2 0
-1647 249 0
-1648 -27 0
-1648 109 0
-1649 -31 0
-1649 105 0
-128 1647 1648 1649 0
-1650 -3 0
-1650 294 0
-1651 -37 0
-1651 119 0
-1652 -41 0
-1652 115 0
-128 1650 1651 1652 0
-1653 -5 0
-1653 338 0
-1654 -47 0
-1654 136 0
-1655 -58 0
-1655 125 0
-128 1653 1654 1655 0
-1656 -6 0
-1656 345 0
-1657 -48 0
-1657 143 0
-1658 -65 0
-1658 126 0
-128 1656 1657 1658 0
-1659 -7 0
-1659 351 0
-1660 -49 0
-1660 149 0
-1661 -71 0
-1661 127 0
-128 1659 1660 1661 0
-1662 -9 0
-1662 357 0
-1663 -51 0
-1663 155 0
-1664 -77 0
-1664 129 0
-128 1662 1663 1664 0
-1665 -10 0
-1665 358 0
-1666 -52 0
-1666 156 0
-1667 -78 0
-1667 130 0
-128 1665 1666 1667 0
-1668 -11 0
-1668 359 0
-1669 -53 0
-1669 157 0
-1670 -79 0
-1670 131 0
-128 1668 1669 1670 0
-1671 -12 0
-1671 360 0
-1672 -54 0
-1672 158 0
-1673 -80 0
-1673 132 0
-128 1671 1672 1673 0
-1674 -13 0
-1674 361 0
-1675 -55 0
-1675 159 0
-1676 -81 0
-1676 133 0
-128 1674 1675 1676 0
-1677 -1 0
-1677 195 0
-1678 -16 0
-1678 99 0
-1679 -21 0
-1679 94 0
-129 1677 1678 1679 0
-1680 -2 0
-1680 250 0
-1681 -27 0
-1681 110 0
-1682 -32 0
-1682 105 0
-129 1680 1681 1682 0
-1683 -3 0
-1683 295 0
-1684 -37 0
-1684 120 0
-1685 -42 0
-1685 115 0
-129 1683 1684 1685 0
-1686 -5 0
-1686 339 0
-1687 -47 0
-1687 137 0
-1688 -59 0
-1688 125 0
-129 1686 1687 1688 0
-1689 -6 0
-1689 346 0
-1690 -48 0
-1690 144 0
-1691 -66 0
-1691 126 0
-129 1689 1690 1691 0
-1692 -7 0
-1692 352 0
-1693 -49 0
-1693 150 0
-1694 -72 0
-1694 127 0
-129 1692 1693 1694 0
-1695 -8 0
-1695 357 0
-1696 -50 0
-1696 155 0
-1697 -77 0
-1697 128 0
-129 1695 1696 1697 0
-1698 -10 0
-1698 362 0
-1699 -52 0
-1699 160 0
-1700 -82 0
-1700 130 0
-129 1698 1699 1700 0
-1701 -11 0
-1701 363 0
-1702 -53 0
-1702 161 0
-1703 -83 0
-1703 131 0
-129 1701 1702 1703 0
-1704 -12 0
-1704 364 0
-1705 -54 0
-1705 162 0
-1706 -84 0
-1706 132 0
-129 1704 1705 1706 0
-1707 -13 0
-1707 365 0
-1708 -55 0
-1708 163 0
-1709 -85 0
-1709 133 0
-129 1707 1708 1709 0
-1710 -1 0
-1710 196 0
-1711 -16 0
-1711 100 0
-1712 -22 0
-1712 94 0
-130 1710 1711 1712 0
-1713 -2 0
-1713 251 0
-1714 -27 0
-1714 111 0
-1715 -33 0
-1715 105 0
-130 1713 1714 1715 0
-1716 -3 0
-1716 296 0
-1717 -37 0
-1717 121 0
-1718 -43 0
-1718 115 0
-130 1716 1717 1718 0
-1719 -5 0
-1719 340 0
-1720 -47 0
-1720 138 0
-1721 -60 0
-1721 125 0
-130 1719 1720 1721 0
-1722 -6 0
-1722 347 0
-1723 -48 0
-1723 145 0
-1724 -67 0
-1724 126 0
-130 1722 1723 1724 0
-1725 -7 0
-1725 353 0
-1726 -49 0
-1726 151 0
-1727 -73 0
-1727 127 0
-130 1725 1726 1727 0
-1728 -8 0
-1728 358 0
-1729 -50 0
-1729 156 0
-1730 -78 0
-1730 128 0
-130 1728 1729 1730 0
-1731 -9 0
-1731 362 0
-1732 -51 0
-1732 160 0
-1733 -82 0
-1733 129 0
-130 1731 1732 1733 0
-1734 -11 0
-1734 366 0
-1735 -53 0
-1735 164 0
-1736 -86 0
-1736 131 0
-130 1734 1735 1736 0
-1737 -12 0
-1737 367 0
-1738 -54 0
-1738 165 0
-1739 -87 0
-1739 132 0
-130 1737 1738 1739 0
-1740 -13 0
-1740 368 0
-1741 -55 0
-1741 166 0
-1742 -88 0
-1742 133 0
-130 1740 1741 1742 0
-1743 -1 0
-1743 197 0
-1744 -16 0
-1744 101 0
-1745 -23 0
-1745 94 0
-131 1743 1744 1745 0
-1746 -2 0
-1746 252 0
-1747 -27 0
-1747 112 0
-1748 -34 0
-1748 105 0
-131 1746 1747 1748 0
-1749 -3 0
-1749 297 0
-1750 -37 0
-1750 122 0
-1751 -44 0
-1751 115 0
-131 1749 1750 1751 0
-1752 -5 0
-1752 341 0
-1753 -47 0
-1753 139 0
-1754 -61 0
-1754 125 0
-131 1752 1753 1754 0
-1755 -6 0
-1755 348 0
-1756 -48 0
-1756 146 0
-1757 -68 0
-1757 126 0
-131 1755 1756 1757 0
-1758 -7 0
-1758 354 0
-1759 -49 0
-1759 152 0
-1760 -74 0
-1760 127 0
-131 1758 1759 1760 0
-1761 -8 0
-1761 359 0
-1762 -50 0
-1762 157 0
-1763 -79 0
-1763 128 0
-131 1761 1762 1763 0
-1764 -9 0
-1764 363 0
-1765 -51 0
-1765 161 0
-1766 -83 0
-1766 129 0
-131 1764 1765 1766 0
-1767 -10 0
-1767 366 0
-1768 -52 0
-1768 164 0
-1769 -86 0
-1769 130 0
-131 1767 1768 1769 0
-1770 -12 0
-1770 369 0
-1771 -54 0
-1771 167 0
-1772 -89 0
-1772 132 0
-131 1770 1771 1772 0
-1773 -13 0
-1773 370 0
-1774 -55 0
-1774 168 0
-1775 -90 0
-1775 133 0
-131 1773 1774 1775 0
-1776 -1 0
-1776 198 0
-1777 -16 0
-1777 102 0
-1778 -24 0
-1778 94 0
-132 1776 1777 1778 0
-1779 -2 0
-1779 253 0
-1780 -27 0
-1780 113 0
-1781 -35 0
-1781 105 0
-132 1779 1780 1781 0
-1782 -3 0
-1782 298 0
-1783 -37 0
-1783 123 0
-1784 -45 0
-1784 115 0
-132 1782 1783 1784 0
-1785 -5 0
-1785 342 0
-1786 -47 0
-1786 140 0
-1787 -62 0
-1787 125 0
-132 1785 1786 1787 0
-1788 -6 0
-1788 349 0
-1789 -48 0
-1789 147 0
-1790 -69 0
-1790 126 0
-132 1788 1789 1790 0
-1791 -7 0
-1791 355 0
-1792 -49 0
-1792 153 0
-1793 -75 0
-1793 127 0
-132 1791 1792 1793 0
-1794 -8 0
-1794 360 0
-1795 -50 0
-1795 158 0
-1796 -80 0
-1796 128 0
-132 1794 1795 1796 0
-1797 -9 0
-1797 364 0
-1798 -51 0
-1798 162 0
-1799 -84 0
-1799 129 0
-132 1797 1798 1799 0
-1800 -10 0
-1800 367 0
-1801 -52 0
-1801 165 0
-1802 -87 0
-1802 130 0
-132 1800 1801 1802 0
-1803 -11 0
-1803 369 0
-1804 -53 0
-1804 167 0
-1805 -89 0
-1805 131 0
-132 1803 1804 1805 0
-1806 -13 0
-1806 371 0
-1807 -55 0
-1807 169 0
-1808 -91 0
-1808 133 0
-132 1806 1807 1808 0
-1809 -1 0
-1809 199 0
-1810 -16 0
-1810 103 0
-1811 -25 0
-1811 94 0
-133 1809 1810 1811 0
-1812 -2 0
-1812 254 0
-1813 -27 0
-1813 114 0
-1814 -36 0
-1814 105 0
-133 1812 1813 1814 0
-1815 -3 0
-1815 299 0
-1816 -37 0
-1816 124 0
-1817 -46 0
-1817 115 0
-133 1815 1816 1817 0
-1818 -5 0
-1818 343 0
-1819 -47 0
-1819 141 0
-1820 -63 0
-1820 125 0
-133 1818 1819 1820 0
-1821 -6 0
-1821 350 0
-1822 -48 0
-1822 148 0
-1823 -70 0
-1823 126 0
-133 1821 1822 1823 0
-1824 -7 0
-1824 356 0
-1825 -49 0
-1825 154 0
-1826 -76 0
-1826 127 0
-133 1824 1825 1826 0
-1827 -8 0
-1827 361 0
-1828 -50 0
-1828 159 0
-1829 -81 0
-1829 128 0
-133 1827 1828 1829 0
-1830 -9 0
-1830 365 0
-1831 -51 0
-1831 163 0
-1832 -85 0
-1832 129 0
-133 1830 1831 1832 0
-1833 -10 0
-1833 368 0
-1834 -52 0
-1834 166 0
-1835 -88 0
-1835 130 0
-133 1833 1834 1835 0
-1836 -11 0
-1836 370 0
-1837 -53 0
-1837 168 0
-1838 -90 0
-1838 131 0
-133 1836 1837 1838 0
-1839 -12 0
-1839 371 0
-1840 -54 0
-1840 169 0
-1841 -91 0
-1841 132 0
-133 1839 1840 1841 0
-1842 -1 0
-1842 200 0
-1843 -17 0
-1843 96 0
-1844 -18 0
-1844 95 0
-134 1842 1843 1844 0
-1845 -2 0
-1845 255 0
-1846 -28 0
-1846 107 0
-1847 -29 0
-1847 106 0
-134 1845 1846 1847 0
-1848 -3 0
-1848 300 0
-1849 -38 0
-1849 117 0
-1850 -39 0
-1850 116 0
-134 1848 1849 1850 0
-1851 -4 0
-1851 336 0
-1852 -47 0
-1852 126 0
-1853 -48 0
-1853 125 0
-134 1851 1852 1853 0
-1854 -7 0
-1854 372 0
-1855 -57 0
-1855 142 0
-1856 -64 0
-1856 135 0
-134 1854 1855 1856 0
-1857 -8 0
-1857 373 0
-1858 -58 0
-1858 143 0
-1859 -65 0
-1859 136 0
-134 1857 1858 1859 0
-1860 -9 0
-1860 374 0
-1861 -59 0
-1861 144 0
-1862 -66 0
-1862 137 0
-134 1860 1861 1862 0
-1863 -10 0
-1863 375 0
-1864 -60 0
-1864 145 0
-1865 -67 0
-1865 138 0
-134 1863 1864 1865 0
-1866 -11 0
-1866 376 0
-1867 -61 0
-1867 146 0
-1868 -68 0
-1868 139 0
-134 1866 1867 1868 0
-1869 -12 0
-1869 377 0
-1870 -62 0
-1870 147 0
-1871 -69 0
-1871 140 0
-134 1869 1870 1871 0
-1872 -13 0
-1872 378 0
-1873 -63 0
-1873 148 0
-1874 -70 0
-1874 141 0
-134 1872 1873 1874 0
-1875 -1 0
-1875 201 0
-1876 -17 0
-1876 97 0
-1877 -19 0
-1877 95 0
-135 1875 1876 1877 0
-1878 -2 0
-1878 256 0
-1879 -28 0
-1879 108 0
-1880 -30 0
-1880 106 0
-135 1878 1879 1880 0
-1881 -3 0
-1881 301 0
-1882 -38 0
-1882 118 0
-1883 -40 0
-1883 116 0
-135 1881 1882 1883 0
-1884 -4 0
-1884 337 0
-1885 -47 0
-1885 127 0
-1886 -49 0
-1886 125 0
-135 1884 1885 1886 0
-1887 -6 0
-1887 372 0
-1888 -56 0
-1888 142 0
-1889 -64 0
-1889 134 0
-135 1887 1888 1889 0
-1890 -8 0
-1890 379 0
-1891 -58 0
-1891 149 0
-1892 -71 0
-1892 136 0
-135 1890 1891 1892 0
-1893 -9 0
-1893 380 0
-1894 -59 0
-1894 150 0
-1895 -72 0
-1895 137 0
-135 1893 1894 1895 0
-1896 -10 0
-1896 381 0
-1897 -60 0
-1897 151 0
-1898 -73 0
-1898 138 0
-135 1896 1897 1898 0
-1899 -11 0
-1899 382 0
-1900 -61 0
-1900 152 0
-1901 -74 0
-1901 139 0
-135 1899 1900 1901 0
-1902 -12 0
-1902 383 0
-1903 -62 0
-1903 153 0
-1904 -75 0
-1904 140 0
-135 1902 1903 1904 0
-1905 -13 0
-1905 384 0
-1906 -63 0
-1906 154 0
-1907 -76 0
-1907 141 0
-135 1905 1906 1907 0
-1908 -1 0
-1908 202 0
-1909 -17 0
-1909 98 0
-1910 -20 0
-1910 95 0
-136 1908 1909 1910 0
-1911 -2 0
-1911 257 0
-1912 -28 0
-1912 109 0
-1913 -31 0
-1913 106 0
-136 1911 1912 1913 0
-1914 -3 0
-1914 302 0
-1915 -38 0
-1915 119 0
-1916 -41 0
-1916 116 0
-136 1914 1915 1916 0
-1917 -4 0
-1917 338 0
-1918 -47 0
-1918 128 0
-1919 -50 0
-1919 125 0
-136 1917 1918 1919 0
-1920 -6 0
-1920 373 0
-1921 -56 0
-1921 143 0
-1922 -65 0
-1922 134 0
-136 1920 1921 1922 0
-1923 -7 0
-1923 379 0
-1924 -57 0
-1924 149 0
-1925 -71 0
-1925 135 0
-136 1923 1924 1925 0
-1926 -9 0
-1926 385 0
-1927 -59 0
-1927 155 0
-1928 -77 0
-1928 137 0
-136 1926 1927 1928 0
-1929 -10 0
-1929 386 0
-1930 -60 0
-1930 156 0
-1931 -78 0
-1931 138 0
-136 1929 1930 1931 0
-1932 -11 0
-1932 387 0
-1933 -61 0
-1933 157 0
-1934 -79 0
-1934 139 0
-136 1932 1933 1934 0
-1935 -12 0
-1935 388 0
-1936 -62 0
-1936 158 0
-1937 -80 0
-1937 140 0
-136 1935 1936 1937 0
-1938 -13 0
-1938 389 0
-1939 -63 0
-1939 159 0
-1940 -81 0
-1940 141 0
-136 1938 1939 1940 0
-1941 -1 0
-1941 203 0
-1942 -17 0
-1942 99 0
-1943 -21 0
-1943 95 0
-137 1941 1942 1943 0
-1944 -2 0
-1944 258 0
-1945 -28 0
-1945 110 0
-1946 -32 0
-1946 106 0
-137 1944 1945 1946 0
-1947 -3 0
-1947 303 0
-1948 -38 0
-1948 120 0
-1949 -42 0
-1949 116 0
-137 1947 1948 1949 0
-1950 -4 0
-1950 339 0
-1951 -47 0
-1951 129 0
-1952 -51 0
-1952 125 0
-137 1950 1951 1952 0
-1953 -6 0
-1953 374 0
-1954 -56 0
-1954 144 0
-1955 -66 0
-1955 134 0
-137 1953 1954 1955 0
-1956 -7 0
-1956 380 0
-1957 -57 0
-1957 150 0
-1958 -72 0
-1958 135 0
-137 1956 1957 1958 0
-1959 -8 0
-1959 385 0
-1960 -58 0
-1960 155 0
-1961 -77 0
-1961 136 0
-137 1959 1960 1961 0
-1962 -10 0
-1962 390 0
-1963 -60 0
-1963 160 0
-1964 -82 0
-1964 138 0
-137 1962 1963 1964 0
-1965 -11 0
-1965 391 0
-1966 -61 0
-1966 161 0
-1967 -83 0
-1967 139 0
-137 1965 1966 1967 0
-1968 -12 0
-1968 392 0
-1969 -62 0
-1969 162 0
-1970 -84 0
-1970 140 0
-137 1968 1969 1970 0
-1971 -13 0
-1971 393 0
-1972 -63 0
-1972 163 0
-1973 -85 0
-1973 141 0
-137 1971 1972 1973 0
-1974 -1 0
-1974 204 0
-1975 -17 0
-1975 100 0
-1976 -22 0
-1976 95 0
-138 1974 1975 1976 0
-1977 -2 0
-1977 259 0
-1978 -28 0
-1978 111 0
-1979 -33 0
-1979 106 0
-138 1977 1978 1979 0
-1980 -3 0
-1980 304 0
-1981 -38 0
-1981 121 0
-1982 -43 0
-1982 116 0
-138 1980 1981 1982 0
-1983 -4 0
-1983 340 0
-1984 -47 0
-1984 130 0
-1985 -52 0
-1985 125 0
-138 1983 1984 1985 0
-1986 -6 0
-1986 375 0
-1987 -56 0
-1987 145 0
-1988 -67 0
-1988 134 0
-138 1986 1987 1988 0
-1989 -7 0
-1989 381 0
-1990 -57 0
-1990 151 0
-1991 -73 0
-1991 135 0
-138 1989 1990 1991 0
-1992 -8 0
-1992 386 0
-1993 -58 0
-1993 156 0
-1994 -78 0
-1994 136 0
-138 1992 1993 1994 0
-1995 -9 0
-1995 390 0
-1996 -59 0
-1996 160 0
-1997 -82 0
-1997 137 0
-138 1995 1996 1997 0
-1998 -11 0
-1998 394 0
-1999 -61 0
-1999 164 0
-2000 -86 0
-2000 139 0
-138 1998 1999 2000 0
-2001 -12 0
-2001 395 0
-2002 -62 0
-2002 165 0
-2003 -87 0
-2003 140 0
-138 2001 2002 2003 0
-2004 -13 0
-2004 396 0
-2005 -63 0
-2005 166 0
-2006 -88 0
-2006 141 0
-138 2004 2005 2006 0
-2007 -1 0
-2007 205 0
-2008 -17 0
-2008 101 0
-2009 -23 0
-2009 95 0
-139 2007 2008 2009 0
-2010 -2 0
-2010 260 0
-2011 -28 0
-2011 112 0
-2012 -34 0
-2012 106 0
-139 2010 2011 2012 0
-2013 -3 0
-2013 305 0
-2014 -38 0
-2014 122 0
-2015 -44 0
-2015 116 0
-139 2013 2014 2015 0
-2016 -4 0
-2016 341 0
-2017 -47 0
-2017 131 0
-2018 -53 0
-2018 125 0
-139 2016 2017 2018 0
-2019 -6 0
-2019 376 0
-2020 -56 0
-2020 146 0
-2021 -68 0
-2021 134 0
-139 2019 2020 2021 0
-2022 -7 0
-2022 382 0
-2023 -57 0
-2023 152 0
-2024 -74 0
-2024 135 0
-139 2022 2023 2024 0
-2025 -8 0
-2025 387 0
-2026 -58 0
-2026 157 0
-2027 -79 0
-2027 136 0
-139 2025 2026 2027 0
-2028 -9 0
-2028 391 0
-2029 -59 0
-2029 161 0
-2030 -83 0
-2030 137 0
-139 2028 2029 2030 0
-2031 -10 0
-2031 394 0
-2032 -60 0
-2032 164 0
-2033 -86 0
-2033 138 0
-139 2031 2032 2033 0
-2034 -12 0
-2034 397 0
-2035 -62 0
-2035 167 0
-2036 -89 0
-2036 140 0
-139 2034 2035 2036 0
-2037 -13 0
-2037 398 0
-2038 -63 0
-2038 168 0
-2039 -90 0
-2039 141 0
-139 2037 2038 2039 0
-2040 -1 0
-2040 206 0
-2041 -17 0
-2041 102 0
-2042 -24 0
-2042 95 0
-140 2040 2041 2042 0
-2043 -2 0
-2043 261 0
-2044 -28 0
-2044 113 0
-2045 -35 0
-2045 106 0
-140 2043 2044 2045 0
-2046 -3 0
-2046 306 0
-2047 -38 0
-2047 123 0
-2048 -45 0
-2048 116 0
-140 2046 2047 2048 0
-2049 -4 0
-2049 342 0
-2050 -47 0
-2050 132 0
-2051 -54 0
-2051 125 0
-140 2049 2050 2051 0
-2052 -6 0
-2052 377 0
-2053 -56 0
-2053 147 0
-2054 -69 0
-2054 134 0
-140 2052 2053 2054 0
-2055 -7 0
-2055 383 0
-2056 -57 0
-2056 153 0
-2057 -75 0
-2057 135 0
-140 2055 2056 2057 0
-2058 -8 0
-2058 388 0
-2059 -58 0
-2059 158 0
-2060 -80 0
-2060 136 0
-140 2058 2059 2060 0
-2061 -9 0
-2061 392 0
-2062 -59 0
-2062 162 0
-2063 -84 0
-2063 137 0
-140 2061 2062 2063 0
-2064 -10 0
-2064 395 0
-2065 -60 0
-2065 165 0
-2066 -87 0
-2066 138 0
-140 2064 2065 2066 0
-2067 -11 0
-2067 397 0
-2068 -61 0
-2068 167 0
-2069 -89 0
-2069 139 0
-140 2067 2068 2069 0
-2070 -13 0
-2070 399 0
-2071 -63 0
-2071 169 0
-2072 -91 0
-2072 141 0
-140 2070 2071 2072 0
-2073 -1 0
-2073 207 0
-2074 -17 0
-2074 103 0
-2075 -25 0
-2075 95 0
-141 2073 2074 2075 0
-2076 -2 0
-2076 262 0
-2077 -28 0
-2077 114 0
-2078 -36 0
-2078 106 0
-141 2076 2077 2078 0
-2079 -3 0
-2079 307 0
-2080 -38 0
-2080 124 0
-2081 -46 0
-2081 116 0
-141 2079 2080 2081 0
-2082 -4 0
-2082 343 0
-2083 -47 0
-2083 133 0
-2084 -55 0
-2084 125 0
-141 2082 2083 2084 0
-2085 -6 0
-2085 378 0
-2086 -56 0
-2086 148 0
-2087 -70 0
-2087 134 0
-141 2085 2086 2087 0
-2088 -7 0
-2088 384 0
-2089 -57 0
-2089 154 0
-2090 -76 0
-2090 135 0
-141 2088 2089 2090 0
-2091 -8 0
-2091 389 0
-2092 -58 0
-2092 159 0
-2093 -81 0
-2093 136 0
-141 2091 2092 2093 0
-2094 -9 0
-2094 393 0
-2095 -59 0
-2095 163 0
-2096 -85 0
-2096 137 0
-141 2094 2095 2096 0
-2097 -10 0
-2097 396 0
-2098 -60 0
-2098 166 0
-2099 -88 0
-2099 138 0
-141 2097 2098 2099 0
-2100 -11 0
-2100 398 0
-2101 -61 0
-2101 168 0
-2102 -90 0
-2102 139 0
-141 2100 2101 2102 0
-2103 -12 0
-2103 399 0
-2104 -62 0
-2104 169 0
-2105 -91 0
-2105 140 0
-141 2103 2104 2105 0
-2106 -1 0
-2106 208 0
-2107 -18 0
-2107 97 0
-2108 -19 0
-2108 96 0
-142 2106 2107 2108 0
-2109 -2 0
-2109 263 0
-2110 -29 0
-2110 108 0
-2111 -30 0
-2111 107 0
-142 2109 2110 2111 0
-2112 -3 0
-2112 308 0
-2113 -39 0
-2113 118 0
-2114 -40 0
-2114 117 0
-142 2112 2113 2114 0
-2115 -4 0
-2115 344 0
-2116 -48 0
-2116 127 0
-2117 -49 0
-2117 126 0
-142 2115 2116 2117 0
-2118 -5 0
-2118 372 0
-2119 -56 0
-2119 135 0
-2120 -57 0
-2120 134 0
-142 2118 2119 2120 0
-2121 -8 0
-2121 400 0
-2122 -65 0
-2122 149 0
-2123 -71 0
-2123 143 0
-142 2121 2122 2123 0
-2124 -9 0
-2124 401 0
-2125 -66 0
-2125 150 0
-2126 -72 0
-2126 144 0
-142 2124 2125 2126 0
-2127 -10 0
-2127 402 0
-2128 -67 0
-2128 151 0
-2129 -73 0
-2129 145 0
-142 2127 2128 2129 0
-2130 -11 0
-2130 403 0
-2131 -68 0
-2131 152 0
-2132 -74 0
-2132 146 0
-142 2130 2131 2132 0
-2133 -12 0
-2133 404 0
-2134 -69 0
-2134 153 0
-2135 -75 0
-2135 147 0
-142 2133 2134 2135 0
-2136 -13 0
-2136 405 0
-2137 -70 0
-2137 154 0
-2138 -76 0
-2138 148 0
-142 2136 2137 2138 0
-2139 -1 0
-2139 209 0
-2140 -18 0
-2140 98 0
-2141 -20 0
-2141 96 0
-143 2139 2140 2141 0
-2142 -2 0
-2142 264 0
-2143 -29 0
-2143 109 0
-2144 -31 0
-2144 107 0
-143 2142 2143 2144 0
-2145 -3 0
-2145 309 0
-2146 -39 0
-2146 119 0
-2147 -41 0
-2147 117 0
-143 2145 2146 2147 0
-2148 -4 0
-2148 345 0
-2149 -48 0
-2149 128 0
-2150 -50 0
-2150 126 0
-143 2148 2149 2150 0
-2151 -5 0
-2151 373 0
-2152 -56 0
-2152 136 0
-2153 -58 0
-2153 134 0
-143 2151 2152 2153 0
-2154 -7 0
-2154 400 0
-2155 -64 0
-2155 149 0
-2156 -71 0
-2156 142 0
-143 2154 2155 2156 0
-2157 -9 0
-2157 406 0
-2158 -66 0
-2158 155 0
-2159 -77 0
-2159 144 0
-143 2157 2158 2159 0
-2160 -10 0
-2160 407 0
-2161 -67 0
-2161 156 0
-2162 -78 0
-2162 145 0
-143 2160 2161 2162 0
-2163 -11 0
-2163 408 0
-2164 -68 0
-2164 157 0
-2165 -79 0
-2165 146 0
-143 2163 2164 2165 0
-2166 -12 0
-2166 409 0
-2167 -69 0
-2167 158 0
-2168 -80 0
-2168 147 0
-143 2166 2167 2168 0
-2169 -13 0
-2169 410 0
-2170 -70 0
-2170 159 0
-2171 -81 0
-2171 148 0
-143 2169 2170 2171 0
-2172 -1 0
-2172 210 0
-2173 -18 0
-2173 99 0
-2174 -21 0
-2174 96 0
-144 2172 2173 2174 0
-2175 -2 0
-2175 265 0
-2176 -29 0
-2176 110 0
-2177 -32 0
-2177 107 0
-144 2175 2176 2177 0
-2178 -3 0
-2178 310 0
-2179 -39 0
-2179 120 0
-2180 -42 0
-2180 117 0
-144 2178 2179 2180 0
-2181 -4 0
-2181 346 0
-2182 -48 0
-2182 129 0
-2183 -51 0
-2183 126 0
-144 2181 2182 2183 0
-2184 -5 0
-2184 374 0
-2185 -56 0
-2185 137 0
-2186 -59 0
-2186 134 0
-144 2184 2185 2186 0
-2187 -7 0
-2187 401 0
-2188 -64 0
-2188 150 0
-2189 -72 0
-2189 142 0
-144 2187 2188 2189 0
-2190 -8 0
-2190 406 0
-2191 -65 0
-2191 155 0
-2192 -77 0
-2192 143 0
-144 2190 2191 2192 0
-2193 -10 0
-2193 411 0
-2194 -67 0
-2194 160 0
-2195 -82 0
-2195 145 0
-144 2193 2194 2195 0
-2196 -11 0
-2196 412 0
-2197 -68 0
-2197 161 0
-2198 -83 0
-2198 146 0
-144 2196 2197 2198 0
-2199 -12 0
-2199 413 0
-2200 -69 0
-2200 162 0
-2201 -84 0
-2201 147 0
-144 2199 2200 2201 0
-2202 -13 0
-2202 414 0
-2203 -70 0
-2203 163 0
-2204 -85 0
-2204 148 0
-144 2202 2203 2204 0
-2205 -1 0
-2205 211 0
-2206 -18 0
-2206 100 0
-2207 -22 0
-2207 96 0
-145 2205 2206 2207 0
-2208 -2 0
-2208 266 0
-2209 -29 0
-2209 111 0
-2210 -33 0
-2210 107 0
-145 2208 2209 2210 0
-2211 -3 0
-2211 311 0
-2212 -39 0
-2212 121 0
-2213 -43 0
-2213 117 0
-145 2211 2212 2213 0
-2214 -4 0
-2214 347 0
-2215 -48 0
-2215 130 0
-2216 -52 0
-2216 126 0
-145 2214 2215 2216 0
-2217 -5 0
-2217 375 0
-2218 -56 0
-2218 138 0
-2219 -60 0
-2219 134 0
-145 2217 2218 2219 0
-2220 -7 0
-2220 402 0
-2221 -64 0
-2221 151 0
-2222 -73 0
-2222 142 0
-145 2220 2221 2222 0
-2223 -8 0
-2223 407 0
-2224 -65 0
-2224 156 0
-2225 -78 0
-2225 143 0
-145 2223 2224 2225 0
-2226 -9 0
-2226 411 0
-2227 -66 0
-2227 160 0
-2228 -82 0
-2228 144 0
-145 2226 2227 2228 0
-2229 -11 0
-2229 415 0
-2230 -68 0
-2230 164 0
-2231 -86 0
-2231 146 0
-145 2229 2230 2231 0
-2232 -12 0
-2232 416 0
-2233 -69 0
-2233 165 0
-2234 -87 0
-2234 147 0
-145 2232 2233 2234 0
-2235 -13 0
-2235 417 0
-2236 -70 0
-2236 166 0
-2237 -88 0
-2237 148 0
-145 2235 2236 2237 0
-2238 -1 0
-2238 212 0
-2239 -18 0
-2239 101 0
-2240 -23 0
-2240 96 0
-146 2238 2239 2240 0
-2241 -2 0
-2241 267 0
-2242 -29 0
-2242 112 0
-2243 -34 0
-2243 107 0
-146 2241 2242 2243 0
-2244 -3 0
-2244 312 0
-2245 -39 0
-2245 122 0
-2246 -44 0
-2246 117 0
-146 2244 2245 2246 0
-2247 -4 0
-2247 348 0
-2248 -48 0
-2248 131 0
-2249 -53 0
-2249 126 0
-146 2247 2248 2249 0
-2250 -5 0
-2250 376 0
-2251 -56 0
-2251 139 0
-2252 -61 0
-2252 134 0
-146 2250 2251 2252 0
-2253 -7 0
-2253 403 0
-2254 -64 0
-2254 152 0
-2255 -74 0
-2255 142 0
-146 2253 2254 2255 0
-2256 -8 0
-2256 408 0
-2257 -65 0
-2257 157 0
-2258 -79 0
-2258 143 0
-146 2256 2257 2258 0
-2259 -9 0
-2259 412 0
-2260 -66 0
-2260 161 0
-2261 -83 0
-2261 144 0
-146 2259 2260 2261 0
-2262 -10 0
-2262 415 0
-2263 -67 0
-2263 164 0
-2264 -86 0
-2264 145 0
-146 2262 2263 2264 0
-2265 -12 0
-2265 418 0
-2266 -69 0
-2266 167 0
-2267 -89 0
-2267 147 0
-146 2265 2266 2267 0
-2268 -13 0
-2268 419 0
-2269 -70 0
-2269 168 0
-2270 -90 0
-2270 148 0
-146 2268 2269 2270 0
-2271 -1 0
-2271 213 0
-2272 -18 0
-2272 102 0
-2273 -24 0
-2273 96 0
-147 2271 2272 2273 0
-2274 -2 0
-2274 268 0
-2275 -29 0
-2275 113 0
-2276 -35 0
-2276 107 0
-147 2274 2275 2276 0
-2277 -3 0
-2277 313 0
-2278 -39 0
-2278 123 0
-2279 -45 0
-2279 117 0
-147 2277 2278 2279 0
-2280 -4 0
-2280 349 0
-2281 -48 0
-2281 132 0
-2282 -54 0
-2282 126 0
-147 2280 2281 2282 0
-2283 -5 0
-2283 377 0
-2284 -56 0
-2284 140 0
-2285 -62 0
-2285 134 0
-147 2283 2284 2285 0
-2286 -7 0
-2286 404 0
-2287 -64 0
-2287 153 0
-2288 -75 0
-2288 142 0
-147 2286 2287 2288 0
-2289 -8 0
-2289 409 0
-2290 -65 0
-2290 158 0
-2291 -80 0
-2291 143 0
-147 2289 2290 2291 0
-2292 -9 0
-2292 413 0
-2293 -66 0
-2293 162 0
-2294 -84 0
-2294 144 0
-147 2292 2293 2294 0
-2295 -10 0
-2295 416 0
-2296 -67 0
-2296 165 0
-2297 -87 0
-2297 145 0
-147 2295 2296 2297 0
-2298 -11 0
-2298 418 0
-2299 -68 0
-2299 167 0
-2300 -89 0
-2300 146 0
-147 2298 2299 2300 0
-2301 -13 0
-2301 420 0
-2302 -70 0
-2302 169 0
-2303 -91 0
-2303 148 0
-147 2301 2302 2303 0
-2304 -1 0
-2304 214 0
-2305 -18 0
-2305 103 0
-2306 -25 0
-2306 96 0
-148 2304 2305 2306 0
-2307 -2 0
-2307 269 0
-2308 -29 0
-2308 114 0
-2309 -36 0
-2309 107 0
-148 2307 2308 2309 0
-2310 -3 0
-2310 314 0
-2311 -39 0
-2311 124 0
-2312 -46 0
-2312 117 0
-148 2310 2311 2312 0
-2313 -4 0
-2313 350 0
-2314 -48 0
-2314 133 0
-2315 -55 0
-2315 126 0
-148 2313 2314 2315 0
-2316 -5 0
-2316 378 0
-2317 -56 0
-2317 141 0
-2318 -63 0
-2318 134 0
-148 2316 2317 2318 0
-2319 -7 0
-2319 405 0
-2320 -64 0
-2320 154 0
-2321 -76 0
-2321 142 0
-148 2319 2320 2321 0
-2322 -8 0
-2322 410 0
-2323 -65 0
-2323 159 0
-2324 -81 0
-2324 143 0
-148 2322 2323 2324 0
-2325 -9 0
-2325 414 0
-2326 -66 0
-2326 163 0
-2327 -85 0
-2327 144 0
-148 2325 2326 2327 0
-2328 -10 0
-2328 417 0
-2329 -67 0
-2329 166 0
-2330 -88 0
-2330 145 0
-148 2328 2329 2330 0
-2331 -11 0
-2331 419 0
-2332 -68 0
-2332 168 0
-2333 -90 0
-2333 146 0
-148 2331 2332 2333 0
-2334 -12 0
-2334 420 0
-2335 -69 0
-2335 169 0
-2336 -91 0
-2336 147 0
-148 2334 2335 2336 0
-2337 -1 0
-2337 215 0
-2338 -19 0
-2338 98 0
-2339 -20 0
-2339 97 0
-149 2337 2338 2339 0
-2340 -2 0
-2340 270 0
-2341 -30 0
-2341 109 0
-2342 -31 0
-2342 108 0
-149 2340 2341 2342 0
-2343 -3 0
-2343 315 0
-2344 -40 0
-2344 119 0
-2345 -41 0
-2345 118 0
-149 2343 2344 2345 0
-2346 -4 0
-2346 351 0
-2347 -49 0
-2347 128 0
-2348 -50 0
-2348 127 0
-149 2346 2347 2348 0
-2349 -5 0
-2349 379 0
-2350 -57 0
-2350 136 0
-2351 -58 0
-2351 135 0
-149 2349 2350 2351 0
-2352 -6 0
-2352 400 0
-2353 -64 0
-2353 143 0
-2354 -65 0
-2354 142 0
-149 2352 2353 2354 0
-2355 -9 0
-2355 421 0
-2356 -72 0
-2356 155 0
-2357 -77 0
-2357 150 0
-149 2355 2356 2357 0
-2358 -10 0
-2358 422 0
-2359 -73 0
-2359 156 0
-2360 -78 0
-2360 151 0
-149 2358 2359 2360 0
-2361 -11 0
-2361 423 0
-2362 -74 0
-2362 157 0
-2363 -79 0
-2363 152 0
-149 2361 2362 2363 0
-2364 -12 0
-2364 424 0
-2365 -75 0
-2365 158 0
-2366 -80 0
-2366 153 0
-149 2364 2365 2366 0
-2367 -13 0
-2367 425 0
-2368 -76 0
-2368 159 0
-2369 -81 0
-2369 154 0
-149 2367 2368 2369 0
-2370 -1 0
-2370 216 0
-2371 -19 0
-2371 99 0
-2372 -21 0
-2372 97 0
-150 2370 2371 2372 0
-2373 -2 0
-2373 271 0
-2374 -30 0
-2374 110 0
-2375 -32 0
-2375 108 0
-150 2373 2374 2375 0
-2376 -3 0
-2376 316 0
-2377 -40 0
-2377 120 0
-2378 -42 0
-2378 118 0
-150 2376 2377 2378 0
-2379 -4 0
-2379 352 0
-2380 -49 0
-2380 129 0
-2381 -51 0
-2381 127 0
-150 2379 2380 2381 0
-2382 -5 0
-2382 380 0
-2383 -57 0
-2383 137 0
-2384 -59 0
-2384 135 0
-150 2382 2383 2384 0
-2385 -6 0
-2385 401 0
-2386 -64 0
-2386 144 0
-2387 -66 0
-2387 142 0
-150 2385 2386 2387 0
-2388 -8 0
-2388 421 0
-2389 -71 0
-2389 155 0
-2390 -77 0
-2390 149 0
-150 2388 2389 2390 0
-2391 -10 0
-2391 426 0
-2392 -73 0
-2392 160 0
-2393 -82 0
-2393 151 0
-150 2391 2392 2393 0
-2394 -11 0
-2394 427 0
-2395 -74 0
-2395 161 0
-2396 -83 0
-2396 152 0
-150 2394 2395 2396 0
-2397 -12 0
-2397 428 0
-2398 -75 0
-2398 162 0
-2399 -84 0
-2399 153 0
-150 2397 2398 2399 0
-2400 -13 0
-2400 429 0
-2401 -76 0
-2401 163 0
-2402 -85 0
-2402 154 0
-150 2400 2401 2402 0
-2403 -1 0
-2403 217 0
-2404 -19 0
-2404 100 0
-2405 -22 0
-2405 97 0
-151 2403 2404 2405 0
-2406 -2 0
-2406 272 0
-2407 -30 0
-2407 111 0
-2408 -33 0
-2408 108 0
-151 2406 2407 2408 0
-2409 -3 0
-2409 317 0
-2410 -40 0
-2410 121 0
-2411 -43 0
-2411 118 0
-151 2409 2410 2411 0
-2412 -4 0
-2412 353 0
-2413 -49 0
-2413 130 0
-2414 -52 0
-2414 127 0
-151 2412 2413 2414 0
-2415 -5 0
-2415 381 0
-2416 -57 0
-2416 138 0
-2417 -60 0
-2417 135 0
-151 2415 2416 2417 0
-2418 -6 0
-2418 402 0
-2419 -64 0
-2419 145 0
-2420 -67 0
-2420 142 0
-151 2418 2419 2420 0
-2421 -8 0
-2421 422 0
-2422 -71 0
-2422 156 0
-2423 -78 0
-2423 149 0
-151 2421 2422 2423 0
-2424 -9 0
-2424 426 0
-2425 -72 0
-2425 160 0
-2426 -82 0
-2426 150 0
-151 2424 2425 2426 0
-2427 -11 0
-2427 430 0
-2428 -74 0
-2428 164 0
-2429 -86 0
-2429 152 0
-151 2427 2428 2429 0
-2430 -12 0
-2430 431 0
-2431 -75 0
-2431 165 0
-2432 -87 0
-2432 153 0
-151 2430 2431 2432 0
-2433 -13 0
-2433 432 0
-2434 -76 0
-2434 166 0
-2435 -88 0
-2435 154 0
-151 2433 2434 2435 0
-2436 -1 0
-2436 218 0
-2437 -19 0
-2437 101 0
-2438 -23 0
-2438 97 0
-152 2436 2437 2438 0
-2439 -2 0
-2439 273 0
-2440 -30 0
-2440 112 0
-2441 -34 0
-2441 108 0
-152 2439 2440 2441 0
-2442 -3 0
-2442 318 0
-2443 -40 0
-2443 122 0
-2444 -44 0
-2444 118 0
-152 2442 2443 2444 0
-2445 -4 0
-2445 354 0
-2446 -49 0
-2446 131 0
-2447 -53 0
-2447 127 0
-152 2445 2446 2447 0
-2448 -5 0
-2448 382 0
-2449 -57 0
-2449 139 0
-2450 -61 0
-2450 135 0
-152 2448 2449 2450 0
-2451 -6 0
-2451 403 0
-2452 -64 0
-2452 146 0
-2453 -68 0
-2453 142 0
-152 2451 2452 2453 0
-2454 -8 0
-2454 423 0
-2455 -71 0
-2455 157 0
-2456 -79 0
-2456 149 0
-152 2454 2455 2456 0
-2457 -9 0
-2457 427 0
-2458 -72 0
-2458 161 0
-2459 -83 0
-2459 150 0
-152 2457 2458 2459 0
-2460 -10 0
-2460 430 0
-2461 -73 0
-2461 164 0
-2462 -86 0
-2462 151 0
-152 2460 2461 2462 0
-2463 -12 0
-2463 433 0
-2464 -75 0
-2464 167 0
-2465 -89 0
-2465 153 0
-152 2463 2464 2465 0
-2466 -13 0
-2466 434 0
-2467 -76 0
-2467 168 0
-2468 -90 0
-2468 154 0
-152 2466 2467 2468 0
-2469 -1 0
-2469 219 0
-2470 -19 0
-2470 102 0
-2471 -24 0
-2471 97 0
-153 2469 2470 2471 0
-2472 -2 0
-2472 274 0
-2473 -30 0
-2473 113 0
-2474 -35 0
-2474 108 0
-153 2472 2473 2474 0
-2475 -3 0
-2475 319 0
-2476 -40 0
-2476 123 0
-2477 -45 0
-2477 118 0
-153 2475 2476 2477 0
-2478 -4 0
-2478 355 0
-2479 -49 0
-2479 132 0
-2480 -54 0
-2480 127 0
-153 2478 2479 2480 0
-2481 -5 0
-2481 383 0
-2482 -57 0
-2482 140 0
-2483 -62 0
-2483 135 0
-153 2481 2482 2483 0
-2484 -6 0
-2484 404 0
-2485 -64 0
-2485 147 0
-2486 -69 0
-2486 142 0
-153 2484 2485 2486 0
-2487 -8 0
-2487 424 0
-2488 -71 0
-2488 158 0
-2489 -80 0
-2489 149 0
-153 2487 2488 2489 0
-2490 -9 0
-2490 428 0
-2491 -72 0
-2491 162 0
-2492 -84 0
-2492 150 0
-153 2490 2491 2492 0
-2493 -10 0
-2493 431 0
-2494 -73 0
-2494 165 0
-2495 -87 0
-2495 151 0
-153 2493 2494 2495 0
-2496 -11 0
-2496 433 0
-2497 -74 0
-2497 167 0
-2498 -89 0
-2498 152 0
-153 2496 2497 2498 0
-2499 -13 0
-2499 435 0
-2500 -76 0
-2500 169 0
-2501 -91 0
-2501 154 0
-153 2499 2500 2501 0
-2502 -1 0
-2502 220 0
-2503 -19 0
-2503 103 0
-2504 -25 0
-2504 97 0
-154 2502 2503 2504 0
-2505 -2 0
-2505 275 0
-2506 -30 0
-2506 114 0
-2507 -36 0
-2507 108 0
-154 2505 2506 2507 0
-2508 -3 0
-2508 320 0
-2509 -40 0
-2509 124 0
-2510 -46 0
-2510 118 0
-154 2508 2509 2510 0
-2511 -4 0
-2511 356 0
-2512 -49 0
-2512 133 0
-2513 -55 0
-2513 127 0
-154 2511 2512 2513 0
-2514 -5 0
-2514 384 0
-2515 -57 0
-2515 141 0
-2516 -63 0
-2516 135 0
-154 2514 2515 2516 0
-2517 -6 0
-2517 405 0
-2518 -64 0
-2518 148 0
-2519 -70 0
-2519 142 0
-154 2517 2518 2519 0
-2520 -8 0
-2520 425 0
-2521 -71 0
-2521 159 0
-2522 -81 0
-2522 149 0
-154 2520 2521 2522 0
-2523 -9 0
-2523 429 0
-2524 -72 0
-2524 163 0
-2525 -85 0
-2525 150 0
-154 2523 2524 2525 0
-2526 -10 0
-2526 432 0
-2527 -73 0
-2527 166 0
-2528 -88 0
-2528 151 0
-154 2526 2527 2528 0
-2529 -11 0
-2529 434 0
-2530 -74 0
-2530 168 0
-2531 -90 0
-2531 152 0
-154 2529 2530 2531 0
-2532 -12 0
-2532 435 0
-2533 -75 0
-2533 169 0
-2534 -91 0
-2534 153 0
-154 2532 2533 2534 0
-2535 -1 0
-2535 221 0
-2536 -20 0
-2536 99 0
-2537 -21 0
-2537 98 0
-155 2535 2536 2537 0
-2538 -2 0
-2538 276 0
-2539 -31 0
-2539 110 0
-2540 -32 0
-2540 109 0
-155 2538 2539 2540 0
-2541 -3 0
-2541 321 0
-2542 -41 0
-2542 120 0
-2543 -42 0
-2543 119 0
-155 2541 2542 2543 0
-2544 -4 0
-2544 357 0
-2545 -50 0
-2545 129 0
-2546 -51 0
-2546 128 0
-155 2544 2545 2546 0
-2547 -5 0
-2547 385 0
-2548 -58 0
-2548 137 0
-2549 -59 0
-2549 136 0
-155 2547 2548 2549 0
-2550 -6 0
-2550 406 0
-2551 -65 0
-2551 144 0
-2552 -66 0
-2552 143 0
-155 2550 2551 2552 0
-2553 -7 0
-2553 421 0
-2554 -71 0
-2554 150 0
-2555 -72 0
-2555 149 0
-155 2553 2554 2555 0
-2556 -10 0
-2556 436 0
-2557 -78 0
-2557 160 0
-2558 -82 0
-2558 156 0
-155 2556 2557 2558 0
-2559 -11 0
-2559 437 0
-2560 -79 0
-2560 161 0
-2561 -83 0
-2561 157 0
-155 2559 2560 2561 0
-2562 -12 0
-2562 438 0
-2563 -80 0
-2563 162 0
-2564 -84 0
-2564 158 0
-155 2562 2563 2564 0
-2565 -13 0
-2565 439 0
-2566 -81 0
-2566 163 0
-2567 -85 0
-2567 159 0
-155 2565 2566 2567 0
-2568 -1 0
-2568 222 0
-2569 -20 0
-2569 100 0
-2570 -22 0
-2570 98 0
-156 2568 2569 2570 0
-2571 -2 0
-2571 277 0
-2572 -31 0
-2572 111 0
-2573 -33 0
-2573 109 0
-156 2571 2572 2573 0
-2574 -3 0
-2574 322 0
-2575 -41 0
-2575 121 0
-2576 -43 0
-2576 119 0
-156 2574 2575 2576 0
-2577 -4 0
-2577 358 0
-2578 -50 0
-2578 130 0
-2579 -52 0
-2579 128 0
-156 2577 2578 2579 0
-2580 -5 0
-2580 386 0
-2581 -58 0
-2581 138 0
-2582 -60 0
-2582 136 0
-156 2580 2581 2582 0
-2583 -6 0
-2583 407 0
-2584 -65 0
-2584 145 0
-2585 -67 0
-2585 143 0
-156 2583 2584 2585 0
-2586 -7 0
-2586 422 0
-2587 -71 0
-2587 151 0
-2588 -73 0
-2588 149 0
-156 2586 2587 2588 0
-2589 -9 0
-2589 436 0
-2590 -77 0
-2590 160 0
-2591 -82 0
-2591 155 0
-156 2589 2590 2591 0
-2592 -11 0
-2592 440 0
-2593 -79 0
-2593 164 0
-2594 -86 0
-2594 157 0
-156 2592 2593 2594 0
-2595 -12 0
-2595 441 0
-2596 -80 0
-2596 165 0
-2597 -87 0
-2597 158 0
-156 2595 2596 2597 0
-2598 -13 0
-2598 442 0
-2599 -81 0
-2599 166 0
-2600 -88 0
-2600 159 0
-156 2598 2599 2600 0
-2601 -1 0
-2601 223 0
-2602 -20 0
-2602 101 0
-2603 -23 0
-2603 98 0
-157 2601 2602 2603 0
-2604 -2 0
-2604 278 0
-2605 -31 0
-2605 112 0
-2606 -34 0
-2606 109 0
-157 2604 2605 2606 0
-2607 -3 0
-2607 323 0
-2608 -41 0
-2608 122 0
-2609 -44 0
-2609 119 0
-157 2607 2608 2609 0
-2610 -4 0
-2610 359 0
-2611 -50 0
-2611 131 0
-2612 -53 0
-2612 128 0
-157 2610 2611 2612 0
-2613 -5 0
-2613 387 0
-2614 -58 0
-2614 139 0
-2615 -61 0
-2615 136 0
-157 2613 2614 2615 0
-2616 -6 0
-2616 408 0
-2617 -65 0
-2617 146 0
-2618 -68 0
-2618 143 0
-157 2616 2617 2618 0
-2619 -7 0
-2619 423 0
-2620 -71 0
-2620 152 0
-2621 -74 0
-2621 149 0
-157 2619 2620 2621 0
-2622 -9 0
-2622 437 0
-2623 -77 0
-2623 161 0
-2624 -83 0
-2624 155 0
-157 2622 2623 2624 0
-2625 -10 0
-2625 440 0
-2626 -78 0
-2626 164 0
-2627 -86 0
-2627 156 0
-157 2625 2626 2627 0
-2628 -12 0
-2628 443 0
-2629 -80 0
-2629 167 0
-2630 -89 0
-2630 158 0
-157 2628 2629 2630 0
-2631 -13 0
-2631 444 0
-2632 -81 0
-2632 168 0
-2633 -90 0
-2633 159 0
-157 2631 2632 2633 0
-2634 -1 0
-2634 224 0
-2635 -20 0
-2635 102 0
-2636 -24 0
-2636 98 0
-158 2634 2635 2636 0
-2637 -2 0
-2637 279 0
-2638 -31 0
-2638 113 0
-2639 -35 0
-2639 109 0
-158 2637 2638 2639 0
-2640 -3 0
-2640 324 0
-2641 -41 0
-2641 123 0
-2642 -45 0
-2642 119 0
-158 2640 2641 2642 0
-2643 -4 0
-2643 360 0
-2644 -50 0
-2644 132 0
-2645 -54 0
-2645 128 0
-158 2643 2644 2645 0
-2646 -5 0
-2646 388 0
-2647 -58 0
-2647 140 0
-2648 -62 0
-2648 136 0
-158 2646 2647 2648 0
-2649 -6 0
-2649 409 0
-2650 -65 0
-2650 147 0
-2651 -69 0
-2651 143 0
-158 2649 2650 2651 0
-2652 -7 0
-2652 424 0
-2653 -71 0
-2653 153 0
-2654 -75 0
-2654 149 0
-158 2652 2653 2654 0
-2655 -9 0
-2655 438 0
-2656 -77 0
-2656 162 0
-2657 -84 0
-2657 155 0
-158 2655 2656 2657 0
-2658 -10 0
-2658 441 0
-2659 -78 0
-2659 165 0
-2660 -87 0
-2660 156 0
-158 2658 2659 2660 0
-2661 -11 0
-2661 443 0
-2662 -79 0
-2662 167 0
-2663 -89 0
-2663 157 0
-158 2661 2662 2663 0
-2664 -13 0
-2664 445 0
-2665 -81 0
-2665 169 0
-2666 -91 0
-2666 159 0
-158 2664 2665 2666 0
-2667 -1 0
-2667 225 0
-2668 -20 0
-2668 103 0
-2669 -25 0
-2669 98 0
-159 2667 2668 2669 0
-2670 -2 0
-2670 280 0
-2671 -31 0
-2671 114 0
-2672 -36 0
-2672 109 0
-159 2670 2671 2672 0
-2673 -3 0
-2673 325 0
-2674 -41 0
-2674 124 0
-2675 -46 0
-2675 119 0
-159 2673 2674 2675 0
-2676 -4 0
-2676 361 0
-2677 -50 0
-2677 133 0
-2678 -55 0
-2678 128 0
-159 2676 2677 2678 0
-2679 -5 0
-2679 389 0
-2680 -58 0
-2680 141 0
-2681 -63 0
-2681 136 0
-159 2679 2680 2681 0
-2682 -6 0
-2682 410 0
-2683 -65 0
-2683 148 0
-2684 -70 0
-2684 143 0
-159 2682 2683 2684 0
-2685 -7 0
-2685 425 0
-2686 -71 0
-2686 154 0
-2687 -76 0
-2687 149 0
-159 2685 2686 2687 0
-2688 -9 0
-2688 439 0
-2689 -77 0
-2689 163 0
-2690 -85 0
-2690 155 0
-159 2688 2689 2690 0
-2691 -10 0
-2691 442 0
-2692 -78 0
-2692 166 0
-2693 -88 0
-2693 156 0
-159 2691 2692 2693 0
-2694 -11 0
-2694 444 0
-2695 -79 0
-2695 168 0
-2696 -90 0
-2696 157 0
-159 2694 2695 2696 0
-2697 -12 0
-2697 445 0
-2698 -80 0
-2698 169 0
-2699 -91 0
-2699 158 0
-159 2697 2698 2699 0
-2700 -1 0
-2700 226 0
-2701 -21 0
-2701 100 0
-2702 -22 0
-2702 99 0
-160 2700 2701 2702 0
-2703 -2 0
-2703 281 0
-2704 -32 0
-2704 111 0
-2705 -33 0
-2705 110 0
-160 2703 2704 2705 0
-2706 -3 0
-2706 326 0
-2707 -42 0
-2707 121 0
-2708 -43 0
-2708 120 0
-160 2706 2707 2708 0
-2709 -4 0
-2709 362 0
-2710 -51 0
-2710 130 0
-2711 -52 0
-2711 129 0
-160 2709 2710 2711 0
-2712 -5 0
-2712 390 0
-2713 -59 0
-2713 138 0
-2714 -60 0
-2714 137 0
-160 2712 2713 2714 0
-2715 -6 0
-2715 411 0
-2716 -66 0
-2716 145 0
-2717 -67 0
-2717 144 0
-160 2715 2716 2717 0
-2718 -7 0
-2718 426 0
-2719 -72 0
-2719 151 0
-2720 -73 0
-2720 150 0
-160 2718 2719 2720 0
-2721 -8 0
-2721 436 0
-2722 -77 0
-2722 156 0
-2723 -78 0
-2723 155 0
-160 2721 2722 2723 0
-2724 -11 0
-2724 446 0
-2725 -83 0
-2725 164 0
-2726 -86 0
-2726 161 0
-160 2724 2725 2726 0
-2727 -12 0
-2727 447 0
-2728 -84 0
-2728 165 0
-2729 -87 0
-2729 162 0
-160 2727 2728 2729 0
-2730 -13 0
-2730 448 0
-2731 -85 0
-2731 166 0
-2732 -88 0
-2732 163 0
-160 2730 2731 2732 0
-2733 -1 0
-2733 227 0
-2734 -21 0
-2734 101 0
-2735 -23 0
-2735 99 0
-161 2733 2734 2735 0
-2736 -2 0
-2736 282 0
-2737 -32 0
-2737 112 0
-2738 -34 0
-2738 110 0
-161 2736 2737 2738 0
-2739 -3 0
-2739 327 0
-2740 -42 0
-2740 122 0
-2741 -44 0
-2741 120 0
-161 2739 2740 2741 0
-2742 -4 0
-2742 363 0
-2743 -51 0
-2743 131 0
-2744 -53 0
-2744 129 0
-161 2742 2743 2744 0
-2745 -5 0
-2745 391 0
-2746 -59 0
-2746 139 0
-2747 -61 0
-2747 137 0
-161 2745 2746 2747 0
-2748 -6 0
-2748 412 0
-2749 -66 0
-2749 146 0
-2750 -68 0
-2750 144 0
-161 2748 2749 2750 0
-2751 -7 0
-2751 427 0
-2752 -72 0
-2752 152 0
-2753 -74 0
-2753 150 0
-161 2751 2752 2753 0
-2754 -8 0
-2754 437 0
-2755 -77 0
-2755 157 0
-2756 -79 0
-2756 155 0
-161 2754 2755 2756 0
-2757 -10 0
-2757 446 0
-2758 -82 0
-2758 164 0
-2759 -86 0
-2759 160 0
-161 2757 2758 2759 0
-2760 -12 0
-2760 449 0
-2761 -84 0
-2761 167 0
-2762 -89 0
-2762 162 0
-161 2760 2761 2762 0
-2763 -13 0
-2763 450 0
-2764 -85 0
-2764 168 0
-2765 -90 0
-2765 163 0
-161 2763 2764 2765 0
-2766 -1 0
-2766 228 0
-2767 -21 0
-2767 102 0
-2768 -24 0
-2768 99 0
-162 2766 2767 2768 0
-2769 -2 0
-2769 283 0
-2770 -32 0
-2770 113 0
-2771 -35 0
-2771 110 0
-162 2769 2770 2771 0
-2772 -3 0
-2772 328 0
-2773 -42 0
-2773 123 0
-2774 -45 0
-2774 120 0
-162 2772 2773 2774 0
-2775 -4 0
-2775 364 0
-2776 -51 0
-2776 132 0
-2777 -54 0
-2777 129 0
-162 2775 2776 2777 0
-2778 -5 0
-2778 392 0
-2779 -59 0
-2779 140 0
-2780 -62 0
-2780 137 0
-162 2778 2779 2780 0
-2781 -6 0
-2781 413 0
-2782 -66 0
-2782 147 0
-2783 -69 0
-2783 144 0
-162 2781 2782 2783 0
-2784 -7 0
-2784 428 0
-2785 -72 0
-2785 153 0
-2786 -75 0
-2786 150 0
-162 2784 2785 2786 0
-2787 -8 0
-2787 438 0
-2788 -77 0
-2788 158 0
-2789 -80 0
-2789 155 0
-162 2787 2788 2789 0
-2790 -10 0
-2790 447 0
-2791 -82 0
-2791 165 0
-2792 -87 0
-2792 160 0
-162 2790 2791 2792 0
-2793 -11 0
-2793 449 0
-2794 -83 0
-2794 167 0
-2795 -89 0
-2795 161 0
-162 2793 2794 2795 0
-2796 -13 0
-2796 451 0
-2797 -85 0
-2797 169 0
-2798 -91 0
-2798 163 0
-162 2796 2797 2798 0
-2799 -1 0
-2799 229 0
-2800 -21 0
-2800 103 0
-2801 -25 0
-2801 99 0
-163 2799 2800 2801 0
-2802 -2 0
-2802 284 0
-2803 -32 0
-2803 114 0
-2804 -36 0
-2804 110 0
-163 2802 2803 2804 0
-2805 -3 0
-2805 329 0
-2806 -42 0
-2806 124 0
-2807 -46 0
-2807 120 0
-163 2805 2806 2807 0
-2808 -4 0
-2808 365 0
-2809 -51 0
-2809 133 0
-2810 -55 0
-2810 129 0
-163 2808 2809 2810 0
-2811 -5 0
-2811 393 0
-2812 -59 0
-2812 141 0
-2813 -63 0
-2813 137 0
-163 2811 2812 2813 0
-2814 -6 0
-2814 414 0
-2815 -66 0
-2815 148 0
-2816 -70 0
-2816 144 0
-163 2814 2815 2816 0
-2817 -7 0
-2817 429 0
-2818 -72 0
-2818 154 0
-2819 -76 0
-2819 150 0
-163 2817 2818 2819 0
-2820 -8 0
-2820 439 0
-2821 -77 0
-2821 159 0
-2822 -81 0
-2822 155 0
-163 2820 2821 2822 0
-2823 -10 0
-2823 448 0
-2824 -82 0
-2824 166 0
-2825 -88 0
-2825 160 0
-163 2823 2824 2825 0
-2826 -11 0
-2826 450 0
-2827 -83 0
-2827 168 0
-2828 -90 0
-2828 161 0
-163 2826 2827 2828 0
-2829 -12 0
-2829 451 0
-2830 -84 0
-2830 169 0
-2831 -91 0
-2831 162 0
-163 2829 2830 2831 0
-2832 -1 0
-2832 230 0
-2833 -22 0
-2833 101 0
-2834 -23 0
-2834 100 0
-164 2832 2833 2834 0
-2835 -2 0
-2835 285 0
-2836 -33 0
-2836 112 0
-2837 -34 0
-2837 111 0
-164 2835 2836 2837 0
-2838 -3 0
-2838 330 0
-2839 -43 0
-2839 122 0
-2840 -44 0
-2840 121 0
-164 2838 2839 2840 0
-2841 -4 0
-2841 366 0
-2842 -52 0
-2842 131 0
-2843 -53 0
-2843 130 0
-164 2841 2842 2843 0
-2844 -5 0
-2844 394 0
-2845 -60 0
-2845 139 0
-2846 -61 0
-2846 138 0
-164 2844 2845 2846 0
-2847 -6 0
-2847 415 0
-2848 -67 0
-2848 146 0
-2849 -68 0
-2849 145 0
-164 2847 2848 2849 0
-2850 -7 0
-2850 430 0
-2851 -73 0
-2851 152 0
-2852 -74 0
-2852 151 0
-164 2850 2851 2852 0
-2853 -8 0
-2853 440 0
-2854 -78 0
-2854 157 0
-2855 -79 0
-2855 156 0
-164 2853 2854 2855 0
-2856 -9 0
-2856 446 0
-2857 -82 0
-2857 161 0
-2858 -83 0
-2858 160 0
-164 2856 2857 2858 0
-2859 -12 0
-2859 452 0
-2860 -87 0
-2860 167 0
-2861 -89 0
-2861 165 0
-164 2859 2860 2861 0
-2862 -13 0
-2862 453 0
-2863 -88 0
-2863 168 0
-2864 -90 0
-2864 166 0
-164 2862 2863 2864 0
-2865 -1 0
-2865 231 0
-2866 -22 0
-2866 102 0
-2867 -24 0
-2867 100 0
-165 2865 2866 2867 0
-2868 -2 0
-2868 286 0
-2869 -33 0
-2869 113 0
-2870 -35 0
-2870 111 0
-165 2868 2869 2870 0
-2871 -3 0
-2871 331 0
-2872 -43 0
-2872 123 0
-2873 -45 0
-2873 121 0
-165 2871 2872 2873 0
-2874 -4 0
-2874 367 0
-2875 -52 0
-2875 132 0
-2876 -54 0
-2876 130 0
-165 2874 2875 2876 0
-2877 -5 0
-2877 395 0
-2878 -60 0
-2878 140 0
-2879 -62 0
-2879 138 0
-165 2877 2878 2879 0
-2880 -6 0
-2880 416 0
-2881 -67 0
-2881 147 0
-2882 -69 0
-2882 145 0
-165 2880 2881 2882 0
-2883 -7 0
-2883 431 0
-2884 -73 0
-2884 153 0
-2885 -75 0
-2885 151 0
-165 2883 2884 2885 0
-2886 -8 0
-2886 441 0
-2887 -78 0
-2887 158 0
-2888 -80 0
-2888 156 0
-165 2886 2887 2888 0
-2889 -9 0
-2889 447 0
-2890 -82 0
-2890 162 0
-2891 -84 0
-2891 160 0
-165 2889 2890 2891 0
-2892 -11 0
-2892 452 0
-2893 -86 0
-2893 167 0
-2894 -89 0
-2894 164 0
-165 2892 2893 2894 0
-2895 -13 0
-2895 454 0
-2896 -88 0
-2896 169 0
-2897 -91 0
-2897 166 0
-165 2895 2896 2897 0
-2898 -1 0
-2898 232 0
-2899 -22 0
-2899 103 0
-2900 -25 0
-2900 100 0
-166 2898 2899 2900 0
-2901 -2 0
-2901 287 0
-2902 -33 0
-2902 114 0
-2903 -36 0
-2903 111 0
-166 2901 2902 2903 0
-2904 -3 0
-2904 332 0
-2905 -43 0
-2905 124 0
-2906 -46 0
-2906 121 0
-166 2904 2905 2906 0
-2907 -4 0
-2907 368 0
-2908 -52 0
-2908 133 0
-2909 -55 0
-2909 130 0
-166 2907 2908 2909 0
-2910 -5 0
-2910 396 0
-2911 -60 0
-2911 141 0
-2912 -63 0
-2912 138 0
-166 2910 2911 2912 0
-2913 -6 0
-2913 417 0
-2914 -67 0
-2914 148 0
-2915 -70 0
-2915 145 0
-166 2913 2914 2915 0
-2916 -7 0
-2916 432 0
-2917 -73 0
-2917 154 0
-2918 -76 0
-2918 151 0
-166 2916 2917 2918 0
-2919 -8 0
-2919 442 0
-2920 -78 0
-2920 159 0
-2921 -81 0
-2921 156 0
-166 2919 2920 2921 0
-2922 -9 0
-2922 448 0
-2923 -82 0
-2923 163 0
-2924 -85 0
-2924 160 0
-166 2922 2923 2924 0
-2925 -11 0
-2925 453 0
-2926 -86 0
-2926 168 0
-2927 -90 0
-2927 164 0
-166 2925 2926 2927 0
-2928 -12 0
-2928 454 0
-2929 -87 0
-2929 169 0
-2930 -91 0
-2930 165 0
-166 2928 2929 2930 0
-2931 -1 0
-2931 233 0
-2932 -23 0
-2932 102 0
-2933 -24 0
-2933 101 0
-167 2931 2932 2933 0
-2934 -2 0
-2934 288 0
-2935 -34 0
-2935 113 0
-2936 -35 0
-2936 112 0
-167 2934 2935 2936 0
-2937 -3 0
-2937 333 0
-2938 -44 0
-2938 123 0
-2939 -45 0
-2939 122 0
-167 2937 2938 2939 0
-2940 -4 0
-2940 369 0
-2941 -53 0
-2941 132 0
-2942 -54 0
-2942 131 0
-167 2940 2941 2942 0
-2943 -5 0
-2943 397 0
-2944 -61 0
-2944 140 0
-2945 -62 0
-2945 139 0
-167 2943 2944 2945 0
-2946 -6 0
-2946 418 0
-2947 -68 0
-2947 147 0
-2948 -69 0
-2948 146 0
-167 2946 2947 2948 0
-2949 -7 0
-2949 433 0
-2950 -74 0
-2950 153 0
-2951 -75 0
-2951 152 0
-167 2949 2950 2951 0
-2952 -8 0
-2952 443 0
-2953 -79 0
-2953 158 0
-2954 -80 0
-2954 157 0
-167 2952 2953 2954 0
-2955 -9 0
-2955 449 0
-2956 -83 0
-2956 162 0
-2957 -84 0
-2957 161 0
-167 2955 2956 2957 0
-2958 -10 0
-2958 452 0
-2959 -86 0
-2959 165 0
-2960 -87 0
-2960 164 0
-167 2958 2959 2960 0
-2961 -13 0
-2961 455 0
-2962 -90 0
-2962 169 0
-2963 -91 0
-2963 168 0
-167 2961 2962 2963 0
-2964 -1 0
-2964 234 0
-2965 -23 0
-2965 103 0
-2966 -25 0
-2966 101 0
-168 2964 2965 2966 0
-2967 -2 0
-2967 289 0
-2968 -34 0
-2968 114 0
-2969 -36 0
-2969 112 0
-168 2967 2968 2969 0
-2970 -3 0
-2970 334 0
-2971 -44 0
-2971 124 0
-2972 -46 0
-2972 122 0
-168 2970 2971 2972 0
-2973 -4 0
-2973 370 0
-2974 -53 0
-2974 133 0
-2975 -55 0
-2975 131 0
-168 2973 2974 2975 0
-2976 -5 0
-2976 398 0
-2977 -61 0
-2977 141 0
-2978 -63 0
-2978 139 0
-168 2976 2977 2978 0
-2979 -6 0
-2979 419 0
-2980 -68 0
-2980 148 0
-2981 -70 0
-2981 146 0
-168 2979 2980 2981 0
-2982 -7 0
-2982 434 0
-2983 -74 0
-2983 154 0
-2984 -76 0
-2984 152 0
-168 2982 2983 2984 0
-2985 -8 0
-2985 444 0
-2986 -79 0
-2986 159 0
-2987 -81 0
-2987 157 0
-168 2985 2986 2987 0
-2988 -9 0
-2988 450 0
-2989 -83 0
-2989 163 0
-2990 -85 0
-2990 161 0
-168 2988 2989 2990 0
-2991 -10 0
-2991 453 0
-2992 -86 0
-2992 166 0
-2993 -88 0
-2993 164 0
-168 2991 2992 2993 0
-2994 -12 0
-2994 455 0
-2995 -89 0
-2995 169 0
-2996 -91 0
-2996 167 0
-168 2994 2995 2996 0
-2997 -1 0
-2997 235 0
-2998 -24 0
-2998 103 0
-2999 -25 0
-2999 102 0
-169 2997 2998 2999 0
-3000 -2 0
-3000 290 0
-3001 -35 0
-3001 114 0
-3002 -36 0
-3002 113 0
-169 3000 3001 3002 0
-3003 -3 0
-3003 335 0
-3004 -45 0
-3004 124 0
-3005 -46 0
-3005 123 0
-169 3003 3004 3005 0
-3006 -4 0
-3006 371 0
-3007 -54 0
-3007 133 0
-3008 -55 0
-3008 132 0
-169 3006 3007 3008 0
-3009 -5 0
-3009 399 0
-3010 -62 0
-3010 141 0
-3011 -63 0
-3011 140 0
-169 3009 3010 3011 0
-3012 -6 0
-3012 420 0
-3013 -69 0
-3013 148 0
-3014 -70 0
-3014 147 0
-169 3012 3013 3014 0
-3015 -7 0
-3015 435 0
-3016 -75 0
-3016 154 0
-3017 -76 0
-3017 153 0
-169 3015 3016 3017 0
-3018 -8 0
-3018 445 0
-3019 -80 0
-3019 159 0
-3020 -81 0
-3020 158 0
-169 3018 3019 3020 0
-3021 -9 0
-3021 451 0
-3022 -84 0
-3022 163 0
-3023 -85 0
-3023 162 0
-169 3021 3022 3023 0
-3024 -10 0
-3024 454 0
-3025 -87 0
-3025 166 0
-3026 -88 0
-3026 165 0
-169 3024 3025 3026 0
-3027 -11 0
-3027 455 0
-3028 -89 0
-3028 168 0
-3029 -90 0
-3029 167 0
-169 3027 3028 3029 0
-3030 -1 0
-3030 104 0
-3031 -2 0
-3031 93 0
-3032 -3 0
-3032 92 0
-170 3030 3031 3032 0
-3033 -16 0
-3033 236 0
-3034 -27 0
-3034 181 0
-3035 -37 0
-3035 171 0
-170 3033 3034 3035 0
-3036 -17 0
-3036 237 0
-3037 -28 0
-3037 182 0
-3038 -38 0
-3038 172 0
-170 3036 3037 3038 0
-3039 -18 0
-3039 238 0
-3040 -29 0
-3040 183 0
-3041 -39 0
-3041 173 0
-170 3039 3040 3041 0
-3042 -19 0
-3042 239 0
-3043 -30 0
-3043 184 0
-3044 -40 0
-3044 174 0
-170 3042 3043 3044 0
-3045 -20 0
-3045 240 0
-3046 -31 0
-3046 185 0
-3047 -41 0
-3047 175 0
-170 3045 3046 3047 0
-3048 -21 0
-3048 241 0
-3049 -32 0
-3049 186 0
-3050 -42 0
-3050 176 0
-170 3048 3049 3050 0
-3051 -22 0
-3051 242 0
-3052 -33 0
-3052 187 0
-3053 -43 0
-3053 177 0
-170 3051 3052 3053 0
-3054 -23 0
-3054 243 0
-3055 -34 0
-3055 188 0
-3056 -44 0
-3056 178 0
-170 3054 3055 3056 0
-3057 -24 0
-3057 244 0
-3058 -35 0
-3058 189 0
-3059 -45 0
-3059 179 0
-170 3057 3058 3059 0
-3060 -25 0
-3060 245 0
-3061 -36 0
-3061 190 0
-3062 -46 0
-3062 180 0
-170 3060 3061 3062 0
-3063 -1 0
-3063 105 0
-3064 -2 0
-3064 94 0
-3065 -4 0
-3065 92 0
-171 3063 3064 3065 0
-3066 -15 0
-3066 236 0
-3067 -26 0
-3067 181 0
-3068 -37 0
-3068 170 0
-171 3066 3067 3068 0
-3069 -17 0
-3069 246 0
-3070 -28 0
-3070 191 0
-3071 -47 0
-3071 172 0
-171 3069 3070 3071 0
-3072 -18 0
-3072 247 0
-3073 -29 0
-3073 192 0
-3074 -48 0
-3074 173 0
-171 3072 3073 3074 0
-3075 -19 0
-3075 248 0
-3076 -30 0
-3076 193 0
-3077 -49 0
-3077 174 0
-171 3075 3076 3077 0
-3078 -20 0
-3078 249 0
-3079 -31 0
-3079 194 0
-3080 -50 0
-3080 175 0
-171 3078 3079 3080 0
-3081 -21 0
-3081 250 0
-3082 -32 0
-3082 195 0
-3083 -51 0
-3083 176 0
-171 3081 3082 3083 0
-3084 -22 0
-3084 251 0
-3085 -33 0
-3085 196 0
-3086 -52 0
-3086 177 0
-171 3084 3085 3086 0
-3087 -23 0
-3087 252 0
-3088 -34 0
-3088 197 0
-3089 -53 0
-3089 178 0
-171 3087 3088 3089 0
-3090 -24 0
-3090 253 0
-3091 -35 0
-3091 198 0
-3092 -54 0
-3092 179 0
-171 3090 3091 3092 0
-3093 -25 0
-3093 254 0
-3094 -36 0
-3094 199 0
-3095 -55 0
-3095 180 0
-171 3093 3094 3095 0
-3096 -1 0
-3096 106 0
-3097 -2 0
-3097 95 0
-3098 -5 0
-3098 92 0
-172 3096 3097 3098 0
-3099 -15 0
-3099 237 0
-3100 -26 0
-3100 182 0
-3101 -38 0
-3101 170 0
-172 3099 3100 3101 0
-3102 -16 0
-3102 246 0
-3103 -27 0
-3103 191 0
-3104 -47 0
-3104 171 0
-172 3102 3103 3104 0
-3105 -18 0
-3105 255 0
-3106 -29 0
-3106 200 0
-3107 -56 0
-3107 173 0
-172 3105 3106 3107 0
-3108 -19 0
-3108 256 0
-3109 -30 0
-3109 201 0
-3110 -57 0
-3110 174 0
-172 3108 3109 3110 0
-3111 -20 0
-3111 257 0
-3112 -31 0
-3112 202 0
-3113 -58 0
-3113 175 0
-172 3111 3112 3113 0
-3114 -21 0
-3114 258 0
-3115 -32 0
-3115 203 0
-3116 -59 0
-3116 176 0
-172 3114 3115 3116 0
-3117 -22 0
-3117 259 0
-3118 -33 0
-3118 204 0
-3119 -60 0
-3119 177 0
-172 3117 3118 3119 0
-3120 -23 0
-3120 260 0
-3121 -34 0
-3121 205 0
-3122 -61 0
-3122 178 0
-172 3120 3121 3122 0
-3123 -24 0
-3123 261 0
-3124 -35 0
-3124 206 0
-3125 -62 0
-3125 179 0
-172 3123 3124 3125 0
-3126 -25 0
-3126 262 0
-3127 -36 0
-3127 207 0
-3128 -63 0
-3128 180 0
-172 3126 3127 3128 0
-3129 -1 0
-3129 107 0
-3130 -2 0
-3130 96 0
-3131 -6 0
-3131 92 0
-173 3129 3130 3131 0
-3132 -15 0
-3132 238 0
-3133 -26 0
-3133 183 0
-3134 -39 0
-3134 170 0
-173 3132 3133 3134 0
-3135 -16 0
-3135 247 0
-3136 -27 0
-3136 192 0
-3137 -48 0
-3137 171 0
-173 3135 3136 3137 0
-3138 -17 0
-3138 255 0
-3139 -28 0
-3139 200 0
-3140 -56 0
-3140 172 0
-173 3138 3139 3140 0
-3141 -19 0
-3141 263 0
-3142 -30 0
-3142 208 0
-3143 -64 0
-3143 174 0
-173 3141 3142 3143 0
-3144 -20 0
-3144 264 0
-3145 -31 0
-3145 209 0
-3146 -65 0
-3146 175 0
-173 3144 3145 3146 0
-3147 -21 0
-3147 265 0
-3148 -32 0
-3148 210 0
-3149 -66 0
-3149 176 0
-173 3147 3148 3149 0
-3150 -22 0
-3150 266 0
-3151 -33 0
-3151 211 0
-3152 -67 0
-3152 177 0
-173 3150 3151 3152 0
-3153 -23 0
-3153 267 0
-3154 -34 0
-3154 212 0
-3155 -68 0
-3155 178 0
-173 3153 3154 3155 0
-3156 -24 0
-3156 268 0
-3157 -35 0
-3157 213 0
-3158 -69 0
-3158 179 0
-173 3156 3157 3158 0
-3159 -25 0
-3159 269 0
-3160 -36 0
-3160 214 0
-3161 -70 0
-3161 180 0
-173 3159 3160 3161 0
-3162 -1 0
-3162 108 0
-3163 -2 0
-3163 97 0
-3164 -7 0
-3164 92 0
-174 3162 3163 3164 0
-3165 -15 0
-3165 239 0
-3166 -26 0
-3166 184 0
-3167 -40 0
-3167 170 0
-174 3165 3166 3167 0
-3168 -16 0
-3168 248 0
-3169 -27 0
-3169 193 0
-3170 -49 0
-3170 171 0
-174 3168 3169 3170 0
-3171 -17 0
-3171 256 0
-3172 -28 0
-3172 201 0
-3173 -57 0
-3173 172 0
-174 3171 3172 3173 0
-3174 -18 0
-3174 263 0
-3175 -29 0
-3175 208 0
-3176 -64 0
-3176 173 0
-174 3174 3175 3176 0
-3177 -20 0
-3177 270 0
-3178 -31 0
-3178 215 0
-3179 -71 0
-3179 175 0
-174 3177 3178 3179 0
-3180 -21 0
-3180 271 0
-3181 -32 0
-3181 216 0
-3182 -72 0
-3182 176 0
-174 3180 3181 3182 0
-3183 -22 0
-3183 272 0
-3184 -33 0
-3184 217 0
-3185 -73 0
-3185 177 0
-174 3183 3184 3185 0
-3186 -23 0
-3186 273 0
-3187 -34 0
-3187 218 0
-3188 -74 0
-3188 178 0
-174 3186 3187 3188 0
-3189 -24 0
-3189 274 0
-3190 -35 0
-3190 219 0
-3191 -75 0
-3191 179 0
-174 3189 3190 3191 0
-3192 -25 0
-3192 275 0
-3193 -36 0
-3193 220 0
-3194 -76 0
-3194 180 0
-174 3192 3193 3194 0
-3195 -1 0
-3195 109 0
-3196 -2 0
-3196 98 0
-3197 -8 0
-3197 92 0
-175 3195 3196 3197 0
-3198 -15 0
-3198 240 0
-3199 -26 0
-3199 185 0
-3200 -41 0
-3200 170 0
-175 3198 3199 3200 0
-3201 -16 0
-3201 249 0
-3202 -27 0
-3202 194 0
-3203 -50 0
-3203 171 0
-175 3201 3202 3203 0
-3204 -17 0
-3204 257 0
-3205 -28 0
-3205 202 0
-3206 -58 0
-3206 172 0
-175 3204 3205 3206 0
-3207 -18 0
-3207 264 0
-3208 -29 0
-3208 209 0
-3209 -65 0
-3209 173 0
-175 3207 3208 3209 0
-3210 -19 0
-3210 270 0
-3211 -30 0
-3211 215 0
-3212 -71 0
-3212 174 0
-175 3210 3211 3212 0
-3213 -21 0
-3213 276 0
-3214 -32 0
-3214 221 0
-3215 -77 0
-3215 176 0
-175 3213 3214 3215 0
-3216 -22 0
-3216 277 0
-3217 -33 0
-3217 222 0
-3218 -78 0
-3218 177 0
-175 3216 3217 3218 0
-3219 -23 0
-3219 278 0
-3220 -34 0
-3220 223 0
-3221 -79 0
-3221 178 0
-175 3219 3220 3221 0
-3222 -24 0
-3222 279 0
-3223 -35 0
-3223 224 0
-3224 -80 0
-3224 179 0
-175 3222 3223 3224 0
-3225 -25 0
-3225 280 0
-3226 -36 0
-3226 225 0
-3227 -81 0
-3227 180 0
-175 3225 3226 3227 0
-3228 -1 0
-3228 110 0
-3229 -2 0
-3229 99 0
-3230 -9 0
-3230 92 0
-176 3228 3229 3230 0
-3231 -15 0
-3231 241 0
-3232 -26 0
-3232 186 0
-3233 -42 0
-3233 170 0
-176 3231 3232 3233 0
-3234 -16 0
-3234 250 0
-3235 -27 0
-3235 195 0
-3236 -51 0
-3236 171 0
-176 3234 3235 3236 0
-3237 -17 0
-3237 258 0
-3238 -28 0
-3238 203 0
-3239 -59 0
-3239 172 0
-176 3237 3238 3239 0
-3240 -18 0
-3240 265 0
-3241 -29 0
-3241 210 0
-3242 -66 0
-3242 173 0
-176 3240 3241 3242 0
-3243 -19 0
-3243 271 0
-3244 -30 0
-3244 216 0
-3245 -72 0
-3245 174 0
-176 3243 3244 3245 0
-3246 -20 0
-3246 276 0
-3247 -31 0
-3247 221 0
-3248 -77 0
-3248 175 0
-176 3246 3247 3248 0
-3249 -22 0
-3249 281 0
-3250 -33 0
-3250 226 0
-3251 -82 0
-3251 177 0
-176 3249 3250 3251 0
-3252 -23 0
-3252 282 0
-3253 -34 0
-3253 227 0
-3254 -83 0
-3254 178 0
-176 3252 3253 3254 0
-3255 -24 0
-3255 283 0
-3256 -35 0
-3256 228 0
-3257 -84 0
-3257 179 0
-176 3255 3256 3257 0
-3258 -25 0
-3258 284 0
-3259 -36 0
-3259 229 0
-3260 -85 0
-3260 180 0
-176 3258 3259 3260 0
-3261 -1 0
-3261 111 0
-3262 -2 0
-3262 100 0
-3263 -10 0
-3263 92 0
-177 3261 3262 3263 0
-3264 -15 0
-3264 242 0
-3265 -26 0
-3265 187 0
-3266 -43 0
-3266 170 0
-177 3264 3265 3266 0
-3267 -16 0
-3267 251 0
-3268 -27 0
-3268 196 0
-3269 -52 0
-3269 171 0
-177 3267 3268 3269 0
-3270 -17 0
-3270 259 0
-3271 -28 0
-3271 204 0
-3272 -60 0
-3272 172 0
-177 3270 3271 3272 0
-3273 -18 0
-3273 266 0
-3274 -29 0
-3274 211 0
-3275 -67 0
-3275 173 0
-177 3273 3274 3275 0
-3276 -19 0
-3276 272 0
-3277 -30 0
-3277 217 0
-3278 -73 0
-3278 174 0
-177 3276 3277 3278 0
-3279 -20 0
-3279 277 0
-3280 -31 0
-3280 222 0
-3281 -78 0
-3281 175 0
-177 3279 3280 3281 0
-3282 -21 0
-3282 281 0
-3283 -32 0
-3283 226 0
-3284 -82 0
-3284 176 0
-177 3282 3283 3284 0
-3285 -23 0
-3285 285 0
-3286 -34 0
-3286 230 0
-3287 -86 0
-3287 178 0
-177 3285 3286 3287 0
-3288 -24 0
-3288 286 0
-3289 -35 0
-3289 231 0
-3290 -87 0
-3290 179 0
-177 3288 3289 3290 0
-3291 -25 0
-3291 287 0
-3292 -36 0
-3292 232 0
-3293 -88 0
-3293 180 0
-177 3291 3292 3293 0
-3294 -1 0
-3294 112 0
-3295 -2 0
-3295 101 0
-3296 -11 0
-3296 92 0
-178 3294 3295 3296 0
-3297 -15 0
-3297 243 0
-3298 -26 0
-3298 188 0
-3299 -44 0
-3299 170 0
-178 3297 3298 3299 0
-3300 -16 0
-3300 252 0
-3301 -27 0
-3301 197 0
-3302 -53 0
-3302 171 0
-178 3300 3301 3302 0
-3303 -17 0
-3303 260 0
-3304 -28 0
-3304 205 0
-3305 -61 0
-3305 172 0
-178 3303 3304 3305 0
-3306 -18 0
-3306 267 0
-3307 -29 0
-3307 212 0
-3308 -68 0
-3308 173 0
-178 3306 3307 3308 0
-3309 -19 0
-3309 273 0
-3310 -30 0
-3310 218 0
-3311 -74 0
-3311 174 0
-178 3309 3310 3311 0
-3312 -20 0
-3312 278 0
-3313 -31 0
-3313 223 0
-3314 -79 0
-3314 175 0
-178 3312 3313 3314 0
-3315 -21 0
-3315 282 0
-3316 -32 0
-3316 227 0
-3317 -83 0
-3317 176 0
-178 3315 3316 3317 0
-3318 -22 0
-3318 285 0
-3319 -33 0
-3319 230 0
-3320 -86 0
-3320 177 0
-178 3318 3319 3320 0
-3321 -24 0
-3321 288 0
-3322 -35 0
-3322 233 0
-3323 -89 0
-3323 179 0
-178 3321 3322 3323 0
-3324 -25 0
-3324 289 0
-3325 -36 0
-3325 234 0
-3326 -90 0
-3326 180 0
-178 3324 3325 3326 0
-3327 -1 0
-3327 113 0
-3328 -2 0
-3328 102 0
-3329 -12 0
-3329 92 0
-179 3327 3328 3329 0
-3330 -15 0
-3330 244 0
-3331 -26 0
-3331 189 0
-3332 -45 0
-3332 170 0
-179 3330 3331 3332 0
-3333 -16 0
-3333 253 0
-3334 -27 0
-3334 198 0
-3335 -54 0
-3335 171 0
-179 3333 3334 3335 0
-3336 -17 0
-3336 261 0
-3337 -28 0
-3337 206 0
-3338 -62 0
-3338 172 0
-179 3336 3337 3338 0
-3339 -18 0
-3339 268 0
-3340 -29 0
-3340 213 0
-3341 -69 0
-3341 173 0
-179 3339 3340 3341 0
-3342 -19 0
-3342 274 0
-3343 -30 0
-3343 219 0
-3344 -75 0
-3344 174 0
-179 3342 3343 3344 0
-3345 -20 0
-3345 279 0
-3346 -31 0
-3346 224 0
-3347 -80 0
-3347 175 0
-179 3345 3346 3347 0
-3348 -21 0
-3348 283 0
-3349 -32 0
-3349 228 0
-3350 -84 0
-3350 176 0
-179 3348 3349 3350 0
-3351 -22 0
-3351 286 0
-3352 -33 0
-3352 231 0
-3353 -87 0
-3353 177 0
-179 3351 3352 3353 0
-3354 -23 0
-3354 288 0
-3355 -34 0
-3355 233 0
-3356 -89 0
-3356 178 0
-179 3354 3355 3356 0
-3357 -25 0
-3357 290 0
-3358 -36 0
-3358 235 0
-3359 -91 0
-3359 180 0
-179 3357 3358 3359 0
-3360 -1 0
-3360 114 0
-3361 -2 0
-3361 103 0
-3362 -13 0
-3362 92 0
-180 3360 3361 3362 0
-3363 -15 0
-3363 245 0
-3364 -26 0
-3364 190 0
-3365 -46 0
-3365 170 0
-180 3363 3364 3365 0
-3366 -16 0
-3366 254 0
-3367 -27 0
-3367 199 0
-3368 -55 0
-3368 171 0
-180 3366 3367 3368 0
-3369 -17 0
-3369 262 0
-3370 -28 0
-3370 207 0
-3371 -63 0
-3371 172 0
-180 3369 3370 3371 0
-3372 -18 0
-3372 269 0
-3373 -29 0
-3373 214 0
-3374 -70 0
-3374 173 0
-180 3372 3373 3374 0
-3375 -19 0
-3375 275 0
-3376 -30 0
-3376 220 0
-3377 -76 0
-3377 174 0
-180 3375 3376 3377 0
-3378 -20 0
-3378 280 0
-3379 -31 0
-3379 225 0
-3380 -81 0
-3380 175 0
-180 3378 3379 3380 0
-3381 -21 0
-3381 284 0
-3382 -32 0
-3382 229 0
-3383 -85 0
-3383 176 0
-180 3381 3382 3383 0
-3384 -22 0
-3384 287 0
-3385 -33 0
-3385 232 0
-3386 -88 0
-3386 177 0
-180 3384 3385 3386 0
-3387 -23 0
-3387 289 0
-3388 -34 0
-3388 234 0
-3389 -90 0
-3389 178 0
-180 3387 3388 3389 0
-3390 -24 0
-3390 290 0
-3391 -35 0
-3391 235 0
-3392 -91 0
-3392 179 0
-180 3390 3391 3392 0
-3393 -1 0
-3393 115 0
-3394 -3 0
-3394 94 0
-3395 -4 0
-3395 93 0
-181 3393 3394 3395 0
-3396 -14 0
-3396 236 0
-3397 -26 0
-3397 171 0
-3398 -27 0
-3398 170 0
-181 3396 3397 3398 0
-3399 -17 0
-3399 291 0
-3400 -38 0
-3400 191 0
-3401 -47 0
-3401 182 0
-181 3399 3400 3401 0
-3402 -18 0
-3402 292 0
-3403 -39 0
-3403 192 0
-3404 -48 0
-3404 183 0
-181 3402 3403 3404 0
-3405 -19 0
-3405 293 0
-3406 -40 0
-3406 193 0
-3407 -49 0
-3407 184 0
-181 3405 3406 3407 0
-3408 -20 0
-3408 294 0
-3409 -41 0
-3409 194 0
-3410 -50 0
-3410 185 0
-181 3408 3409 3410 0
-3411 -21 0
-3411 295 0
-3412 -42 0
-3412 195 0
-3413 -51 0
-3413 186 0
-181 3411 3412 3413 0
-3414 -22 0
-3414 296 0
-3415 -43 0
-3415 196 0
-3416 -52 0
-3416 187 0
-181 3414 3415 3416 0
-3417 -23 0
-3417 297 0
-3418 -44 0
-3418 197 0
-3419 -53 0
-3419 188 0
-181 3417 3418 3419 0
-3420 -24 0
-3420 298 0
-3421 -45 0
-3421 198 0
-3422 -54 0
-3422 189 0
-181 3420 3421 3422 0
-3423 -25 0
-3423 299 0
-3424 -46 0
-3424 199 0
-3425 -55 0
-3425 190 0
-181 3423 3424 3425 0
-3426 -1 0
-3426 116 0
-3427 -3 0
-3427 95 0
-3428 -5 0
-3428 93 0
-182 3426 3427 3428 0
-3429 -14 0
-3429 237 0
-3430 -26 0
-3430 172 0
-3431 -28 0
-3431 170 0
-182 3429 3430 3431 0
-3432 -16 0
-3432 291 0
-3433 -37 0
-3433 191 0
-3434 -47 0
-3434 181 0
-182 3432 3433 3434 0
-3435 -18 0
-3435 300 0
-3436 -39 0
-3436 200 0
-3437 -56 0
-3437 183 0
-182 3435 3436 3437 0
-3438 -19 0
-3438 301 0
-3439 -40 0
-3439 201 0
-3440 -57 0
-3440 184 0
-182 3438 3439 3440 0
-3441 -20 0
-3441 302 0
-3442 -41 0
-3442 202 0
-3443 -58 0
-3443 185 0
-182 3441 3442 3443 0
-3444 -21 0
-3444 303 0
-3445 -42 0
-3445 203 0
-3446 -59 0
-3446 186 0
-182 3444 3445 3446 0
-3447 -22 0
-3447 304 0
-3448 -43 0
-3448 204 0
-3449 -60 0
-3449 187 0
-182 3447 3448 3449 0
-3450 -23 0
-3450 305 0
-3451 -44 0
-3451 205 0
-3452 -61 0
-3452 188 0
-182 3450 3451 3452 0
-3453 -24 0
-3453 306 0
-3454 -45 0
-3454 206 0
-3455 -62 0
-3455 189 0
-182 3453 3454 3455 0
-3456 -25 0
-3456 307 0
-3457 -46 0
-3457 207 0
-3458 -63 0
-3458 190 0
-182 3456 3457 3458 0
-3459 -1 0
-3459 117 0
-3460 -3 0
-3460 96 0
-3461 -6 0
-3461 93 0
-183 3459 3460 3461 0
-3462 -14 0
-3462 238 0
-3463 -26 0
-3463 173 0
-3464 -29 0
-3464 170 0
-183 3462 3463 3464 0
-3465 -16 0
-3465 292 0
-3466 -37 0
-3466 192 0
-3467 -48 0
-3467 181 0
-183 3465 3466 3467 0
-3468 -17 0
-3468 300 0
-3469 -38 0
-3469 200 0
-3470 -56 0
-3470 182 0
-183 3468 3469 3470 0
-3471 -19 0
-3471 308 0
-3472 -40 0
-3472 208 0
-3473 -64 0
-3473 184 0
-183 3471 3472 3473 0
-3474 -20 0
-3474 309 0
-3475 -41 0
-3475 209 0
-3476 -65 0
-3476 185 0
-183 3474 3475 3476 0
-3477 -21 0
-3477 310 0
-3478 -42 0
-3478 210 0
-3479 -66 0
-3479 186 0
-183 3477 3478 3479 0
-3480 -22 0
-3480 311 0
-3481 -43 0
-3481 211 0
-3482 -67 0
-3482 187 0
-183 3480 3481 3482 0
-3483 -23 0
-3483 312 0
-3484 -44 0
-3484 212 0
-3485 -68 0
-3485 188 0
-183 3483 3484 3485 0
-3486 -24 0
-3486 313 0
-3487 -45 0
-3487 213 0
-3488 -69 0
-3488 189 0
-183 3486 3487 3488 0
-3489 -25 0
-3489 314 0
-3490 -46 0
-3490 214 0
-3491 -70 0
-3491 190 0
-183 3489 3490 3491 0
-3492 -1 0
-3492 118 0
-3493 -3 0
-3493 97 0
-3494 -7 0
-3494 93 0
-184 3492 3493 3494 0
-3495 -14 0
-3495 239 0
-3496 -26 0
-3496 174 0
-3497 -30 0
-3497 170 0
-184 3495 3496 3497 0
-3498 -16 0
-3498 293 0
-3499 -37 0
-3499 193 0
-3500 -49 0
-3500 181 0
-184 3498 3499 3500 0
-3501 -17 0
-3501 301 0
-3502 -38 0
-3502 201 0
-3503 -57 0
-3503 182 0
-184 3501 3502 3503 0
-3504 -18 0
-3504 308 0
-3505 -39 0
-3505 208 0
-3506 -64 0
-3506 183 0
-184 3504 3505 3506 0
-3507 -20 0
-3507 315 0
-3508 -41 0
-3508 215 0
-3509 -71 0
-3509 185 0
-184 3507 3508 3509 0
-3510 -21 0
-3510 316 0
-3511 -42 0
-3511 216 0
-3512 -72 0
-3512 186 0
-184 3510 3511 3512 0
-3513 -22 0
-3513 317 0
-3514 -43 0
-3514 217 0
-3515 -73 0
-3515 187 0
-184 3513 3514 3515 0
-3516 -23 0
-3516 318 0
-3517 -44 0
-3517 218 0
-3518 -74 0
-3518 188 0
-184 3516 3517 3518 0
-3519 -24 0
-3519 319 0
-3520 -45 0
-3520 219 0
-3521 -75 0
-3521 189 0
-184 3519 3520 3521 0
-3522 -25 0
-3522 320 0
-3523 -46 0
-3523 220 0
-3524 -76 0
-3524 190 0
-184 3522 3523 3524 0
-3525 -1 0
-3525 119 0
-3526 -3 0
-3526 98 0
-3527 -8 0
-3527 93 0
-185 3525 3526 3527 0
-3528 -14 0
-3528 240 0
-3529 -26 0
-3529 175 0
-3530 -31 0
-3530 170 0
-185 3528 3529 3530 0
-3531 -16 0
-3531 294 0
-3532 -37 0
-3532 194 0
-3533 -50 0
-3533 181 0
-185 3531 3532 3533 0
-3534 -17 0
-3534 302 0
-3535 -38 0
-3535 202 0
-3536 -58 0
-3536 182 0
-185 3534 3535 3536 0
-3537 -18 0
-3537 309 0
-3538 -39 0
-3538 209 0
-3539 -65 0
-3539 183 0
-185 3537 3538 3539 0
-3540 -19 0
-3540 315 0
-3541 -40 0
-3541 215 0
-3542 -71 0
-3542 184 0
-185 3540 3541 3542 0
-3543 -21 0
-3543 321 0
-3544 -42 0
-3544 221 0
-3545 -77 0
-3545 186 0
-185 3543 3544 3545 0
-3546 -22 0
-3546 322 0
-3547 -43 0
-3547 222 0
-3548 -78 0
-3548 187 0
-185 3546 3547 3548 0
-3549 -23 0
-3549 323 0
-3550 -44 0
-3550 223 0
-3551 -79 0
-3551 188 0
-185 3549 3550 3551 0
-3552 -24 0
-3552 324 0
-3553 -45 0
-3553 224 0
-3554 -80 0
-3554 189 0
-185 3552 3553 3554 0
-3555 -25 0
-3555 325 0
-3556 -46 0
-3556 225 0
-3557 -81 0
-3557 190 0
-185 3555 3556 3557 0
-3558 -1 0
-3558 120 0
-3559 -3 0
-3559 99 0
-3560 -9 0
-3560 93 0
-186 3558 3559 3560 0
-3561 -14 0
-3561 241 0
-3562 -26 0
-3562 176 0
-3563 -32 0
-3563 170 0
-186 3561 3562 3563 0
-3564 -16 0
-3564 295 0
-3565 -37 0
-3565 195 0
-3566 -51 0
-3566 181 0
-186 3564 3565 3566 0
-3567 -17 0
-3567 303 0
-3568 -38 0
-3568 203 0
-3569 -59 0
-3569 182 0
-186 3567 3568 3569 0
-3570 -18 0
-3570 310 0
-3571 -39 0
-3571 210 0
-3572 -66 0
-3572 183 0
-186 3570 3571 3572 0
-3573 -19 0
-3573 316 0
-3574 -40 0
-3574 216 0
-3575 -72 0
-3575 184 0
-186 3573 3574 3575 0
-3576 -20 0
-3576 321 0
-3577 -41 0
-3577 221 0
-3578 -77 0
-3578 185 0
-186 3576 3577 3578 0
-3579 -22 0
-3579 326 0
-3580 -43 0
-3580 226 0
-3581 -82 0
-3581 187 0
-186 3579 3580 3581 0
-3582 -23 0
-3582 327 0
-3583 -44 0
-3583 227 0
-3584 -83 0
-3584 188 0
-186 3582 3583 3584 0
-3585 -24 0
-3585 328 0
-3586 -45 0
-3586 228 0
-3587 -84 0
-3587 189 0
-186 3585 3586 3587 0
-3588 -25 0
-3588 329 0
-3589 -46 0
-3589 229 0
-3590 -85 0
-3590 190 0
-186 3588 3589 3590 0
-3591 -1 0
-3591 121 0
-3592 -3 0
-3592 100 0
-3593 -10 0
-3593 93 0
-187 3591 3592 3593 0
-3594 -14 0
-3594 242 0
-3595 -26 0
-3595 177 0
-3596 -33 0
-3596 170 0
-187 3594 3595 3596 0
-3597 -16 0
-3597 296 0
-3598 -37 0
-3598 196 0
-3599 -52 0
-3599 181 0
-187 3597 3598 3599 0
-3600 -17 0
-3600 304 0
-3601 -38 0
-3601 204 0
-3602 -60 0
-3602 182 0
-187 3600 3601 3602 0
-3603 -18 0
-3603 311 0
-3604 -39 0
-3604 211 0
-3605 -67 0
-3605 183 0
-187 3603 3604 3605 0
-3606 -19 0
-3606 317 0
-3607 -40 0
-3607 217 0
-3608 -73 0
-3608 184 0
-187 3606 3607 3608 0
-3609 -20 0
-3609 322 0
-3610 -41 0
-3610 222 0
-3611 -78 0
-3611 185 0
-187 3609 3610 3611 0
-3612 -21 0
-3612 326 0
-3613 -42 0
-3613 226 0
-3614 -82 0
-3614 186 0
-187 3612 3613 3614 0
-3615 -23 0
-3615 330 0
-3616 -44 0
-3616 230 0
-3617 -86 0
-3617 188 0
-187 3615 3616 3617 0
-3618 -24 0
-3618 331 0
-3619 -45 0
-3619 231 0
-3620 -87 0
-3620 189 0
-187 3618 3619 3620 0
-3621 -25 0
-3621 332 0
-3622 -46 0
-3622 232 0
-3623 -88 0
-3623 190 0
-187 3621 3622 3623 0
-3624 -1 0
-3624 122 0
-3625 -3 0
-3625 101 0
-3626 -11 0
-3626 93 0
-188 3624 3625 3626 0
-3627 -14 0
-3627 243 0
-3628 -26 0
-3628 178 0
-3629 -34 0
-3629 170 0
-188 3627 3628 3629 0
-3630 -16 0
-3630 297 0
-3631 -37 0
-3631 197 0
-3632 -53 0
-3632 181 0
-188 3630 3631 3632 0
-3633 -17 0
-3633 305 0
-3634 -38 0
-3634 205 0
-3635 -61 0
-3635 182 0
-188 3633 3634 3635 0
-3636 -18 0
-3636 312 0
-3637 -39 0
-3637 212 0
-3638 -68 0
-3638 183 0
-188 3636 3637 3638 0
-3639 -19 0
-3639 318 0
-3640 -40 0
-3640 218 0
-3641 -74 0
-3641 184 0
-188 3639 3640 3641 0
-3642 -20 0
-3642 323 0
-3643 -41 0
-3643 223 0
-3644 -79 0
-3644 185 0
-188 3642 3643 3644 0
-3645 -21 0
-3645 327 0
-3646 -42 0
-3646 227 0
-3647 -83 0
-3647 186 0
-188 3645 3646 3647 0
-3648 -22 0
-3648 330 0
-3649 -43 0
-3649 230 0
-3650 -86 0
-3650 187 0
-188 3648 3649 3650 0
-3651 -24 0
-3651 333 0
-3652 -45 0
-3652 233 0
-3653 -89 0
-3653 189 0
-188 3651 3652 3653 0
-3654 -25 0
-3654 334 0
-3655 -46 0
-3655 234 0
-3656 -90 0
-3656 190 0
-188 3654 3655 3656 0
-3657 -1 0
-3657 123 0
-3658 -3 0
-3658 102 0
-3659 -12 0
-3659 93 0
-189 3657 3658 3659 0
-3660 -14 0
-3660 244 0
-3661 -26 0
-3661 179 0
-3662 -35 0
-3662 170 0
-189 3660 3661 3662 0
-3663 -16 0
-3663 298 0
-3664 -37 0
-3664 198 0
-3665 -54 0
-3665 181 0
-189 3663 3664 3665 0
-3666 -17 0
-3666 306 0
-3667 -38 0
-3667 206 0
-3668 -62 0
-3668 182 0
-189 3666 3667 3668 0
-3669 -18 0
-3669 313 0
-3670 -39 0
-3670 213 0
-3671 -69 0
-3671 183 0
-189 3669 3670 3671 0
-3672 -19 0
-3672 319 0
-3673 -40 0
-3673 219 0
-3674 -75 0
-3674 184 0
-189 3672 3673 3674 0
-3675 -20 0
-3675 324 0
-3676 -41 0
-3676 224 0
-3677 -80 0
-3677 185 0
-189 3675 3676 3677 0
-3678 -21 0
-3678 328 0
-3679 -42 0
-3679 228 0
-3680 -84 0
-3680 186 0
-189 3678 3679 3680 0
-3681 -22 0
-3681 331 0
-3682 -43 0
-3682 231 0
-3683 -87 0
-3683 187 0
-189 3681 3682 3683 0
-3684 -23 0
-3684 333 0
-3685 -44 0
-3685 233 0
-3686 -89 0
-3686 188 0
-189 3684 3685 3686 0
-3687 -25 0
-3687 335 0
-3688 -46 0
-3688 235 0
-3689 -91 0
-3689 190 0
-189 3687 3688 3689 0
-3690 -1 0
-3690 124 0
-3691 -3 0
-3691 103 0
-3692 -13 0
-3692 93 0
-190 3690 3691 3692 0
-3693 -14 0
-3693 245 0
-3694 -26 0
-3694 180 0
-3695 -36 0
-3695 170 0
-190 3693 3694 3695 0
-3696 -16 0
-3696 299 0
-3697 -37 0
-3697 199 0
-3698 -55 0
-3698 181 0
-190 3696 3697 3698 0
-3699 -17 0
-3699 307 0
-3700 -38 0
-3700 207 0
-3701 -63 0
-3701 182 0
-190 3699 3700 3701 0
-3702 -18 0
-3702 314 0
-3703 -39 0
-3703 214 0
-3704 -70 0
-3704 183 0
-190 3702 3703 3704 0
-3705 -19 0
-3705 320 0
-3706 -40 0
-3706 220 0
-3707 -76 0
-3707 184 0
-190 3705 3706 3707 0
-3708 -20 0
-3708 325 0
-3709 -41 0
-3709 225 0
-3710 -81 0
-3710 185 0
-190 3708 3709 3710 0
-3711 -21 0
-3711 329 0
-3712 -42 0
-3712 229 0
-3713 -85 0
-3713 186 0
-190 3711 3712 3713 0
-3714 -22 0
-3714 332 0
-3715 -43 0
-3715 232 0
-3716 -88 0
-3716 187 0
-190 3714 3715 3716 0
-3717 -23 0
-3717 334 0
-3718 -44 0
-3718 234 0
-3719 -90 0
-3719 188 0
-190 3717 3718 3719 0
-3720 -24 0
-3720 335 0
-3721 -45 0
-3721 235 0
-3722 -91 0
-3722 189 0
-190 3720 3721 3722 0
-3723 -1 0
-3723 125 0
-3724 -4 0
-3724 95 0
-3725 -5 0
-3725 94 0
-191 3723 3724 3725 0
-3726 -14 0
-3726 246 0
-3727 -27 0
-3727 172 0
-3728 -28 0
-3728 171 0
-191 3726 3727 3728 0
-3729 -15 0
-3729 291 0
-3730 -37 0
-3730 182 0
-3731 -38 0
-3731 181 0
-191 3729 3730 3731 0
-3732 -18 0
-3732 336 0
-3733 -48 0
-3733 200 0
-3734 -56 0
-3734 192 0
-191 3732 3733 3734 0
-3735 -19 0
-3735 337 0
-3736 -49 0
-3736 201 0
-3737 -57 0
-3737 193 0
-191 3735 3736 3737 0
-3738 -20 0
-3738 338 0
-3739 -50 0
-3739 202 0
-3740 -58 0
-3740 194 0
-191 3738 3739 3740 0
-3741 -21 0
-3741 339 0
-3742 -51 0
-3742 203 0
-3743 -59 0
-3743 195 0
-191 3741 3742 3743 0
-3744 -22 0
-3744 340 0
-3745 -52 0
-3745 204 0
-3746 -60 0
-3746 196 0
-191 3744 3745 3746 0
-3747 -23 0
-3747 341 0
-3748 -53 0
-3748 205 0
-3749 -61 0
-3749 197 0
-191 3747 3748 3749 0
-3750 -24 0
-3750 342 0
-3751 -54 0
-3751 206 0
-3752 -62 0
-3752 198 0
-191 3750 3751 3752 0
-3753 -25 0
-3753 343 0
-3754 -55 0
-3754 207 0
-3755 -63 0
-3755 199 0
-191 3753 3754 3755 0
-3756 -1 0
-3756 126 0
-3757 -4 0
-3757 96 0
-3758 -6 0
-3758 94 0
-192 3756 3757 3758 0
-3759 -14 0
-3759 247 0
-3760 -27 0
-3760 173 0
-3761 -29 0
-3761 171 0
-192 3759 3760 3761 0
-3762 -15 0
-3762 292 0
-3763 -37 0
-3763 183 0
-3764 -39 0
-3764 181 0
-192 3762 3763 3764 0
-3765 -17 0
-3765 336 0
-3766 -47 0
-3766 200 0
-3767 -56 0
-3767 191 0
-192 3765 3766 3767 0
-3768 -19 0
-3768 344 0
-3769 -49 0
-3769 208 0
-3770 -64 0
-3770 193 0
-192 3768 3769 3770 0
-3771 -20 0
-3771 345 0
-3772 -50 0
-3772 209 0
-3773 -65 0
-3773 194 0
-192 3771 3772 3773 0
-3774 -21 0
-3774 346 0
-3775 -51 0
-3775 210 0
-3776 -66 0
-3776 195 0
-192 3774 3775 3776 0
-3777 -22 0
-3777 347 0
-3778 -52 0
-3778 211 0
-3779 -67 0
-3779 196 0
-192 3777 3778 3779 0
-3780 -23 0
-3780 348 0
-3781 -53 0
-3781 212 0
-3782 -68 0
-3782 197 0
-192 3780 3781 3782 0
-3783 -24 0
-3783 349 0
-3784 -54 0
-3784 213 0
-3785 -69 0
-3785 198 0
-192 3783 3784 3785 0
-3786 -25 0
-3786 350 0
-3787 -55 0
-3787 214 0
-3788 -70 0
-3788 199 0
-192 3786 3787 3788 0
-3789 -1 0
-3789 127 0
-3790 -4 0
-3790 97 0
-3791 -7 0
-3791 94 0
-193 3789 3790 3791 0
-3792 -14 0
-3792 248 0
-3793 -27 0
-3793 174 0
-3794 -30 0
-3794 171 0
-193 3792 3793 3794 0
-3795 -15 0
-3795 293 0
-3796 -37 0
-3796 184 0
-3797 -40 0
-3797 181 0
-193 3795 3796 3797 0
-3798 -17 0
-3798 337 0
-3799 -47 0
-3799 201 0
-3800 -57 0
-3800 191 0
-193 3798 3799 3800 0
-3801 -18 0
-3801 344 0
-3802 -48 0
-3802 208 0
-3803 -64 0
-3803 192 0
-193 3801 3802 3803 0
-3804 -20 0
-3804 351 0
-3805 -50 0
-3805 215 0
-3806 -71 0
-3806 194 0
-193 3804 3805 3806 0
-3807 -21 0
-3807 352 0
-3808 -51 0
-3808 216 0
-3809 -72 0
-3809 195 0
-193 3807 3808 3809 0
-3810 -22 0
-3810 353 0
-3811 -52 0
-3811 217 0
-3812 -73 0
-3812 196 0
-193 3810 3811 3812 0
-3813 -23 0
-3813 354 0
-3814 -53 0
-3814 218 0
-3815 -74 0
-3815 197 0
-193 3813 3814 3815 0
-3816 -24 0
-3816 355 0
-3817 -54 0
-3817 219 0
-3818 -75 0
-3818 198 0
-193 3816 3817 3818 0
-3819 -25 0
-3819 356 0
-3820 -55 0
-3820 220 0
-3821 -76 0
-3821 199 0
-193 3819 3820 3821 0
-3822 -1 0
-3822 128 0
-3823 -4 0
-3823 98 0
-3824 -8 0
-3824 94 0
-194 3822 3823 3824 0
-3825 -14 0
-3825 249 0
-3826 -27 0
-3826 175 0
-3827 -31 0
-3827 171 0
-194 3825 3826 3827 0
-3828 -15 0
-3828 294 0
-3829 -37 0
-3829 185 0
-3830 -41 0
-3830 181 0
-194 3828 3829 3830 0
-3831 -17 0
-3831 338 0
-3832 -47 0
-3832 202 0
-3833 -58 0
-3833 191 0
-194 3831 3832 3833 0
-3834 -18 0
-3834 345 0
-3835 -48 0
-3835 209 0
-3836 -65 0
-3836 192 0
-194 3834 3835 3836 0
-3837 -19 0
-3837 351 0
-3838 -49 0
-3838 215 0
-3839 -71 0
-3839 193 0
-194 3837 3838 3839 0
-3840 -21 0
-3840 357 0
-3841 -51 0
-3841 221 0
-3842 -77 0
-3842 195 0
-194 3840 3841 3842 0
-3843 -22 0
-3843 358 0
-3844 -52 0
-3844 222 0
-3845 -78 0
-3845 196 0
-194 3843 3844 3845 0
-3846 -23 0
-3846 359 0
-3847 -53 0
-3847 223 0
-3848 -79 0
-3848 197 0
-194 3846 3847 3848 0
-3849 -24 0
-3849 360 0
-3850 -54 0
-3850 224 0
-3851 -80 0
-3851 198 0
-194 3849 3850 3851 0
-3852 -25 0
-3852 361 0
-3853 -55 0
-3853 225 0
-3854 -81 0
-3854 199 0
-194 3852 3853 3854 0
-3855 -1 0
-3855 129 0
-3856 -4 0
-3856 99 0
-3857 -9 0
-3857 94 0
-195 3855 3856 3857 0
-3858 -14 0
-3858 250 0
-3859 -27 0
-3859 176 0
-3860 -32 0
-3860 171 0
-195 3858 3859 3860 0
-3861 -15 0
-3861 295 0
-3862 -37 0
-3862 186 0
-3863 -42 0
-3863 181 0
-195 3861 3862 3863 0
-3864 -17 0
-3864 339 0
-3865 -47 0
-3865 203 0
-3866 -59 0
-3866 191 0
-195 3864 3865 3866 0
-3867 -18 0
-3867 346 0
-3868 -48 0
-3868 210 0
-3869 -66 0
-3869 192 0
-195 3867 3868 3869 0
-3870 -19 0
-3870 352 0
-3871 -49 0
-3871 216 0
-3872 -72 0
-3872 193 0
-195 3870 3871 3872 0
-3873 -20 0
-3873 357 0
-3874 -50 0
-3874 221 0
-3875 -77 0
-3875 194 0
-195 3873 3874 3875 0
-3876 -22 0
-3876 362 0
-3877 -52 0
-3877 226 0
-3878 -82 0
-3878 196 0
-195 3876 3877 3878 0
-3879 -23 0
-3879 363 0
-3880 -53 0
-3880 227 0
-3881 -83 0
-3881 197 0
-195 3879 3880 3881 0
-3882 -24 0
-3882 364 0
-3883 -54 0
-3883 228 0
-3884 -84 0
-3884 198 0
-195 3882 3883 3884 0
-3885 -25 0
-3885 365 0
-3886 -55 0
-3886 229 0
-3887 -85 0
-3887 199 0
-195 3885 3886 3887 0
-3888 -1 0
-3888 130 0
-3889 -4 0
-3889 100 0
-3890 -10 0
-3890 94 0
-196 3888 3889 3890 0
-3891 -14 0
-3891 251 0
-3892 -27 0
-3892 177 0
-3893 -33 0
-3893 171 0
-196 3891 3892 3893 0
-3894 -15 0
-3894 296 0
-3895 -37 0
-3895 187 0
-3896 -43 0
-3896 181 0
-196 3894 3895 3896 0
-3897 -17 0
-3897 340 0
-3898 -47 0
-3898 204 0
-3899 -60 0
-3899 191 0
-196 3897 3898 3899 0
-3900 -18 0
-3900 347 0
-3901 -48 0
-3901 211 0
-3902 -67 0
-3902 192 0
-196 3900 3901 3902 0
-3903 -19 0
-3903 353 0
-3904 -49 0
-3904 217 0
-3905 -73 0
-3905 193 0
-196 3903 3904 3905 0
-3906 -20 0
-3906 358 0
-3907 -50 0
-3907 222 0
-3908 -78 0
-3908 194 0
-196 3906 3907 3908 0
-3909 -21 0
-3909 362 0
-3910 -51 0
-3910 226 0
-3911 -82 0
-3911 195 0
-196 3909 3910 3911 0
-3912 -23 0
-3912 366 0
-3913 -53 0
-3913 230 0
-3914 -86 0
-3914 197 0
-196 3912 3913 3914 0
-3915 -24 0
-3915 367 0
-3916 -54 0
-3916 231 0
-3917 -87 0
-3917 198 0
-196 3915 3916 3917 0
-3918 -25 0
-3918 368 0
-3919 -55 0
-3919 232 0
-3920 -88 0
-3920 199 0
-196 3918 3919 3920 0
-3921 -1 0
-3921 131 0
-3922 -4 0
-3922 101 0
-3923 -11 0
-3923 94 0
-197 3921 3922 3923 0
-3924 -14 0
-3924 252 0
-3925 -27 0
-3925 178 0
-3926 -34 0
-3926 171 0
-197 3924 3925 3926 0
-3927 -15 0
-3927 297 0
-3928 -37 0
-3928 188 0
-3929 -44 0
-3929 181 0
-197 3927 3928 3929 0
-3930 -17 0
-3930 341 0
-3931 -47 0
-3931 205 0
-3932 -61 0
-3932 191 0
-197 3930 3931 3932 0
-3933 -18 0
-3933 348 0
-3934 -48 0
-3934 212 0
-3935 -68 0
-3935 192 0
-197 3933 3934 3935 0
-3936 -19 0
-3936 354 0
-3937 -49 0
-3937 218 0
-3938 -74 0
-3938 193 0
-197 3936 3937 3938 0
-3939 -20 0
-3939 359 0
-3940 -50 0
-3940 223 0
-3941 -79 0
-3941 194 0
-197 3939 3940 3941 0
-3942 -21 0
-3942 363 0
-3943 -51 0
-3943 227 0
-3944 -83 0
-3944 195 0
-197 3942 3943 3944 0
-3945 -22 0
-3945 366 0
-3946 -52 0
-3946 230 0
-3947 -86 0
-3947 196 0
-197 3945 3946 3947 0
-3948 -24 0
-3948 369 0
-3949 -54 0
-3949 233 0
-3950 -89 0
-3950 198 0
-197 3948 3949 3950 0
-3951 -25 0
-3951 370 0
-3952 -55 0
-3952 234 0
-3953 -90 0
-3953 199 0
-197 3951 3952 3953 0
-3954 -1 0
-3954 132 0
-3955 -4 0
-3955 102 0
-3956 -12 0
-3956 94 0
-198 3954 3955 3956 0
-3957 -14 0
-3957 253 0
-3958 -27 0
-3958 179 0
-3959 -35 0
-3959 171 0
-198 3957 3958 3959 0
-3960 -15 0
-3960 298 0
-3961 -37 0
-3961 189 0
-3962 -45 0
-3962 181 0
-198 3960 3961 3962 0
-3963 -17 0
-3963 342 0
-3964 -47 0
-3964 206 0
-3965 -62 0
-3965 191 0
-198 3963 3964 3965 0
-3966 -18 0
-3966 349 0
-3967 -48 0
-3967 213 0
-3968 -69 0
-3968 192 0
-198 3966 3967 3968 0
-3969 -19 0
-3969 355 0
-3970 -49 0
-3970 219 0
-3971 -75 0
-3971 193 0
-198 3969 3970 3971 0
-3972 -20 0
-3972 360 0
-3973 -50 0
-3973 224 0
-3974 -80 0
-3974 194 0
-198 3972 3973 3974 0
-3975 -21 0
-3975 364 0
-3976 -51 0
-3976 228 0
-3977 -84 0
-3977 195 0
-198 3975 3976 3977 0
-3978 -22 0
-3978 367 0
-3979 -52 0
-3979 231 0
-3980 -87 0
-3980 196 0
-198 3978 3979 3980 0
-3981 -23 0
-3981 369 0
-3982 -53 0
-3982 233 0
-3983 -89 0
-3983 197 0
-198 3981 3982 3983 0
-3984 -25 0
-3984 371 0
-3985 -55 0
-3985 235 0
-3986 -91 0
-3986 199 0
-198 3984 3985 3986 0
-3987 -1 0
-3987 133 0
-3988 -4 0
-3988 103 0
-3989 -13 0
-3989 94 0
-199 3987 3988 3989 0
-3990 -14 0
-3990 254 0
-3991 -27 0
-3991 180 0
-3992 -36 0
-3992 171 0
-199 3990 3991 3992 0
-3993 -15 0
-3993 299 0
-3994 -37 0
-3994 190 0
-3995 -46 0
-3995 181 0
-199 3993 3994 3995 0
-3996 -17 0
-3996 343 0
-3997 -47 0
-3997 207 0
-3998 -63 0
-3998 191 0
-199 3996 3997 3998 0
-3999 -18 0
-3999 350 0
-4000 -48 0
-4000 214 0
-4001 -70 0
-4001 192 0
-199 3999 4000 4001 0
-4002 -19 0
-4002 356 0
-4003 -49 0
-4003 220 0
-4004 -76 0
-4004 193 0
-199 4002 4003 4004 0
-4005 -20 0
-4005 361 0
-4006 -50 0
-4006 225 0
-4007 -81 0
-4007 194 0
-199 4005 4006 4007 0
-4008 -21 0
-4008 365 0
-4009 -51 0
-4009 229 0
-4010 -85 0
-4010 195 0
-199 4008 4009 4010 0
-4011 -22 0
-4011 368 0
-4012 -52 0
-4012 232 0
-4013 -88 0
-4013 196 0
-199 4011 4012 4013 0
-4014 -23 0
-4014 370 0
-4015 -53 0
-4015 234 0
-4016 -90 0
-4016 197 0
-199 4014 4015 4016 0
-4017 -24 0
-4017 371 0
-4018 -54 0
-4018 235 0
-4019 -91 0
-4019 198 0
-199 4017 4018 4019 0
-4020 -1 0
-4020 134 0
-4021 -5 0
-4021 96 0
-4022 -6 0
-4022 95 0
-200 4020 4021 4022 0
-4023 -14 0
-4023 255 0
-4024 -28 0
-4024 173 0
-4025 -29 0
-4025 172 0
-200 4023 4024 4025 0
-4026 -15 0
-4026 300 0
-4027 -38 0
-4027 183 0
-4028 -39 0
-4028 182 0
-200 4026 4027 4028 0
-4029 -16 0
-4029 336 0
-4030 -47 0
-4030 192 0
-4031 -48 0
-4031 191 0
-200 4029 4030 4031 0
-4032 -19 0
-4032 372 0
-4033 -57 0
-4033 208 0
-4034 -64 0
-4034 201 0
-200 4032 4033 4034 0
-4035 -20 0
-4035 373 0
-4036 -58 0
-4036 209 0
-4037 -65 0
-4037 202 0
-200 4035 4036 4037 0
-4038 -21 0
-4038 374 0
-4039 -59 0
-4039 210 0
-4040 -66 0
-4040 203 0
-200 4038 4039 4040 0
-4041 -22 0
-4041 375 0
-4042 -60 0
-4042 211 0
-4043 -67 0
-4043 204 0
-200 4041 4042 4043 0
-4044 -23 0
-4044 376 0
-4045 -61 0
-4045 212 0
-4046 -68 0
-4046 205 0
-200 4044 4045 4046 0
-4047 -24 0
-4047 377 0
-4048 -62 0
-4048 213 0
-4049 -69 0
-4049 206 0
-200 4047 4048 4049 0
-4050 -25 0
-4050 378 0
-4051 -63 0
-4051 214 0
-4052 -70 0
-4052 207 0
-200 4050 4051 4052 0
-4053 -1 0
-4053 135 0
-4054 -5 0
-4054 97 0
-4055 -7 0
-4055 95 0
-201 4053 4054 4055 0
-4056 -14 0
-4056 256 0
-4057 -28 0
-4057 174 0
-4058 -30 0
-4058 172 0
-201 4056 4057 4058 0
-4059 -15 0
-4059 301 0
-4060 -38 0
-4060 184 0
-4061 -40 0
-4061 182 0
-201 4059 4060 4061 0
-4062 -16 0
-4062 337 0
-4063 -47 0
-4063 193 0
-4064 -49 0
-4064 191 0
-201 4062 4063 4064 0
-4065 -18 0
-4065 372 0
-4066 -56 0
-4066 208 0
-4067 -64 0
-4067 200 0
-201 4065 4066 4067 0
-4068 -20 0
-4068 379 0
-4069 -58 0
-4069 215 0
-4070 -71 0
-4070 202 0
-201 4068 4069 4070 0
-4071 -21 0
-4071 380 0
-4072 -59 0
-4072 216 0
-4073 -72 0
-4073 203 0
-201 4071 4072 4073 0
-4074 -22 0
-4074 381 0
-4075 -60 0
-4075 217 0
-4076 -73 0
-4076 204 0
-201 4074 4075 4076 0
-4077 -23 0
-4077 382 0
-4078 -61 0
-4078 218 0
-4079 -74 0
-4079 205 0
-201 4077 4078 4079 0
-4080 -24 0
-4080 383 0
-4081 -62 0
-4081 219 0
-4082 -75 0
-4082 206 0
-201 4080 4081 4082 0
-4083 -25 0
-4083 384 0
-4084 -63 0
-4084 220 0
-4085 -76 0
-4085 207 0
-201 4083 4084 4085 0
-4086 -1 0
-4086 136 0
-4087 -5 0
-4087 98 0
-4088 -8 0
-4088 95 0
-202 4086 4087 4088 0
-4089 -14 0
-4089 257 0
-4090 -28 0
-4090 175 0
-4091 -31 0
-4091 172 0
-202 4089 4090 4091 0
-4092 -15 0
-4092 302 0
-4093 -38 0
-4093 185 0
-4094 -41 0
-4094 182 0
-202 4092 4093 4094 0
-4095 -16 0
-4095 338 0
-4096 -47 0
-4096 194 0
-4097 -50 0
-4097 191 0
-202 4095 4096 4097 0
-4098 -18 0
-4098 373 0
-4099 -56 0
-4099 209 0
-4100 -65 0
-4100 200 0
-202 4098 4099 4100 0
-4101 -19 0
-4101 379 0
-4102 -57 0
-4102 215 0
-4103 -71 0
-4103 201 0
-202 4101 4102 4103 0
-4104 -21 0
-4104 385 0
-4105 -59 0
-4105 221 0
-4106 -77 0
-4106 203 0
-202 4104 4105 4106 0
-4107 -22 0
-4107 386 0
-4108 -60 0
-4108 222 0
-4109 -78 0
-4109 204 0
-202 4107 4108 4109 0
-4110 -23 0
-4110 387 0
-4111 -61 0
-4111 223 0
-4112 -79 0
-4112 205 0
-202 4110 4111 4112 0
-4113 -24 0
-4113 388 0
-4114 -62 0
-4114 224 0
-4115 -80 0
-4115 206 0
-202 4113 4114 4115 0
-4116 -25 0
-4116 389 0
-4117 -63 0
-4117 225 0
-4118 -81 0
-4118 207 0
-202 4116 4117 4118 0
-4119 -1 0
-4119 137 0
-4120 -5 0
-4120 99 0
-4121 -9 0
-4121 95 0
-203 4119 4120 4121 0
-4122 -14 0
-4122 258 0
-4123 -28 0
-4123 176 0
-4124 -32 0
-4124 172 0
-203 4122 4123 4124 0
-4125 -15 0
-4125 303 0
-4126 -38 0
-4126 186 0
-4127 -42 0
-4127 182 0
-203 4125 4126 4127 0
-4128 -16 0
-4128 339 0
-4129 -47 0
-4129 195 0
-4130 -51 0
-4130 191 0
-203 4128 4129 4130 0
-4131 -18 0
-4131 374 0
-4132 -56 0
-4132 210 0
-4133 -66 0
-4133 200 0
-203 4131 4132 4133 0
-4134 -19 0
-4134 380 0
-4135 -57 0
-4135 216 0
-4136 -72 0
-4136 201 0
-203 4134 4135 4136 0
-4137 -20 0
-4137 385 0
-4138 -58 0
-4138 221 0
-4139 -77 0
-4139 202 0
-203 4137 4138 4139 0
-4140 -22 0
-4140 390 0
-4141 -60 0
-4141 226 0
-4142 -82 0
-4142 204 0
-203 4140 4141 4142 0
-4143 -23 0
-4143 391 0
-4144 -61 0
-4144 227 0
-4145 -83 0
-4145 205 0
-203 4143 4144 4145 0
-4146 -24 0
-4146 392 0
-4147 -62 0
-4147 228 0
-4148 -84 0
-4148 206 0
-203 4146 4147 4148 0
-4149 -25 0
-4149 393 0
-4150 -63 0
-4150 229 0
-4151 -85 0
-4151 207 0
-203 4149 4150 4151 0
-4152 -1 0
-4152 138 0
-4153 -5 0
-4153 100 0
-4154 -10 0
-4154 95 0
-204 4152 4153 4154 0
-4155 -14 0
-4155 259 0
-4156 -28 0
-4156 177 0
-4157 -33 0
-4157 172 0
-204 4155 4156 4157 0
-4158 -15 0
-4158 304 0
-4159 -38 0
-4159 187 0
-4160 -43 0
-4160 182 0
-204 4158 4159 4160 0
-4161 -16 0
-4161 340 0
-4162 -47 0
-4162 196 0
-4163 -52 0
-4163 191 0
-204 4161 4162 4163 0
-4164 -18 0
-4164 375 0
-4165 -56 0
-4165 211 0
-4166 -67 0
-4166 200 0
-204 4164 4165 4166 0
-4167 -19 0
-4167 381 0
-4168 -57 0
-4168 217 0
-4169 -73 0
-4169 201 0
-204 4167 4168 4169 0
-4170 -20 0
-4170 386 0
-4171 -58 0
-4171 222 0
-4172 -78 0
-4172 202 0
-204 4170 4171 4172 0
-4173 -21 0
-4173 390 0
-4174 -59 0
-4174 226 0
-4175 -82 0
-4175 203 0
-204 4173 4174 4175 0
-4176 -23 0
-4176 394 0
-4177 -61 0
-4177 230 0
-4178 -86 0
-4178 205 0
-204 4176 4177 4178 0
-4179 -24 0
-4179 395 0
-4180 -62 0
-4180 231 0
-4181 -87 0
-4181 206 0
-204 4179 4180 4181 0
-4182 -25 0
-4182 396 0
-4183 -63 0
-4183 232 0
-4184 -88 0
-4184 207 0
-204 4182 4183 4184 0
-4185 -1 0
-4185 139 0
-4186 -5 0
-4186 101 0
-4187 -11 0
-4187 95 0
-205 4185 4186 4187 0
-4188 -14 0
-4188 260 0
-4189 -28 0
-4189 178 0
-4190 -34 0
-4190 172 0
-205 4188 4189 4190 0
-4191 -15 0
-4191 305 0
-4192 -38 0
-4192 188 0
-4193 -44 0
-4193 182 0
-205 4191 4192 4193 0
-4194 -16 0
-4194 341 0
-4195 -47 0
-4195 197 0
-4196 -53 0
-4196 191 0
-205 4194 4195 4196 0
-4197 -18 0
-4197 376 0
-4198 -56 0
-4198 212 0
-4199 -68 0
-4199 200 0
-205 4197 4198 4199 0
-4200 -19 0
-4200 382 0
-4201 -57 0
-4201 218 0
-4202 -74 0
-4202 201 0
-205 4200 4201 4202 0
-4203 -20 0
-4203 387 0
-4204 -58 0
-4204 223 0
-4205 -79 0
-4205 202 0
-205 4203 4204 4205 0
-4206 -21 0
-4206 391 0
-4207 -59 0
-4207 227 0
-4208 -83 0
-4208 203 0
-205 4206 4207 4208 0
-4209 -22 0
-4209 394 0
-4210 -60 0
-4210 230 0
-4211 -86 0
-4211 204 0
-205 4209 4210 4211 0
-4212 -24 0
-4212 397 0
-4213 -62 0
-4213 233 0
-4214 -89 0
-4214 206 0
-205 4212 4213 4214 0
-4215 -25 0
-4215 398 0
-4216 -63 0
-4216 234 0
-4217 -90 0
-4217 207 0
-205 4215 4216 4217 0
-4218 -1 0
-4218 140 0
-4219 -5 0
-4219 102 0
-4220 -12 0
-4220 95 0
-206 4218 4219 4220 0
-4221 -14 0
-4221 261 0
-4222 -28 0
-4222 179 0
-4223 -35 0
-4223 172 0
-206 4221 4222 4223 0
-4224 -15 0
-4224 306 0
-4225 -38 0
-4225 189 0
-4226 -45 0
-4226 182 0
-206 4224 4225 4226 0
-4227 -16 0
-4227 342 0
-4228 -47 0
-4228 198 0
-4229 -54 0
-4229 191 0
-206 4227 4228 4229 0
-4230 -18 0
-4230 377 0
-4231 -56 0
-4231 213 0
-4232 -69 0
-4232 200 0
-206 4230 4231 4232 0
-4233 -19 0
-4233 383 0
-4234 -57 0
-4234 219 0
-4235 -75 0
-4235 201 0
-206 4233 4234 4235 0
-4236 -20 0
-4236 388 0
-4237 -58 0
-4237 224 0
-4238 -80 0
-4238 202 0
-206 4236 4237 4238 0
-4239 -21 0
-4239 392 0
-4240 -59 0
-4240 228 0
-4241 -84 0
-4241 203 0
-206 4239 4240 4241 0
-4242 -22 0
-4242 395 0
-4243 -60 0
-4243 231 0
-4244 -87 0
-4244 204 0
-206 4242 4243 4244 0
-4245 -23 0
-4245 397 0
-4246 -61 0
-4246 233 0
-4247 -89 0
-4247 205 0
-206 4245 4246 4247 0
-4248 -25 0
-4248 399 0
-4249 -63 0
-4249 235 0
-4250 -91 0
-4250 207 0
-206 4248 4249 4250 0
-4251 -1 0
-4251 141 0
-4252 -5 0
-4252 103 0
-4253 -13 0
-4253 95 0
-207 4251 4252 4253 0
-4254 -14 0
-4254 262 0
-4255 -28 0
-4255 180 0
-4256 -36 0
-4256 172 0
-207 4254 4255 4256 0
-4257 -15 0
-4257 307 0
-4258 -38 0
-4258 190 0
-4259 -46 0
-4259 182 0
-207 4257 4258 4259 0
-4260 -16 0
-4260 343 0
-4261 -47 0
-4261 199 0
-4262 -55 0
-4262 191 0
-207 4260 4261 4262 0
-4263 -18 0
-4263 378 0
-4264 -56 0
-4264 214 0
-4265 -70 0
-4265 200 0
-207 4263 4264 4265 0
-4266 -19 0
-4266 384 0
-4267 -57 0
-4267 220 0
-4268 -76 0
-4268 201 0
-207 4266 4267 4268 0
-4269 -20 0
-4269 389 0
-4270 -58 0
-4270 225 0
-4271 -81 0
-4271 202 0
-207 4269 4270 4271 0
-4272 -21 0
-4272 393 0
-4273 -59 0
-4273 229 0
-4274 -85 0
-4274 203 0
-207 4272 4273 4274 0
-4275 -22 0
-4275 396 0
-4276 -60 0
-4276 232 0
-4277 -88 0
-4277 204 0
-207 4275 4276 4277 0
-4278 -23 0
-4278 398 0
-4279 -61 0
-4279 234 0
-4280 -90 0
-4280 205 0
-207 4278 4279 4280 0
-4281 -24 0
-4281 399 0
-4282 -62 0
-4282 235 0
-4283 -91 0
-4283 206 0
-207 4281 4282 4283 0
-4284 -1 0
-4284 142 0
-4285 -6 0
-4285 97 0
-4286 -7 0
-4286 96 0
-208 4284 4285 4286 0
-4287 -14 0
-4287 263 0
-4288 -29 0
-4288 174 0
-4289 -30 0
-4289 173 0
-208 4287 4288 4289 0
-4290 -15 0
-4290 308 0
-4291 -39 0
-4291 184 0
-4292 -40 0
-4292 183 0
-208 4290 4291 4292 0
-4293 -16 0
-4293 344 0
-4294 -48 0
-4294 193 0
-4295 -49 0
-4295 192 0
-208 4293 4294 4295 0
-4296 -17 0
-4296 372 0
-4297 -56 0
-4297 201 0
-4298 -57 0
-4298 200 0
-208 4296 4297 4298 0
-4299 -20 0
-4299 400 0
-4300 -65 0
-4300 215 0
-4301 -71 0
-4301 209 0
-208 4299 4300 4301 0
-4302 -21 0
-4302 401 0
-4303 -66 0
-4303 216 0
-4304 -72 0
-4304 210 0
-208 4302 4303 4304 0
-4305 -22 0
-4305 402 0
-4306 -67 0
-4306 217 0
-4307 -73 0
-4307 211 0
-208 4305 4306 4307 0
-4308 -23 0
-4308 403 0
-4309 -68 0
-4309 218 0
-4310 -74 0
-4310 212 0
-208 4308 4309 4310 0
-4311 -24 0
-4311 404 0
-4312 -69 0
-4312 219 0
-4313 -75 0
-4313 213 0
-208 4311 4312 4313 0
-4314 -25 0
-4314 405 0
-4315 -70 0
-4315 220 0
-4316 -76 0
-4316 214 0
-208 4314 4315 4316 0
-4317 -1 0
-4317 143 0
-4318 -6 0
-4318 98 0
-4319 -8 0
-4319 96 0
-209 4317 4318 4319 0
-4320 -14 0
-4320 264 0
-4321 -29 0
-4321 175 0
-4322 -31 0
-4322 173 0
-209 4320 4321 4322 0
-4323 -15 0
-4323 309 0
-4324 -39 0
-4324 185 0
-4325 -41 0
-4325 183 0
-209 4323 4324 4325 0
-4326 -16 0
-4326 345 0
-4327 -48 0
-4327 194 0
-4328 -50 0
-4328 192 0
-209 4326 4327 4328 0
-4329 -17 0
-4329 373 0
-4330 -56 0
-4330 202 0
-4331 -58 0
-4331 200 0
-209 4329 4330 4331 0
-4332 -19 0
-4332 400 0
-4333 -64 0
-4333 215 0
-4334 -71 0
-4334 208 0
-209 4332 4333 4334 0
-4335 -21 0
-4335 406 0
-4336 -66 0
-4336 221 0
-4337 -77 0
-4337 210 0
-209 4335 4336 4337 0
-4338 -22 0
-4338 407 0
-4339 -67 0
-4339 222 0
-4340 -78 0
-4340 211 0
-209 4338 4339 4340 0
-4341 -23 0
-4341 408 0
-4342 -68 0
-4342 223 0
-4343 -79 0
-4343 212 0
-209 4341 4342 4343 0
-4344 -24 0
-4344 409 0
-4345 -69 0
-4345 224 0
-4346 -80 0
-4346 213 0
-209 4344 4345 4346 0
-4347 -25 0
-4347 410 0
-4348 -70 0
-4348 225 0
-4349 -81 0
-4349 214 0
-209 4347 4348 4349 0
-4350 -1 0
-4350 144 0
-4351 -6 0
-4351 99 0
-4352 -9 0
-4352 96 0
-210 4350 4351 4352 0
-4353 -14 0
-4353 265 0
-4354 -29 0
-4354 176 0
-4355 -32 0
-4355 173 0
-210 4353 4354 4355 0
-4356 -15 0
-4356 310 0
-4357 -39 0
-4357 186 0
-4358 -42 0
-4358 183 0
-210 4356 4357 4358 0
-4359 -16 0
-4359 346 0
-4360 -48 0
-4360 195 0
-4361 -51 0
-4361 192 0
-210 4359 4360 4361 0
-4362 -17 0
-4362 374 0
-4363 -56 0
-4363 203 0
-4364 -59 0
-4364 200 0
-210 4362 4363 4364 0
-4365 -19 0
-4365 401 0
-4366 -64 0
-4366 216 0
-4367 -72 0
-4367 208 0
-210 4365 4366 4367 0
-4368 -20 0
-4368 406 0
-4369 -65 0
-4369 221 0
-4370 -77 0
-4370 209 0
-210 4368 4369 4370 0
-4371 -22 0
-4371 411 0
-4372 -67 0
-4372 226 0
-4373 -82 0
-4373 211 0
-210 4371 4372 4373 0
-4374 -23 0
-4374 412 0
-4375 -68 0
-4375 227 0
-4376 -83 0
-4376 212 0
-210 4374 4375 4376 0
-4377 -24 0
-4377 413 0
-4378 -69 0
-4378 228 0
-4379 -84 0
-4379 213 0
-210 4377 4378 4379 0
-4380 -25 0
-4380 414 0
-4381 -70 0
-4381 229 0
-4382 -85 0
-4382 214 0
-210 4380 4381 4382 0
-4383 -1 0
-4383 145 0
-4384 -6 0
-4384 100 0
-4385 -10 0
-4385 96 0
-211 4383 4384 4385 0
-4386 -14 0
-4386 266 0
-4387 -29 0
-4387 177 0
-4388 -33 0
-4388 173 0
-211 4386 4387 4388 0
-4389 -15 0
-4389 311 0
-4390 -39 0
-4390 187 0
-4391 -43 0
-4391 183 0
-211 4389 4390 4391 0
-4392 -16 0
-4392 347 0
-4393 -48 0
-4393 196 0
-4394 -52 0
-4394 192 0
-211 4392 4393 4394 0
-4395 -17 0
-4395 375 0
-4396 -56 0
-4396 204 0
-4397 -60 0
-4397 200 0
-211 4395 4396 4397 0
-4398 -19 0
-4398 402 0
-4399 -64 0
-4399 217 0
-4400 -73 0
-4400 208 0
-211 4398 4399 4400 0
-4401 -20 0
-4401 407 0
-4402 -65 0
-4402 222 0
-4403 -78 0
-4403 209 0
-211 4401 4402 4403 0
-4404 -21 0
-4404 411 0
-4405 -66 0
-4405 226 0
-4406 -82 0
-4406 210 0
-211 4404 4405 4406 0
-4407 -23 0
-4407 415 0
-4408 -68 0
-4408 230 0
-4409 -86 0
-4409 212 0
-211 4407 4408 4409 0
-4410 -24 0
-4410 416 0
-4411 -69 0
-4411 231 0
-4412 -87 0
-4412 213 0
-211 4410 4411 4412 0
-4413 -25 0
-4413 417 0
-4414 -70 0
-4414 232 0
-4415 -88 0
-4415 214 0
-211 4413 4414 4415 0
-4416 -1 0
-4416 146 0
-4417 -6 0
-4417 101 0
-4418 -11 0
-4418 96 0
-212 4416 4417 4418 0
-4419 -14 0
-4419 267 0
-4420 -29 0
-4420 178 0
-4421 -34 0
-4421 173 0
-212 4419 4420 4421 0
-4422 -15 0
-4422 312 0
-4423 -39 0
-4423 188 0
-4424 -44 0
-4424 183 0
-212 4422 4423 4424 0
-4425 -16 0
-4425 348 0
-4426 -48 0
-4426 197 0
-4427 -53 0
-4427 192 0
-212 4425 4426 4427 0
-4428 -17 0
-4428 376 0
-4429 -56 0
-4429 205 0
-4430 -61 0
-4430 200 0
-212 4428 4429 4430 0
-4431 -19 0
-4431 403 0
-4432 -64 0
-4432 218 0
-4433 -74 0
-4433 208 0
-212 4431 4432 4433 0
-4434 -20 0
-4434 408 0
-4435 -65 0
-4435 223 0
-4436 -79 0
-4436 209 0
-212 4434 4435 4436 0
-4437 -21 0
-4437 412 0
-4438 -66 0
-4438 227 0
-4439 -83 0
-4439 210 0
-212 4437 4438 4439 0
-4440 -22 0
-4440 415 0
-4441 -67 0
-4441 230 0
-4442 -86 0
-4442 211 0
-212 4440 4441 4442 0
-4443 -24 0
-4443 418 0
-4444 -69 0
-4444 233 0
-4445 -89 0
-4445 213 0
-212 4443 4444 4445 0
-4446 -25 0
-4446 419 0
-4447 -70 0
-4447 234 0
-4448 -90 0
-4448 214 0
-212 4446 4447 4448 0
-4449 -1 0
-4449 147 0
-4450 -6 0
-4450 102 0
-4451 -12 0
-4451 96 0
-213 4449 4450 4451 0
-4452 -14 0
-4452 268 0
-4453 -29 0
-4453 179 0
-4454 -35 0
-4454 173 0
-213 4452 4453 4454 0
-4455 -15 0
-4455 313 0
-4456 -39 0
-4456 189 0
-4457 -45 0
-4457 183 0
-213 4455 4456 4457 0
-4458 -16 0
-4458 349 0
-4459 -48 0
-4459 198 0
-4460 -54 0
-4460 192 0
-213 4458 4459 4460 0
-4461 -17 0
-4461 377 0
-4462 -56 0
-4462 206 0
-4463 -62 0
-4463 200 0
-213 4461 4462 4463 0
-4464 -19 0
-4464 404 0
-4465 -64 0
-4465 219 0
-4466 -75 0
-4466 208 0
-213 4464 4465 4466 0
-4467 -20 0
-4467 409 0
-4468 -65 0
-4468 224 0
-4469 -80 0
-4469 209 0
-213 4467 4468 4469 0
-4470 -21 0
-4470 413 0
-4471 -66 0
-4471 228 0
-4472 -84 0
-4472 210 0
-213 4470 4471 4472 0
-4473 -22 0
-4473 416 0
-4474 -67 0
-4474 231 0
-4475 -87 0
-4475 211 0
-213 4473 4474 4475 0
-4476 -23 0
-4476 418 0
-4477 -68 0
-4477 233 0
-4478 -89 0
-4478 212 0
-213 4476 4477 4478 0
-4479 -25 0
-4479 420 0
-4480 -70 0
-4480 235 0
-4481 -91 0
-4481 214 0
-213 4479 4480 4481 0
-4482 -1 0
-4482 148 0
-4483 -6 0
-4483 103 0
-4484 -13 0
-4484 96 0
-214 4482 4483 4484 0
-4485 -14 0
-4485 269 0
-4486 -29 0
-4486 180 0
-4487 -36 0
-4487 173 0
-214 4485 4486 4487 0
-4488 -15 0
-4488 314 0
-4489 -39 0
-4489 190 0
-4490 -46 0
-4490 183 0
-214 4488 4489 4490 0
-4491 -16 0
-4491 350 0
-4492 -48 0
-4492 199 0
-4493 -55 0
-4493 192 0
-214 4491 4492 4493 0
-4494 -17 0
-4494 378 0
-4495 -56 0
-4495 207 0
-4496 -63 0
-4496 200 0
-214 4494 4495 4496 0
-4497 -19 0
-4497 405 0
-4498 -64 0
-4498 220 0
-4499 -76 0
-4499 208 0
-214 4497 4498 4499 0
-4500 -20 0
-4500 410 0
-4501 -65 0
-4501 225 0
-4502 -81 0
-4502 209 0
-214 4500 4501 4502 0
-4503 -21 0
-4503 414 0
-4504 -66 0
-4504 229 0
-4505 -85 0
-4505 210 0
-214 4503 4504 4505 0
-4506 -22 0
-4506 417 0
-4507 -67 0
-4507 232 0
-4508 -88 0
-4508 211 0
-214 4506 4507 4508 0
-4509 -23 0
-4509 419 0
-4510 -68 0
-4510 234 0
-4511 -90 0
-4511 212 0
-214 4509 4510 4511 0
-4512 -24 0
-4512 420 0
-4513 -69 0
-4513 235 0
-4514 -91 0
-4514 213 0
-214 4512 4513 4514 0
-4515 -1 0
-4515 149 0
-4516 -7 0
-4516 98 0
-4517 -8 0
-4517 97 0
-215 4515 4516 4517 0
-4518 -14 0
-4518 270 0
-4519 -30 0
-4519 175 0
-4520 -31 0
-4520 174 0
-215 4518 4519 4520 0
-4521 -15 0
-4521 315 0
-4522 -40 0
-4522 185 0
-4523 -41 0
-4523 184 0
-215 4521 4522 4523 0
-4524 -16 0
-4524 351 0
-4525 -49 0
-4525 194 0
-4526 -50 0
-4526 193 0
-215 4524 4525 4526 0
-4527 -17 0
-4527 379 0
-4528 -57 0
-4528 202 0
-4529 -58 0
-4529 201 0
-215 4527 4528 4529 0
-4530 -18 0
-4530 400 0
-4531 -64 0
-4531 209 0
-4532 -65 0
-4532 208 0
-215 4530 4531 4532 0
-4533 -21 0
-4533 421 0
-4534 -72 0
-4534 221 0
-4535 -77 0
-4535 216 0
-215 4533 4534 4535 0
-4536 -22 0
-4536 422 0
-4537 -73 0
-4537 222 0
-4538 -78 0
-4538 217 0
-215 4536 4537 4538 0
-4539 -23 0
-4539 423 0
-4540 -74 0
-4540 223 0
-4541 -79 0
-4541 218 0
-215 4539 4540 4541 0
-4542 -24 0
-4542 424 0
-4543 -75 0
-4543 224 0
-4544 -80 0
-4544 219 0
-215 4542 4543 4544 0
-4545 -25 0
-4545 425 0
-4546 -76 0
-4546 225 0
-4547 -81 0
-4547 220 0
-215 4545 4546 4547 0
-4548 -1 0
-4548 150 0
-4549 -7 0
-4549 99 0
-4550 -9 0
-4550 97 0
-216 4548 4549 4550 0
-4551 -14 0
-4551 271 0
-4552 -30 0
-4552 176 0
-4553 -32 0
-4553 174 0
-216 4551 4552 4553 0
-4554 -15 0
-4554 316 0
-4555 -40 0
-4555 186 0
-4556 -42 0
-4556 184 0
-216 4554 4555 4556 0
-4557 -16 0
-4557 352 0
-4558 -49 0
-4558 195 0
-4559 -51 0
-4559 193 0
-216 4557 4558 4559 0
-4560 -17 0
-4560 380 0
-4561 -57 0
-4561 203 0
-4562 -59 0
-4562 201 0
-216 4560 4561 4562 0
-4563 -18 0
-4563 401 0
-4564 -64 0
-4564 210 0
-4565 -66 0
-4565 208 0
-216 4563 4564 4565 0
-4566 -20 0
-4566 421 0
-4567 -71 0
-4567 221 0
-4568 -77 0
-4568 215 0
-216 4566 4567 4568 0
-4569 -22 0
-4569 426 0
-4570 -73 0
-4570 226 0
-4571 -82 0
-4571 217 0
-216 4569 4570 4571 0
-4572 -23 0
-4572 427 0
-4573 -74 0
-4573 227 0
-4574 -83 0
-4574 218 0
-216 4572 4573 4574 0
-4575 -24 0
-4575 428 0
-4576 -75 0
-4576 228 0
-4577 -84 0
-4577 219 0
-216 4575 4576 4577 0
-4578 -25 0
-4578 429 0
-4579 -76 0
-4579 229 0
-4580 -85 0
-4580 220 0
-216 4578 4579 4580 0
-4581 -1 0
-4581 151 0
-4582 -7 0
-4582 100 0
-4583 -10 0
-4583 97 0
-217 4581 4582 4583 0
-4584 -14 0
-4584 272 0
-4585 -30 0
-4585 177 0
-4586 -33 0
-4586 174 0
-217 4584 4585 4586 0
-4587 -15 0
-4587 317 0
-4588 -40 0
-4588 187 0
-4589 -43 0
-4589 184 0
-217 4587 4588 4589 0
-4590 -16 0
-4590 353 0
-4591 -49 0
-4591 196 0
-4592 -52 0
-4592 193 0
-217 4590 4591 4592 0
-4593 -17 0
-4593 381 0
-4594 -57 0
-4594 204 0
-4595 -60 0
-4595 201 0
-217 4593 4594 4595 0
-4596 -18 0
-4596 402 0
-4597 -64 0
-4597 211 0
-4598 -67 0
-4598 208 0
-217 4596 4597 4598 0
-4599 -20 0
-4599 422 0
-4600 -71 0
-4600 222 0
-4601 -78 0
-4601 215 0
-217 4599 4600 4601 0
-4602 -21 0
-4602 426 0
-4603 -72 0
-4603 226 0
-4604 -82 0
-4604 216 0
-217 4602 4603 4604 0
-4605 -23 0
-4605 430 0
-4606 -74 0
-4606 230 0
-4607 -86 0
-4607 218 0
-217 4605 4606 4607 0
-4608 -24 0
-4608 431 0
-4609 -75 0
-4609 231 0
-4610 -87 0
-4610 219 0
-217 4608 4609 4610 0
-4611 -25 0
-4611 432 0
-4612 -76 0
-4612 232 0
-4613 -88 0
-4613 220 0
-217 4611 4612 4613 0
-4614 -1 0
-4614 152 0
-4615 -7 0
-4615 101 0
-4616 -11 0
-4616 97 0
-218 4614 4615 4616 0
-4617 -14 0
-4617 273 0
-4618 -30 0
-4618 178 0
-4619 -34 0
-4619 174 0
-218 4617 4618 4619 0
-4620 -15 0
-4620 318 0
-4621 -40 0
-4621 188 0
-4622 -44 0
-4622 184 0
-218 4620 4621 4622 0
-4623 -16 0
-4623 354 0
-4624 -49 0
-4624 197 0
-4625 -53 0
-4625 193 0
-218 4623 4624 4625 0
-4626 -17 0
-4626 382 0
-4627 -57 0
-4627 205 0
-4628 -61 0
-4628 201 0
-218 4626 4627 4628 0
-4629 -18 0
-4629 403 0
-4630 -64 0
-4630 212 0
-4631 -68 0
-4631 208 0
-218 4629 4630 4631 0
-4632 -20 0
-4632 423 0
-4633 -71 0
-4633 223 0
-4634 -79 0
-4634 215 0
-218 4632 4633 4634 0
-4635 -21 0
-4635 427 0
-4636 -72 0
-4636 227 0
-4637 -83 0
-4637 216 0
-218 4635 4636 4637 0
-4638 -22 0
-4638 430 0
-4639 -73 0
-4639 230 0
-4640 -86 0
-4640 217 0
-218 4638 4639 4640 0
-4641 -24 0
-4641 433 0
-4642 -75 0
-4642 233 0
-4643 -89 0
-4643 219 0
-218 4641 4642 4643 0
-4644 -25 0
-4644 434 0
-4645 -76 0
-4645 234 0
-4646 -90 0
-4646 220 0
-218 4644 4645 4646 0
-4647 -1 0
-4647 153 0
-4648 -7 0
-4648 102 0
-4649 -12 0
-4649 97 0
-219 4647 4648 4649 0
-4650 -14 0
-4650 274 0
-4651 -30 0
-4651 179 0
-4652 -35 0
-4652 174 0
-219 4650 4651 4652 0
-4653 -15 0
-4653 319 0
-4654 -40 0
-4654 189 0
-4655 -45 0
-4655 184 0
-219 4653 4654 4655 0
-4656 -16 0
-4656 355 0
-4657 -49 0
-4657 198 0
-4658 -54 0
-4658 193 0
-219 4656 4657 4658 0
-4659 -17 0
-4659 383 0
-4660 -57 0
-4660 206 0
-4661 -62 0
-4661 201 0
-219 4659 4660 4661 0
-4662 -18 0
-4662 404 0
-4663 -64 0
-4663 213 0
-4664 -69 0
-4664 208 0
-219 4662 4663 4664 0
-4665 -20 0
-4665 424 0
-4666 -71 0
-4666 224 0
-4667 -80 0
-4667 215 0
-219 4665 4666 4667 0
-4668 -21 0
-4668 428 0
-4669 -72 0
-4669 228 0
-4670 -84 0
-4670 216 0
-219 4668 4669 4670 0
-4671 -22 0
-4671 431 0
-4672 -73 0
-4672 231 0
-4673 -87 0
-4673 217 0
-219 4671 4672 4673 0
-4674 -23 0
-4674 433 0
-4675 -74 0
-4675 233 0
-4676 -89 0
-4676 218 0
-219 4674 4675 4676 0
-4677 -25 0
-4677 435 0
-4678 -76 0
-4678 235 0
-4679 -91 0
-4679 220 0
-219 4677 4678 4679 0
-4680 -1 0
-4680 154 0
-4681 -7 0
-4681 103 0
-4682 -13 0
-4682 97 0
-220 4680 4681 4682 0
-4683 -14 0
-4683 275 0
-4684 -30 0
-4684 180 0
-4685 -36 0
-4685 174 0
-220 4683 4684 4685 0
-4686 -15 0
-4686 320 0
-4687 -40 0
-4687 190 0
-4688 -46 0
-4688 184 0
-220 4686 4687 4688 0
-4689 -16 0
-4689 356 0
-4690 -49 0
-4690 199 0
-4691 -55 0
-4691 193 0
-220 4689 4690 4691 0
-4692 -17 0
-4692 384 0
-4693 -57 0
-4693 207 0
-4694 -63 0
-4694 201 0
-220 4692 4693 4694 0
-4695 -18 0
-4695 405 0
-4696 -64 0
-4696 214 0
-4697 -70 0
-4697 208 0
-220 4695 4696 4697 0
-4698 -20 0
-4698 425 0
-4699 -71 0
-4699 225 0
-4700 -81 0
-4700 215 0
-220 4698 4699 4700 0
-4701 -21 0
-4701 429 0
-4702 -72 0
-4702 229 0
-4703 -85 0
-4703 216 0
-220 4701 4702 4703 0
-4704 -22 0
-4704 432 0
-4705 -73 0
-4705 232 0
-4706 -88 0
-4706 217 0
-220 4704 4705 4706 0
-4707 -23 0
-4707 434 0
-4708 -74 0
-4708 234 0
-4709 -90 0
-4709 218 0
-220 4707 4708 4709 0
-4710 -24 0
-4710 435 0
-4711 -75 0
-4711 235 0
-4712 -91 0
-4712 219 0
-220 4710 4711 4712 0
-4713 -1 0
-4713 155 0
-4714 -8 0
-4714 99 0
-4715 -9 0
-4715 98 0
-221 4713 4714 4715 0
-4716 -14 0
-4716 276 0
-4717 -31 0
-4717 176 0
-4718 -32 0
-4718 175 0
-221 4716 4717 4718 0
-4719 -15 0
-4719 321 0
-4720 -41 0
-4720 186 0
-4721 -42 0
-4721 185 0
-221 4719 4720 4721 0
-4722 -16 0
-4722 357 0
-4723 -50 0
-4723 195 0
-4724 -51 0
-4724 194 0
-221 4722 4723 4724 0
-4725 -17 0
-4725 385 0
-4726 -58 0
-4726 203 0
-4727 -59 0
-4727 202 0
-221 4725 4726 4727 0
-4728 -18 0
-4728 406 0
-4729 -65 0
-4729 210 0
-4730 -66 0
-4730 209 0
-221 4728 4729 4730 0
-4731 -19 0
-4731 421 0
-4732 -71 0
-4732 216 0
-4733 -72 0
-4733 215 0
-221 4731 4732 4733 0
-4734 -22 0
-4734 436 0
-4735 -78 0
-4735 226 0
-4736 -82 0
-4736 222 0
-221 4734 4735 4736 0
-4737 -23 0
-4737 437 0
-4738 -79 0
-4738 227 0
-4739 -83 0
-4739 223 0
-221 4737 4738 4739 0
-4740 -24 0
-4740 438 0
-4741 -80 0
-4741 228 0
-4742 -84 0
-4742 224 0
-221 4740 4741 4742 0
-4743 -25 0
-4743 439 0
-4744 -81 0
-4744 229 0
-4745 -85 0
-4745 225 0
-221 4743 4744 4745 0
-4746 -1 0
-4746 156 0
-4747 -8 0
-4747 100 0
-4748 -10 0
-4748 98 0
-222 4746 4747 4748 0
-4749 -14 0
-4749 277 0
-4750 -31 0
-4750 177 0
-4751 -33 0
-4751 175 0
-222 4749 4750 4751 0
-4752 -15 0
-4752 322 0
-4753 -41 0
-4753 187 0
-4754 -43 0
-4754 185 0
-222 4752 4753 4754 0
-4755 -16 0
-4755 358 0
-4756 -50 0
-4756 196 0
-4757 -52 0
-4757 194 0
-222 4755 4756 4757 0
-4758 -17 0
-4758 386 0
-4759 -58 0
-4759 204 0
-4760 -60 0
-4760 202 0
-222 4758 4759 4760 0
-4761 -18 0
-4761 407 0
-4762 -65 0
-4762 211 0
-4763 -67 0
-4763 209 0
-222 4761 4762 4763 0
-4764 -19 0
-4764 422 0
-4765 -71 0
-4765 217 0
-4766 -73 0
-4766 215 0
-222 4764 4765 4766 0
-4767 -21 0
-4767 436 0
-4768 -77 0
-4768 226 0
-4769 -82 0
-4769 221 0
-222 4767 4768 4769 0
-4770 -23 0
-4770 440 0
-4771 -79 0
-4771 230 0
-4772 -86 0
-4772 223 0
-222 4770 4771 4772 0
-4773 -24 0
-4773 441 0
-4774 -80 0
-4774 231 0
-4775 -87 0
-4775 224 0
-222 4773 4774 4775 0
-4776 -25 0
-4776 442 0
-4777 -81 0
-4777 232 0
-4778 -88 0
-4778 225 0
-222 4776 4777 4778 0
-4779 -1 0
-4779 157 0
-4780 -8 0
-4780 101 0
-4781 -11 0
-4781 98 0
-223 4779 4780 4781 0
-4782 -14 0
-4782 278 0
-4783 -31 0
-4783 178 0
-4784 -34 0
-4784 175 0
-223 4782 4783 4784 0
-4785 -15 0
-4785 323 0
-4786 -41 0
-4786 188 0
-4787 -44 0
-4787 185 0
-223 4785 4786 4787 0
-4788 -16 0
-4788 359 0
-4789 -50 0
-4789 197 0
-4790 -53 0
-4790 194 0
-223 4788 4789 4790 0
-4791 -17 0
-4791 387 0
-4792 -58 0
-4792 205 0
-4793 -61 0
-4793 202 0
-223 4791 4792 4793 0
-4794 -18 0
-4794 408 0
-4795 -65 0
-4795 212 0
-4796 -68 0
-4796 209 0
-223 4794 4795 4796 0
-4797 -19 0
-4797 423 0
-4798 -71 0
-4798 218 0
-4799 -74 0
-4799 215 0
-223 4797 4798 4799 0
-4800 -21 0
-4800 437 0
-4801 -77 0
-4801 227 0
-4802 -83 0
-4802 221 0
-223 4800 4801 4802 0
-4803 -22 0
-4803 440 0
-4804 -78 0
-4804 230 0
-4805 -86 0
-4805 222 0
-223 4803 4804 4805 0
-4806 -24 0
-4806 443 0
-4807 -80 0
-4807 233 0
-4808 -89 0
-4808 224 0
-223 4806 4807 4808 0
-4809 -25 0
-4809 444 0
-4810 -81 0
-4810 234 0
-4811 -90 0
-4811 225 0
-223 4809 4810 4811 0
-4812 -1 0
-4812 158 0
-4813 -8 0
-4813 102 0
-4814 -12 0
-4814 98 0
-224 4812 4813 4814 0
-4815 -14 0
-4815 279 0
-4816 -31 0
-4816 179 0
-4817 -35 0
-4817 175 0
-224 4815 4816 4817 0
-4818 -15 0
-4818 324 0
-4819 -41 0
-4819 189 0
-4820 -45 0
-4820 185 0
-224 4818 4819 4820 0
-4821 -16 0
-4821 360 0
-4822 -50 0
-4822 198 0
-4823 -54 0
-4823 194 0
-224 4821 4822 4823 0
-4824 -17 0
-4824 388 0
-4825 -58 0
-4825 206 0
-4826 -62 0
-4826 202 0
-224 4824 4825 4826 0
-4827 -18 0
-4827 409 0
-4828 -65 0
-4828 213 0
-4829 -69 0
-4829 209 0
-224 4827 4828 4829 0
-4830 -19 0
-4830 424 0
-4831 -71 0
-4831 219 0
-4832 -75 0
-4832 215 0
-224 4830 4831 4832 0
-4833 -21 0
-4833 438 0
-4834 -77 0
-4834 228 0
-4835 -84 0
-4835 221 0
-224 4833 4834 4835 0
-4836 -22 0
-4836 441 0
-4837 -78 0
-4837 231 0
-4838 -87 0
-4838 222 0
-224 4836 4837 4838 0
-4839 -23 0
-4839 443 0
-4840 -79 0
-4840 233 0
-4841 -89 0
-4841 223 0
-224 4839 4840 4841 0
-4842 -25 0
-4842 445 0
-4843 -81 0
-4843 235 0
-4844 -91 0
-4844 225 0
-224 4842 4843 4844 0
-4845 -1 0
-4845 159 0
-4846 -8 0
-4846 103 0
-4847 -13 0
-4847 98 0
-225 4845 4846 4847 0
-4848 -14 0
-4848 280 0
-4849 -31 0
-4849 180 0
-4850 -36 0
-4850 175 0
-225 4848 4849 4850 0
-4851 -15 0
-4851 325 0
-4852 -41 0
-4852 190 0
-4853 -46 0
-4853 185 0
-225 4851 4852 4853 0
-4854 -16 0
-4854 361 0
-4855 -50 0
-4855 199 0
-4856 -55 0
-4856 194 0
-225 4854 4855 4856 0
-4857 -17 0
-4857 389 0
-4858 -58 0
-4858 207 0
-4859 -63 0
-4859 202 0
-225 4857 4858 4859 0
-4860 -18 0
-4860 410 0
-4861 -65 0
-4861 214 0
-4862 -70 0
-4862 209 0
-225 4860 4861 4862 0
-4863 -19 0
-4863 425 0
-4864 -71 0
-4864 220 0
-4865 -76 0
-4865 215 0
-225 4863 4864 4865 0
-4866 -21 0
-4866 439 0
-4867 -77 0
-4867 229 0
-4868 -85 0
-4868 221 0
-225 4866 4867 4868 0
-4869 -22 0
-4869 442 0
-4870 -78 0
-4870 232 0
-4871 -88 0
-4871 222 0
-225 4869 4870 4871 0
-4872 -23 0
-4872 444 0
-4873 -79 0
-4873 234 0
-4874 -90 0
-4874 223 0
-225 4872 4873 4874 0
-4875 -24 0
-4875 445 0
-4876 -80 0
-4876 235 0
-4877 -91 0
-4877 224 0
-225 4875 4876 4877 0
-4878 -1 0
-4878 160 0
-4879 -9 0
-4879 100 0
-4880 -10 0
-4880 99 0
-226 4878 4879 4880 0
-4881 -14 0
-4881 281 0
-4882 -32 0
-4882 177 0
-4883 -33 0
-4883 176 0
-226 4881 4882 4883 0
-4884 -15 0
-4884 326 0
-4885 -42 0
-4885 187 0
-4886 -43 0
-4886 186 0
-226 4884 4885 4886 0
-4887 -16 0
-4887 362 0
-4888 -51 0
-4888 196 0
-4889 -52 0
-4889 195 0
-226 4887 4888 4889 0
-4890 -17 0
-4890 390 0
-4891 -59 0
-4891 204 0
-4892 -60 0
-4892 203 0
-226 4890 4891 4892 0
-4893 -18 0
-4893 411 0
-4894 -66 0
-4894 211 0
-4895 -67 0
-4895 210 0
-226 4893 4894 4895 0
-4896 -19 0
-4896 426 0
-4897 -72 0
-4897 217 0
-4898 -73 0
-4898 216 0
-226 4896 4897 4898 0
-4899 -20 0
-4899 436 0
-4900 -77 0
-4900 222 0
-4901 -78 0
-4901 221 0
-226 4899 4900 4901 0
-4902 -23 0
-4902 446 0
-4903 -83 0
-4903 230 0
-4904 -86 0
-4904 227 0
-226 4902 4903 4904 0
-4905 -24 0
-4905 447 0
-4906 -84 0
-4906 231 0
-4907 -87 0
-4907 228 0
-226 4905 4906 4907 0
-4908 -25 0
-4908 448 0
-4909 -85 0
-4909 232 0
-4910 -88 0
-4910 229 0
-226 4908 4909 4910 0
-4911 -1 0
-4911 161 0
-4912 -9 0
-4912 101 0
-4913 -11 0
-4913 99 0
-227 4911 4912 4913 0
-4914 -14 0
-4914 282 0
-4915 -32 0
-4915 178 0
-4916 -34 0
-4916 176 0
-227 4914 4915 4916 0
-4917 -15 0
-4917 327 0
-4918 -42 0
-4918 188 0
-4919 -44 0
-4919 186 0
-227 4917 4918 4919 0
-4920 -16 0
-4920 363 0
-4921 -51 0
-4921 197 0
-4922 -53 0
-4922 195 0
-227 4920 4921 4922 0
-4923 -17 0
-4923 391 0
-4924 -59 0
-4924 205 0
-4925 -61 0
-4925 203 0
-227 4923 4924 4925 0
-4926 -18 0
-4926 412 0
-4927 -66 0
-4927 212 0
-4928 -68 0
-4928 210 0
-227 4926 4927 4928 0
-4929 -19 0
-4929 427 0
-4930 -72 0
-4930 218 0
-4931 -74 0
-4931 216 0
-227 4929 4930 4931 0
-4932 -20 0
-4932 437 0
-4933 -77 0
-4933 223 0
-4934 -79 0
-4934 221 0
-227 4932 4933 4934 0
-4935 -22 0
-4935 446 0
-4936 -82 0
-4936 230 0
-4937 -86 0
-4937 226 0
-227 4935 4936 4937 0
-4938 -24 0
-4938 449 0
-4939 -84 0
-4939 233 0
-4940 -89 0
-4940 228 0
-227 4938 4939 4940 0
-4941 -25 0
-4941 450 0
-4942 -85 0
-4942 234 0
-4943 -90 0
-4943 229 0
-227 4941 4942 4943 0
-4944 -1 0
-4944 162 0
-4945 -9 0
-4945 102 0
-4946 -12 0
-4946 99 0
-228 4944 4945 4946 0
-4947 -14 0
-4947 283 0
-4948 -32 0
-4948 179 0
-4949 -35 0
-4949 176 0
-228 4947 4948 4949 0
-4950 -15 0
-4950 328 0
-4951 -42 0
-4951 189 0
-4952 -45 0
-4952 186 0
-228 4950 4951 4952 0
-4953 -16 0
-4953 364 0
-4954 -51 0
-4954 198 0
-4955 -54 0
-4955 195 0
-228 4953 4954 4955 0
-4956 -17 0
-4956 392 0
-4957 -59 0
-4957 206 0
-4958 -62 0
-4958 203 0
-228 4956 4957 4958 0
-4959 -18 0
-4959 413 0
-4960 -66 0
-4960 213 0
-4961 -69 0
-4961 210 0
-228 4959 4960 4961 0
-4962 -19 0
-4962 428 0
-4963 -72 0
-4963 219 0
-4964 -75 0
-4964 216 0
-228 4962 4963 4964 0
-4965 -20 0
-4965 438 0
-4966 -77 0
-4966 224 0
-4967 -80 0
-4967 221 0
-228 4965 4966 4967 0
-4968 -22 0
-4968 447 0
-4969 -82 0
-4969 231 0
-4970 -87 0
-4970 226 0
-228 4968 4969 4970 0
-4971 -23 0
-4971 449 0
-4972 -83 0
-4972 233 0
-4973 -89 0
-4973 227 0
-228 4971 4972 4973 0
-4974 -25 0
-4974 451 0
-4975 -85 0
-4975 235 0
-4976 -91 0
-4976 229 0
-228 4974 4975 4976 0
-4977 -1 0
-4977 163 0
-4978 -9 0
-4978 103 0
-4979 -13 0
-4979 99 0
-229 4977 4978 4979 0
-4980 -14 0
-4980 284 0
-4981 -32 0
-4981 180 0
-4982 -36 0
-4982 176 0
-229 4980 4981 4982 0
-4983 -15 0
-4983 329 0
-4984 -42 0
-4984 190 0
-4985 -46 0
-4985 186 0
-229 4983 4984 4985 0
-4986 -16 0
-4986 365 0
-4987 -51 0
-4987 199 0
-4988 -55 0
-4988 195 0
-229 4986 4987 4988 0
-4989 -17 0
-4989 393 0
-4990 -59 0
-4990 207 0
-4991 -63 0
-4991 203 0
-229 4989 4990 4991 0
-4992 -18 0
-4992 414 0
-4993 -66 0
-4993 214 0
-4994 -70 0
-4994 210 0
-229 4992 4993 4994 0
-4995 -19 0
-4995 429 0
-4996 -72 0
-4996 220 0
-4997 -76 0
-4997 216 0
-229 4995 4996 4997 0
-4998 -20 0
-4998 439 0
-4999 -77 0
-4999 225 0
-5000 -81 0
-5000 221 0
-229 4998 4999 5000 0
-5001 -22 0
-5001 448 0
-5002 -82 0
-5002 232 0
-5003 -88 0
-5003 226 0
-229 5001 5002 5003 0
-5004 -23 0
-5004 450 0
-5005 -83 0
-5005 234 0
-5006 -90 0
-5006 227 0
-229 5004 5005 5006 0
-5007 -24 0
-5007 451 0
-5008 -84 0
-5008 235 0
-5009 -91 0
-5009 228 0
-229 5007 5008 5009 0
-5010 -1 0
-5010 164 0
-5011 -10 0
-5011 101 0
-5012 -11 0
-5012 100 0
-230 5010 5011 5012 0
-5013 -14 0
-5013 285 0
-5014 -33 0
-5014 178 0
-5015 -34 0
-5015 177 0
-230 5013 5014 5015 0
-5016 -15 0
-5016 330 0
-5017 -43 0
-5017 188 0
-5018 -44 0
-5018 187 0
-230 5016 5017 5018 0
-5019 -16 0
-5019 366 0
-5020 -52 0
-5020 197 0
-5021 -53 0
-5021 196 0
-230 5019 5020 5021 0
-5022 -17 0
-5022 394 0
-5023 -60 0
-5023 205 0
-5024 -61 0
-5024 204 0
-230 5022 5023 5024 0
-5025 -18 0
-5025 415 0
-5026 -67 0
-5026 212 0
-5027 -68 0
-5027 211 0
-230 5025 5026 5027 0
-5028 -19 0
-5028 430 0
-5029 -73 0
-5029 218 0
-5030 -74 0
-5030 217 0
-230 5028 5029 5030 0
-5031 -20 0
-5031 440 0
-5032 -78 0
-5032 223 0
-5033 -79 0
-5033 222 0
-230 5031 5032 5033 0
-5034 -21 0
-5034 446 0
-5035 -82 0
-5035 227 0
-5036 -83 0
-5036 226 0
-230 5034 5035 5036 0
-5037 -24 0
-5037 452 0
-5038 -87 0
-5038 233 0
-5039 -89 0
-5039 231 0
-230 5037 5038 5039 0
-5040 -25 0
-5040 453 0
-5041 -88 0
-5041 234 0
-5042 -90 0
-5042 232 0
-230 5040 5041 5042 0
-5043 -1 0
-5043 165 0
-5044 -10 0
-5044 102 0
-5045 -12 0
-5045 100 0
-231 5043 5044 5045 0
-5046 -14 0
-5046 286 0
-5047 -33 0
-5047 179 0
-5048 -35 0
-5048 177 0
-231 5046 5047 5048 0
-5049 -15 0
-5049 331 0
-5050 -43 0
-5050 189 0
-5051 -45 0
-5051 187 0
-231 5049 5050 5051 0
-5052 -16 0
-5052 367 0
-5053 -52 0
-5053 198 0
-5054 -54 0
-5054 196 0
-231 5052 5053 5054 0
-5055 -17 0
-5055 395 0
-5056 -60 0
-5056 206 0
-5057 -62 0
-5057 204 0
-231 5055 5056 5057 0
-5058 -18 0
-5058 416 0
-5059 -67 0
-5059 213 0
-5060 -69 0
-5060 211 0
-231 5058 5059 5060 0
-5061 -19 0
-5061 431 0
-5062 -73 0
-5062 219 0
-5063 -75 0
-5063 217 0
-231 5061 5062 5063 0
-5064 -20 0
-5064 441 0
-5065 -78 0
-5065 224 0
-5066 -80 0
-5066 222 0
-231 5064 5065 5066 0
-5067 -21 0
-5067 447 0
-5068 -82 0
-5068 228 0
-5069 -84 0
-5069 226 0
-231 5067 5068 5069 0
-5070 -23 0
-5070 452 0
-5071 -86 0
-5071 233 0
-5072 -89 0
-5072 230 0
-231 5070 5071 5072 0
-5073 -25 0
-5073 454 0
-5074 -88 0
-5074 235 0
-5075 -91 0
-5075 232 0
-231 5073 5074 5075 0
-5076 -1 0
-5076 166 0
-5077 -10 0
-5077 103 0
-5078 -13 0
-5078 100 0
-232 5076 5077 5078 0
-5079 -14 0
-5079 287 0
-5080 -33 0
-5080 180 0
-5081 -36 0
-5081 177 0
-232 5079 5080 5081 0
-5082 -15 0
-5082 332 0
-5083 -43 0
-5083 190 0
-5084 -46 0
-5084 187 0
-232 5082 5083 5084 0
-5085 -16 0
-5085 368 0
-5086 -52 0
-5086 199 0
-5087 -55 0
-5087 196 0
-232 5085 5086 5087 0
-5088 -17 0
-5088 396 0
-5089 -60 0
-5089 207 0
-5090 -63 0
-5090 204 0
-232 5088 5089 5090 0
-5091 -18 0
-5091 417 0
-5092 -67 0
-5092 214 0
-5093 -70 0
-5093 211 0
-232 5091 5092 5093 0
-5094 -19 0
-5094 432 0
-5095 -73 0
-5095 220 0
-5096 -76 0
-5096 217 0
-232 5094 5095 5096 0
-5097 -20 0
-5097 442 0
-5098 -78 0
-5098 225 0
-5099 -81 0
-5099 222 0
-232 5097 5098 5099 0
-5100 -21 0
-5100 448 0
-5101 -82 0
-5101 229 0
-5102 -85 0
-5102 226 0
-232 5100 5101 5102 0
-5103 -23 0
-5103 453 0
-5104 -86 0
-5104 234 0
-5105 -90 0
-5105 230 0
-232 5103 5104 5105 0
-5106 -24 0
-5106 454 0
-5107 -87 0
-5107 235 0
-5108 -91 0
-5108 231 0
-232 5106 5107 5108 0
-5109 -1 0
-5109 167 0
-5110 -11 0
-5110 102 0
-5111 -12 0
-5111 101 0
-233 5109 5110 5111 0
-5112 -14 0
-5112 288 0
-5113 -34 0
-5113 179 0
-5114 -35 0
-5114 178 0
-233 5112 5113 5114 0
-5115 -15 0
-5115 333 0
-5116 -44 0
-5116 189 0
-5117 -45 0
-5117 188 0
-233 5115 5116 5117 0
-5118 -16 0
-5118 369 0
-5119 -53 0
-5119 198 0
-5120 -54 0
-5120 197 0
-233 5118 5119 5120 0
-5121 -17 0
-5121 397 0
-5122 -61 0
-5122 206 0
-5123 -62 0
-5123 205 0
-233 5121 5122 5123 0
-5124 -18 0
-5124 418 0
-5125 -68 0
-5125 213 0
-5126 -69 0
-5126 212 0
-233 5124 5125 5126 0
-5127 -19 0
-5127 433 0
-5128 -74 0
-5128 219 0
-5129 -75 0
-5129 218 0
-233 5127 5128 5129 0
-5130 -20 0
-5130 443 0
-5131 -79 0
-5131 224 0
-5132 -80 0
-5132 223 0
-233 5130 5131 5132 0
-5133 -21 0
-5133 449 0
-5134 -83 0
-5134 228 0
-5135 -84 0
-5135 227 0
-233 5133 5134 5135 0
-5136 -22 0
-5136 452 0
-5137 -86 0
-5137 231 0
-5138 -87 0
-5138 230 0
-233 5136 5137 5138 0
-5139 -25 0
-5139 455 0
-5140 -90 0
-5140 235 0
-5141 -91 0
-5141 234 0
-233 5139 5140 5141 0
-5142 -1 0
-5142 168 0
-5143 -11 0
-5143 103 0
-5144 -13 0
-5144 101 0
-234 5142 5143 5144 0
-5145 -14 0
-5145 289 0
-5146 -34 0
-5146 180 0
-5147 -36 0
-5147 178 0
-234 5145 5146 5147 0
-5148 -15 0
-5148 334 0
-5149 -44 0
-5149 190 0
-5150 -46 0
-5150 188 0
-234 5148 5149 5150 0
-5151 -16 0
-5151 370 0
-5152 -53 0
-5152 199 0
-5153 -55 0
-5153 197 0
-234 5151 5152 5153 0
-5154 -17 0
-5154 398 0
-5155 -61 0
-5155 207 0
-5156 -63 0
-5156 205 0
-234 5154 5155 5156 0
-5157 -18 0
-5157 419 0
-5158 -68 0
-5158 214 0
-5159 -70 0
-5159 212 0
-234 5157 5158 5159 0
-5160 -19 0
-5160 434 0
-5161 -74 0
-5161 220 0
-5162 -76 0
-5162 218 0
-234 5160 5161 5162 0
-5163 -20 0
-5163 444 0
-5164 -79 0
-5164 225 0
-5165 -81 0
-5165 223 0
-234 5163 5164 5165 0
-5166 -21 0
-5166 450 0
-5167 -83 0
-5167 229 0
-5168 -85 0
-5168 227 0
-234 5166 5167 5168 0
-5169 -22 0
-5169 453 0
-5170 -86 0
-5170 232 0
-5171 -88 0
-5171 230 0
-234 5169 5170 5171 0
-5172 -24 0
-5172 455 0
-5173 -89 0
-5173 235 0
-5174 -91 0
-5174 233 0
-234 5172 5173 5174 0
-5175 -1 0
-5175 169 0
-5176 -12 0
-5176 103 0
-5177 -13 0
-5177 102 0
-235 5175 5176 5177 0
-5178 -14 0
-5178 290 0
-5179 -35 0
-5179 180 0
-5180 -36 0
-5180 179 0
-235 5178 5179 5180 0
-5181 -15 0
-5181 335 0
-5182 -45 0
-5182 190 0
-5183 -46 0
-5183 189 0
-235 5181 5182 5183 0
-5184 -16 0
-5184 371 0
-5185 -54 0
-5185 199 0
-5186 -55 0
-5186 198 0
-235 5184 5185 5186 0
-5187 -17 0
-5187 399 0
-5188 -62 0
-5188 207 0
-5189 -63 0
-5189 206 0
-235 5187 5188 5189 0
-5190 -18 0
-5190 420 0
-5191 -69 0
-5191 214 0
-5192 -70 0
-5192 213 0
-235 5190 5191 5192 0
-5193 -19 0
-5193 435 0
-5194 -75 0
-5194 220 0
-5195 -76 0
-5195 219 0
-235 5193 5194 5195 0
-5196 -20 0
-5196 445 0
-5197 -80 0
-5197 225 0
-5198 -81 0
-5198 224 0
-235 5196 5197 5198 0
-5199 -21 0
-5199 451 0
-5200 -84 0
-5200 229 0
-5201 -85 0
-5201 228 0
-235 5199 5200 5201 0
-5202 -22 0
-5202 454 0
-5203 -87 0
-5203 232 0
-5204 -88 0
-5204 231 0
-235 5202 5203 5204 0
-5205 -23 0
-5205 455 0
-5206 -89 0
-5206 234 0
-5207 -90 0
-5207 233 0
-235 5205 5206 5207 0
-5208 -2 0
-5208 115 0
-5209 -3 0
-5209 105 0
-5210 -4 0
-5210 104 0
-236 5208 5209 5210 0
-5211 -14 0
-5211 181 0
-5212 -15 0
-5212 171 0
-5213 -16 0
-5213 170 0
-236 5211 5212 5213 0
-5214 -28 0
-5214 291 0
-5215 -38 0
-5215 246 0
-5216 -47 0
-5216 237 0
-236 5214 5215 5216 0
-5217 -29 0
-5217 292 0
-5218 -39 0
-5218 247 0
-5219 -48 0
-5219 238 0
-236 5217 5218 5219 0
-5220 -30 0
-5220 293 0
-5221 -40 0
-5221 248 0
-5222 -49 0
-5222 239 0
-236 5220 5221 5222 0
-5223 -31 0
-5223 294 0
-5224 -41 0
-5224 249 0
-5225 -50 0
-5225 240 0
-236 5223 5224 5225 0
-5226 -32 0
-5226 295 0
-5227 -42 0
-5227 250 0
-5228 -51 0
-5228 241 0
-236 5226 5227 5228 0
-5229 -33 0
-5229 296 0
-5230 -43 0
-5230 251 0
-5231 -52 0
-5231 242 0
-236 5229 5230 5231 0
-5232 -34 0
-5232 297 0
-5233 -44 0
-5233 252 0
-5234 -53 0
-5234 243 0
-236 5232 5233 5234 0
-5235 -35 0
-5235 298 0
-5236 -45 0
-5236 253 0
-5237 -54 0
-5237 244 0
-236 5235 5236 5237 0
-5238 -36 0
-5238 299 0
-5239 -46 0
-5239 254 0
-5240 -55 0
-5240 245 0
-236 5238 5239 5240 0
-5241 -2 0
-5241 116 0
-5242 -3 0
-5242 106 0
-5243 -5 0
-5243 104 0
-237 5241 5242 5243 0
-5244 -14 0
-5244 182 0
-5245 -15 0
-5245 172 0
-5246 -17 0
-5246 170 0
-237 5244 5245 5246 0
-5247 -27 0
-5247 291 0
-5248 -37 0
-5248 246 0
-5249 -47 0
-5249 236 0
-237 5247 5248 5249 0
-5250 -29 0
-5250 300 0
-5251 -39 0
-5251 255 0
-5252 -56 0
-5252 238 0
-237 5250 5251 5252 0
-5253 -30 0
-5253 301 0
-5254 -40 0
-5254 256 0
-5255 -57 0
-5255 239 0
-237 5253 5254 5255 0
-5256 -31 0
-5256 302 0
-5257 -41 0
-5257 257 0
-5258 -58 0
-5258 240 0
-237 5256 5257 5258 0
-5259 -32 0
-5259 303 0
-5260 -42 0
-5260 258 0
-5261 -59 0
-5261 241 0
-237 5259 5260 5261 0
-5262 -33 0
-5262 304 0
-5263 -43 0
-5263 259 0
-5264 -60 0
-5264 242 0
-237 5262 5263 5264 0
-5265 -34 0
-5265 305 0
-5266 -44 0
-5266 260 0
-5267 -61 0
-5267 243 0
-237 5265 5266 5267 0
-5268 -35 0
-5268 306 0
-5269 -45 0
-5269 261 0
-5270 -62 0
-5270 244 0
-237 5268 5269 5270 0
-5271 -36 0
-5271 307 0
-5272 -46 0
-5272 262 0
-5273 -63 0
-5273 245 0
-237 5271 5272 5273 0
-5274 -2 0
-5274 117 0
-5275 -3 0
-5275 107 0
-5276 -6 0
-5276 104 0
-238 5274 5275 5276 0
-5277 -14 0
-5277 183 0
-5278 -15 0
-5278 173 0
-5279 -18 0
-5279 170 0
-238 5277 5278 5279 0
-5280 -27 0
-5280 292 0
-5281 -37 0
-5281 247 0
-5282 -48 0
-5282 236 0
-238 5280 5281 5282 0
-5283 -28 0
-5283 300 0
-5284 -38 0
-5284 255 0
-5285 -56 0
-5285 237 0
-238 5283 5284 5285 0
-5286 -30 0
-5286 308 0
-5287 -40 0
-5287 263 0
-5288 -64 0
-5288 239 0
-238 5286 5287 5288 0
-5289 -31 0
-5289 309 0
-5290 -41 0
-5290 264 0
-5291 -65 0
-5291 240 0
-238 5289 5290 5291 0
-5292 -32 0
-5292 310 0
-5293 -42 0
-5293 265 0
-5294 -66 0
-5294 241 0
-238 5292 5293 5294 0
-5295 -33 0
-5295 311 0
-5296 -43 0
-5296 266 0
-5297 -67 0
-5297 242 0
-238 5295 5296 5297 0
-5298 -34 0
-5298 312 0
-5299 -44 0
-5299 267 0
-5300 -68 0
-5300 243 0
-238 5298 5299 5300 0
-5301 -35 0
-5301 313 0
-5302 -45 0
-5302 268 0
-5303 -69 0
-5303 244 0
-238 5301 5302 5303 0
-5304 -36 0
-5304 314 0
-5305 -46 0
-5305 269 0
-5306 -70 0
-5306 245 0
-238 5304 5305 5306 0
-5307 -2 0
-5307 118 0
-5308 -3 0
-5308 108 0
-5309 -7 0
-5309 104 0
-239 5307 5308 5309 0
-5310 -14 0
-5310 184 0
-5311 -15 0
-5311 174 0
-5312 -19 0
-5312 170 0
-239 5310 5311 5312 0
-5313 -27 0
-5313 293 0
-5314 -37 0
-5314 248 0
-5315 -49 0
-5315 236 0
-239 5313 5314 5315 0
-5316 -28 0
-5316 301 0
-5317 -38 0
-5317 256 0
-5318 -57 0
-5318 237 0
-239 5316 5317 5318 0
-5319 -29 0
-5319 308 0
-5320 -39 0
-5320 263 0
-5321 -64 0
-5321 238 0
-239 5319 5320 5321 0
-5322 -31 0
-5322 315 0
-5323 -41 0
-5323 270 0
-5324 -71 0
-5324 240 0
-239 5322 5323 5324 0
-5325 -32 0
-5325 316 0
-5326 -42 0
-5326 271 0
-5327 -72 0
-5327 241 0
-239 5325 5326 5327 0
-5328 -33 0
-5328 317 0
-5329 -43 0
-5329 272 0
-5330 -73 0
-5330 242 0
-239 5328 5329 5330 0
-5331 -34 0
-5331 318 0
-5332 -44 0
-5332 273 0
-5333 -74 0
-5333 243 0
-239 5331 5332 5333 0
-5334 -35 0
-5334 319 0
-5335 -45 0
-5335 274 0
-5336 -75 0
-5336 244 0
-239 5334 5335 5336 0
-5337 -36 0
-5337 320 0
-5338 -46 0
-5338 275 0
-5339 -76 0
-5339 245 0
-239 5337 5338 5339 0
-5340 -2 0
-5340 119 0
-5341 -3 0
-5341 109 0
-5342 -8 0
-5342 104 0
-240 5340 5341 5342 0
-5343 -14 0
-5343 185 0
-5344 -15 0
-5344 175 0
-5345 -20 0
-5345 170 0
-240 5343 5344 5345 0
-5346 -27 0
-5346 294 0
-5347 -37 0
-5347 249 0
-5348 -50 0
-5348 236 0
-240 5346 5347 5348 0
-5349 -28 0
-5349 302 0
-5350 -38 0
-5350 257 0
-5351 -58 0
-5351 237 0
-240 5349 5350 5351 0
-5352 -29 0
-5352 309 0
-5353 -39 0
-5353 264 0
-5354 -65 0
-5354 238 0
-240 5352 5353 5354 0
-5355 -30 0
-5355 315 0
-5356 -40 0
-5356 270 0
-5357 -71 0
-5357 239 0
-240 5355 5356 5357 0
-5358 -32 0
-5358 321 0
-5359 -42 0
-5359 276 0
-5360 -77 0
-5360 241 0
-240 5358 5359 5360 0
-5361 -33 0
-5361 322 0
-5362 -43 0
-5362 277 0
-5363 -78 0
-5363 242 0
-240 5361 5362 5363 0
-5364 -34 0
-5364 323 0
-5365 -44 0
-5365 278 0
-5366 -79 0
-5366 243 0
-240 5364 5365 5366 0
-5367 -35 0
-5367 324 0
-5368 -45 0
-5368 279 0
-5369 -80 0
-5369 244 0
-240 5367 5368 5369 0
-5370 -36 0
-5370 325 0
-5371 -46 0
-5371 280 0
-5372 -81 0
-5372 245 0
-240 5370 5371 5372 0
-5373 -2 0
-5373 120 0
-5374 -3 0
-5374 110 0
-5375 -9 0
-5375 104 0
-241 5373 5374 5375 0
-5376 -14 0
-5376 186 0
-5377 -15 0
-5377 176 0
-5378 -21 0
-5378 170 0
-241 5376 5377 5378 0
-5379 -27 0
-5379 295 0
-5380 -37 0
-5380 250 0
-5381 -51 0
-5381 236 0
-241 5379 5380 5381 0
-5382 -28 0
-5382 303 0
-5383 -38 0
-5383 258 0
-5384 -59 0
-5384 237 0
-241 5382 5383 5384 0
-5385 -29 0
-5385 310 0
-5386 -39 0
-5386 265 0
-5387 -66 0
-5387 238 0
-241 5385 5386 5387 0
-5388 -30 0
-5388 316 0
-5389 -40 0
-5389 271 0
-5390 -72 0
-5390 239 0
-241 5388 5389 5390 0
-5391 -31 0
-5391 321 0
-5392 -41 0
-5392 276 0
-5393 -77 0
-5393 240 0
-241 5391 5392 5393 0
-5394 -33 0
-5394 326 0
-5395 -43 0
-5395 281 0
-5396 -82 0
-5396 242 0
-241 5394 5395 5396 0
-5397 -34 0
-5397 327 0
-5398 -44 0
-5398 282 0
-5399 -83 0
-5399 243 0
-241 5397 5398 5399 0
-5400 -35 0
-5400 328 0
-5401 -45 0
-5401 283 0
-5402 -84 0
-5402 244 0
-241 5400 5401 5402 0
-5403 -36 0
-5403 329 0
-5404 -46 0
-5404 284 0
-5405 -85 0
-5405 245 0
-241 5403 5404 5405 0
-5406 -2 0
-5406 121 0
-5407 -3 0
-5407 111 0
-5408 -10 0
-5408 104 0
-242 5406 5407 5408 0
-5409 -14 0
-5409 187 0
-5410 -15 0
-5410 177 0
-5411 -22 0
-5411 170 0
-242 5409 5410 5411 0
-5412 -27 0
-5412 296 0
-5413 -37 0
-5413 251 0
-5414 -52 0
-5414 236 0
-242 5412 5413 5414 0
-5415 -28 0
-5415 304 0
-5416 -38 0
-5416 259 0
-5417 -60 0
-5417 237 0
-242 5415 5416 5417 0
-5418 -29 0
-5418 311 0
-5419 -39 0
-5419 266 0
-5420 -67 0
-5420 238 0
-242 5418 5419 5420 0
-5421 -30 0
-5421 317 0
-5422 -40 0
-5422 272 0
-5423 -73 0
-5423 239 0
-242 5421 5422 5423 0
-5424 -31 0
-5424 322 0
-5425 -41 0
-5425 277 0
-5426 -78 0
-5426 240 0
-242 5424 5425 5426 0
-5427 -32 0
-5427 326 0
-5428 -42 0
-5428 281 0
-5429 -82 0
-5429 241 0
-242 5427 5428 5429 0
-5430 -34 0
-5430 330 0
-5431 -44 0
-5431 285 0
-5432 -86 0
-5432 243 0
-242 5430 5431 5432 0
-5433 -35 0
-5433 331 0
-5434 -45 0
-5434 286 0
-5435 -87 0
-5435 244 0
-242 5433 5434 5435 0
-5436 -36 0
-5436 332 0
-5437 -46 0
-5437 287 0
-5438 -88 0
-5438 245 0
-242 5436 5437 5438 0
-5439 -2 0
-5439 122 0
-5440 -3 0
-5440 112 0
-5441 -11 0
-5441 104 0
-243 5439 5440 5441 0
-5442 -14 0
-5442 188 0
-5443 -15 0
-5443 178 0
-5444 -23 0
-5444 170 0
-243 5442 5443 5444 0
-5445 -27 0
-5445 297 0
-5446 -37 0
-5446 252 0
-5447 -53 0
-5447 236 0
-243 5445 5446 5447 0
-5448 -28 0
-5448 305 0
-5449 -38 0
-5449 260 0
-5450 -61 0
-5450 237 0
-243 5448 5449 5450 0
-5451 -29 0
-5451 312 0
-5452 -39 0
-5452 267 0
-5453 -68 0
-5453 238 0
-243 5451 5452 5453 0
-5454 -30 0
-5454 318 0
-5455 -40 0
-5455 273 0
-5456 -74 0
-5456 239 0
-243 5454 5455 5456 0
-5457 -31 0
-5457 323 0
-5458 -41 0
-5458 278 0
-5459 -79 0
-5459 240 0
-243 5457 5458 5459 0
-5460 -32 0
-5460 327 0
-5461 -42 0
-5461 282 0
-5462 -83 0
-5462 241 0
-243 5460 5461 5462 0
-5463 -33 0
-5463 330 0
-5464 -43 0
-5464 285 0
-5465 -86 0
-5465 242 0
-243 5463 5464 5465 0
-5466 -35 0
-5466 333 0
-5467 -45 0
-5467 288 0
-5468 -89 0
-5468 244 0
-243 5466 5467 5468 0
-5469 -36 0
-5469 334 0
-5470 -46 0
-5470 289 0
-5471 -90 0
-5471 245 0
-243 5469 5470 5471 0
-5472 -2 0
-5472 123 0
-5473 -3 0
-5473 113 0
-5474 -12 0
-5474 104 0
-244 5472 5473 5474 0
-5475 -14 0
-5475 189 0
-5476 -15 0
-5476 179 0
-5477 -24 0
-5477 170 0
-244 5475 5476 5477 0
-5478 -27 0
-5478 298 0
-5479 -37 0
-5479 253 0
-5480 -54 0
-5480 236 0
-244 5478 5479 5480 0
-5481 -28 0
-5481 306 0
-5482 -38 0
-5482 261 0
-5483 -62 0
-5483 237 0
-244 5481 5482 5483 0
-5484 -29 0
-5484 313 0
-5485 -39 0
-5485 268 0
-5486 -69 0
-5486 238 0
-244 5484 5485 5486 0
-5487 -30 0
-5487 319 0
-5488 -40 0
-5488 274 0
-5489 -75 0
-5489 239 0
-244 5487 5488 5489 0
-5490 -31 0
-5490 324 0
-5491 -41 0
-5491 279 0
-5492 -80 0
-5492 240 0
-244 5490 5491 5492 0
-5493 -32 0
-5493 328 0
-5494 -42 0
-5494 283 0
-5495 -84 0
-5495 241 0
-244 5493 5494 5495 0
-5496 -33 0
-5496 331 0
-5497 -43 0
-5497 286 0
-5498 -87 0
-5498 242 0
-244 5496 5497 5498 0
-5499 -34 0
-5499 333 0
-5500 -44 0
-5500 288 0
-5501 -89 0
-5501 243 0
-244 5499 5500 5501 0
-5502 -36 0
-5502 335 0
-5503 -46 0
-5503 290 0
-5504 -91 0
-5504 245 0
-244 5502 5503 5504 0
-5505 -2 0
-5505 124 0
-5506 -3 0
-5506 114 0
-5507 -13 0
-5507 104 0
-245 5505 5506 5507 0
-5508 -14 0
-5508 190 0
-5509 -15 0
-5509 180 0
-5510 -25 0
-5510 170 0
-245 5508 5509 5510 0
-5511 -27 0
-5511 299 0
-5512 -37 0
-5512 254 0
-5513 -55 0
-5513 236 0
-245 5511 5512 5513 0
-5514 -28 0
-5514 307 0
-5515 -38 0
-5515 262 0
-5516 -63 0
-5516 237 0
-245 5514 5515 5516 0
-5517 -29 0
-5517 314 0
-5518 -39 0
-5518 269 0
-5519 -70 0
-5519 238 0
-245 5517 5518 5519 0
-5520 -30 0
-5520 320 0
-5521 -40 0
-5521 275 0
-5522 -76 0
-5522 239 0
-245 5520 5521 5522 0
-5523 -31 0
-5523 325 0
-5524 -41 0
-5524 280 0
-5525 -81 0
-5525 240 0
-245 5523 5524 5525 0
-5526 -32 0
-5526 329 0
-5527 -42 0
-5527 284 0
-5528 -85 0
-5528 241 0
-245 5526 5527 5528 0
-5529 -33 0
-5529 332 0
-5530 -43 0
-5530 287 0
-5531 -88 0
-5531 242 0
-245 5529 5530 5531 0
-5532 -34 0
-5532 334 0
-5533 -44 0
-5533 289 0
-5534 -90 0
-5534 243 0
-245 5532 5533 5534 0
-5535 -35 0
-5535 335 0
-5536 -45 0
-5536 290 0
-5537 -91 0
-5537 244 0
-245 5535 5536 5537 0
-5538 -2 0
-5538 125 0
-5539 -4 0
-5539 106 0
-5540 -5 0
-5540 105 0
-246 5538 5539 5540 0
-5541 -14 0
-5541 191 0
-5542 -16 0
-5542 172 0
-5543 -17 0
-5543 171 0
-246 5541 5542 5543 0
-5544 -26 0
-5544 291 0
-5545 -37 0
-5545 237 0
-5546 -38 0
-5546 236 0
-246 5544 5545 5546 0
-5547 -29 0
-5547 336 0
-5548 -48 0
-5548 255 0
-5549 -56 0
-5549 247 0
-246 5547 5548 5549 0
-5550 -30 0
-5550 337 0
-5551 -49 0
-5551 256 0
-5552 -57 0
-5552 248 0
-246 5550 5551 5552 0
-5553 -31 0
-5553 338 0
-5554 -50 0
-5554 257 0
-5555 -58 0
-5555 249 0
-246 5553 5554 5555 0
-5556 -32 0
-5556 339 0
-5557 -51 0
-5557 258 0
-5558 -59 0
-5558 250 0
-246 5556 5557 5558 0
-5559 -33 0
-5559 340 0
-5560 -52 0
-5560 259 0
-5561 -60 0
-5561 251 0
-246 5559 5560 5561 0
-5562 -34 0
-5562 341 0
-5563 -53 0
-5563 260 0
-5564 -61 0
-5564 252 0
-246 5562 5563 5564 0
-5565 -35 0
-5565 342 0
-5566 -54 0
-5566 261 0
-5567 -62 0
-5567 253 0
-246 5565 5566 5567 0
-5568 -36 0
-5568 343 0
-5569 -55 0
-5569 262 0
-5570 -63 0
-5570 254 0
-246 5568 5569 5570 0
-5571 -2 0
-5571 126 0
-5572 -4 0
-5572 107 0
-5573 -6 0
-5573 105 0
-247 5571 5572 5573 0
-5574 -14 0
-5574 192 0
-5575 -16 0
-5575 173 0
-5576 -18 0
-5576 171 0
-247 5574 5575 5576 0
-5577 -26 0
-5577 292 0
-5578 -37 0
-5578 238 0
-5579 -39 0
-5579 236 0
-247 5577 5578 5579 0
-5580 -28 0
-5580 336 0
-5581 -47 0
-5581 255 0
-5582 -56 0
-5582 246 0
-247 5580 5581 5582 0
-5583 -30 0
-5583 344 0
-5584 -49 0
-5584 263 0
-5585 -64 0
-5585 248 0
-247 5583 5584 5585 0
-5586 -31 0
-5586 345 0
-5587 -50 0
-5587 264 0
-5588 -65 0
-5588 249 0
-247 5586 5587 5588 0
-5589 -32 0
-5589 346 0
-5590 -51 0
-5590 265 0
-5591 -66 0
-5591 250 0
-247 5589 5590 5591 0
-5592 -33 0
-5592 347 0
-5593 -52 0
-5593 266 0
-5594 -67 0
-5594 251 0
-247 5592 5593 5594 0
-5595 -34 0
-5595 348 0
-5596 -53 0
-5596 267 0
-5597 -68 0
-5597 252 0
-247 5595 5596 5597 0
-5598 -35 0
-5598 349 0
-5599 -54 0
-5599 268 0
-5600 -69 0
-5600 253 0
-247 5598 5599 5600 0
-5601 -36 0
-5601 350 0
-5602 -55 0
-5602 269 0
-5603 -70 0
-5603 254 0
-247 5601 5602 5603 0
-5604 -2 0
-5604 127 0
-5605 -4 0
-5605 108 0
-5606 -7 0
-5606 105 0
-248 5604 5605 5606 0
-5607 -14 0
-5607 193 0
-5608 -16 0
-5608 174 0
-5609 -19 0
-5609 171 0
-248 5607 5608 5609 0
-5610 -26 0
-5610 293 0
-5611 -37 0
-5611 239 0
-5612 -40 0
-5612 236 0
-248 5610 5611 5612 0
-5613 -28 0
-5613 337 0
-5614 -47 0
-5614 256 0
-5615 -57 0
-5615 246 0
-248 5613 5614 5615 0
-5616 -29 0
-5616 344 0
-5617 -48 0
-5617 263 0
-5618 -64 0
-5618 247 0
-248 5616 5617 5618 0
-5619 -31 0
-5619 351 0
-5620 -50 0
-5620 270 0
-5621 -71 0
-5621 249 0
-248 5619 5620 5621 0
-5622 -32 0
-5622 352 0
-5623 -51 0
-5623 271 0
-5624 -72 0
-5624 250 0
-248 5622 5623 5624 0
-5625 -33 0
-5625 353 0
-5626 -52 0
-5626 272 0
-5627 -73 0
-5627 251 0
-248 5625 5626 5627 0
-5628 -34 0
-5628 354 0
-5629 -53 0
-5629 273 0
-5630 -74 0
-5630 252 0
-248 5628 5629 5630 0
-5631 -35 0
-5631 355 0
-5632 -54 0
-5632 274 0
-5633 -75 0
-5633 253 0
-248 5631 5632 5633 0
-5634 -36 0
-5634 356 0
-5635 -55 0
-5635 275 0
-5636 -76 0
-5636 254 0
-248 5634 5635 5636 0
-5637 -2 0
-5637 128 0
-5638 -4 0
-5638 109 0
-5639 -8 0
-5639 105 0
-249 5637 5638 5639 0
-5640 -14 0
-5640 194 0
-5641 -16 0
-5641 175 0
-5642 -20 0
-5642 171 0
-249 5640 5641 5642 0
-5643 -26 0
-5643 294 0
-5644 -37 0
-5644 240 0
-5645 -41 0
-5645 236 0
-249 5643 5644 5645 0
-5646 -28 0
-5646 338 0
-5647 -47 0
-5647 257 0
-5648 -58 0
-5648 246 0
-249 5646 5647 5648 0
-5649 -29 0
-5649 345 0
-5650 -48 0
-5650 264 0
-5651 -65 0
-5651 247 0
-249 5649 5650 5651 0
-5652 -30 0
-5652 351 0
-5653 -49 0
-5653 270 0
-5654 -71 0
-5654 248 0
-249 5652 5653 5654 0
-5655 -32 0
-5655 357 0
-5656 -51 0
-5656 276 0
-5657 -77 0
-5657 250 0
-249 5655 5656 5657 0
-5658 -33 0
-5658 358 0
-5659 -52 0
-5659 277 0
-5660 -78 0
-5660 251 0
-249 5658 5659 5660 0
-5661 -34 0
-5661 359 0
-5662 -53 0
-5662 278 0
-5663 -79 0
-5663 252 0
-249 5661 5662 5663 0
-5664 -35 0
-5664 360 0
-5665 -54 0
-5665 279 0
-5666 -80 0
-5666 253 0
-249 5664 5665 5666 0
-5667 -36 0
-5667 361 0
-5668 -55 0
-5668 280 0
-5669 -81 0
-5669 254 0
-249 5667 5668 5669 0
-5670 -2 0
-5670 129 0
-5671 -4 0
-5671 110 0
-5672 -9 0
-5672 105 0
-250 5670 5671 5672 0
-5673 -14 0
-5673 195 0
-5674 -16 0
-5674 176 0
-5675 -21 0
-5675 171 0
-250 5673 5674 5675 0
-5676 -26 0
-5676 295 0
-5677 -37 0
-5677 241 0
-5678 -42 0
-5678 236 0
-250 5676 5677 5678 0
-5679 -28 0
-5679 339 0
-5680 -47 0
-5680 258 0
-5681 -59 0
-5681 246 0
-250 5679 5680 5681 0
-5682 -29 0
-5682 346 0
-5683 -48 0
-5683 265 0
-5684 -66 0
-5684 247 0
-250 5682 5683 5684 0
-5685 -30 0
-5685 352 0
-5686 -49 0
-5686 271 0
-5687 -72 0
-5687 248 0
-250 5685 5686 5687 0
-5688 -31 0
-5688 357 0
-5689 -50 0
-5689 276 0
-5690 -77 0
-5690 249 0
-250 5688 5689 5690 0
-5691 -33 0
-5691 362 0
-5692 -52 0
-5692 281 0
-5693 -82 0
-5693 251 0
-250 5691 5692 5693 0
-5694 -34 0
-5694 363 0
-5695 -53 0
-5695 282 0
-5696 -83 0
-5696 252 0
-250 5694 5695 5696 0
-5697 -35 0
-5697 364 0
-5698 -54 0
-5698 283 0
-5699 -84 0
-5699 253 0
-250 5697 5698 5699 0
-5700 -36 0
-5700 365 0
-5701 -55 0
-5701 284 0
-5702 -85 0
-5702 254 0
-250 5700 5701 5702 0
-5703 -2 0
-5703 130 0
-5704 -4 0
-5704 111 0
-5705 -10 0
-5705 105 0
-251 5703 5704 5705 0
-5706 -14 0
-5706 196 0
-5707 -16 0
-5707 177 0
-5708 -22 0
-5708 171 0
-251 5706 5707 5708 0
-5709 -26 0
-5709 296 0
-5710 -37 0
-5710 242 0
-5711 -43 0
-5711 236 0
-251 5709 5710 5711 0
-5712 -28 0
-5712 340 0
-5713 -47 0
-5713 259 0
-5714 -60 0
-5714 246 0
-251 5712 5713 5714 0
-5715 -29 0
-5715 347 0
-5716 -48 0
-5716 266 0
-5717 -67 0
-5717 247 0
-251 5715 5716 5717 0
-5718 -30 0
-5718 353 0
-5719 -49 0
-5719 272 0
-5720 -73 0
-5720 248 0
-251 5718 5719 5720 0
-5721 -31 0
-5721 358 0
-5722 -50 0
-5722 277 0
-5723 -78 0
-5723 249 0
-251 5721 5722 5723 0
-5724 -32 0
-5724 362 0
-5725 -51 0
-5725 281 0
-5726 -82 0
-5726 250 0
-251 5724 5725 5726 0
-5727 -34 0
-5727 366 0
-5728 -53 0
-5728 285 0
-5729 -86 0
-5729 252 0
-251 5727 5728 5729 0
-5730 -35 0
-5730 367 0
-5731 -54 0
-5731 286 0
-5732 -87 0
-5732 253 0
-251 5730 5731 5732 0
-5733 -36 0
-5733 368 0
-5734 -55 0
-5734 287 0
-5735 -88 0
-5735 254 0
-251 5733 5734 5735 0
-5736 -2 0
-5736 131 0
-5737 -4 0
-5737 112 0
-5738 -11 0
-5738 105 0
-252 5736 5737 5738 0
-5739 -14 0
-5739 197 0
-5740 -16 0
-5740 178 0
-5741 -23 0
-5741 171 0
-252 5739 5740 5741 0
-5742 -26 0
-5742 297 0
-5743 -37 0
-5743 243 0
-5744 -44 0
-5744 236 0
-252 5742 5743 5744 0
-5745 -28 0
-5745 341 0
-5746 -47 0
-5746 260 0
-5747 -61 0
-5747 246 0
-252 5745 5746 5747 0
-5748 -29 0
-5748 348 0
-5749 -48 0
-5749 267 0
-5750 -68 0
-5750 247 0
-252 5748 5749 5750 0
-5751 -30 0
-5751 354 0
-5752 -49 0
-5752 273 0
-5753 -74 0
-5753 248 0
-252 5751 5752 5753 0
-5754 -31 0
-5754 359 0
-5755 -50 0
-5755 278 0
-5756 -79 0
-5756 249 0
-252 5754 5755 5756 0
-5757 -32 0
-5757 363 0
-5758 -51 0
-5758 282 0
-5759 -83 0
-5759 250 0
-252 5757 5758 5759 0
-5760 -33 0
-5760 366 0
-5761 -52 0
-5761 285 0
-5762 -86 0
-5762 251 0
-252 5760 5761 5762 0
-5763 -35 0
-5763 369 0
-5764 -54 0
-5764 288 0
-5765 -89 0
-5765 253 0
-252 5763 5764 5765 0
-5766 -36 0
-5766 370 0
-5767 -55 0
-5767 289 0
-5768 -90 0
-5768 254 0
-252 5766 5767 5768 0
-5769 -2 0
-5769 132 0
-5770 -4 0
-5770 113 0
-5771 -12 0
-5771 105 0
-253 5769 5770 5771 0
-5772 -14 0
-5772 198 0
-5773 -16 0
-5773 179 0
-5774 -24 0
-5774 171 0
-253 5772 5773 5774 0
-5775 -26 0
-5775 298 0
-5776 -37 0
-5776 244 0
-5777 -45 0
-5777 236 0
-253 5775 5776 5777 0
-5778 -28 0
-5778 342 0
-5779 -47 0
-5779 261 0
-5780 -62 0
-5780 246 0
-253 5778 5779 5780 0
-5781 -29 0
-5781 349 0
-5782 -48 0
-5782 268 0
-5783 -69 0
-5783 247 0
-253 5781 5782 5783 0
-5784 -30 0
-5784 355 0
-5785 -49 0
-5785 274 0
-5786 -75 0
-5786 248 0
-253 5784 5785 5786 0
-5787 -31 0
-5787 360 0
-5788 -50 0
-5788 279 0
-5789 -80 0
-5789 249 0
-253 5787 5788 5789 0
-5790 -32 0
-5790 364 0
-5791 -51 0
-5791 283 0
-5792 -84 0
-5792 250 0
-253 5790 5791 5792 0
-5793 -33 0
-5793 367 0
-5794 -52 0
-5794 286 0
-5795 -87 0
-5795 251 0
-253 5793 5794 5795 0
-5796 -34 0
-5796 369 0
-5797 -53 0
-5797 288 0
-5798 -89 0
-5798 252 0
-253 5796 5797 5798 0
-5799 -36 0
-5799 371 0
-5800 -55 0
-5800 290 0
-5801 -91 0
-5801 254 0
-253 5799 5800 5801 0
-5802 -2 0
-5802 133 0
-5803 -4 0
-5803 114 0
-5804 -13 0
-5804 105 0
-254 5802 5803 5804 0
-5805 -14 0
-5805 199 0
-5806 -16 0
-5806 180 0
-5807 -25 0
-5807 171 0
-254 5805 5806 5807 0
-5808 -26 0
-5808 299 0
-5809 -37 0
-5809 245 0
-5810 -46 0
-5810 236 0
-254 5808 5809 5810 0
-5811 -28 0
-5811 343 0
-5812 -47 0
-5812 262 0
-5813 -63 0
-5813 246 0
-254 5811 5812 5813 0
-5814 -29 0
-5814 350 0
-5815 -48 0
-5815 269 0
-5816 -70 0
-5816 247 0
-254 5814 5815 5816 0
-5817 -30 0
-5817 356 0
-5818 -49 0
-5818 275 0
-5819 -76 0
-5819 248 0
-254 5817 5818 5819 0
-5820 -31 0
-5820 361 0
-5821 -50 0
-5821 280 0
-5822 -81 0
-5822 249 0
-254 5820 5821 5822 0
-5823 -32 0
-5823 365 0
-5824 -51 0
-5824 284 0
-5825 -85 0
-5825 250 0
-254 5823 5824 5825 0
-5826 -33 0
-5826 368 0
-5827 -52 0
-5827 287 0
-5828 -88 0
-5828 251 0
-254 5826 5827 5828 0
-5829 -34 0
-5829 370 0
-5830 -53 0
-5830 289 0
-5831 -90 0
-5831 252 0
-254 5829 5830 5831 0
-5832 -35 0
-5832 371 0
-5833 -54 0
-5833 290 0
-5834 -91 0
-5834 253 0
-254 5832 5833 5834 0
-5835 -2 0
-5835 134 0
-5836 -5 0
-5836 107 0
-5837 -6 0
-5837 106 0
-255 5835 5836 5837 0
-5838 -14 0
-5838 200 0
-5839 -17 0
-5839 173 0
-5840 -18 0
-5840 172 0
-255 5838 5839 5840 0
-5841 -26 0
-5841 300 0
-5842 -38 0
-5842 238 0
-5843 -39 0
-5843 237 0
-255 5841 5842 5843 0
-5844 -27 0
-5844 336 0
-5845 -47 0
-5845 247 0
-5846 -48 0
-5846 246 0
-255 5844 5845 5846 0
-5847 -30 0
-5847 372 0
-5848 -57 0
-5848 263 0
-5849 -64 0
-5849 256 0
-255 5847 5848 5849 0
-5850 -31 0
-5850 373 0
-5851 -58 0
-5851 264 0
-5852 -65 0
-5852 257 0
-255 5850 5851 5852 0
-5853 -32 0
-5853 374 0
-5854 -59 0
-5854 265 0
-5855 -66 0
-5855 258 0
-255 5853 5854 5855 0
-5856 -33 0
-5856 375 0
-5857 -60 0
-5857 266 0
-5858 -67 0
-5858 259 0
-255 5856 5857 5858 0
-5859 -34 0
-5859 376 0
-5860 -61 0
-5860 267 0
-5861 -68 0
-5861 260 0
-255 5859 5860 5861 0
-5862 -35 0
-5862 377 0
-5863 -62 0
-5863 268 0
-5864 -69 0
-5864 261 0
-255 5862 5863 5864 0
-5865 -36 0
-5865 378 0
-5866 -63 0
-5866 269 0
-5867 -70 0
-5867 262 0
-255 5865 5866 5867 0
-5868 -2 0
-5868 135 0
-5869 -5 0
-5869 108 0
-5870 -7 0
-5870 106 0
-256 5868 5869 5870 0
-5871 -14 0
-5871 201 0
-5872 -17 0
-5872 174 0
-5873 -19 0
-5873 172 0
-256 5871 5872 5873 0
-5874 -26 0
-5874 301 0
-5875 -38 0
-5875 239 0
-5876 -40 0
-5876 237 0
-256 5874 5875 5876 0
-5877 -27 0
-5877 337 0
-5878 -47 0
-5878 248 0
-5879 -49 0
-5879 246 0
-256 5877 5878 5879 0
-5880 -29 0
-5880 372 0
-5881 -56 0
-5881 263 0
-5882 -64 0
-5882 255 0
-256 5880 5881 5882 0
-5883 -31 0
-5883 379 0
-5884 -58 0
-5884 270 0
-5885 -71 0
-5885 257 0
-256 5883 5884 5885 0
-5886 -32 0
-5886 380 0
-5887 -59 0
-5887 271 0
-5888 -72 0
-5888 258 0
-256 5886 5887 5888 0
-5889 -33 0
-5889 381 0
-5890 -60 0
-5890 272 0
-5891 -73 0
-5891 259 0
-256 5889 5890 5891 0
-5892 -34 0
-5892 382 0
-5893 -61 0
-5893 273 0
-5894 -74 0
-5894 260 0
-256 5892 5893 5894 0
-5895 -35 0
-5895 383 0
-5896 -62 0
-5896 274 0
-5897 -75 0
-5897 261 0
-256 5895 5896 5897 0
-5898 -36 0
-5898 384 0
-5899 -63 0
-5899 275 0
-5900 -76 0
-5900 262 0
-256 5898 5899 5900 0
-5901 -2 0
-5901 136 0
-5902 -5 0
-5902 109 0
-5903 -8 0
-5903 106 0
-257 5901 5902 5903 0
-5904 -14 0
-5904 202 0
-5905 -17 0
-5905 175 0
-5906 -20 0
-5906 172 0
-257 5904 5905 5906 0
-5907 -26 0
-5907 302 0
-5908 -38 0
-5908 240 0
-5909 -41 0
-5909 237 0
-257 5907 5908 5909 0
-5910 -27 0
-5910 338 0
-5911 -47 0
-5911 249 0
-5912 -50 0
-5912 246 0
-257 5910 5911 5912 0
-5913 -29 0
-5913 373 0
-5914 -56 0
-5914 264 0
-5915 -65 0
-5915 255 0
-257 5913 5914 5915 0
-5916 -30 0
-5916 379 0
-5917 -57 0
-5917 270 0
-5918 -71 0
-5918 256 0
-257 5916 5917 5918 0
-5919 -32 0
-5919 385 0
-5920 -59 0
-5920 276 0
-5921 -77 0
-5921 258 0
-257 5919 5920 5921 0
-5922 -33 0
-5922 386 0
-5923 -60 0
-5923 277 0
-5924 -78 0
-5924 259 0
-257 5922 5923 5924 0
-5925 -34 0
-5925 387 0
-5926 -61 0
-5926 278 0
-5927 -79 0
-5927 260 0
-257 5925 5926 5927 0
-5928 -35 0
-5928 388 0
-5929 -62 0
-5929 279 0
-5930 -80 0
-5930 261 0
-257 5928 5929 5930 0
-5931 -36 0
-5931 389 0
-5932 -63 0
-5932 280 0
-5933 -81 0
-5933 262 0
-257 5931 5932 5933 0
-5934 -2 0
-5934 137 0
-5935 -5 0
-5935 110 0
-5936 -9 0
-5936 106 0
-258 5934 5935 5936 0
-5937 -14 0
-5937 203 0
-5938 -17 0
-5938 176 0
-5939 -21 0
-5939 172 0
-258 5937 5938 5939 0
-5940 -26 0
-5940 303 0
-5941 -38 0
-5941 241 0
-5942 -42 0
-5942 237 0
-258 5940 5941 5942 0
-5943 -27 0
-5943 339 0
-5944 -47 0
-5944 250 0
-5945 -51 0
-5945 246 0
-258 5943 5944 5945 0
-5946 -29 0
-5946 374 0
-5947 -56 0
-5947 265 0
-5948 -66 0
-5948 255 0
-258 5946 5947 5948 0
-5949 -30 0
-5949 380 0
-5950 -57 0
-5950 271 0
-5951 -72 0
-5951 256 0
-258 5949 5950 5951 0
-5952 -31 0
-5952 385 0
-5953 -58 0
-5953 276 0
-5954 -77 0
-5954 257 0
-258 5952 5953 5954 0
-5955 -33 0
-5955 390 0
-5956 -60 0
-5956 281 0
-5957 -82 0
-5957 259 0
-258 5955 5956 5957 0
-5958 -34 0
-5958 391 0
-5959 -61 0
-5959 282 0
-5960 -83 0
-5960 260 0
-258 5958 5959 5960 0
-5961 -35 0
-5961 392 0
-5962 -62 0
-5962 283 0
-5963 -84 0
-5963 261 0
-258 5961 5962 5963 0
-5964 -36 0
-5964 393 0
-5965 -63 0
-5965 284 0
-5966 -85 0
-5966 262 0
-258 5964 5965 5966 0
-5967 -2 0
-5967 138 0
-5968 -5 0
-5968 111 0
-5969 -10 0
-5969 106 0
-259 5967 5968 5969 0
-5970 -14 0
-5970 204 0
-5971 -17 0
-5971 177 0
-5972 -22 0
-5972 172 0
-259 5970 5971 5972 0
-5973 -26 0
-5973 304 0
-5974 -38 0
-5974 242 0
-5975 -43 0
-5975 237 0
-259 5973 5974 5975 0
-5976 -27 0
-5976 340 0
-5977 -47 0
-5977 251 0
-5978 -52 0
-5978 246 0
-259 5976 5977 5978 0
-5979 -29 0
-5979 375 0
-5980 -56 0
-5980 266 0
-5981 -67 0
-5981 255 0
-259 5979 5980 5981 0
-5982 -30 0
-5982 381 0
-5983 -57 0
-5983 272 0
-5984 -73 0
-5984 256 0
-259 5982 5983 5984 0
-5985 -31 0
-5985 386 0
-5986 -58 0
-5986 277 0
-5987 -78 0
-5987 257 0
-259 5985 5986 5987 0
-5988 -32 0
-5988 390 0
-5989 -59 0
-5989 281 0
-5990 -82 0
-5990 258 0
-259 5988 5989 5990 0
-5991 -34 0
-5991 394 0
-5992 -61 0
-5992 285 0
-5993 -86 0
-5993 260 0
-259 5991 5992 5993 0
-5994 -35 0
-5994 395 0
-5995 -62 0
-5995 286 0
-5996 -87 0
-5996 261 0
-259 5994 5995 5996 0
-5997 -36 0
-5997 396 0
-5998 -63 0
-5998 287 0
-5999 -88 0
-5999 262 0
-259 5997 5998 5999 0
-6000 -2 0
-6000 139 0
-6001 -5 0
-6001 112 0
-6002 -11 0
-6002 106 0
-260 6000 6001 6002 0
-6003 -14 0
-6003 205 0
-6004 -17 0
-6004 178 0
-6005 -23 0
-6005 172 0
-260 6003 6004 6005 0
-6006 -26 0
-6006 305 0
-6007 -38 0
-6007 243 0
-6008 -44 0
-6008 237 0
-260 6006 6007 6008 0
-6009 -27 0
-6009 341 0
-6010 -47 0
-6010 252 0
-6011 -53 0
-6011 246 0
-260 6009 6010 6011 0
-6012 -29 0
-6012 376 0
-6013 -56 0
-6013 267 0
-6014 -68 0
-6014 255 0
-260 6012 6013 6014 0
-6015 -30 0
-6015 382 0
-6016 -57 0
-6016 273 0
-6017 -74 0
-6017 256 0
-260 6015 6016 6017 0
-6018 -31 0
-6018 387 0
-6019 -58 0
-6019 278 0
-6020 -79 0
-6020 257 0
-260 6018 6019 6020 0
-6021 -32 0
-6021 391 0
-6022 -59 0
-6022 282 0
-6023 -83 0
-6023 258 0
-260 6021 6022 6023 0
-6024 -33 0
-6024 394 0
-6025 -60 0
-6025 285 0
-6026 -86 0
-6026 259 0
-260 6024 6025 6026 0
-6027 -35 0
-6027 397 0
-6028 -62 0
-6028 288 0
-6029 -89 0
-6029 261 0
-260 6027 6028 6029 0
-6030 -36 0
-6030 398 0
-6031 -63 0
-6031 289 0
-6032 -90 0
-6032 262 0
-260 6030 6031 6032 0
-6033 -2 0
-6033 140 0
-6034 -5 0
-6034 113 0
-6035 -12 0
-6035 106 0
-261 6033 6034 6035 0
-6036 -14 0
-6036 206 0
-6037 -17 0
-6037 179 0
-6038 -24 0
-6038 172 0
-261 6036 6037 6038 0
-6039 -26 0
-6039 306 0
-6040 -38 0
-6040 244 0
-6041 -45 0
-6041 237 0
-261 6039 6040 6041 0
-6042 -27 0
-6042 342 0
-6043 -47 0
-6043 253 0
-6044 -54 0
-6044 246 0
-261 6042 6043 6044 0
-6045 -29 0
-6045 377 0
-6046 -56 0
-6046 268 0
-6047 -69 0
-6047 255 0
-261 6045 6046 6047 0
-6048 -30 0
-6048 383 0
-6049 -57 0
-6049 274 0
-6050 -75 0
-6050 256 0
-261 6048 6049 6050 0
-6051 -31 0
-6051 388 0
-6052 -58 0
-6052 279 0
-6053 -80 0
-6053 257 0
-261 6051 6052 6053 0
-6054 -32 0
-6054 392 0
-6055 -59 0
-6055 283 0
-6056 -84 0
-6056 258 0
-261 6054 6055 6056 0
-6057 -33 0
-6057 395 0
-6058 -60 0
-6058 286 0
-6059 -87 0
-6059 259 0
-261 6057 6058 6059 0
-6060 -34 0
-6060 397 0
-6061 -61 0
-6061 288 0
-6062 -89 0
-6062 260 0
-261 6060 6061 6062 0
-6063 -36 0
-6063 399 0
-6064 -63 0
-6064 290 0
-6065 -91 0
-6065 262 0
-261 6063 6064 6065 0
-6066 -2 0
-6066 141 0
-6067 -5 0
-6067 114 0
-6068 -13 0
-6068 106 0
-262 6066 6067 6068 0
-6069 -14 0
-6069 207 0
-6070 -17 0
-6070 180 0
-6071 -25 0
-6071 172 0
-262 6069 6070 6071 0
-6072 -26 0
-6072 307 0
-6073 -38 0
-6073 245 0
-6074 -46 0
-6074 237 0
-262 6072 6073 6074 0
-6075 -27 0
-6075 343 0
-6076 -47 0
-6076 254 0
-6077 -55 0
-6077 246 0
-262 6075 6076 6077 0
-6078 -29 0
-6078 378 0
-6079 -56 0
-6079 269 0
-6080 -70 0
-6080 255 0
-262 6078 6079 6080 0
-6081 -30 0
-6081 384 0
-6082 -57 0
-6082 275 0
-6083 -76 0
-6083 256 0
-262 6081 6082 6083 0
-6084 -31 0
-6084 389 0
-6085 -58 0
-6085 280 0
-6086 -81 0
-6086 257 0
-262 6084 6085 6086 0
-6087 -32 0
-6087 393 0
-6088 -59 0
-6088 284 0
-6089 -85 0
-6089 258 0
-262 6087 6088 6089 0
-6090 -33 0
-6090 396 0
-6091 -60 0
-6091 287 0
-6092 -88 0
-6092 259 0
-262 6090 6091 6092 0
-6093 -34 0
-6093 398 0
-6094 -61 0
-6094 289 0
-6095 -90 0
-6095 260 0
-262 6093 6094 6095 0
-6096 -35 0
-6096 399 0
-6097 -62 0
-6097 290 0
-6098 -91 0
-6098 261 0
-262 6096 6097 6098 0
-6099 -2 0
-6099 142 0
-6100 -6 0
-6100 108 0
-6101 -7 0
-6101 107 0
-263 6099 6100 6101 0
-6102 -14 0
-6102 208 0
-6103 -18 0
-6103 174 0
-6104 -19 0
-6104 173 0
-263 6102 6103 6104 0
-6105 -26 0
-6105 308 0
-6106 -39 0
-6106 239 0
-6107 -40 0
-6107 238 0
-263 6105 6106 6107 0
-6108 -27 0
-6108 344 0
-6109 -48 0
-6109 248 0
-6110 -49 0
-6110 247 0
-263 6108 6109 6110 0
-6111 -28 0
-6111 372 0
-6112 -56 0
-6112 256 0
-6113 -57 0
-6113 255 0
-263 6111 6112 6113 0
-6114 -31 0
-6114 400 0
-6115 -65 0
-6115 270 0
-6116 -71 0
-6116 264 0
-263 6114 6115 6116 0
-6117 -32 0
-6117 401 0
-6118 -66 0
-6118 271 0
-6119 -72 0
-6119 265 0
-263 6117 6118 6119 0
-6120 -33 0
-6120 402 0
-6121 -67 0
-6121 272 0
-6122 -73 0
-6122 266 0
-263 6120 6121 6122 0
-6123 -34 0
-6123 403 0
-6124 -68 0
-6124 273 0
-6125 -74 0
-6125 267 0
-263 6123 6124 6125 0
-6126 -35 0
-6126 404 0
-6127 -69 0
-6127 274 0
-6128 -75 0
-6128 268 0
-263 6126 6127 6128 0
-6129 -36 0
-6129 405 0
-6130 -70 0
-6130 275 0
-6131 -76 0
-6131 269 0
-263 6129 6130 6131 0
-6132 -2 0
-6132 143 0
-6133 -6 0
-6133 109 0
-6134 -8 0
-6134 107 0
-264 6132 6133 6134 0
-6135 -14 0
-6135 209 0
-6136 -18 0
-6136 175 0
-6137 -20 0
-6137 173 0
-264 6135 6136 6137 0
-6138 -26 0
-6138 309 0
-6139 -39 0
-6139 240 0
-6140 -41 0
-6140 238 0
-264 6138 6139 6140 0
-6141 -27 0
-6141 345 0
-6142 -48 0
-6142 249 0
-6143 -50 0
-6143 247 0
-264 6141 6142 6143 0
-6144 -28 0
-6144 373 0
-6145 -56 0
-6145 257 0
-6146 -58 0
-6146 255 0
-264 6144 6145 6146 0
-6147 -30 0
-6147 400 0
-6148 -64 0
-6148 270 0
-6149 -71 0
-6149 263 0
-264 6147 6148 6149 0
-6150 -32 0
-6150 406 0
-6151 -66 0
-6151 276 0
-6152 -77 0
-6152 265 0
-264 6150 6151 6152 0
-6153 -33 0
-6153 407 0
-6154 -67 0
-6154 277 0
-6155 -78 0
-6155 266 0
-264 6153 6154 6155 0
-6156 -34 0
-6156 408 0
-6157 -68 0
-6157 278 0
-6158 -79 0
-6158 267 0
-264 6156 6157 6158 0
-6159 -35 0
-6159 409 0
-6160 -69 0
-6160 279 0
-6161 -80 0
-6161 268 0
-264 6159 6160 6161 0
-6162 -36 0
-6162 410 0
-6163 -70 0
-6163 280 0
-6164 -81 0
-6164 269 0
-264 6162 6163 6164 0
-6165 -2 0
-6165 144 0
-6166 -6 0
-6166 110 0
-6167 -9 0
-6167 107 0
-265 6165 6166 6167 0
-6168 -14 0
-6168 210 0
-6169 -18 0
-6169 176 0
-6170 -21 0
-6170 173 0
-265 6168 6169 6170 0
-6171 -26 0
-6171 310 0
-6172 -39 0
-6172 241 0
-6173 -42 0
-6173 238 0
-265 6171 6172 6173 0
-6174 -27 0
-6174 346 0
-6175 -48 0
-6175 250 0
-6176 -51 0
-6176 247 0
-265 6174 6175 6176 0
-6177 -28 0
-6177 374 0
-6178 -56 0
-6178 258 0
-6179 -59 0
-6179 255 0
-265 6177 6178 6179 0
-6180 -30 0
-6180 401 0
-6181 -64 0
-6181 271 0
-6182 -72 0
-6182 263 0
-265 6180 6181 6182 0
-6183 -31 0
-6183 406 0
-6184 -65 0
-6184 276 0
-6185 -77 0
-6185 264 0
-265 6183 6184 6185 0
-6186 -33 0
-6186 411 0
-6187 -67 0
-6187 281 0
-6188 -82 0
-6188 266 0
-265 6186 6187 6188 0
-6189 -34 0
-6189 412 0
-6190 -68 0
-6190 282 0
-6191 -83 0
-6191 267 0
-265 6189 6190 6191 0
-6192 -35 0
-6192 413 0
-6193 -69 0
-6193 283 0
-6194 -84 0
-6194 268 0
-265 6192 6193 6194 0
-6195 -36 0
-6195 414 0
-6196 -70 0
-6196 284 0
-6197 -85 0
-6197 269 0
-265 6195 6196 6197 0
-6198 -2 0
-6198 145 0
-6199 -6 0
-6199 111 0
-6200 -10 0
-6200 107 0
-266 6198 6199 6200 0
-6201 -14 0
-6201 211 0
-6202 -18 0
-6202 177 0
-6203 -22 0
-6203 173 0
-266 6201 6202 6203 0
-6204 -26 0
-6204 311 0
-6205 -39 0
-6205 242 0
-6206 -43 0
-6206 238 0
-266 6204 6205 6206 0
-6207 -27 0
-6207 347 0
-6208 -48 0
-6208 251 0
-6209 -52 0
-6209 247 0
-266 6207 6208 6209 0
-6210 -28 0
-6210 375 0
-6211 -56 0
-6211 259 0
-6212 -60 0
-6212 255 0
-266 6210 6211 6212 0
-6213 -30 0
-6213 402 0
-6214 -64 0
-6214 272 0
-6215 -73 0
-6215 263 0
-266 6213 6214 6215 0
-6216 -31 0
-6216 407 0
-6217 -65 0
-6217 277 0
-6218 -78 0
-6218 264 0
-266 6216 6217 6218 0
-6219 -32 0
-6219 411 0
-6220 -66 0
-6220 281 0
-6221 -82 0
-6221 265 0
-266 6219 6220 6221 0
-6222 -34 0
-6222 415 0
-6223 -68 0
-6223 285 0
-6224 -86 0
-6224 267 0
-266 6222 6223 6224 0
-6225 -35 0
-6225 416 0
-6226 -69 0
-6226 286 0
-6227 -87 0
-6227 268 0
-266 6225 6226 6227 0
-6228 -36 0
-6228 417 0
-6229 -70 0
-6229 287 0
-6230 -88 0
-6230 269 0
-266 6228 6229 6230 0
-6231 -2 0
-6231 146 0
-6232 -6 0
-6232 112 0
-6233 -11 0
-6233 107 0
-267 6231 6232 6233 0
-6234 -14 0
-6234 212 0
-6235 -18 0
-6235 178 0
-6236 -23 0
-6236 173 0
-267 6234 6235 6236 0
-6237 -26 0
-6237 312 0
-6238 -39 0
-6238 243 0
-6239 -44 0
-6239 238 0
-267 6237 6238 6239 0
-6240 -27 0
-6240 348 0
-6241 -48 0
-6241 252 0
-6242 -53 0
-6242 247 0
-267 6240 6241 6242 0
-6243 -28 0
-6243 376 0
-6244 -56 0
-6244 260 0
-6245 -61 0
-6245 255 0
-267 6243 6244 6245 0
-6246 -30 0
-6246 403 0
-6247 -64 0
-6247 273 0
-6248 -74 0
-6248 263 0
-267 6246 6247 6248 0
-6249 -31 0
-6249 408 0
-6250 -65 0
-6250 278 0
-6251 -79 0
-6251 264 0
-267 6249 6250 6251 0
-6252 -32 0
-6252 412 0
-6253 -66 0
-6253 282 0
-6254 -83 0
-6254 265 0
-267 6252 6253 6254 0
-6255 -33 0
-6255 415 0
-6256 -67 0
-6256 285 0
-6257 -86 0
-6257 266 0
-267 6255 6256 6257 0
-6258 -35 0
-6258 418 0
-6259 -69 0
-6259 288 0
-6260 -89 0
-6260 268 0
-267 6258 6259 6260 0
-6261 -36 0
-6261 419 0
-6262 -70 0
-6262 289 0
-6263 -90 0
-6263 269 0
-267 6261 6262 6263 0
-6264 -2 0
-6264 147 0
-6265 -6 0
-6265 113 0
-6266 -12 0
-6266 107 0
-268 6264 6265 6266 0
-6267 -14 0
-6267 213 0
-6268 -18 0
-6268 179 0
-6269 -24 0
-6269 173 0
-268 6267 6268 6269 0
-6270 -26 0
-6270 313 0
-6271 -39 0
-6271 244 0
-6272 -45 0
-6272 238 0
-268 6270 6271 6272 0
-6273 -27 0
-6273 349 0
-6274 -48 0
-6274 253 0
-6275 -54 0
-6275 247 0
-268 6273 6274 6275 0
-6276 -28 0
-6276 377 0
-6277 -56 0
-6277 261 0
-6278 -62 0
-6278 255 0
-268 6276 6277 6278 0
-6279 -30 0
-6279 404 0
-6280 -64 0
-6280 274 0
-6281 -75 0
-6281 263 0
-268 6279 6280 6281 0
-6282 -31 0
-6282 409 0
-6283 -65 0
-6283 279 0
-6284 -80 0
-6284 264 0
-268 6282 6283 6284 0
-6285 -32 0
-6285 413 0
-6286 -66 0
-6286 283 0
-6287 -84 0
-6287 265 0
-268 6285 6286 6287 0
-6288 -33 0
-6288 416 0
-6289 -67 0
-6289 286 0
-6290 -87 0
-6290 266 0
-268 6288 6289 6290 0
-6291 -34 0
-6291 418 0
-6292 -68 0
-6292 288 0
-6293 -89 0
-6293 267 0
-268 6291 6292 6293 0
-6294 -36 0
-6294 420 0
-6295 -70 0
-6295 290 0
-6296 -91 0
-6296 269 0
-268 6294 6295 6296 0
-6297 -2 0
-6297 148 0
-6298 -6 0
-6298 114 0
-6299 -13 0
-6299 107 0
-269 6297 6298 6299 0
-6300 -14 0
-6300 214 0
-6301 -18 0
-6301 180 0
-6302 -25 0
-6302 173 0
-269 6300 6301 6302 0
-6303 -26 0
-6303 314 0
-6304 -39 0
-6304 245 0
-6305 -46 0
-6305 238 0
-269 6303 6304 6305 0
-6306 -27 0
-6306 350 0
-6307 -48 0
-6307 254 0
-6308 -55 0
-6308 247 0
-269 6306 6307 6308 0
-6309 -28 0
-6309 378 0
-6310 -56 0
-6310 262 0
-6311 -63 0
-6311 255 0
-269 6309 6310 6311 0
-6312 -30 0
-6312 405 0
-6313 -64 0
-6313 275 0
-6314 -76 0
-6314 263 0
-269 6312 6313 6314 0
-6315 -31 0
-6315 410 0
-6316 -65 0
-6316 280 0
-6317 -81 0
-6317 264 0
-269 6315 6316 6317 0
-6318 -32 0
-6318 414 0
-6319 -66 0
-6319 284 0
-6320 -85 0
-6320 265 0
-269 6318 6319 6320 0
-6321 -33 0
-6321 417 0
-6322 -67 0
-6322 287 0
-6323 -88 0
-6323 266 0
-269 6321 6322 6323 0
-6324 -34 0
-6324 419 0
-6325 -68 0
-6325 289 0
-6326 -90 0
-6326 267 0
-269 6324 6325 6326 0
-6327 -35 0
-6327 420 0
-6328 -69 0
-6328 290 0
-6329 -91 0
-6329 268 0
-269 6327 6328 6329 0
-6330 -2 0
-6330 149 0
-6331 -7 0
-6331 109 0
-6332 -8 0
-6332 108 0
-270 6330 6331 6332 0
-6333 -14 0
-6333 215 0
-6334 -19 0
-6334 175 0
-6335 -20 0
-6335 174 0
-270 6333 6334 6335 0
-6336 -26 0
-6336 315 0
-6337 -40 0
-6337 240 0
-6338 -41 0
-6338 239 0
-270 6336 6337 6338 0
-6339 -27 0
-6339 351 0
-6340 -49 0
-6340 249 0
-6341 -50 0
-6341 248 0
-270 6339 6340 6341 0
-6342 -28 0
-6342 379 0
-6343 -57 0
-6343 257 0
-6344 -58 0
-6344 256 0
-270 6342 6343 6344 0
-6345 -29 0
-6345 400 0
-6346 -64 0
-6346 264 0
-6347 -65 0
-6347 263 0
-270 6345 6346 6347 0
-6348 -32 0
-6348 421 0
-6349 -72 0
-6349 276 0
-6350 -77 0
-6350 271 0
-270 6348 6349 6350 0
-6351 -33 0
-6351 422 0
-6352 -73 0
-6352 277 0
-6353 -78 0
-6353 272 0
-270 6351 6352 6353 0
-6354 -34 0
-6354 423 0
-6355 -74 0
-6355 278 0
-6356 -79 0
-6356 273 0
-270 6354 6355 6356 0
-6357 -35 0
-6357 424 0
-6358 -75 0
-6358 279 0
-6359 -80 0
-6359 274 0
-270 6357 6358 6359 0
-6360 -36 0
-6360 425 0
-6361 -76 0
-6361 280 0
-6362 -81 0
-6362 275 0
-270 6360 6361 6362 0
-6363 -2 0
-6363 150 0
-6364 -7 0
-6364 110 0
-6365 -9 0
-6365 108 0
-271 6363 6364 6365 0
-6366 -14 0
-6366 216 0
-6367 -19 0
-6367 176 0
-6368 -21 0
-6368 174 0
-271 6366 6367 6368 0
-6369 -26 0
-6369 316 0
-6370 -40 0
-6370 241 0
-6371 -42 0
-6371 239 0
-271 6369 6370 6371 0
-6372 -27 0
-6372 352 0
-6373 -49 0
-6373 250 0
-6374 -51 0
-6374 248 0
-271 6372 6373 6374 0
-6375 -28 0
-6375 380 0
-6376 -57 0
-6376 258 0
-6377 -59 0
-6377 256 0
-271 6375 6376 6377 0
-6378 -29 0
-6378 401 0
-6379 -64 0
-6379 265 0
-6380 -66 0
-6380 263 0
-271 6378 6379 6380 0
-6381 -31 0
-6381 421 0
-6382 -71 0
-6382 276 0
-6383 -77 0
-6383 270 0
-271 6381 6382 6383 0
-6384 -33 0
-6384 426 0
-6385 -73 0
-6385 281 0
-6386 -82 0
-6386 272 0
-271 6384 6385 6386 0
-6387 -34 0
-6387 427 0
-6388 -74 0
-6388 282 0
-6389 -83 0
-6389 273 0
-271 6387 6388 6389 0
-6390 -35 0
-6390 428 0
-6391 -75 0
-6391 283 0
-6392 -84 0
-6392 274 0
-271 6390 6391 6392 0
-6393 -36 0
-6393 429 0
-6394 -76 0
-6394 284 0
-6395 -85 0
-6395 275 0
-271 6393 6394 6395 0
-6396 -2 0
-6396 151 0
-6397 -7 0
-6397 111 0
-6398 -10 0
-6398 108 0
-272 6396 6397 6398 0
-6399 -14 0
-6399 217 0
-6400 -19 0
-6400 177 0
-6401 -22 0
-6401 174 0
-272 6399 6400 6401 0
-6402 -26 0
-6402 317 0
-6403 -40 0
-6403 242 0
-6404 -43 0
-6404 239 0
-272 6402 6403 6404 0
-6405 -27 0
-6405 353 0
-6406 -49 0
-6406 251 0
-6407 -52 0
-6407 248 0
-272 6405 6406 6407 0
-6408 -28 0
-6408 381 0
-6409 -57 0
-6409 259 0
-6410 -60 0
-6410 256 0
-272 6408 6409 6410 0
-6411 -29 0
-6411 402 0
-6412 -64 0
-6412 266 0
-6413 -67 0
-6413 263 0
-272 6411 6412 6413 0
-6414 -31 0
-6414 422 0
-6415 -71 0
-6415 277 0
-6416 -78 0
-6416 270 0
-272 6414 6415 6416 0
-6417 -32 0
-6417 426 0
-6418 -72 0
-6418 281 0
-6419 -82 0
-6419 271 0
-272 6417 6418 6419 0
-6420 -34 0
-6420 430 0
-6421 -74 0
-6421 285 0
-6422 -86 0
-6422 273 0
-272 6420 6421 6422 0
-6423 -35 0
-6423 431 0
-6424 -75 0
-6424 286 0
-6425 -87 0
-6425 274 0
-272 6423 6424 6425 0
-6426 -36 0
-6426 432 0
-6427 -76 0
-6427 287 0
-6428 -88 0
-6428 275 0
-272 6426 6427 6428 0
-6429 -2 0
-6429 152 0
-6430 -7 0
-6430 112 0
-6431 -11 0
-6431 108 0
-273 6429 6430 6431 0
-6432 -14 0
-6432 218 0
-6433 -19 0
-6433 178 0
-6434 -23 0
-6434 174 0
-273 6432 6433 6434 0
-6435 -26 0
-6435 318 0
-6436 -40 0
-6436 243 0
-6437 -44 0
-6437 239 0
-273 6435 6436 6437 0
-6438 -27 0
-6438 354 0
-6439 -49 0
-6439 252 0
-6440 -53 0
-6440 248 0
-273 6438 6439 6440 0
-6441 -28 0
-6441 382 0
-6442 -57 0
-6442 260 0
-6443 -61 0
-6443 256 0
-273 6441 6442 6443 0
-6444 -29 0
-6444 403 0
-6445 -64 0
-6445 267 0
-6446 -68 0
-6446 263 0
-273 6444 6445 6446 0
-6447 -31 0
-6447 423 0
-6448 -71 0
-6448 278 0
-6449 -79 0
-6449 270 0
-273 6447 6448 6449 0
-6450 -32 0
-6450 427 0
-6451 -72 0
-6451 282 0
-6452 -83 0
-6452 271 0
-273 6450 6451 6452 0
-6453 -33 0
-6453 430 0
-6454 -73 0
-6454 285 0
-6455 -86 0
-6455 272 0
-273 6453 6454 6455 0
-6456 -35 0
-6456 433 0
-6457 -75 0
-6457 288 0
-6458 -89 0
-6458 274 0
-273 6456 6457 6458 0
-6459 -36 0
-6459 434 0
-6460 -76 0
-6460 289 0
-6461 -90 0
-6461 275 0
-273 6459 6460 6461 0
-6462 -2 0
-6462 153 0
-6463 -7 0
-6463 113 0
-6464 -12 0
-6464 108 0
-274 6462 6463 6464 0
-6465 -14 0
-6465 219 0
-6466 -19 0
-6466 179 0
-6467 -24 0
-6467 174 0
-274 6465 6466 6467 0
-6468 -26 0
-6468 319 0
-6469 -40 0
-6469 244 0
-6470 -45 0
-6470 239 0
-274 6468 6469 6470 0
-6471 -27 0
-6471 355 0
-6472 -49 0
-6472 253 0
-6473 -54 0
-6473 248 0
-274 6471 6472 6473 0
-6474 -28 0
-6474 383 0
-6475 -57 0
-6475 261 0
-6476 -62 0
-6476 256 0
-274 6474 6475 6476 0
-6477 -29 0
-6477 404 0
-6478 -64 0
-6478 268 0
-6479 -69 0
-6479 263 0
-274 6477 6478 6479 0
-6480 -31 0
-6480 424 0
-6481 -71 0
-6481 279 0
-6482 -80 0
-6482 270 0
-274 6480 6481 6482 0
-6483 -32 0
-6483 428 0
-6484 -72 0
-6484 283 0
-6485 -84 0
-6485 271 0
-274 6483 6484 6485 0
-6486 -33 0
-6486 431 0
-6487 -73 0
-6487 286 0
-6488 -87 0
-6488 272 0
-274 6486 6487 6488 0
-6489 -34 0
-6489 433 0
-6490 -74 0
-6490 288 0
-6491 -89 0
-6491 273 0
-274 6489 6490 6491 0
-6492 -36 0
-6492 435 0
-6493 -76 0
-6493 290 0
-6494 -91 0
-6494 275 0
-274 6492 6493 6494 0
-6495 -2 0
-6495 154 0
-6496 -7 0
-6496 114 0
-6497 -13 0
-6497 108 0
-275 6495 6496 6497 0
-6498 -14 0
-6498 220 0
-6499 -19 0
-6499 180 0
-6500 -25 0
-6500 174 0
-275 6498 6499 6500 0
-6501 -26 0
-6501 320 0
-6502 -40 0
-6502 245 0
-6503 -46 0
-6503 239 0
-275 6501 6502 6503 0
-6504 -27 0
-6504 356 0
-6505 -49 0
-6505 254 0
-6506 -55 0
-6506 248 0
-275 6504 6505 6506 0
-6507 -28 0
-6507 384 0
-6508 -57 0
-6508 262 0
-6509 -63 0
-6509 256 0
-275 6507 6508 6509 0
-6510 -29 0
-6510 405 0
-6511 -64 0
-6511 269 0
-6512 -70 0
-6512 263 0
-275 6510 6511 6512 0
-6513 -31 0
-6513 425 0
-6514 -71 0
-6514 280 0
-6515 -81 0
-6515 270 0
-275 6513 6514 6515 0
-6516 -32 0
-6516 429 0
-6517 -72 0
-6517 284 0
-6518 -85 0
-6518 271 0
-275 6516 6517 6518 0
-6519 -33 0
-6519 432 0
-6520 -73 0
-6520 287 0
-6521 -88 0
-6521 272 0
-275 6519 6520 6521 0
-6522 -34 0
-6522 434 0
-6523 -74 0
-6523 289 0
-6524 -90 0
-6524 273 0
-275 6522 6523 6524 0
-6525 -35 0
-6525 435 0
-6526 -75 0
-6526 290 0
-6527 -91 0
-6527 274 0
-275 6525 6526 6527 0
-6528 -2 0
-6528 155 0
-6529 -8 0
-6529 110 0
-6530 -9 0
-6530 109 0
-276 6528 6529 6530 0
-6531 -14 0
-6531 221 0
-6532 -20 0
-6532 176 0
-6533 -21 0
-6533 175 0
-276 6531 6532 6533 0
-6534 -26 0
-6534 321 0
-6535 -41 0
-6535 241 0
-6536 -42 0
-6536 240 0
-276 6534 6535 6536 0
-6537 -27 0
-6537 357 0
-6538 -50 0
-6538 250 0
-6539 -51 0
-6539 249 0
-276 6537 6538 6539 0
-6540 -28 0
-6540 385 0
-6541 -58 0
-6541 258 0
-6542 -59 0
-6542 257 0
-276 6540 6541 6542 0
-6543 -29 0
-6543 406 0
-6544 -65 0
-6544 265 0
-6545 -66 0
-6545 264 0
-276 6543 6544 6545 0
-6546 -30 0
-6546 421 0
-6547 -71 0
-6547 271 0
-6548 -72 0
-6548 270 0
-276 6546 6547 6548 0
-6549 -33 0
-6549 436 0
-6550 -78 0
-6550 281 0
-6551 -82 0
-6551 277 0
-276 6549 6550 6551 0
-6552 -34 0
-6552 437 0
-6553 -79 0
-6553 282 0
-6554 -83 0
-6554 278 0
-276 6552 6553 6554 0
-6555 -35 0
-6555 438 0
-6556 -80 0
-6556 283 0
-6557 -84 0
-6557 279 0
-276 6555 6556 6557 0
-6558 -36 0
-6558 439 0
-6559 -81 0
-6559 284 0
-6560 -85 0
-6560 280 0
-276 6558 6559 6560 0
-6561 -2 0
-6561 156 0
-6562 -8 0
-6562 111 0
-6563 -10 0
-6563 109 0
-277 6561 6562 6563 0
-6564 -14 0
-6564 222 0
-6565 -20 0
-6565 177 0
-6566 -22 0
-6566 175 0
-277 6564 6565 6566 0
-6567 -26 0
-6567 322 0
-6568 -41 0
-6568 242 0
-6569 -43 0
-6569 240 0
-277 6567 6568 6569 0
-6570 -27 0
-6570 358 0
-6571 -50 0
-6571 251 0
-6572 -52 0
-6572 249 0
-277 6570 6571 6572 0
-6573 -28 0
-6573 386 0
-6574 -58 0
-6574 259 0
-6575 -60 0
-6575 257 0
-277 6573 6574 6575 0
-6576 -29 0
-6576 407 0
-6577 -65 0
-6577 266 0
-6578 -67 0
-6578 264 0
-277 6576 6577 6578 0
-6579 -30 0
-6579 422 0
-6580 -71 0
-6580 272 0
-6581 -73 0
-6581 270 0
-277 6579 6580 6581 0
-6582 -32 0
-6582 436 0
-6583 -77 0
-6583 281 0
-6584 -82 0
-6584 276 0
-277 6582 6583 6584 0
-6585 -34 0
-6585 440 0
-6586 -79 0
-6586 285 0
-6587 -86 0
-6587 278 0
-277 6585 6586 6587 0
-6588 -35 0
-6588 441 0
-6589 -80 0
-6589 286 0
-6590 -87 0
-6590 279 0
-277 6588 6589 6590 0
-6591 -36 0
-6591 442 0
-6592 -81 0
-6592 287 0
-6593 -88 0
-6593 280 0
-277 6591 6592 6593 0
-6594 -2 0
-6594 157 0
-6595 -8 0
-6595 112 0
-6596 -11 0
-6596 109 0
-278 6594 6595 6596 0
-6597 -14 0
-6597 223 0
-6598 -20 0
-6598 178 0
-6599 -23 0
-6599 175 0
-278 6597 6598 6599 0
-6600 -26 0
-6600 323 0
-6601 -41 0
-6601 243 0
-6602 -44 0
-6602 240 0
-278 6600 6601 6602 0
-6603 -27 0
-6603 359 0
-6604 -50 0
-6604 252 0
-6605 -53 0
-6605 249 0
-278 6603 6604 6605 0
-6606 -28 0
-6606 387 0
-6607 -58 0
-6607 260 0
-6608 -61 0
-6608 257 0
-278 6606 6607 6608 0
-6609 -29 0
-6609 408 0
-6610 -65 0
-6610 267 0
-6611 -68 0
-6611 264 0
-278 6609 6610 6611 0
-6612 -30 0
-6612 423 0
-6613 -71 0
-6613 273 0
-6614 -74 0
-6614 270 0
-278 6612 6613 6614 0
-6615 -32 0
-6615 437 0
-6616 -77 0
-6616 282 0
-6617 -83 0
-6617 276 0
-278 6615 6616 6617 0
-6618 -33 0
-6618 440 0
-6619 -78 0
-6619 285 0
-6620 -86 0
-6620 277 0
-278 6618 6619 6620 0
-6621 -35 0
-6621 443 0
-6622 -80 0
-6622 288 0
-6623 -89 0
-6623 279 0
-278 6621 6622 6623 0
-6624 -36 0
-6624 444 0
-6625 -81 0
-6625 289 0
-6626 -90 0
-6626 280 0
-278 6624 6625 6626 0
-6627 -2 0
-6627 158 0
-6628 -8 0
-6628 113 0
-6629 -12 0
-6629 109 0
-279 6627 6628 6629 0
-6630 -14 0
-6630 224 0
-6631 -20 0
-6631 179 0
-6632 -24 0
-6632 175 0
-279 6630 6631 6632 0
-6633 -26 0
-6633 324 0
-6634 -41 0
-6634 244 0
-6635 -45 0
-6635 240 0
-279 6633 6634 6635 0
-6636 -27 0
-6636 360 0
-6637 -50 0
-6637 253 0
-6638 -54 0
-6638 249 0
-279 6636 6637 6638 0
-6639 -28 0
-6639 388 0
-6640 -58 0
-6640 261 0
-6641 -62 0
-6641 257 0
-279 6639 6640 6641 0
-6642 -29 0
-6642 409 0
-6643 -65 0
-6643 268 0
-6644 -69 0
-6644 264 0
-279 6642 6643 6644 0
-6645 -30 0
-6645 424 0
-6646 -71 0
-6646 274 0
-6647 -75 0
-6647 270 0
-279 6645 6646 6647 0
-6648 -32 0
-6648 438 0
-6649 -77 0
-6649 283 0
-6650 -84 0
-6650 276 0
-279 6648 6649 6650 0
-6651 -33 0
-6651 441 0
-6652 -78 0
-6652 286 0
-6653 -87 0
-6653 277 0
-279 6651 6652 6653 0
-6654 -34 0
-6654 443 0
-6655 -79 0
-6655 288 0
-6656 -89 0
-6656 278 0
-279 6654 6655 6656 0
-6657 -36 0
-6657 445 0
-6658 -81 0
-6658 290 0
-6659 -91 0
-6659 280 0
-279 6657 6658 6659 0
-6660 -2 0
-6660 159 0
-6661 -8 0
-6661 114 0
-6662 -13 0
-6662 109 0
-280 6660 6661 6662 0
-6663 -14 0
-6663 225 0
-6664 -20 0
-6664 180 0
-6665 -25 0
-6665 175 0
-280 6663 6664 6665 0
-6666 -26 0
-6666 325 0
-6667 -41 0
-6667 245 0
-6668 -46 0
-6668 240 0
-280 6666 6667 6668 0
-6669 -27 0
-6669 361 0
-6670 -50 0
-6670 254 0
-6671 -55 0
-6671 249 0
-280 6669 6670 6671 0
-6672 -28 0
-6672 389 0
-6673 -58 0
-6673 262 0
-6674 -63 0
-6674 257 0
-280 6672 6673 6674 0
-6675 -29 0
-6675 410 0
-6676 -65 0
-6676 269 0
-6677 -70 0
-6677 264 0
-280 6675 6676 6677 0
-6678 -30 0
-6678 425 0
-6679 -71 0
-6679 275 0
-6680 -76 0
-6680 270 0
-280 6678 6679 6680 0
-6681 -32 0
-6681 439 0
-6682 -77 0
-6682 284 0
-6683 -85 0
-6683 276 0
-280 6681 6682 6683 0
-6684 -33 0
-6684 442 0
-6685 -78 0
-6685 287 0
-6686 -88 0
-6686 277 0
-280 6684 6685 6686 0
-6687 -34 0
-6687 444 0
-6688 -79 0
-6688 289 0
-6689 -90 0
-6689 278 0
-280 6687 6688 6689 0
-6690 -35 0
-6690 445 0
-6691 -80 0
-6691 290 0
-6692 -91 0
-6692 279 0
-280 6690 6691 6692 0
-6693 -2 0
-6693 160 0
-6694 -9 0
-6694 111 0
-6695 -10 0
-6695 110 0
-281 6693 6694 6695 0
-6696 -14 0
-6696 226 0
-6697 -21 0
-6697 177 0
-6698 -22 0
-6698 176 0
-281 6696 6697 6698 0
-6699 -26 0
-6699 326 0
-6700 -42 0
-6700 242 0
-6701 -43 0
-6701 241 0
-281 6699 6700 6701 0
-6702 -27 0
-6702 362 0
-6703 -51 0
-6703 251 0
-6704 -52 0
-6704 250 0
-281 6702 6703 6704 0
-6705 -28 0
-6705 390 0
-6706 -59 0
-6706 259 0
-6707 -60 0
-6707 258 0
-281 6705 6706 6707 0
-6708 -29 0
-6708 411 0
-6709 -66 0
-6709 266 0
-6710 -67 0
-6710 265 0
-281 6708 6709 6710 0
-6711 -30 0
-6711 426 0
-6712 -72 0
-6712 272 0
-6713 -73 0
-6713 271 0
-281 6711 6712 6713 0
-6714 -31 0
-6714 436 0
-6715 -77 0
-6715 277 0
-6716 -78 0
-6716 276 0
-281 6714 6715 6716 0
-6717 -34 0
-6717 446 0
-6718 -83 0
-6718 285 0
-6719 -86 0
-6719 282 0
-281 6717 6718 6719 0
-6720 -35 0
-6720 447 0
-6721 -84 0
-6721 286 0
-6722 -87 0
-6722 283 0
-281 6720 6721 6722 0
-6723 -36 0
-6723 448 0
-6724 -85 0
-6724 287 0
-6725 -88 0
-6725 284 0
-281 6723 6724 6725 0
-6726 -2 0
-6726 161 0
-6727 -9 0
-6727 112 0
-6728 -11 0
-6728 110 0
-282 6726 6727 6728 0
-6729 -14 0
-6729 227 0
-6730 -21 0
-6730 178 0
-6731 -23 0
-6731 176 0
-282 6729 6730 6731 0
-6732 -26 0
-6732 327 0
-6733 -42 0
-6733 243 0
-6734 -44 0
-6734 241 0
-282 6732 6733 6734 0
-6735 -27 0
-6735 363 0
-6736 -51 0
-6736 252 0
-6737 -53 0
-6737 250 0
-282 6735 6736 6737 0
-6738 -28 0
-6738 391 0
-6739 -59 0
-6739 260 0
-6740 -61 0
-6740 258 0
-282 6738 6739 6740 0
-6741 -29 0
-6741 412 0
-6742 -66 0
-6742 267 0
-6743 -68 0
-6743 265 0
-282 6741 6742 6743 0
-6744 -30 0
-6744 427 0
-6745 -72 0
-6745 273 0
-6746 -74 0
-6746 271 0
-282 6744 6745 6746 0
-6747 -31 0
-6747 437 0
-6748 -77 0
-6748 278 0
-6749 -79 0
-6749 276 0
-282 6747 6748 6749 0
-6750 -33 0
-6750 446 0
-6751 -82 0
-6751 285 0
-6752 -86 0
-6752 281 0
-282 6750 6751 6752 0
-6753 -35 0
-6753 449 0
-6754 -84 0
-6754 288 0
-6755 -89 0
-6755 283 0
-282 6753 6754 6755 0
-6756 -36 0
-6756 450 0
-6757 -85 0
-6757 289 0
-6758 -90 0
-6758 284 0
-282 6756 6757 6758 0
-6759 -2 0
-6759 162 0
-6760 -9 0
-6760 113 0
-6761 -12 0
-6761 110 0
-283 6759 6760 6761 0
-6762 -14 0
-6762 228 0
-6763 -21 0
-6763 179 0
-6764 -24 0
-6764 176 0
-283 6762 6763 6764 0
-6765 -26 0
-6765 328 0
-6766 -42 0
-6766 244 0
-6767 -45 0
-6767 241 0
-283 6765 6766 6767 0
-6768 -27 0
-6768 364 0
-6769 -51 0
-6769 253 0
-6770 -54 0
-6770 250 0
-283 6768 6769 6770 0
-6771 -28 0
-6771 392 0
-6772 -59 0
-6772 261 0
-6773 -62 0
-6773 258 0
-283 6771 6772 6773 0
-6774 -29 0
-6774 413 0
-6775 -66 0
-6775 268 0
-6776 -69 0
-6776 265 0
-283 6774 6775 6776 0
-6777 -30 0
-6777 428 0
-6778 -72 0
-6778 274 0
-6779 -75 0
-6779 271 0
-283 6777 6778 6779 0
-6780 -31 0
-6780 438 0
-6781 -77 0
-6781 279 0
-6782 -80 0
-6782 276 0
-283 6780 6781 6782 0
-6783 -33 0
-6783 447 0
-6784 -82 0
-6784 286 0
-6785 -87 0
-6785 281 0
-283 6783 6784 6785 0
-6786 -34 0
-6786 449 0
-6787 -83 0
-6787 288 0
-6788 -89 0
-6788 282 0
-283 6786 6787 6788 0
-6789 -36 0
-6789 451 0
-6790 -85 0
-6790 290 0
-6791 -91 0
-6791 284 0
-283 6789 6790 6791 0
-6792 -2 0
-6792 163 0
-6793 -9 0
-6793 114 0
-6794 -13 0
-6794 110 0
-284 6792 6793 6794 0
-6795 -14 0
-6795 229 0
-6796 -21 0
-6796 180 0
-6797 -25 0
-6797 176 0
-284 6795 6796 6797 0
-6798 -26 0
-6798 329 0
-6799 -42 0
-6799 245 0
-6800 -46 0
-6800 241 0
-284 6798 6799 6800 0
-6801 -27 0
-6801 365 0
-6802 -51 0
-6802 254 0
-6803 -55 0
-6803 250 0
-284 6801 6802 6803 0
-6804 -28 0
-6804 393 0
-6805 -59 0
-6805 262 0
-6806 -63 0
-6806 258 0
-284 6804 6805 6806 0
-6807 -29 0
-6807 414 0
-6808 -66 0
-6808 269 0
-6809 -70 0
-6809 265 0
-284 6807 6808 6809 0
-6810 -30 0
-6810 429 0
-6811 -72 0
-6811 275 0
-6812 -76 0
-6812 271 0
-284 6810 6811 6812 0
-6813 -31 0
-6813 439 0
-6814 -77 0
-6814 280 0
-6815 -81 0
-6815 276 0
-284 6813 6814 6815 0
-6816 -33 0
-6816 448 0
-6817 -82 0
-6817 287 0
-6818 -88 0
-6818 281 0
-284 6816 6817 6818 0
-6819 -34 0
-6819 450 0
-6820 -83 0
-6820 289 0
-6821 -90 0
-6821 282 0
-284 6819 6820 6821 0
-6822 -35 0
-6822 451 0
-6823 -84 0
-6823 290 0
-6824 -91 0
-6824 283 0
-284 6822 6823 6824 0
-6825 -2 0
-6825 164 0
-6826 -10 0
-6826 112 0
-6827 -11 0
-6827 111 0
-285 6825 6826 6827 0
-6828 -14 0
-6828 230 0
-6829 -22 0
-6829 178 0
-6830 -23 0
-6830 177 0
-285 6828 6829 6830 0
-6831 -26 0
-6831 330 0
-6832 -43 0
-6832 243 0
-6833 -44 0
-6833 242 0
-285 6831 6832 6833 0
-6834 -27 0
-6834 366 0
-6835 -52 0
-6835 252 0
-6836 -53 0
-6836 251 0
-285 6834 6835 6836 0
-6837 -28 0
-6837 394 0
-6838 -60 0
-6838 260 0
-6839 -61 0
-6839 259 0
-285 6837 6838 6839 0
-6840 -29 0
-6840 415 0
-6841 -67 0
-6841 267 0
-6842 -68 0
-6842 266 0
-285 6840 6841 6842 0
-6843 -30 0
-6843 430 0
-6844 -73 0
-6844 273 0
-6845 -74 0
-6845 272 0
-285 6843 6844 6845 0
-6846 -31 0
-6846 440 0
-6847 -78 0
-6847 278 0
-6848 -79 0
-6848 277 0
-285 6846 6847 6848 0
-6849 -32 0
-6849 446 0
-6850 -82 0
-6850 282 0
-6851 -83 0
-6851 281 0
-285 6849 6850 6851 0
-6852 -35 0
-6852 452 0
-6853 -87 0
-6853 288 0
-6854 -89 0
-6854 286 0
-285 6852 6853 6854 0
-6855 -36 0
-6855 453 0
-6856 -88 0
-6856 289 0
-6857 -90 0
-6857 287 0
-285 6855 6856 6857 0
-6858 -2 0
-6858 165 0
-6859 -10 0
-6859 113 0
-6860 -12 0
-6860 111 0
-286 6858 6859 6860 0
-6861 -14 0
-6861 231 0
-6862 -22 0
-6862 179 0
-6863 -24 0
-6863 177 0
-286 6861 6862 6863 0
-6864 -26 0
-6864 331 0
-6865 -43 0
-6865 244 0
-6866 -45 0
-6866 242 0
-286 6864 6865 6866 0
-6867 -27 0
-6867 367 0
-6868 -52 0
-6868 253 0
-6869 -54 0
-6869 251 0
-286 6867 6868 6869 0
-6870 -28 0
-6870 395 0
-6871 -60 0
-6871 261 0
-6872 -62 0
-6872 259 0
-286 6870 6871 6872 0
-6873 -29 0
-6873 416 0
-6874 -67 0
-6874 268 0
-6875 -69 0
-6875 266 0
-286 6873 6874 6875 0
-6876 -30 0
-6876 431 0
-6877 -73 0
-6877 274 0
-6878 -75 0
-6878 272 0
-286 6876 6877 6878 0
-6879 -31 0
-6879 441 0
-6880 -78 0
-6880 279 0
-6881 -80 0
-6881 277 0
-286 6879 6880 6881 0
-6882 -32 0
-6882 447 0
-6883 -82 0
-6883 283 0
-6884 -84 0
-6884 281 0
-286 6882 6883 6884 0
-6885 -34 0
-6885 452 0
-6886 -86 0
-6886 288 0
-6887 -89 0
-6887 285 0
-286 6885 6886 6887 0
-6888 -36 0
-6888 454 0
-6889 -88 0
-6889 290 0
-6890 -91 0
-6890 287 0
-286 6888 6889 6890 0
-6891 -2 0
-6891 166 0
-6892 -10 0
-6892 114 0
-6893 -13 0
-6893 111 0
-287 6891 6892 6893 0
-6894 -14 0
-6894 232 0
-6895 -22 0
-6895 180 0
-6896 -25 0
-6896 177 0
-287 6894 6895 6896 0
-6897 -26 0
-6897 332 0
-6898 -43 0
-6898 245 0
-6899 -46 0
-6899 242 0
-287 6897 6898 6899 0
-6900 -27 0
-6900 368 0
-6901 -52 0
-6901 254 0
-6902 -55 0
-6902 251 0
-287 6900 6901 6902 0
-6903 -28 0
-6903 396 0
-6904 -60 0
-6904 262 0
-6905 -63 0
-6905 259 0
-287 6903 6904 6905 0
-6906 -29 0
-6906 417 0
-6907 -67 0
-6907 269 0
-6908 -70 0
-6908 266 0
-287 6906 6907 6908 0
-6909 -30 0
-6909 432 0
-6910 -73 0
-6910 275 0
-6911 -76 0
-6911 272 0
-287 6909 6910 6911 0
-6912 -31 0
-6912 442 0
-6913 -78 0
-6913 280 0
-6914 -81 0
-6914 277 0
-287 6912 6913 6914 0
-6915 -32 0
-6915 448 0
-6916 -82 0
-6916 284 0
-6917 -85 0
-6917 281 0
-287 6915 6916 6917 0
-6918 -34 0
-6918 453 0
-6919 -86 0
-6919 289 0
-6920 -90 0
-6920 285 0
-287 6918 6919 6920 0
-6921 -35 0
-6921 454 0
-6922 -87 0
-6922 290 0
-6923 -91 0
-6923 286 0
-287 6921 6922 6923 0
-6924 -2 0
-6924 167 0
-6925 -11 0
-6925 113 0
-6926 -12 0
-6926 112 0
-288 6924 6925 6926 0
-6927 -14 0
-6927 233 0
-6928 -23 0
-6928 179 0
-6929 -24 0
-6929 178 0
-288 6927 6928 6929 0
-6930 -26 0
-6930 333 0
-6931 -44 0
-6931 244 0
-6932 -45 0
-6932 243 0
-288 6930 6931 6932 0
-6933 -27 0
-6933 369 0
-6934 -53 0
-6934 253 0
-6935 -54 0
-6935 252 0
-288 6933 6934 6935 0
-6936 -28 0
-6936 397 0
-6937 -61 0
-6937 261 0
-6938 -62 0
-6938 260 0
-288 6936 6937 6938 0
-6939 -29 0
-6939 418 0
-6940 -68 0
-6940 268 0
-6941 -69 0
-6941 267 0
-288 6939 6940 6941 0
-6942 -30 0
-6942 433 0
-6943 -74 0
-6943 274 0
-6944 -75 0
-6944 273 0
-288 6942 6943 6944 0
-6945 -31 0
-6945 443 0
-6946 -79 0
-6946 279 0
-6947 -80 0
-6947 278 0
-288 6945 6946 6947 0
-6948 -32 0
-6948 449 0
-6949 -83 0
-6949 283 0
-6950 -84 0
-6950 282 0
-288 6948 6949 6950 0
-6951 -33 0
-6951 452 0
-6952 -86 0
-6952 286 0
-6953 -87 0
-6953 285 0
-288 6951 6952 6953 0
-6954 -36 0
-6954 455 0
-6955 -90 0
-6955 290 0
-6956 -91 0
-6956 289 0
-288 6954 6955 6956 0
-6957 -2 0
-6957 168 0
-6958 -11 0
-6958 114 0
-6959 -13 0
-6959 112 0
-289 6957 6958 6959 0
-6960 -14 0
-6960 234 0
-6961 -23 0
-6961 180 0
-6962 -25 0
-6962 178 0
-289 6960 6961 6962 0
-6963 -26 0
-6963 334 0
-6964 -44 0
-6964 245 0
-6965 -46 0
-6965 243 0
-289 6963 6964 6965 0
-6966 -27 0
-6966 370 0
-6967 -53 0
-6967 254 0
-6968 -55 0
-6968 252 0
-289 6966 6967 6968 0
-6969 -28 0
-6969 398 0
-6970 -61 0
-6970 262 0
-6971 -63 0
-6971 260 0
-289 6969 6970 6971 0
-6972 -29 0
-6972 419 0
-6973 -68 0
-6973 269 0
-6974 -70 0
-6974 267 0
-289 6972 6973 6974 0
-6975 -30 0
-6975 434 0
-6976 -74 0
-6976 275 0
-6977 -76 0
-6977 273 0
-289 6975 6976 6977 0
-6978 -31 0
-6978 444 0
-6979 -79 0
-6979 280 0
-6980 -81 0
-6980 278 0
-289 6978 6979 6980 0
-6981 -32 0
-6981 450 0
-6982 -83 0
-6982 284 0
-6983 -85 0
-6983 282 0
-289 6981 6982 6983 0
-6984 -33 0
-6984 453 0
-6985 -86 0
-6985 287 0
-6986 -88 0
-6986 285 0
-289 6984 6985 6986 0
-6987 -35 0
-6987 455 0
-6988 -89 0
-6988 290 0
-6989 -91 0
-6989 288 0
-289 6987 6988 6989 0
-6990 -2 0
-6990 169 0
-6991 -12 0
-6991 114 0
-6992 -13 0
-6992 113 0
-290 6990 6991 6992 0
-6993 -14 0
-6993 235 0
-6994 -24 0
-6994 180 0
-6995 -25 0
-6995 179 0
-290 6993 6994 6995 0
-6996 -26 0
-6996 335 0
-6997 -45 0
-6997 245 0
-6998 -46 0
-6998 244 0
-290 6996 6997 6998 0
-6999 -27 0
-6999 371 0
-7000 -54 0
-7000 254 0
-7001 -55 0
-7001 253 0
-290 6999 7000 7001 0
-7002 -28 0
-7002 399 0
-7003 -62 0
-7003 262 0
-7004 -63 0
-7004 261 0
-290 7002 7003 7004 0
-7005 -29 0
-7005 420 0
-7006 -69 0
-7006 269 0
-7007 -70 0
-7007 268 0
-290 7005 7006 7007 0
-7008 -30 0
-7008 435 0
-7009 -75 0
-7009 275 0
-7010 -76 0
-7010 274 0
-290 7008 7009 7010 0
-7011 -31 0
-7011 445 0
-7012 -80 0
-7012 280 0
-7013 -81 0
-7013 279 0
-290 7011 7012 7013 0
-7014 -32 0
-7014 451 0
-7015 -84 0
-7015 284 0
-7016 -85 0
-7016 283 0
-290 7014 7015 7016 0
-7017 -33 0
-7017 454 0
-7018 -87 0
-7018 287 0
-7019 -88 0
-7019 286 0
-290 7017 7018 7019 0
-7020 -34 0
-7020 455 0
-7021 -89 0
-7021 289 0
-7022 -90 0
-7022 288 0
-290 7020 7021 7022 0
-7023 -3 0
-7023 125 0
-7024 -4 0
-7024 116 0
-7025 -5 0
-7025 115 0
-291 7023 7024 7025 0
-7026 -15 0
-7026 191 0
-7027 -16 0
-7027 182 0
-7028 -17 0
-7028 181 0
-291 7026 7027 7028 0
-7029 -26 0
-7029 246 0
-7030 -27 0
-7030 237 0
-7031 -28 0
-7031 236 0
-291 7029 7030 7031 0
-7032 -39 0
-7032 336 0
-7033 -48 0
-7033 300 0
-7034 -56 0
-7034 292 0
-291 7032 7033 7034 0
-7035 -40 0
-7035 337 0
-7036 -49 0
-7036 301 0
-7037 -57 0
-7037 293 0
-291 7035 7036 7037 0
-7038 -41 0
-7038 338 0
-7039 -50 0
-7039 302 0
-7040 -58 0
-7040 294 0
-291 7038 7039 7040 0
-7041 -42 0
-7041 339 0
-7042 -51 0
-7042 303 0
-7043 -59 0
-7043 295 0
-291 7041 7042 7043 0
-7044 -43 0
-7044 340 0
-7045 -52 0
-7045 304 0
-7046 -60 0
-7046 296 0
-291 7044 7045 7046 0
-7047 -44 0
-7047 341 0
-7048 -53 0
-7048 305 0
-7049 -61 0
-7049 297 0
-291 7047 7048 7049 0
-7050 -45 0
-7050 342 0
-7051 -54 0
-7051 306 0
-7052 -62 0
-7052 298 0
-291 7050 7051 7052 0
-7053 -46 0
-7053 343 0
-7054 -55 0
-7054 307 0
-7055 -63 0
-7055 299 0
-291 7053 7054 7055 0
-7056 -3 0
-7056 126 0
-7057 -4 0
-7057 117 0
-7058 -6 0
-7058 115 0
-292 7056 7057 7058 0
-7059 -15 0
-7059 192 0
-7060 -16 0
-7060 183 0
-7061 -18 0
-7061 181 0
-292 7059 7060 7061 0
-7062 -26 0
-7062 247 0
-7063 -27 0
-7063 238 0
-7064 -29 0
-7064 236 0
-292 7062 7063 7064 0
-7065 -38 0
-7065 336 0
-7066 -47 0
-7066 300 0
-7067 -56 0
-7067 291 0
-292 7065 7066 7067 0
-7068 -40 0
-7068 344 0
-7069 -49 0
-7069 308 0
-7070 -64 0
-7070 293 0
-292 7068 7069 7070 0
-7071 -41 0
-7071 345 0
-7072 -50 0
-7072 309 0
-7073 -65 0
-7073 294 0
-292 7071 7072 7073 0
-7074 -42 0
-7074 346 0
-7075 -51 0
-7075 310 0
-7076 -66 0
-7076 295 0
-292 7074 7075 7076 0
-7077 -43 0
-7077 347 0
-7078 -52 0
-7078 311 0
-7079 -67 0
-7079 296 0
-292 7077 7078 7079 0
-7080 -44 0
-7080 348 0
-7081 -53 0
-7081 312 0
-7082 -68 0
-7082 297 0
-292 7080 7081 7082 0
-7083 -45 0
-7083 349 0
-7084 -54 0
-7084 313 0
-7085 -69 0
-7085 298 0
-292 7083 7084 7085 0
-7086 -46 0
-7086 350 0
-7087 -55 0
-7087 314 0
-7088 -70 0
-7088 299 0
-292 7086 7087 7088 0
-7089 -3 0
-7089 127 0
-7090 -4 0
-7090 118 0
-7091 -7 0
-7091 115 0
-293 7089 7090 7091 0
-7092 -15 0
-7092 193 0
-7093 -16 0
-7093 184 0
-7094 -19 0
-7094 181 0
-293 7092 7093 7094 0
-7095 -26 0
-7095 248 0
-7096 -27 0
-7096 239 0
-7097 -30 0
-7097 236 0
-293 7095 7096 7097 0
-7098 -38 0
-7098 337 0
-7099 -47 0
-7099 301 0
-7100 -57 0
-7100 291 0
-293 7098 7099 7100 0
-7101 -39 0
-7101 344 0
-7102 -48 0
-7102 308 0
-7103 -64 0
-7103 292 0
-293 7101 7102 7103 0
-7104 -41 0
-7104 351 0
-7105 -50 0
-7105 315 0
-7106 -71 0
-7106 294 0
-293 7104 7105 7106 0
-7107 -42 0
-7107 352 0
-7108 -51 0
-7108 316 0
-7109 -72 0
-7109 295 0
-293 7107 7108 7109 0
-7110 -43 0
-7110 353 0
-7111 -52 0
-7111 317 0
-7112 -73 0
-7112 296 0
-293 7110 7111 7112 0
-7113 -44 0
-7113 354 0
-7114 -53 0
-7114 318 0
-7115 -74 0
-7115 297 0
-293 7113 7114 7115 0
-7116 -45 0
-7116 355 0
-7117 -54 0
-7117 319 0
-7118 -75 0
-7118 298 0
-293 7116 7117 7118 0
-7119 -46 0
-7119 356 0
-7120 -55 0
-7120 320 0
-7121 -76 0
-7121 299 0
-293 7119 7120 7121 0
-7122 -3 0
-7122 128 0
-7123 -4 0
-7123 119 0
-7124 -8 0
-7124 115 0
-294 7122 7123 7124 0
-7125 -15 0
-7125 194 0
-7126 -16 0
-7126 185 0
-7127 -20 0
-7127 181 0
-294 7125 7126 7127 0
-7128 -26 0
-7128 249 0
-7129 -27 0
-7129 240 0
-7130 -31 0
-7130 236 0
-294 7128 7129 7130 0
-7131 -38 0
-7131 338 0
-7132 -47 0
-7132 302 0
-7133 -58 0
-7133 291 0
-294 7131 7132 7133 0
-7134 -39 0
-7134 345 0
-7135 -48 0
-7135 309 0
-7136 -65 0
-7136 292 0
-294 7134 7135 7136 0
-7137 -40 0
-7137 351 0
-7138 -49 0
-7138 315 0
-7139 -71 0
-7139 293 0
-294 7137 7138 7139 0
-7140 -42 0
-7140 357 0
-7141 -51 0
-7141 321 0
-7142 -77 0
-7142 295 0
-294 7140 7141 7142 0
-7143 -43 0
-7143 358 0
-7144 -52 0
-7144 322 0
-7145 -78 0
-7145 296 0
-294 7143 7144 7145 0
-7146 -44 0
-7146 359 0
-7147 -53 0
-7147 323 0
-7148 -79 0
-7148 297 0
-294 7146 7147 7148 0
-7149 -45 0
-7149 360 0
-7150 -54 0
-7150 324 0
-7151 -80 0
-7151 298 0
-294 7149 7150 7151 0
-7152 -46 0
-7152 361 0
-7153 -55 0
-7153 325 0
-7154 -81 0
-7154 299 0
-294 7152 7153 7154 0
-7155 -3 0
-7155 129 0
-7156 -4 0
-7156 120 0
-7157 -9 0
-7157 115 0
-295 7155 7156 7157 0
-7158 -15 0
-7158 195 0
-7159 -16 0
-7159 186 0
-7160 -21 0
-7160 181 0
-295 7158 7159 7160 0
-7161 -26 0
-7161 250 0
-7162 -27 0
-7162 241 0
-7163 -32 0
-7163 236 0
-295 7161 7162 7163 0
-7164 -38 0
-7164 339 0
-7165 -47 0
-7165 303 0
-7166 -59 0
-7166 291 0
-295 7164 7165 7166 0
-7167 -39 0
-7167 346 0
-7168 -48 0
-7168 310 0
-7169 -66 0
-7169 292 0
-295 7167 7168 7169 0
-7170 -40 0
-7170 352 0
-7171 -49 0
-7171 316 0
-7172 -72 0
-7172 293 0
-295 7170 7171 7172 0
-7173 -41 0
-7173 357 0
-7174 -50 0
-7174 321 0
-7175 -77 0
-7175 294 0
-295 7173 7174 7175 0
-7176 -43 0
-7176 362 0
-7177 -52 0
-7177 326 0
-7178 -82 0
-7178 296 0
-295 7176 7177 7178 0
-7179 -44 0
-7179 363 0
-7180 -53 0
-7180 327 0
-7181 -83 0
-7181 297 0
-295 7179 7180 7181 0
-7182 -45 0
-7182 364 0
-7183 -54 0
-7183 328 0
-7184 -84 0
-7184 298 0
-295 7182 7183 7184 0
-7185 -46 0
-7185 365 0
-7186 -55 0
-7186 329 0
-7187 -85 0
-7187 299 0
-295 7185 7186 7187 0
-7188 -3 0
-7188 130 0
-7189 -4 0
-7189 121 0
-7190 -10 0
-7190 115 0
-296 7188 7189 7190 0
-7191 -15 0
-7191 196 0
-7192 -16 0
-7192 187 0
-7193 -22 0
-7193 181 0
-296 7191 7192 7193 0
-7194 -26 0
-7194 251 0
-7195 -27 0
-7195 242 0
-7196 -33 0
-7196 236 0
-296 7194 7195 7196 0
-7197 -38 0
-7197 340 0
-7198 -47 0
-7198 304 0
-7199 -60 0
-7199 291 0
-296 7197 7198 7199 0
-7200 -39 0
-7200 347 0
-7201 -48 0
-7201 311 0
-7202 -67 0
-7202 292 0
-296 7200 7201 7202 0
-7203 -40 0
-7203 353 0
-7204 -49 0
-7204 317 0
-7205 -73 0
-7205 293 0
-296 7203 7204 7205 0
-7206 -41 0
-7206 358 0
-7207 -50 0
-7207 322 0
-7208 -78 0
-7208 294 0
-296 7206 7207 7208 0
-7209 -42 0
-7209 362 0
-7210 -51 0
-7210 326 0
-7211 -82 0
-7211 295 0
-296 7209 7210 7211 0
-7212 -44 0
-7212 366 0
-7213 -53 0
-7213 330 0
-7214 -86 0
-7214 297 0
-296 7212 7213 7214 0
-7215 -45 0
-7215 367 0
-7216 -54 0
-7216 331 0
-7217 -87 0
-7217 298 0
-296 7215 7216 7217 0
-7218 -46 0
-7218 368 0
-7219 -55 0
-7219 332 0
-7220 -88 0
-7220 299 0
-296 7218 7219 7220 0
-7221 -3 0
-7221 131 0
-7222 -4 0
-7222 122 0
-7223 -11 0
-7223 115 0
-297 7221 7222 7223 0
-7224 -15 0
-7224 197 0
-7225 -16 0
-7225 188 0
-7226 -23 0
-7226 181 0
-297 7224 7225 7226 0
-7227 -26 0
-7227 252 0
-7228 -27 0
-7228 243 0
-7229 -34 0
-7229 236 0
-297 7227 7228 7229 0
-7230 -38 0
-7230 341 0
-7231 -47 0
-7231 305 0
-7232 -61 0
-7232 291 0
-297 7230 7231 7232 0
-7233 -39 0
-7233 348 0
-7234 -48 0
-7234 312 0
-7235 -68 0
-7235 292 0
-297 7233 7234 7235 0
-7236 -40 0
-7236 354 0
-7237 -49 0
-7237 318 0
-7238 -74 0
-7238 293 0
-297 7236 7237 7238 0
-7239 -41 0
-7239 359 0
-7240 -50 0
-7240 323 0
-7241 -79 0
-7241 294 0
-297 7239 7240 7241 0
-7242 -42 0
-7242 363 0
-7243 -51 0
-7243 327 0
-7244 -83 0
-7244 295 0
-297 7242 7243 7244 0
-7245 -43 0
-7245 366 0
-7246 -52 0
-7246 330 0
-7247 -86 0
-7247 296 0
-297 7245 7246 7247 0
-7248 -45 0
-7248 369 0
-7249 -54 0
-7249 333 0
-7250 -89 0
-7250 298 0
-297 7248 7249 7250 0
-7251 -46 0
-7251 370 0
-7252 -55 0
-7252 334 0
-7253 -90 0
-7253 299 0
-297 7251 7252 7253 0
-7254 -3 0
-7254 132 0
-7255 -4 0
-7255 123 0
-7256 -12 0
-7256 115 0
-298 7254 7255 7256 0
-7257 -15 0
-7257 198 0
-7258 -16 0
-7258 189 0
-7259 -24 0
-7259 181 0
-298 7257 7258 7259 0
-7260 -26 0
-7260 253 0
-7261 -27 0
-7261 244 0
-7262 -35 0
-7262 236 0
-298 7260 7261 7262 0
-7263 -38 0
-7263 342 0
-7264 -47 0
-7264 306 0
-7265 -62 0
-7265 291 0
-298 7263 7264 7265 0
-7266 -39 0
-7266 349 0
-7267 -48 0
-7267 313 0
-7268 -69 0
-7268 292 0
-298 7266 7267 7268 0
-7269 -40 0
-7269 355 0
-7270 -49 0
-7270 319 0
-7271 -75 0
-7271 293 0
-298 7269 7270 7271 0
-7272 -41 0
-7272 360 0
-7273 -50 0
-7273 324 0
-7274 -80 0
-7274 294 0
-298 7272 7273 7274 0
-7275 -42 0
-7275 364 0
-7276 -51 0
-7276 328 0
-7277 -84 0
-7277 295 0
-298 7275 7276 7277 0
-7278 -43 0
-7278 367 0
-7279 -52 0
-7279 331 0
-7280 -87 0
-7280 296 0
-298 7278 7279 7280 0
-7281 -44 0
-7281 369 0
-7282 -53 0
-7282 333 0
-7283 -89 0
-7283 297 0
-298 7281 7282 7283 0
-7284 -46 0
-7284 371 0
-7285 -55 0
-7285 335 0
-7286 -91 0
-7286 299 0
-298 7284 7285 7286 0
-7287 -3 0
-7287 133 0
-7288 -4 0
-7288 124 0
-7289 -13 0
-7289 115 0
-299 7287 7288 7289 0
-7290 -15 0
-7290 199 0
-7291 -16 0
-7291 190 0
-7292 -25 0
-7292 181 0
-299 7290 7291 7292 0
-7293 -26 0
-7293 254 0
-7294 -27 0
-7294 245 0
-7295 -36 0
-7295 236 0
-299 7293 7294 7295 0
-7296 -38 0
-7296 343 0
-7297 -47 0
-7297 307 0
-7298 -63 0
-7298 291 0
-299 7296 7297 7298 0
-7299 -39 0
-7299 350 0
-7300 -48 0
-7300 314 0
-7301 -70 0
-7301 292 0
-299 7299 7300 7301 0
-7302 -40 0
-7302 356 0
-7303 -49 0
-7303 320 0
-7304 -76 0
-7304 293 0
-299 7302 7303 7304 0
-7305 -41 0
-7305 361 0
-7306 -50 0
-7306 325 0
-7307 -81 0
-7307 294 0
-299 7305 7306 7307 0
-7308 -42 0
-7308 365 0
-7309 -51 0
-7309 329 0
-7310 -85 0
-7310 295 0
-299 7308 7309 7310 0
-7311 -43 0
-7311 368 0
-7312 -52 0
-7312 332 0
-7313 -88 0
-7313 296 0
-299 7311 7312 7313 0
-7314 -44 0
-7314 370 0
-7315 -53 0
-7315 334 0
-7316 -90 0
-7316 297 0
-299 7314 7315 7316 0
-7317 -45 0
-7317 371 0
-7318 -54 0
-7318 335 0
-7319 -91 0
-7319 298 0
-299 7317 7318 7319 0
-7320 -3 0
-7320 134 0
-7321 -5 0
-7321 117 0
-7322 -6 0
-7322 116 0
-300 7320 7321 7322 0
-7323 -15 0
-7323 200 0
-7324 -17 0
-7324 183 0
-7325 -18 0
-7325 182 0
-300 7323 7324 7325 0
-7326 -26 0
-7326 255 0
-7327 -28 0
-7327 238 0
-7328 -29 0
-7328 237 0
-300 7326 7327 7328 0
-7329 -37 0
-7329 336 0
-7330 -47 0
-7330 292 0
-7331 -48 0
-7331 291 0
-300 7329 7330 7331 0
-7332 -40 0
-7332 372 0
-7333 -57 0
-7333 308 0
-7334 -64 0
-7334 301 0
-300 7332 7333 7334 0
-7335 -41 0
-7335 373 0
-7336 -58 0
-7336 309 0
-7337 -65 0
-7337 302 0
-300 7335 7336 7337 0
-7338 -42 0
-7338 374 0
-7339 -59 0
-7339 310 0
-7340 -66 0
-7340 303 0
-300 7338 7339 7340 0
-7341 -43 0
-7341 375 0
-7342 -60 0
-7342 311 0
-7343 -67 0
-7343 304 0
-300 7341 7342 7343 0
-7344 -44 0
-7344 376 0
-7345 -61 0
-7345 312 0
-7346 -68 0
-7346 305 0
-300 7344 7345 7346 0
-7347 -45 0
-7347 377 0
-7348 -62 0
-7348 313 0
-7349 -69 0
-7349 306 0
-300 7347 7348 7349 0
-7350 -46 0
-7350 378 0
-7351 -63 0
-7351 314 0
-7352 -70 0
-7352 307 0
-300 7350 7351 7352 0
-7353 -3 0
-7353 135 0
-7354 -5 0
-7354 118 0
-7355 -7 0
-7355 116 0
-301 7353 7354 7355 0
-7356 -15 0
-7356 201 0
-7357 -17 0
-7357 184 0
-7358 -19 0
-7358 182 0
-301 7356 7357 7358 0
-7359 -26 0
-7359 256 0
-7360 -28 0
-7360 239 0
-7361 -30 0
-7361 237 0
-301 7359 7360 7361 0
-7362 -37 0
-7362 337 0
-7363 -47 0
-7363 293 0
-7364 -49 0
-7364 291 0
-301 7362 7363 7364 0
-7365 -39 0
-7365 372 0
-7366 -56 0
-7366 308 0
-7367 -64 0
-7367 300 0
-301 7365 7366 7367 0
-7368 -41 0
-7368 379 0
-7369 -58 0
-7369 315 0
-7370 -71 0
-7370 302 0
-301 7368 7369 7370 0
-7371 -42 0
-7371 380 0
-7372 -59 0
-7372 316 0
-7373 -72 0
-7373 303 0
-301 7371 7372 7373 0
-7374 -43 0
-7374 381 0
-7375 -60 0
-7375 317 0
-7376 -73 0
-7376 304 0
-301 7374 7375 7376 0
-7377 -44 0
-7377 382 0
-7378 -61 0
-7378 318 0
-7379 -74 0
-7379 305 0
-301 7377 7378 7379 0
-7380 -45 0
-7380 383 0
-7381 -62 0
-7381 319 0
-7382 -75 0
-7382 306 0
-301 7380 7381 7382 0
-7383 -46 0
-7383 384 0
-7384 -63 0
-7384 320 0
-7385 -76 0
-7385 307 0
-301 7383 7384 7385 0
-7386 -3 0
-7386 136 0
-7387 -5 0
-7387 119 0
-7388 -8 0
-7388 116 0
-302 7386 7387 7388 0
-7389 -15 0
-7389 202 0
-7390 -17 0
-7390 185 0
-7391 -20 0
-7391 182 0
-302 7389 7390 7391 0
-7392 -26 0
-7392 257 0
-7393 -28 0
-7393 240 0
-7394 -31 0
-7394 237 0
-302 7392 7393 7394 0
-7395 -37 0
-7395 338 0
-7396 -47 0
-7396 294 0
-7397 -50 0
-7397 291 0
-302 7395 7396 7397 0
-7398 -39 0
-7398 373 0
-7399 -56 0
-7399 309 0
-7400 -65 0
-7400 300 0
-302 7398 7399 7400 0
-7401 -40 0
-7401 379 0
-7402 -57 0
-7402 315 0
-7403 -71 0
-7403 301 0
-302 7401 7402 7403 0
-7404 -42 0
-7404 385 0
-7405 -59 0
-7405 321 0
-7406 -77 0
-7406 303 0
-302 7404 7405 7406 0
-7407 -43 0
-7407 386 0
-7408 -60 0
-7408 322 0
-7409 -78 0
-7409 304 0
-302 7407 7408 7409 0
-7410 -44 0
-7410 387 0
-7411 -61 0
-7411 323 0
-7412 -79 0
-7412 305 0
-302 7410 7411 7412 0
-7413 -45 0
-7413 388 0
-7414 -62 0
-7414 324 0
-7415 -80 0
-7415 306 0
-302 7413 7414 7415 0
-7416 -46 0
-7416 389 0
-7417 -63 0
-7417 325 0
-7418 -81 0
-7418 307 0
-302 7416 7417 7418 0
-7419 -3 0
-7419 137 0
-7420 -5 0
-7420 120 0
-7421 -9 0
-7421 116 0
-303 7419 7420 7421 0
-7422 -15 0
-7422 203 0
-7423 -17 0
-7423 186 0
-7424 -21 0
-7424 182 0
-303 7422 7423 7424 0
-7425 -26 0
-7425 258 0
-7426 -28 0
-7426 241 0
-7427 -32 0
-7427 237 0
-303 7425 7426 7427 0
-7428 -37 0
-7428 339 0
-7429 -47 0
-7429 295 0
-7430 -51 0
-7430 291 0
-303 7428 7429 7430 0
-7431 -39 0
-7431 374 0
-7432 -56 0
-7432 310 0
-7433 -66 0
-7433 300 0
-303 7431 7432 7433 0
-7434 -40 0
-7434 380 0
-7435 -57 0
-7435 316 0
-7436 -72 0
-7436 301 0
-303 7434 7435 7436 0
-7437 -41 0
-7437 385 0
-7438 -58 0
-7438 321 0
-7439 -77 0
-7439 302 0
-303 7437 7438 7439 0
-7440 -43 0
-7440 390 0
-7441 -60 0
-7441 326 0
-7442 -82 0
-7442 304 0
-303 7440 7441 7442 0
-7443 -44 0
-7443 391 0
-7444 -61 0
-7444 327 0
-7445 -83 0
-7445 305 0
-303 7443 7444 7445 0
-7446 -45 0
-7446 392 0
-7447 -62 0
-7447 328 0
-7448 -84 0
-7448 306 0
-303 7446 7447 7448 0
-7449 -46 0
-7449 393 0
-7450 -63 0
-7450 329 0
-7451 -85 0
-7451 307 0
-303 7449 7450 7451 0
-7452 -3 0
-7452 138 0
-7453 -5 0
-7453 121 0
-7454 -10 0
-7454 116 0
-304 7452 7453 7454 0
-7455 -15 0
-7455 204 0
-7456 -17 0
-7456 187 0
-7457 -22 0
-7457 182 0
-304 7455 7456 7457 0
-7458 -26 0
-7458 259 0
-7459 -28 0
-7459 242 0
-7460 -33 0
-7460 237 0
-304 7458 7459 7460 0
-7461 -37 0
-7461 340 0
-7462 -47 0
-7462 296 0
-7463 -52 0
-7463 291 0
-304 7461 7462 7463 0
-7464 -39 0
-7464 375 0
-7465 -56 0
-7465 311 0
-7466 -67 0
-7466 300 0
-304 7464 7465 7466 0
-7467 -40 0
-7467 381 0
-7468 -57 0
-7468 317 0
-7469 -73 0
-7469 301 0
-304 7467 7468 7469 0
-7470 -41 0
-7470 386 0
-7471 -58 0
-7471 322 0
-7472 -78 0
-7472 302 0
-304 7470 7471 7472 0
-7473 -42 0
-7473 390 0
-7474 -59 0
-7474 326 0
-7475 -82 0
-7475 303 0
-304 7473 7474 7475 0
-7476 -44 0
-7476 394 0
-7477 -61 0
-7477 330 0
-7478 -86 0
-7478 305 0
-304 7476 7477 7478 0
-7479 -45 0
-7479 395 0
-7480 -62 0
-7480 331 0
-7481 -87 0
-7481 306 0
-304 7479 7480 7481 0
-7482 -46 0
-7482 396 0
-7483 -63 0
-7483 332 0
-7484 -88 0
-7484 307 0
-304 7482 7483 7484 0
-7485 -3 0
-7485 139 0
-7486 -5 0
-7486 122 0
-7487 -11 0
-7487 116 0
-305 7485 7486 7487 0
-7488 -15 0
-7488 205 0
-7489 -17 0
-7489 188 0
-7490 -23 0
-7490 182 0
-305 7488 7489 7490 0
-7491 -26 0
-7491 260 0
-7492 -28 0
-7492 243 0
-7493 -34 0
-7493 237 0
-305 7491 7492 7493 0
-7494 -37 0
-7494 341 0
-7495 -47 0
-7495 297 0
-7496 -53 0
-7496 291 0
-305 7494 7495 7496 0
-7497 -39 0
-7497 376 0
-7498 -56 0
-7498 312 0
-7499 -68 0
-7499 300 0
-305 7497 7498 7499 0
-7500 -40 0
-7500 382 0
-7501 -57 0
-7501 318 0
-7502 -74 0
-7502 301 0
-305 7500 7501 7502 0
-7503 -41 0
-7503 387 0
-7504 -58 0
-7504 323 0
-7505 -79 0
-7505 302 0
-305 7503 7504 7505 0
-7506 -42 0
-7506 391 0
-7507 -59 0
-7507 327 0
-7508 -83 0
-7508 303 0
-305 7506 7507 7508 0
-7509 -43 0
-7509 394 0
-7510 -60 0
-7510 330 0
-7511 -86 0
-7511 304 0
-305 7509 7510 7511 0
-7512 -45 0
-7512 397 0
-7513 -62 0
-7513 333 0
-7514 -89 0
-7514 306 0
-305 7512 7513 7514 0
-7515 -46 0
-7515 398 0
-7516 -63 0
-7516 334 0
-7517 -90 0
-7517 307 0
-305 7515 7516 7517 0
-7518 -3 0
-7518 140 0
-7519 -5 0
-7519 123 0
-7520 -12 0
-7520 116 0
-306 7518 7519 7520 0
-7521 -15 0
-7521 206 0
-7522 -17 0
-7522 189 0
-7523 -24 0
-7523 182 0
-306 7521 7522 7523 0
-7524 -26 0
-7524 261 0
-7525 -28 0
-7525 244 0
-7526 -35 0
-7526 237 0
-306 7524 7525 7526 0
-7527 -37 0
-7527 342 0
-7528 -47 0
-7528 298 0
-7529 -54 0
-7529 291 0
-306 7527 7528 7529 0
-7530 -39 0
-7530 377 0
-7531 -56 0
-7531 313 0
-7532 -69 0
-7532 300 0
-306 7530 7531 7532 0
-7533 -40 0
-7533 383 0
-7534 -57 0
-7534 319 0
-7535 -75 0
-7535 301 0
-306 7533 7534 7535 0
-7536 -41 0
-7536 388 0
-7537 -58 0
-7537 324 0
-7538 -80 0
-7538 302 0
-306 7536 7537 7538 0
-7539 -42 0
-7539 392 0
-7540 -59 0
-7540 328 0
-7541 -84 0
-7541 303 0
-306 7539 7540 7541 0
-7542 -43 0
-7542 395 0
-7543 -60 0
-7543 331 0
-7544 -87 0
-7544 304 0
-306 7542 7543 7544 0
-7545 -44 0
-7545 397 0
-7546 -61 0
-7546 333 0
-7547 -89 0
-7547 305 0
-306 7545 7546 7547 0
-7548 -46 0
-7548 399 0
-7549 -63 0
-7549 335 0
-7550 -91 0
-7550 307 0
-306 7548 7549 7550 0
-7551 -3 0
-7551 141 0
-7552 -5 0
-7552 124 0
-7553 -13 0
-7553 116 0
-307 7551 7552 7553 0
-7554 -15 0
-7554 207 0
-7555 -17 0
-7555 190 0
-7556 -25 0
-7556 182 0
-307 7554 7555 7556 0
-7557 -26 0
-7557 262 0
-7558 -28 0
-7558 245 0
-7559 -36 0
-7559 237 0
-307 7557 7558 7559 0
-7560 -37 0
-7560 343 0
-7561 -47 0
-7561 299 0
-7562 -55 0
-7562 291 0
-307 7560 7561 7562 0
-7563 -39 0
-7563 378 0
-7564 -56 0
-7564 314 0
-7565 -70 0
-7565 300 0
-307 7563 7564 7565 0
-7566 -40 0
-7566 384 0
-7567 -57 0
-7567 320 0
-7568 -76 0
-7568 301 0
-307 7566 7567 7568 0
-7569 -41 0
-7569 389 0
-7570 -58 0
-7570 325 0
-7571 -81 0
-7571 302 0
-307 7569 7570 7571 0
-7572 -42 0
-7572 393 0
-7573 -59 0
-7573 329 0
-7574 -85 0
-7574 303 0
-307 7572 7573 7574 0
-7575 -43 0
-7575 396 0
-7576 -60 0
-7576 332 0
-7577 -88 0
-7577 304 0
-307 7575 7576 7577 0
-7578 -44 0
-7578 398 0
-7579 -61 0
-7579 334 0
-7580 -90 0
-7580 305 0
-307 7578 7579 7580 0
-7581 -45 0
-7581 399 0
-7582 -62 0
-7582 335 0
-7583 -91 0
-7583 306 0
-307 7581 7582 7583 0
-7584 -3 0
-7584 142 0
-7585 -6 0
-7585 118 0
-7586 -7 0
-7586 117 0
-308 7584 7585 7586 0
-7587 -15 0
-7587 208 0
-7588 -18 0
-7588 184 0
-7589 -19 0
-7589 183 0
-308 7587 7588 7589 0
-7590 -26 0
-7590 263 0
-7591 -29 0
-7591 239 0
-7592 -30 0
-7592 238 0
-308 7590 7591 7592 0
-7593 -37 0
-7593 344 0
-7594 -48 0
-7594 293 0
-7595 -49 0
-7595 292 0
-308 7593 7594 7595 0
-7596 -38 0
-7596 372 0
-7597 -56 0
-7597 301 0
-7598 -57 0
-7598 300 0
-308 7596 7597 7598 0
-7599 -41 0
-7599 400 0
-7600 -65 0
-7600 315 0
-7601 -71 0
-7601 309 0
-308 7599 7600 7601 0
-7602 -42 0
-7602 401 0
-7603 -66 0
-7603 316 0
-7604 -72 0
-7604 310 0
-308 7602 7603 7604 0
-7605 -43 0
-7605 402 0
-7606 -67 0
-7606 317 0
-7607 -73 0
-7607 311 0
-308 7605 7606 7607 0
-7608 -44 0
-7608 403 0
-7609 -68 0
-7609 318 0
-7610 -74 0
-7610 312 0
-308 7608 7609 7610 0
-7611 -45 0
-7611 404 0
-7612 -69 0
-7612 319 0
-7613 -75 0
-7613 313 0
-308 7611 7612 7613 0
-7614 -46 0
-7614 405 0
-7615 -70 0
-7615 320 0
-7616 -76 0
-7616 314 0
-308 7614 7615 7616 0
-7617 -3 0
-7617 143 0
-7618 -6 0
-7618 119 0
-7619 -8 0
-7619 117 0
-309 7617 7618 7619 0
-7620 -15 0
-7620 209 0
-7621 -18 0
-7621 185 0
-7622 -20 0
-7622 183 0
-309 7620 7621 7622 0
-7623 -26 0
-7623 264 0
-7624 -29 0
-7624 240 0
-7625 -31 0
-7625 238 0
-309 7623 7624 7625 0
-7626 -37 0
-7626 345 0
-7627 -48 0
-7627 294 0
-7628 -50 0
-7628 292 0
-309 7626 7627 7628 0
-7629 -38 0
-7629 373 0
-7630 -56 0
-7630 302 0
-7631 -58 0
-7631 300 0
-309 7629 7630 7631 0
-7632 -40 0
-7632 400 0
-7633 -64 0
-7633 315 0
-7634 -71 0
-7634 308 0
-309 7632 7633 7634 0
-7635 -42 0
-7635 406 0
-7636 -66 0
-7636 321 0
-7637 -77 0
-7637 310 0
-309 7635 7636 7637 0
-7638 -43 0
-7638 407 0
-7639 -67 0
-7639 322 0
-7640 -78 0
-7640 311 0
-309 7638 7639 7640 0
-7641 -44 0
-7641 408 0
-7642 -68 0
-7642 323 0
-7643 -79 0
-7643 312 0
-309 7641 7642 7643 0
-7644 -45 0
-7644 409 0
-7645 -69 0
-7645 324 0
-7646 -80 0
-7646 313 0
-309 7644 7645 7646 0
-7647 -46 0
-7647 410 0
-7648 -70 0
-7648 325 0
-7649 -81 0
-7649 314 0
-309 7647 7648 7649 0
-7650 -3 0
-7650 144 0
-7651 -6 0
-7651 120 0
-7652 -9 0
-7652 117 0
-310 7650 7651 7652 0
-7653 -15 0
-7653 210 0
-7654 -18 0
-7654 186 0
-7655 -21 0
-7655 183 0
-310 7653 7654 7655 0
-7656 -26 0
-7656 265 0
-7657 -29 0
-7657 241 0
-7658 -32 0
-7658 238 0
-310 7656 7657 7658 0
-7659 -37 0
-7659 346 0
-7660 -48 0
-7660 295 0
-7661 -51 0
-7661 292 0
-310 7659 7660 7661 0
-7662 -38 0
-7662 374 0
-7663 -56 0
-7663 303 0
-7664 -59 0
-7664 300 0
-310 7662 7663 7664 0
-7665 -40 0
-7665 401 0
-7666 -64 0
-7666 316 0
-7667 -72 0
-7667 308 0
-310 7665 7666 7667 0
-7668 -41 0
-7668 406 0
-7669 -65 0
-7669 321 0
-7670 -77 0
-7670 309 0
-310 7668 7669 7670 0
-7671 -43 0
-7671 411 0
-7672 -67 0
-7672 326 0
-7673 -82 0
-7673 311 0
-310 7671 7672 7673 0
-7674 -44 0
-7674 412 0
-7675 -68 0
-7675 327 0
-7676 -83 0
-7676 312 0
-310 7674 7675 7676 0
-7677 -45 0
-7677 413 0
-7678 -69 0
-7678 328 0
-7679 -84 0
-7679 313 0
-310 7677 7678 7679 0
-7680 -46 0
-7680 414 0
-7681 -70 0
-7681 329 0
-7682 -85 0
-7682 314 0
-310 7680 7681 7682 0
-7683 -3 0
-7683 145 0
-7684 -6 0
-7684 121 0
-7685 -10 0
-7685 117 0
-311 7683 7684 7685 0
-7686 -15 0
-7686 211 0
-7687 -18 0
-7687 187 0
-7688 -22 0
-7688 183 0
-311 7686 7687 7688 0
-7689 -26 0
-7689 266 0
-7690 -29 0
-7690 242 0
-7691 -33 0
-7691 238 0
-311 7689 7690 7691 0
-7692 -37 0
-7692 347 0
-7693 -48 0
-7693 296 0
-7694 -52 0
-7694 292 0
-311 7692 7693 7694 0
-7695 -38 0
-7695 375 0
-7696 -56 0
-7696 304 0
-7697 -60 0
-7697 300 0
-311 7695 7696 7697 0
-7698 -40 0
-7698 402 0
-7699 -64 0
-7699 317 0
-7700 -73 0
-7700 308 0
-311 7698 7699 7700 0
-7701 -41 0
-7701 407 0
-7702 -65 0
-7702 322 0
-7703 -78 0
-7703 309 0
-311 7701 7702 7703 0
-7704 -42 0
-7704 411 0
-7705 -66 0
-7705 326 0
-7706 -82 0
-7706 310 0
-311 7704 7705 7706 0
-7707 -44 0
-7707 415 0
-7708 -68 0
-7708 330 0
-7709 -86 0
-7709 312 0
-311 7707 7708 7709 0
-7710 -45 0
-7710 416 0
-7711 -69 0
-7711 331 0
-7712 -87 0
-7712 313 0
-311 7710 7711 7712 0
-7713 -46 0
-7713 417 0
-7714 -70 0
-7714 332 0
-7715 -88 0
-7715 314 0
-311 7713 7714 7715 0
-7716 -3 0
-7716 146 0
-7717 -6 0
-7717 122 0
-7718 -11 0
-7718 117 0
-312 7716 7717 7718 0
-7719 -15 0
-7719 212 0
-7720 -18 0
-7720 188 0
-7721 -23 0
-7721 183 0
-312 7719 7720 7721 0
-7722 -26 0
-7722 267 0
-7723 -29 0
-7723 243 0
-7724 -34 0
-7724 238 0
-312 7722 7723 7724 0
-7725 -37 0
-7725 348 0
-7726 -48 0
-7726 297 0
-7727 -53 0
-7727 292 0
-312 7725 7726 7727 0
-7728 -38 0
-7728 376 0
-7729 -56 0
-7729 305 0
-7730 -61 0
-7730 300 0
-312 7728 7729 7730 0
-7731 -40 0
-7731 403 0
-7732 -64 0
-7732 318 0
-7733 -74 0
-7733 308 0
-312 7731 7732 7733 0
-7734 -41 0
-7734 408 0
-7735 -65 0
-7735 323 0
-7736 -79 0
-7736 309 0
-312 7734 7735 7736 0
-7737 -42 0
-7737 412 0
-7738 -66 0
-7738 327 0
-7739 -83 0
-7739 310 0
-312 7737 7738 7739 0
-7740 -43 0
-7740 415 0
-7741 -67 0
-7741 330 0
-7742 -86 0
-7742 311 0
-312 7740 7741 7742 0
-7743 -45 0
-7743 418 0
-7744 -69 0
-7744 333 0
-7745 -89 0
-7745 313 0
-312 7743 7744 7745 0
-7746 -46 0
-7746 419 0
-7747 -70 0
-7747 334 0
-7748 -90 0
-7748 314 0
-312 7746 7747 7748 0
-7749 -3 0
-7749 147 0
-7750 -6 0
-7750 123 0
-7751 -12 0
-7751 117 0
-313 7749 7750 7751 0
-7752 -15 0
-7752 213 0
-7753 -18 0
-7753 189 0
-7754 -24 0
-7754 183 0
-313 7752 7753 7754 0
-7755 -26 0
-7755 268 0
-7756 -29 0
-7756 244 0
-7757 -35 0
-7757 238 0
-313 7755 7756 7757 0
-7758 -37 0
-7758 349 0
-7759 -48 0
-7759 298 0
-7760 -54 0
-7760 292 0
-313 7758 7759 7760 0
-7761 -38 0
-7761 377 0
-7762 -56 0
-7762 306 0
-7763 -62 0
-7763 300 0
-313 7761 7762 7763 0
-7764 -40 0
-7764 404 0
-7765 -64 0
-7765 319 0
-7766 -75 0
-7766 308 0
-313 7764 7765 7766 0
-7767 -41 0
-7767 409 0
-7768 -65 0
-7768 324 0
-7769 -80 0
-7769 309 0
-313 7767 7768 7769 0
-7770 -42 0
-7770 413 0
-7771 -66 0
-7771 328 0
-7772 -84 0
-7772 310 0
-313 7770 7771 7772 0
-7773 -43 0
-7773 416 0
-7774 -67 0
-7774 331 0
-7775 -87 0
-7775 311 0
-313 7773 7774 7775 0
-7776 -44 0
-7776 418 0
-7777 -68 0
-7777 333 0
-7778 -89 0
-7778 312 0
-313 7776 7777 7778 0
-7779 -46 0
-7779 420 0
-7780 -70 0
-7780 335 0
-7781 -91 0
-7781 314 0
-313 7779 7780 7781 0
-7782 -3 0
-7782 148 0
-7783 -6 0
-7783 124 0
-7784 -13 0
-7784 117 0
-314 7782 7783 7784 0
-7785 -15 0
-7785 214 0
-7786 -18 0
-7786 190 0
-7787 -25 0
-7787 183 0
-314 7785 7786 7787 0
-7788 -26 0
-7788 269 0
-7789 -29 0
-7789 245 0
-7790 -36 0
-7790 238 0
-314 7788 7789 7790 0
-7791 -37 0
-7791 350 0
-7792 -48 0
-7792 299 0
-7793 -55 0
-7793 292 0
-314 7791 7792 7793 0
-7794 -38 0
-7794 378 0
-7795 -56 0
-7795 307 0
-7796 -63 0
-7796 300 0
-314 7794 7795 7796 0
-7797 -40 0
-7797 405 0
-7798 -64 0
-7798 320 0
-7799 -76 0
-7799 308 0
-314 7797 7798 7799 0
-7800 -41 0
-7800 410 0
-7801 -65 0
-7801 325 0
-7802 -81 0
-7802 309 0
-314 7800 7801 7802 0
-7803 -42 0
-7803 414 0
-7804 -66 0
-7804 329 0
-7805 -85 0
-7805 310 0
-314 7803 7804 7805 0
-7806 -43 0
-7806 417 0
-7807 -67 0
-7807 332 0
-7808 -88 0
-7808 311 0
-314 7806 7807 7808 0
-7809 -44 0
-7809 419 0
-7810 -68 0
-7810 334 0
-7811 -90 0
-7811 312 0
-314 7809 7810 7811 0
-7812 -45 0
-7812 420 0
-7813 -69 0
-7813 335 0
-7814 -91 0
-7814 313 0
-314 7812 7813 7814 0
-7815 -3 0
-7815 149 0
-7816 -7 0
-7816 119 0
-7817 -8 0
-7817 118 0
-315 7815 7816 7817 0
-7818 -15 0
-7818 215 0
-7819 -19 0
-7819 185 0
-7820 -20 0
-7820 184 0
-315 7818 7819 7820 0
-7821 -26 0
-7821 270 0
-7822 -30 0
-7822 240 0
-7823 -31 0
-7823 239 0
-315 7821 7822 7823 0
-7824 -37 0
-7824 351 0
-7825 -49 0
-7825 294 0
-7826 -50 0
-7826 293 0
-315 7824 7825 7826 0
-7827 -38 0
-7827 379 0
-7828 -57 0
-7828 302 0
-7829 -58 0
-7829 301 0
-315 7827 7828 7829 0
-7830 -39 0
-7830 400 0
-7831 -64 0
-7831 309 0
-7832 -65 0
-7832 308 0
-315 7830 7831 7832 0
-7833 -42 0
-7833 421 0
-7834 -72 0
-7834 321 0
-7835 -77 0
-7835 316 0
-315 7833 7834 7835 0
-7836 -43 0
-7836 422 0
-7837 -73 0
-7837 322 0
-7838 -78 0
-7838 317 0
-315 7836 7837 7838 0
-7839 -44 0
-7839 423 0
-7840 -74 0
-7840 323 0
-7841 -79 0
-7841 318 0
-315 7839 7840 7841 0
-7842 -45 0
-7842 424 0
-7843 -75 0
-7843 324 0
-7844 -80 0
-7844 319 0
-315 7842 7843 7844 0
-7845 -46 0
-7845 425 0
-7846 -76 0
-7846 325 0
-7847 -81 0
-7847 320 0
-315 7845 7846 7847 0
-7848 -3 0
-7848 150 0
-7849 -7 0
-7849 120 0
-7850 -9 0
-7850 118 0
-316 7848 7849 7850 0
-7851 -15 0
-7851 216 0
-7852 -19 0
-7852 186 0
-7853 -21 0
-7853 184 0
-316 7851 7852 7853 0
-7854 -26 0
-7854 271 0
-7855 -30 0
-7855 241 0
-7856 -32 0
-7856 239 0
-316 7854 7855 7856 0
-7857 -37 0
-7857 352 0
-7858 -49 0
-7858 295 0
-7859 -51 0
-7859 293 0
-316 7857 7858 7859 0
-7860 -38 0
-7860 380 0
-7861 -57 0
-7861 303 0
-7862 -59 0
-7862 301 0
-316 7860 7861 7862 0
-7863 -39 0
-7863 401 0
-7864 -64 0
-7864 310 0
-7865 -66 0
-7865 308 0
-316 7863 7864 7865 0
-7866 -41 0
-7866 421 0
-7867 -71 0
-7867 321 0
-7868 -77 0
-7868 315 0
-316 7866 7867 7868 0
-7869 -43 0
-7869 426 0
-7870 -73 0
-7870 326 0
-7871 -82 0
-7871 317 0
-316 7869 7870 7871 0
-7872 -44 0
-7872 427 0
-7873 -74 0
-7873 327 0
-7874 -83 0
-7874 318 0
-316 7872 7873 7874 0
-7875 -45 0
-7875 428 0
-7876 -75 0
-7876 328 0
-7877 -84 0
-7877 319 0
-316 7875 7876 7877 0
-7878 -46 0
-7878 429 0
-7879 -76 0
-7879 329 0
-7880 -85 0
-7880 320 0
-316 7878 7879 7880 0
-7881 -3 0
-7881 151 0
-7882 -7 0
-7882 121 0
-7883 -10 0
-7883 118 0
-317 7881 7882 7883 0
-7884 -15 0
-7884 217 0
-7885 -19 0
-7885 187 0
-7886 -22 0
-7886 184 0
-317 7884 7885 7886 0
-7887 -26 0
-7887 272 0
-7888 -30 0
-7888 242 0
-7889 -33 0
-7889 239 0
-317 7887 7888 7889 0
-7890 -37 0
-7890 353 0
-7891 -49 0
-7891 296 0
-7892 -52 0
-7892 293 0
-317 7890 7891 7892 0
-7893 -38 0
-7893 381 0
-7894 -57 0
-7894 304 0
-7895 -60 0
-7895 301 0
-317 7893 7894 7895 0
-7896 -39 0
-7896 402 0
-7897 -64 0
-7897 311 0
-7898 -67 0
-7898 308 0
-317 7896 7897 7898 0
-7899 -41 0
-7899 422 0
-7900 -71 0
-7900 322 0
-7901 -78 0
-7901 315 0
-317 7899 7900 7901 0
-7902 -42 0
-7902 426 0
-7903 -72 0
-7903 326 0
-7904 -82 0
-7904 316 0
-317 7902 7903 7904 0
-7905 -44 0
-7905 430 0
-7906 -74 0
-7906 330 0
-7907 -86 0
-7907 318 0
-317 7905 7906 7907 0
-7908 -45 0
-7908 431 0
-7909 -75 0
-7909 331 0
-7910 -87 0
-7910 319 0
-317 7908 7909 7910 0
-7911 -46 0
-7911 432 0
-7912 -76 0
-7912 332 0
-7913 -88 0
-7913 320 0
-317 7911 7912 7913 0
-7914 -3 0
-7914 152 0
-7915 -7 0
-7915 122 0
-7916 -11 0
-7916 118 0
-318 7914 7915 7916 0
-7917 -15 0
-7917 218 0
-7918 -19 0
-7918 188 0
-7919 -23 0
-7919 184 0
-318 7917 7918 7919 0
-7920 -26 0
-7920 273 0
-7921 -30 0
-7921 243 0
-7922 -34 0
-7922 239 0
-318 7920 7921 7922 0
-7923 -37 0
-7923 354 0
-7924 -49 0
-7924 297 0
-7925 -53 0
-7925 293 0
-318 7923 7924 7925 0
-7926 -38 0
-7926 382 0
-7927 -57 0
-7927 305 0
-7928 -61 0
-7928 301 0
-318 7926 7927 7928 0
-7929 -39 0
-7929 403 0
-7930 -64 0
-7930 312 0
-7931 -68 0
-7931 308 0
-318 7929 7930 7931 0
-7932 -41 0
-7932 423 0
-7933 -71 0
-7933 323 0
-7934 -79 0
-7934 315 0
-318 7932 7933 7934 0
-7935 -42 0
-7935 427 0
-7936 -72 0
-7936 327 0
-7937 -83 0
-7937 316 0
-318 7935 7936 7937 0
-7938 -43 0
-7938 430 0
-7939 -73 0
-7939 330 0
-7940 -86 0
-7940 317 0
-318 7938 7939 7940 0
-7941 -45 0
-7941 433 0
-7942 -75 0
-7942 333 0
-7943 -89 0
-7943 319 0
-318 7941 7942 7943 0
-7944 -46 0
-7944 434 0
-7945 -76 0
-7945 334 0
-7946 -90 0
-7946 320 0
-318 7944 7945 7946 0
-7947 -3 0
-7947 153 0
-7948 -7 0
-7948 123 0
-7949 -12 0
-7949 118 0
-319 7947 7948 7949 0
-7950 -15 0
-7950 219 0
-7951 -19 0
-7951 189 0
-7952 -24 0
-7952 184 0
-319 7950 7951 7952 0
-7953 -26 0
-7953 274 0
-7954 -30 0
-7954 244 0
-7955 -35 0
-7955 239 0
-319 7953 7954 7955 0
-7956 -37 0
-7956 355 0
-7957 -49 0
-7957 298 0
-7958 -54 0
-7958 293 0
-319 7956 7957 7958 0
-7959 -38 0
-7959 383 0
-7960 -57 0
-7960 306 0
-7961 -62 0
-7961 301 0
-319 7959 7960 7961 0
-7962 -39 0
-7962 404 0
-7963 -64 0
-7963 313 0
-7964 -69 0
-7964 308 0
-319 7962 7963 7964 0
-7965 -41 0
-7965 424 0
-7966 -71 0
-7966 324 0
-7967 -80 0
-7967 315 0
-319 7965 7966 7967 0
-7968 -42 0
-7968 428 0
-7969 -72 0
-7969 328 0
-7970 -84 0
-7970 316 0
-319 7968 7969 7970 0
-7971 -43 0
-7971 431 0
-7972 -73 0
-7972 331 0
-7973 -87 0
-7973 317 0
-319 7971 7972 7973 0
-7974 -44 0
-7974 433 0
-7975 -74 0
-7975 333 0
-7976 -89 0
-7976 318 0
-319 7974 7975 7976 0
-7977 -46 0
-7977 435 0
-7978 -76 0
-7978 335 0
-7979 -91 0
-7979 320 0
-319 7977 7978 7979 0
-7980 -3 0
-7980 154 0
-7981 -7 0
-7981 124 0
-7982 -13 0
-7982 118 0
-320 7980 7981 7982 0
-7983 -15 0
-7983 220 0
-7984 -19 0
-7984 190 0
-7985 -25 0
-7985 184 0
-320 7983 7984 7985 0
-7986 -26 0
-7986 275 0
-7987 -30 0
-7987 245 0
-7988 -36 0
-7988 239 0
-320 7986 7987 7988 0
-7989 -37 0
-7989 356 0
-7990 -49 0
-7990 299 0
-7991 -55 0
-7991 293 0
-320 7989 7990 7991 0
-7992 -38 0
-7992 384 0
-7993 -57 0
-7993 307 0
-7994 -63 0
-7994 301 0
-320 7992 7993 7994 0
-7995 -39 0
-7995 405 0
-7996 -64 0
-7996 314 0
-7997 -70 0
-7997 308 0
-320 7995 7996 7997 0
-7998 -41 0
-7998 425 0
-7999 -71 0
-7999 325 0
-8000 -81 0
-8000 315 0
-320 7998 7999 8000 0
-8001 -42 0
-8001 429 0
-8002 -72 0
-8002 329 0
-8003 -85 0
-8003 316 0
-320 8001 8002 8003 0
-8004 -43 0
-8004 432 0
-8005 -73 0
-8005 332 0
-8006 -88 0
-8006 317 0
-320 8004 8005 8006 0
-8007 -44 0
-8007 434 0
-8008 -74 0
-8008 334 0
-8009 -90 0
-8009 318 0
-320 8007 8008 8009 0
-8010 -45 0
-8010 435 0
-8011 -75 0
-8011 335 0
-8012 -91 0
-8012 319 0
-320 8010 8011 8012 0
-8013 -3 0
-8013 155 0
-8014 -8 0
-8014 120 0
-8015 -9 0
-8015 119 0
-321 8013 8014 8015 0
-8016 -15 0
-8016 221 0
-8017 -20 0
-8017 186 0
-8018 -21 0
-8018 185 0
-321 8016 8017 8018 0
-8019 -26 0
-8019 276 0
-8020 -31 0
-8020 241 0
-8021 -32 0
-8021 240 0
-321 8019 8020 8021 0
-8022 -37 0
-8022 357 0
-8023 -50 0
-8023 295 0
-8024 -51 0
-8024 294 0
-321 8022 8023 8024 0
-8025 -38 0
-8025 385 0
-8026 -58 0
-8026 303 0
-8027 -59 0
-8027 302 0
-321 8025 8026 8027 0
-8028 -39 0
-8028 406 0
-8029 -65 0
-8029 310 0
-8030 -66 0
-8030 309 0
-321 8028 8029 8030 0
-8031 -40 0
-8031 421 0
-8032 -71 0
-8032 316 0
-8033 -72 0
-8033 315 0
-321 8031 8032 8033 0
-8034 -43 0
-8034 436 0
-8035 -78 0
-8035 326 0
-8036 -82 0
-8036 322 0
-321 8034 8035 8036 0
-8037 -44 0
-8037 437 0
-8038 -79 0
-8038 327 0
-8039 -83 0
-8039 323 0
-321 8037 8038 8039 0
-8040 -45 0
-8040 438 0
-8041 -80 0
-8041 328 0
-8042 -84 0
-8042 324 0
-321 8040 8041 8042 0
-8043 -46 0
-8043 439 0
-8044 -81 0
-8044 329 0
-8045 -85 0
-8045 325 0
-321 8043 8044 8045 0
-8046 -3 0
-8046 156 0
-8047 -8 0
-8047 121 0
-8048 -10 0
-8048 119 0
-322 8046 8047 8048 0
-8049 -15 0
-8049 222 0
-8050 -20 0
-8050 187 0
-8051 -22 0
-8051 185 0
-322 8049 8050 8051 0
-8052 -26 0
-8052 277 0
-8053 -31 0
-8053 242 0
-8054 -33 0
-8054 240 0
-322 8052 8053 8054 0
-8055 -37 0
-8055 358 0
-8056 -50 0
-8056 296 0
-8057 -52 0
-8057 294 0
-322 8055 8056 8057 0
-8058 -38 0
-8058 386 0
-8059 -58 0
-8059 304 0
-8060 -60 0
-8060 302 0
-322 8058 8059 8060 0
-8061 -39 0
-8061 407 0
-8062 -65 0
-8062 311 0
-8063 -67 0
-8063 309 0
-322 8061 8062 8063 0
-8064 -40 0
-8064 422 0
-8065 -71 0
-8065 317 0
-8066 -73 0
-8066 315 0
-322 8064 8065 8066 0
-8067 -42 0
-8067 436 0
-8068 -77 0
-8068 326 0
-8069 -82 0
-8069 321 0
-322 8067 8068 8069 0
-8070 -44 0
-8070 440 0
-8071 -79 0
-8071 330 0
-8072 -86 0
-8072 323 0
-322 8070 8071 8072 0
-8073 -45 0
-8073 441 0
-8074 -80 0
-8074 331 0
-8075 -87 0
-8075 324 0
-322 8073 8074 8075 0
-8076 -46 0
-8076 442 0
-8077 -81 0
-8077 332 0
-8078 -88 0
-8078 325 0
-322 8076 8077 8078 0
-8079 -3 0
-8079 157 0
-8080 -8 0
-8080 122 0
-8081 -11 0
-8081 119 0
-323 8079 8080 8081 0
-8082 -15 0
-8082 223 0
-8083 -20 0
-8083 188 0
-8084 -23 0
-8084 185 0
-323 8082 8083 8084 0
-8085 -26 0
-8085 278 0
-8086 -31 0
-8086 243 0
-8087 -34 0
-8087 240 0
-323 8085 8086 8087 0
-8088 -37 0
-8088 359 0
-8089 -50 0
-8089 297 0
-8090 -53 0
-8090 294 0
-323 8088 8089 8090 0
-8091 -38 0
-8091 387 0
-8092 -58 0
-8092 305 0
-8093 -61 0
-8093 302 0
-323 8091 8092 8093 0
-8094 -39 0
-8094 408 0
-8095 -65 0
-8095 312 0
-8096 -68 0
-8096 309 0
-323 8094 8095 8096 0
-8097 -40 0
-8097 423 0
-8098 -71 0
-8098 318 0
-8099 -74 0
-8099 315 0
-323 8097 8098 8099 0
-8100 -42 0
-8100 437 0
-8101 -77 0
-8101 327 0
-8102 -83 0
-8102 321 0
-323 8100 8101 8102 0
-8103 -43 0
-8103 440 0
-8104 -78 0
-8104 330 0
-8105 -86 0
-8105 322 0
-323 8103 8104 8105 0
-8106 -45 0
-8106 443 0
-8107 -80 0
-8107 333 0
-8108 -89 0
-8108 324 0
-323 8106 8107 8108 0
-8109 -46 0
-8109 444 0
-8110 -81 0
-8110 334 0
-8111 -90 0
-8111 325 0
-323 8109 8110 8111 0
-8112 -3 0
-8112 158 0
-8113 -8 0
-8113 123 0
-8114 -12 0
-8114 119 0
-324 8112 8113 8114 0
-8115 -15 0
-8115 224 0
-8116 -20 0
-8116 189 0
-8117 -24 0
-8117 185 0
-324 8115 8116 8117 0
-8118 -26 0
-8118 279 0
-8119 -31 0
-8119 244 0
-8120 -35 0
-8120 240 0
-324 8118 8119 8120 0
-8121 -37 0
-8121 360 0
-8122 -50 0
-8122 298 0
-8123 -54 0
-8123 294 0
-324 8121 8122 8123 0
-8124 -38 0
-8124 388 0
-8125 -58 0
-8125 306 0
-8126 -62 0
-8126 302 0
-324 8124 8125 8126 0
-8127 -39 0
-8127 409 0
-8128 -65 0
-8128 313 0
-8129 -69 0
-8129 309 0
-324 8127 8128 8129 0
-8130 -40 0
-8130 424 0
-8131 -71 0
-8131 319 0
-8132 -75 0
-8132 315 0
-324 8130 8131 8132 0
-8133 -42 0
-8133 438 0
-8134 -77 0
-8134 328 0
-8135 -84 0
-8135 321 0
-324 8133 8134 8135 0
-8136 -43 0
-8136 441 0
-8137 -78 0
-8137 331 0
-8138 -87 0
-8138 322 0
-324 8136 8137 8138 0
-8139 -44 0
-8139 443 0
-8140 -79 0
-8140 333 0
-8141 -89 0
-8141 323 0
-324 8139 8140 8141 0
-8142 -46 0
-8142 445 0
-8143 -81 0
-8143 335 0
-8144 -91 0
-8144 325 0
-324 8142 8143 8144 0
-8145 -3 0
-8145 159 0
-8146 -8 0
-8146 124 0
-8147 -13 0
-8147 119 0
-325 8145 8146 8147 0
-8148 -15 0
-8148 225 0
-8149 -20 0
-8149 190 0
-8150 -25 0
-8150 185 0
-325 8148 8149 8150 0
-8151 -26 0
-8151 280 0
-8152 -31 0
-8152 245 0
-8153 -36 0
-8153 240 0
-325 8151 8152 8153 0
-8154 -37 0
-8154 361 0
-8155 -50 0
-8155 299 0
-8156 -55 0
-8156 294 0
-325 8154 8155 8156 0
-8157 -38 0
-8157 389 0
-8158 -58 0
-8158 307 0
-8159 -63 0
-8159 302 0
-325 8157 8158 8159 0
-8160 -39 0
-8160 410 0
-8161 -65 0
-8161 314 0
-8162 -70 0
-8162 309 0
-325 8160 8161 8162 0
-8163 -40 0
-8163 425 0
-8164 -71 0
-8164 320 0
-8165 -76 0
-8165 315 0
-325 8163 8164 8165 0
-8166 -42 0
-8166 439 0
-8167 -77 0
-8167 329 0
-8168 -85 0
-8168 321 0
-325 8166 8167 8168 0
-8169 -43 0
-8169 442 0
-8170 -78 0
-8170 332 0
-8171 -88 0
-8171 322 0
-325 8169 8170 8171 0
-8172 -44 0
-8172 444 0
-8173 -79 0
-8173 334 0
-8174 -90 0
-8174 323 0
-325 8172 8173 8174 0
-8175 -45 0
-8175 445 0
-8176 -80 0
-8176 335 0
-8177 -91 0
-8177 324 0
-325 8175 8176 8177 0
-8178 -3 0
-8178 160 0
-8179 -9 0
-8179 121 0
-8180 -10 0
-8180 120 0
-326 8178 8179 8180 0
-8181 -15 0
-8181 226 0
-8182 -21 0
-8182 187 0
-8183 -22 0
-8183 186 0
-326 8181 8182 8183 0
-8184 -26 0
-8184 281 0
-8185 -32 0
-8185 242 0
-8186 -33 0
-8186 241 0
-326 8184 8185 8186 0
-8187 -37 0
-8187 362 0
-8188 -51 0
-8188 296 0
-8189 -52 0
-8189 295 0
-326 8187 8188 8189 0
-8190 -38 0
-8190 390 0
-8191 -59 0
-8191 304 0
-8192 -60 0
-8192 303 0
-326 8190 8191 8192 0
-8193 -39 0
-8193 411 0
-8194 -66 0
-8194 311 0
-8195 -67 0
-8195 310 0
-326 8193 8194 8195 0
-8196 -40 0
-8196 426 0
-8197 -72 0
-8197 317 0
-8198 -73 0
-8198 316 0
-326 8196 8197 8198 0
-8199 -41 0
-8199 436 0
-8200 -77 0
-8200 322 0
-8201 -78 0
-8201 321 0
-326 8199 8200 8201 0
-8202 -44 0
-8202 446 0
-8203 -83 0
-8203 330 0
-8204 -86 0
-8204 327 0
-326 8202 8203 8204 0
-8205 -45 0
-8205 447 0
-8206 -84 0
-8206 331 0
-8207 -87 0
-8207 328 0
-326 8205 8206 8207 0
-8208 -46 0
-8208 448 0
-8209 -85 0
-8209 332 0
-8210 -88 0
-8210 329 0
-326 8208 8209 8210 0
-8211 -3 0
-8211 161 0
-8212 -9 0
-8212 122 0
-8213 -11 0
-8213 120 0
-327 8211 8212 8213 0
-8214 -15 0
-8214 227 0
-8215 -21 0
-8215 188 0
-8216 -23 0
-8216 186 0
-327 8214 8215 8216 0
-8217 -26 0
-8217 282 0
-8218 -32 0
-8218 243 0
-8219 -34 0
-8219 241 0
-327 8217 8218 8219 0
-8220 -37 0
-8220 363 0
-8221 -51 0
-8221 297 0
-8222 -53 0
-8222 295 0
-327 8220 8221 8222 0
-8223 -38 0
-8223 391 0
-8224 -59 0
-8224 305 0
-8225 -61 0
-8225 303 0
-327 8223 8224 8225 0
-8226 -39 0
-8226 412 0
-8227 -66 0
-8227 312 0
-8228 -68 0
-8228 310 0
-327 8226 8227 8228 0
-8229 -40 0
-8229 427 0
-8230 -72 0
-8230 318 0
-8231 -74 0
-8231 316 0
-327 8229 8230 8231 0
-8232 -41 0
-8232 437 0
-8233 -77 0
-8233 323 0
-8234 -79 0
-8234 321 0
-327 8232 8233 8234 0
-8235 -43 0
-8235 446 0
-8236 -82 0
-8236 330 0
-8237 -86 0
-8237 326 0
-327 8235 8236 8237 0
-8238 -45 0
-8238 449 0
-8239 -84 0
-8239 333 0
-8240 -89 0
-8240 328 0
-327 8238 8239 8240 0
-8241 -46 0
-8241 450 0
-8242 -85 0
-8242 334 0
-8243 -90 0
-8243 329 0
-327 8241 8242 8243 0
-8244 -3 0
-8244 162 0
-8245 -9 0
-8245 123 0
-8246 -12 0
-8246 120 0
-328 8244 8245 8246 0
-8247 -15 0
-8247 228 0
-8248 -21 0
-8248 189 0
-8249 -24 0
-8249 186 0
-328 8247 8248 8249 0
-8250 -26 0
-8250 283 0
-8251 -32 0
-8251 244 0
-8252 -35 0
-8252 241 0
-328 8250 8251 8252 0
-8253 -37 0
-8253 364 0
-8254 -51 0
-8254 298 0
-8255 -54 0
-8255 295 0
-328 8253 8254 8255 0
-8256 -38 0
-8256 392 0
-8257 -59 0
-8257 306 0
-8258 -62 0
-8258 303 0
-328 8256 8257 8258 0
-8259 -39 0
-8259 413 0
-8260 -66 0
-8260 313 0
-8261 -69 0
-8261 310 0
-328 8259 8260 8261 0
-8262 -40 0
-8262 428 0
-8263 -72 0
-8263 319 0
-8264 -75 0
-8264 316 0
-328 8262 8263 8264 0
-8265 -41 0
-8265 438 0
-8266 -77 0
-8266 324 0
-8267 -80 0
-8267 321 0
-328 8265 8266 8267 0
-8268 -43 0
-8268 447 0
-8269 -82 0
-8269 331 0
-8270 -87 0
-8270 326 0
-328 8268 8269 8270 0
-8271 -44 0
-8271 449 0
-8272 -83 0
-8272 333 0
-8273 -89 0
-8273 327 0
-328 8271 8272 8273 0
-8274 -46 0
-8274 451 0
-8275 -85 0
-8275 335 0
-8276 -91 0
-8276 329 0
-328 8274 8275 8276 0
-8277 -3 0
-8277 163 0
-8278 -9 0
-8278 124 0
-8279 -13 0
-8279 120 0
-329 8277 8278 8279 0
-8280 -15 0
-8280 229 0
-8281 -21 0
-8281 190 0
-8282 -25 0
-8282 186 0
-329 8280 8281 8282 0
-8283 -26 0
-8283 284 0
-8284 -32 0
-8284 245 0
-8285 -36 0
-8285 241 0
-329 8283 8284 8285 0
-8286 -37 0
-8286 365 0
-8287 -51 0
-8287 299 0
-8288 -55 0
-8288 295 0
-329 8286 8287 8288 0
-8289 -38 0
-8289 393 0
-8290 -59 0
-8290 307 0
-8291 -63 0
-8291 303 0
-329 8289 8290 8291 0
-8292 -39 0
-8292 414 0
-8293 -66 0
-8293 314 0
-8294 -70 0
-8294 310 0
-329 8292 8293 8294 0
-8295 -40 0
-8295 429 0
-8296 -72 0
-8296 320 0
-8297 -76 0
-8297 316 0
-329 8295 8296 8297 0
-8298 -41 0
-8298 439 0
-8299 -77 0
-8299 325 0
-8300 -81 0
-8300 321 0
-329 8298 8299 8300 0
-8301 -43 0
-8301 448 0
-8302 -82 0
-8302 332 0
-8303 -88 0
-8303 326 0
-329 8301 8302 8303 0
-8304 -44 0
-8304 450 0
-8305 -83 0
-8305 334 0
-8306 -90 0
-8306 327 0
-329 8304 8305 8306 0
-8307 -45 0
-8307 451 0
-8308 -84 0
-8308 335 0
-8309 -91 0
-8309 328 0
-329 8307 8308 8309 0
-8310 -3 0
-8310 164 0
-8311 -10 0
-8311 122 0
-8312 -11 0
-8312 121 0
-330 8310 8311 8312 0
-8313 -15 0
-8313 230 0
-8314 -22 0
-8314 188 0
-8315 -23 0
-8315 187 0
-330 8313 8314 8315 0
-8316 -26 0
-8316 285 0
-8317 -33 0
-8317 243 0
-8318 -34 0
-8318 242 0
-330 8316 8317 8318 0
-8319 -37 0
-8319 366 0
-8320 -52 0
-8320 297 0
-8321 -53 0
-8321 296 0
-330 8319 8320 8321 0
-8322 -38 0
-8322 394 0
-8323 -60 0
-8323 305 0
-8324 -61 0
-8324 304 0
-330 8322 8323 8324 0
-8325 -39 0
-8325 415 0
-8326 -67 0
-8326 312 0
-8327 -68 0
-8327 311 0
-330 8325 8326 8327 0
-8328 -40 0
-8328 430 0
-8329 -73 0
-8329 318 0
-8330 -74 0
-8330 317 0
-330 8328 8329 8330 0
-8331 -41 0
-8331 440 0
-8332 -78 0
-8332 323 0
-8333 -79 0
-8333 322 0
-330 8331 8332 8333 0
-8334 -42 0
-8334 446 0
-8335 -82 0
-8335 327 0
-8336 -83 0
-8336 326 0
-330 8334 8335 8336 0
-8337 -45 0
-8337 452 0
-8338 -87 0
-8338 333 0
-8339 -89 0
-8339 331 0
-330 8337 8338 8339 0
-8340 -46 0
-8340 453 0
-8341 -88 0
-8341 334 0
-8342 -90 0
-8342 332 0
-330 8340 8341 8342 0
-8343 -3 0
-8343 165 0
-8344 -10 0
-8344 123 0
-8345 -12 0
-8345 121 0
-331 8343 8344 8345 0
-8346 -15 0
-8346 231 0
-8347 -22 0
-8347 189 0
-8348 -24 0
-8348 187 0
-331 8346 8347 8348 0
-8349 -26 0
-8349 286 0
-8350 -33 0
-8350 244 0
-8351 -35 0
-8351 242 0
-331 8349 8350 8351 0
-8352 -37 0
-8352 367 0
-8353 -52 0
-8353 298 0
-8354 -54 0
-8354 296 0
-331 8352 8353 8354 0
-8355 -38 0
-8355 395 0
-8356 -60 0
-8356 306 0
-8357 -62 0
-8357 304 0
-331 8355 8356 8357 0
-8358 -39 0
-8358 416 0
-8359 -67 0
-8359 313 0
-8360 -69 0
-8360 311 0
-331 8358 8359 8360 0
-8361 -40 0
-8361 431 0
-8362 -73 0
-8362 319 0
-8363 -75 0
-8363 317 0
-331 8361 8362 8363 0
-8364 -41 0
-8364 441 0
-8365 -78 0
-8365 324 0
-8366 -80 0
-8366 322 0
-331 8364 8365 8366 0
-8367 -42 0
-8367 447 0
-8368 -82 0
-8368 328 0
-8369 -84 0
-8369 326 0
-331 8367 8368 8369 0
-8370 -44 0
-8370 452 0
-8371 -86 0
-8371 333 0
-8372 -89 0
-8372 330 0
-331 8370 8371 8372 0
-8373 -46 0
-8373 454 0
-8374 -88 0
-8374 335 0
-8375 -91 0
-8375 332 0
-331 8373 8374 8375 0
-8376 -3 0
-8376 166 0
-8377 -10 0
-8377 124 0
-8378 -13 0
-8378 121 0
-332 8376 8377 8378 0
-8379 -15 0
-8379 232 0
-8380 -22 0
-8380 190 0
-8381 -25 0
-8381 187 0
-332 8379 8380 8381 0
-8382 -26 0
-8382 287 0
-8383 -33 0
-8383 245 0
-8384 -36 0
-8384 242 0
-332 8382 8383 8384 0
-8385 -37 0
-8385 368 0
-8386 -52 0
-8386 299 0
-8387 -55 0
-8387 296 0
-332 8385 8386 8387 0
-8388 -38 0
-8388 396 0
-8389 -60 0
-8389 307 0
-8390 -63 0
-8390 304 0
-332 8388 8389 8390 0
-8391 -39 0
-8391 417 0
-8392 -67 0
-8392 314 0
-8393 -70 0
-8393 311 0
-332 8391 8392 8393 0
-8394 -40 0
-8394 432 0
-8395 -73 0
-8395 320 0
-8396 -76 0
-8396 317 0
-332 8394 8395 8396 0
-8397 -41 0
-8397 442 0
-8398 -78 0
-8398 325 0
-8399 -81 0
-8399 322 0
-332 8397 8398 8399 0
-8400 -42 0
-8400 448 0
-8401 -82 0
-8401 329 0
-8402 -85 0
-8402 326 0
-332 8400 8401 8402 0
-8403 -44 0
-8403 453 0
-8404 -86 0
-8404 334 0
-8405 -90 0
-8405 330 0
-332 8403 8404 8405 0
-8406 -45 0
-8406 454 0
-8407 -87 0
-8407 335 0
-8408 -91 0
-8408 331 0
-332 8406 8407 8408 0
-8409 -3 0
-8409 167 0
-8410 -11 0
-8410 123 0
-8411 -12 0
-8411 122 0
-333 8409 8410 8411 0
-8412 -15 0
-8412 233 0
-8413 -23 0
-8413 189 0
-8414 -24 0
-8414 188 0
-333 8412 8413 8414 0
-8415 -26 0
-8415 288 0
-8416 -34 0
-8416 244 0
-8417 -35 0
-8417 243 0
-333 8415 8416 8417 0
-8418 -37 0
-8418 369 0
-8419 -53 0
-8419 298 0
-8420 -54 0
-8420 297 0
-333 8418 8419 8420 0
-8421 -38 0
-8421 397 0
-8422 -61 0
-8422 306 0
-8423 -62 0
-8423 305 0
-333 8421 8422 8423 0
-8424 -39 0
-8424 418 0
-8425 -68 0
-8425 313 0
-8426 -69 0
-8426 312 0
-333 8424 8425 8426 0
-8427 -40 0
-8427 433 0
-8428 -74 0
-8428 319 0
-8429 -75 0
-8429 318 0
-333 8427 8428 8429 0
-8430 -41 0
-8430 443 0
-8431 -79 0
-8431 324 0
-8432 -80 0
-8432 323 0
-333 8430 8431 8432 0
-8433 -42 0
-8433 449 0
-8434 -83 0
-8434 328 0
-8435 -84 0
-8435 327 0
-333 8433 8434 8435 0
-8436 -43 0
-8436 452 0
-8437 -86 0
-8437 331 0
-8438 -87 0
-8438 330 0
-333 8436 8437 8438 0
-8439 -46 0
-8439 455 0
-8440 -90 0
-8440 335 0
-8441 -91 0
-8441 334 0
-333 8439 8440 8441 0
-8442 -3 0
-8442 168 0
-8443 -11 0
-8443 124 0
-8444 -13 0
-8444 122 0
-334 8442 8443 8444 0
-8445 -15 0
-8445 234 0
-8446 -23 0
-8446 190 0
-8447 -25 0
-8447 188 0
-334 8445 8446 8447 0
-8448 -26 0
-8448 289 0
-8449 -34 0
-8449 245 0
-8450 -36 0
-8450 243 0
-334 8448 8449 8450 0
-8451 -37 0
-8451 370 0
-8452 -53 0
-8452 299 0
-8453 -55 0
-8453 297 0
-334 8451 8452 8453 0
-8454 -38 0
-8454 398 0
-8455 -61 0
-8455 307 0
-8456 -63 0
-8456 305 0
-334 8454 8455 8456 0
-8457 -39 0
-8457 419 0
-8458 -68 0
-8458 314 0
-8459 -70 0
-8459 312 0
-334 8457 8458 8459 0
-8460 -40 0
-8460 434 0
-8461 -74 0
-8461 320 0
-8462 -76 0
-8462 318 0
-334 8460 8461 8462 0
-8463 -41 0
-8463 444 0
-8464 -79 0
-8464 325 0
-8465 -81 0
-8465 323 0
-334 8463 8464 8465 0
-8466 -42 0
-8466 450 0
-8467 -83 0
-8467 329 0
-8468 -85 0
-8468 327 0
-334 8466 8467 8468 0
-8469 -43 0
-8469 453 0
-8470 -86 0
-8470 332 0
-8471 -88 0
-8471 330 0
-334 8469 8470 8471 0
-8472 -45 0
-8472 455 0
-8473 -89 0
-8473 335 0
-8474 -91 0
-8474 333 0
-334 8472 8473 8474 0
-8475 -3 0
-8475 169 0
-8476 -12 0
-8476 124 0
-8477 -13 0
-8477 123 0
-335 8475 8476 8477 0
-8478 -15 0
-8478 235 0
-8479 -24 0
-8479 190 0
-8480 -25 0
-8480 189 0
-335 8478 8479 8480 0
-8481 -26 0
-8481 290 0
-8482 -35 0
-8482 245 0
-8483 -36 0
-8483 244 0
-335 8481 8482 8483 0
-8484 -37 0
-8484 371 0
-8485 -54 0
-8485 299 0
-8486 -55 0
-8486 298 0
-335 8484 8485 8486 0
-8487 -38 0
-8487 399 0
-8488 -62 0
-8488 307 0
-8489 -63 0
-8489 306 0
-335 8487 8488 8489 0
-8490 -39 0
-8490 420 0
-8491 -69 0
-8491 314 0
-8492 -70 0
-8492 313 0
-335 8490 8491 8492 0
-8493 -40 0
-8493 435 0
-8494 -75 0
-8494 320 0
-8495 -76 0
-8495 319 0
-335 8493 8494 8495 0
-8496 -41 0
-8496 445 0
-8497 -80 0
-8497 325 0
-8498 -81 0
-8498 324 0
-335 8496 8497 8498 0
-8499 -42 0
-8499 451 0
-8500 -84 0
-8500 329 0
-8501 -85 0
-8501 328 0
-335 8499 8500 8501 0
-8502 -43 0
-8502 454 0
-8503 -87 0
-8503 332 0
-8504 -88 0
-8504 331 0
-335 8502 8503 8504 0
-8505 -44 0
-8505 455 0
-8506 -89 0
-8506 334 0
-8507 -90 0
-8507 333 0
-335 8505 8506 8507 0
-8508 -4 0
-8508 134 0
-8509 -5 0
-8509 126 0
-8510 -6 0
-8510 125 0
-336 8508 8509 8510 0
-8511 -16 0
-8511 200 0
-8512 -17 0
-8512 192 0
-8513 -18 0
-8513 191 0
-336 8511 8512 8513 0
-8514 -27 0
-8514 255 0
-8515 -28 0
-8515 247 0
-8516 -29 0
-8516 246 0
-336 8514 8515 8516 0
-8517 -37 0
-8517 300 0
-8518 -38 0
-8518 292 0
-8519 -39 0
-8519 291 0
-336 8517 8518 8519 0
-8520 -49 0
-8520 372 0
-8521 -57 0
-8521 344 0
-8522 -64 0
-8522 337 0
-336 8520 8521 8522 0
-8523 -50 0
-8523 373 0
-8524 -58 0
-8524 345 0
-8525 -65 0
-8525 338 0
-336 8523 8524 8525 0
-8526 -51 0
-8526 374 0
-8527 -59 0
-8527 346 0
-8528 -66 0
-8528 339 0
-336 8526 8527 8528 0
-8529 -52 0
-8529 375 0
-8530 -60 0
-8530 347 0
-8531 -67 0
-8531 340 0
-336 8529 8530 8531 0
-8532 -53 0
-8532 376 0
-8533 -61 0
-8533 348 0
-8534 -68 0
-8534 341 0
-336 8532 8533 8534 0
-8535 -54 0
-8535 377 0
-8536 -62 0
-8536 349 0
-8537 -69 0
-8537 342 0
-336 8535 8536 8537 0
-8538 -55 0
-8538 378 0
-8539 -63 0
-8539 350 0
-8540 -70 0
-8540 343 0
-336 8538 8539 8540 0
-8541 -4 0
-8541 135 0
-8542 -5 0
-8542 127 0
-8543 -7 0
-8543 125 0
-337 8541 8542 8543 0
-8544 -16 0
-8544 201 0
-8545 -17 0
-8545 193 0
-8546 -19 0
-8546 191 0
-337 8544 8545 8546 0
-8547 -27 0
-8547 256 0
-8548 -28 0
-8548 248 0
-8549 -30 0
-8549 246 0
-337 8547 8548 8549 0
-8550 -37 0
-8550 301 0
-8551 -38 0
-8551 293 0
-8552 -40 0
-8552 291 0
-337 8550 8551 8552 0
-8553 -48 0
-8553 372 0
-8554 -56 0
-8554 344 0
-8555 -64 0
-8555 336 0
-337 8553 8554 8555 0
-8556 -50 0
-8556 379 0
-8557 -58 0
-8557 351 0
-8558 -71 0
-8558 338 0
-337 8556 8557 8558 0
-8559 -51 0
-8559 380 0
-8560 -59 0
-8560 352 0
-8561 -72 0
-8561 339 0
-337 8559 8560 8561 0
-8562 -52 0
-8562 381 0
-8563 -60 0
-8563 353 0
-8564 -73 0
-8564 340 0
-337 8562 8563 8564 0
-8565 -53 0
-8565 382 0
-8566 -61 0
-8566 354 0
-8567 -74 0
-8567 341 0
-337 8565 8566 8567 0
-8568 -54 0
-8568 383 0
-8569 -62 0
-8569 355 0
-8570 -75 0
-8570 342 0
-337 8568 8569 8570 0
-8571 -55 0
-8571 384 0
-8572 -63 0
-8572 356 0
-8573 -76 0
-8573 343 0
-337 8571 8572 8573 0
-8574 -4 0
-8574 136 0
-8575 -5 0
-8575 128 0
-8576 -8 0
-8576 125 0
-338 8574 8575 8576 0
-8577 -16 0
-8577 202 0
-8578 -17 0
-8578 194 0
-8579 -20 0
-8579 191 0
-338 8577 8578 8579 0
-8580 -27 0
-8580 257 0
-8581 -28 0
-8581 249 0
-8582 -31 0
-8582 246 0
-338 8580 8581 8582 0
-8583 -37 0
-8583 302 0
-8584 -38 0
-8584 294 0
-8585 -41 0
-8585 291 0
-338 8583 8584 8585 0
-8586 -48 0
-8586 373 0
-8587 -56 0
-8587 345 0
-8588 -65 0
-8588 336 0
-338 8586 8587 8588 0
-8589 -49 0
-8589 379 0
-8590 -57 0
-8590 351 0
-8591 -71 0
-8591 337 0
-338 8589 8590 8591 0
-8592 -51 0
-8592 385 0
-8593 -59 0
-8593 357 0
-8594 -77 0
-8594 339 0
-338 8592 8593 8594 0
-8595 -52 0
-8595 386 0
-8596 -60 0
-8596 358 0
-8597 -78 0
-8597 340 0
-338 8595 8596 8597 0
-8598 -53 0
-8598 387 0
-8599 -61 0
-8599 359 0
-8600 -79 0
-8600 341 0
-338 8598 8599 8600 0
-8601 -54 0
-8601 388 0
-8602 -62 0
-8602 360 0
-8603 -80 0
-8603 342 0
-338 8601 8602 8603 0
-8604 -55 0
-8604 389 0
-8605 -63 0
-8605 361 0
-8606 -81 0
-8606 343 0
-338 8604 8605 8606 0
-8607 -4 0
-8607 137 0
-8608 -5 0
-8608 129 0
-8609 -9 0
-8609 125 0
-339 8607 8608 8609 0
-8610 -16 0
-8610 203 0
-8611 -17 0
-8611 195 0
-8612 -21 0
-8612 191 0
-339 8610 8611 8612 0
-8613 -27 0
-8613 258 0
-8614 -28 0
-8614 250 0
-8615 -32 0
-8615 246 0
-339 8613 8614 8615 0
-8616 -37 0
-8616 303 0
-8617 -38 0
-8617 295 0
-8618 -42 0
-8618 291 0
-339 8616 8617 8618 0
-8619 -48 0
-8619 374 0
-8620 -56 0
-8620 346 0
-8621 -66 0
-8621 336 0
-339 8619 8620 8621 0
-8622 -49 0
-8622 380 0
-8623 -57 0
-8623 352 0
-8624 -72 0
-8624 337 0
-339 8622 8623 8624 0
-8625 -50 0
-8625 385 0
-8626 -58 0
-8626 357 0
-8627 -77 0
-8627 338 0
-339 8625 8626 8627 0
-8628 -52 0
-8628 390 0
-8629 -60 0
-8629 362 0
-8630 -82 0
-8630 340 0
-339 8628 8629 8630 0
-8631 -53 0
-8631 391 0
-8632 -61 0
-8632 363 0
-8633 -83 0
-8633 341 0
-339 8631 8632 8633 0
-8634 -54 0
-8634 392 0
-8635 -62 0
-8635 364 0
-8636 -84 0
-8636 342 0
-339 8634 8635 8636 0
-8637 -55 0
-8637 393 0
-8638 -63 0
-8638 365 0
-8639 -85 0
-8639 343 0
-339 8637 8638 8639 0
-8640 -4 0
-8640 138 0
-8641 -5 0
-8641 130 0
-8642 -10 0
-8642 125 0
-340 8640 8641 8642 0
-8643 -16 0
-8643 204 0
-8644 -17 0
-8644 196 0
-8645 -22 0
-8645 191 0
-340 8643 8644 8645 0
-8646 -27 0
-8646 259 0
-8647 -28 0
-8647 251 0
-8648 -33 0
-8648 246 0
-340 8646 8647 8648 0
-8649 -37 0
-8649 304 0
-8650 -38 0
-8650 296 0
-8651 -43 0
-8651 291 0
-340 8649 8650 8651 0
-8652 -48 0
-8652 375 0
-8653 -56 0
-8653 347 0
-8654 -67 0
-8654 336 0
-340 8652 8653 8654 0
-8655 -49 0
-8655 381 0
-8656 -57 0
-8656 353 0
-8657 -73 0
-8657 337 0
-340 8655 8656 8657 0
-8658 -50 0
-8658 386 0
-8659 -58 0
-8659 358 0
-8660 -78 0
-8660 338 0
-340 8658 8659 8660 0
-8661 -51 0
-8661 390 0
-8662 -59 0
-8662 362 0
-8663 -82 0
-8663 339 0
-340 8661 8662 8663 0
-8664 -53 0
-8664 394 0
-8665 -61 0
-8665 366 0
-8666 -86 0
-8666 341 0
-340 8664 8665 8666 0
-8667 -54 0
-8667 395 0
-8668 -62 0
-8668 367 0
-8669 -87 0
-8669 342 0
-340 8667 8668 8669 0
-8670 -55 0
-8670 396 0
-8671 -63 0
-8671 368 0
-8672 -88 0
-8672 343 0
-340 8670 8671 8672 0
-8673 -4 0
-8673 139 0
-8674 -5 0
-8674 131 0
-8675 -11 0
-8675 125 0
-341 8673 8674 8675 0
-8676 -16 0
-8676 205 0
-8677 -17 0
-8677 197 0
-8678 -23 0
-8678 191 0
-341 8676 8677 8678 0
-8679 -27 0
-8679 260 0
-8680 -28 0
-8680 252 0
-8681 -34 0
-8681 246 0
-341 8679 8680 8681 0
-8682 -37 0
-8682 305 0
-8683 -38 0
-8683 297 0
-8684 -44 0
-8684 291 0
-341 8682 8683 8684 0
-8685 -48 0
-8685 376 0
-8686 -56 0
-8686 348 0
-8687 -68 0
-8687 336 0
-341 8685 8686 8687 0
-8688 -49 0
-8688 382 0
-8689 -57 0
-8689 354 0
-8690 -74 0
-8690 337 0
-341 8688 8689 8690 0
-8691 -50 0
-8691 387 0
-8692 -58 0
-8692 359 0
-8693 -79 0
-8693 338 0
-341 8691 8692 8693 0
-8694 -51 0
-8694 391 0
-8695 -59 0
-8695 363 0
-8696 -83 0
-8696 339 0
-341 8694 8695 8696 0
-8697 -52 0
-8697 394 0
-8698 -60 0
-8698 366 0
-8699 -86 0
-8699 340 0
-341 8697 8698 8699 0
-8700 -54 0
-8700 397 0
-8701 -62 0
-8701 369 0
-8702 -89 0
-8702 342 0
-341 8700 8701 8702 0
-8703 -55 0
-8703 398 0
-8704 -63 0
-8704 370 0
-8705 -90 0
-8705 343 0
-341 8703 8704 8705 0
-8706 -4 0
-8706 140 0
-8707 -5 0
-8707 132 0
-8708 -12 0
-8708 125 0
-342 8706 8707 8708 0
-8709 -16 0
-8709 206 0
-8710 -17 0
-8710 198 0
-8711 -24 0
-8711 191 0
-342 8709 8710 8711 0
-8712 -27 0
-8712 261 0
-8713 -28 0
-8713 253 0
-8714 -35 0
-8714 246 0
-342 8712 8713 8714 0
-8715 -37 0
-8715 306 0
-8716 -38 0
-8716 298 0
-8717 -45 0
-8717 291 0
-342 8715 8716 8717 0
-8718 -48 0
-8718 377 0
-8719 -56 0
-8719 349 0
-8720 -69 0
-8720 336 0
-342 8718 8719 8720 0
-8721 -49 0
-8721 383 0
-8722 -57 0
-8722 355 0
-8723 -75 0
-8723 337 0
-342 8721 8722 8723 0
-8724 -50 0
-8724 388 0
-8725 -58 0
-8725 360 0
-8726 -80 0
-8726 338 0
-342 8724 8725 8726 0
-8727 -51 0
-8727 392 0
-8728 -59 0
-8728 364 0
-8729 -84 0
-8729 339 0
-342 8727 8728 8729 0
-8730 -52 0
-8730 395 0
-8731 -60 0
-8731 367 0
-8732 -87 0
-8732 340 0
-342 8730 8731 8732 0
-8733 -53 0
-8733 397 0
-8734 -61 0
-8734 369 0
-8735 -89 0
-8735 341 0
-342 8733 8734 8735 0
-8736 -55 0
-8736 399 0
-8737 -63 0
-8737 371 0
-8738 -91 0
-8738 343 0
-342 8736 8737 8738 0
-8739 -4 0
-8739 141 0
-8740 -5 0
-8740 133 0
-8741 -13 0
-8741 125 0
-343 8739 8740 8741 0
-8742 -16 0
-8742 207 0
-8743 -17 0
-8743 199 0
-8744 -25 0
-8744 191 0
-343 8742 8743 8744 0
-8745 -27 0
-8745 262 0
-8746 -28 0
-8746 254 0
-8747 -36 0
-8747 246 0
-343 8745 8746 8747 0
-8748 -37 0
-8748 307 0
-8749 -38 0
-8749 299 0
-8750 -46 0
-8750 291 0
-343 8748 8749 8750 0
-8751 -48 0
-8751 378 0
-8752 -56 0
-8752 350 0
-8753 -70 0
-8753 336 0
-343 8751 8752 8753 0
-8754 -49 0
-8754 384 0
-8755 -57 0
-8755 356 0
-8756 -76 0
-8756 337 0
-343 8754 8755 8756 0
-8757 -50 0
-8757 389 0
-8758 -58 0
-8758 361 0
-8759 -81 0
-8759 338 0
-343 8757 8758 8759 0
-8760 -51 0
-8760 393 0
-8761 -59 0
-8761 365 0
-8762 -85 0
-8762 339 0
-343 8760 8761 8762 0
-8763 -52 0
-8763 396 0
-8764 -60 0
-8764 368 0
-8765 -88 0
-8765 340 0
-343 8763 8764 8765 0
-8766 -53 0
-8766 398 0
-8767 -61 0
-8767 370 0
-8768 -90 0
-8768 341 0
-343 8766 8767 8768 0
-8769 -54 0
-8769 399 0
-8770 -62 0
-8770 371 0
-8771 -91 0
-8771 342 0
-343 8769 8770 8771 0
-8772 -4 0
-8772 142 0
-8773 -6 0
-8773 127 0
-8774 -7 0
-8774 126 0
-344 8772 8773 8774 0
-8775 -16 0
-8775 208 0
-8776 -18 0
-8776 193 0
-8777 -19 0
-8777 192 0
-344 8775 8776 8777 0
-8778 -27 0
-8778 263 0
-8779 -29 0
-8779 248 0
-8780 -30 0
-8780 247 0
-344 8778 8779 8780 0
-8781 -37 0
-8781 308 0
-8782 -39 0
-8782 293 0
-8783 -40 0
-8783 292 0
-344 8781 8782 8783 0
-8784 -47 0
-8784 372 0
-8785 -56 0
-8785 337 0
-8786 -57 0
-8786 336 0
-344 8784 8785 8786 0
-8787 -50 0
-8787 400 0
-8788 -65 0
-8788 351 0
-8789 -71 0
-8789 345 0
-344 8787 8788 8789 0
-8790 -51 0
-8790 401 0
-8791 -66 0
-8791 352 0
-8792 -72 0
-8792 346 0
-344 8790 8791 8792 0
-8793 -52 0
-8793 402 0
-8794 -67 0
-8794 353 0
-8795 -73 0
-8795 347 0
-344 8793 8794 8795 0
-8796 -53 0
-8796 403 0
-8797 -68 0
-8797 354 0
-8798 -74 0
-8798 348 0
-344 8796 8797 8798 0
-8799 -54 0
-8799 404 0
-8800 -69 0
-8800 355 0
-8801 -75 0
-8801 349 0
-344 8799 8800 8801 0
-8802 -55 0
-8802 405 0
-8803 -70 0
-8803 356 0
-8804 -76 0
-8804 350 0
-344 8802 8803 8804 0
-8805 -4 0
-8805 143 0
-8806 -6 0
-8806 128 0
-8807 -8 0
-8807 126 0
-345 8805 8806 8807 0
-8808 -16 0
-8808 209 0
-8809 -18 0
-8809 194 0
-8810 -20 0
-8810 192 0
-345 8808 8809 8810 0
-8811 -27 0
-8811 264 0
-8812 -29 0
-8812 249 0
-8813 -31 0
-8813 247 0
-345 8811 8812 8813 0
-8814 -37 0
-8814 309 0
-8815 -39 0
-8815 294 0
-8816 -41 0
-8816 292 0
-345 8814 8815 8816 0
-8817 -47 0
-8817 373 0
-8818 -56 0
-8818 338 0
-8819 -58 0
-8819 336 0
-345 8817 8818 8819 0
-8820 -49 0
-8820 400 0
-8821 -64 0
-8821 351 0
-8822 -71 0
-8822 344 0
-345 8820 8821 8822 0
-8823 -51 0
-8823 406 0
-8824 -66 0
-8824 357 0
-8825 -77 0
-8825 346 0
-345 8823 8824 8825 0
-8826 -52 0
-8826 407 0
-8827 -67 0
-8827 358 0
-8828 -78 0
-8828 347 0
-345 8826 8827 8828 0
-8829 -53 0
-8829 408 0
-8830 -68 0
-8830 359 0
-8831 -79 0
-8831 348 0
-345 8829 8830 8831 0
-8832 -54 0
-8832 409 0
-8833 -69 0
-8833 360 0
-8834 -80 0
-8834 349 0
-345 8832 8833 8834 0
-8835 -55 0
-8835 410 0
-8836 -70 0
-8836 361 0
-8837 -81 0
-8837 350 0
-345 8835 8836 8837 0
-8838 -4 0
-8838 144 0
-8839 -6 0
-8839 129 0
-8840 -9 0
-8840 126 0
-346 8838 8839 8840 0
-8841 -16 0
-8841 210 0
-8842 -18 0
-8842 195 0
-8843 -21 0
-8843 192 0
-346 8841 8842 8843 0
-8844 -27 0
-8844 265 0
-8845 -29 0
-8845 250 0
-8846 -32 0
-8846 247 0
-346 8844 8845 8846 0
-8847 -37 0
-8847 310 0
-8848 -39 0
-8848 295 0
-8849 -42 0
-8849 292 0
-346 8847 8848 8849 0
-8850 -47 0
-8850 374 0
-8851 -56 0
-8851 339 0
-8852 -59 0
-8852 336 0
-346 8850 8851 8852 0
-8853 -49 0
-8853 401 0
-8854 -64 0
-8854 352 0
-8855 -72 0
-8855 344 0
-346 8853 8854 8855 0
-8856 -50 0
-8856 406 0
-8857 -65 0
-8857 357 0
-8858 -77 0
-8858 345 0
-346 8856 8857 8858 0
-8859 -52 0
-8859 411 0
-8860 -67 0
-8860 362 0
-8861 -82 0
-8861 347 0
-346 8859 8860 8861 0
-8862 -53 0
-8862 412 0
-8863 -68 0
-8863 363 0
-8864 -83 0
-8864 348 0
-346 8862 8863 8864 0
-8865 -54 0
-8865 413 0
-8866 -69 0
-8866 364 0
-8867 -84 0
-8867 349 0
-346 8865 8866 8867 0
-8868 -55 0
-8868 414 0
-8869 -70 0
-8869 365 0
-8870 -85 0
-8870 350 0
-346 8868 8869 8870 0
-8871 -4 0
-8871 145 0
-8872 -6 0
-8872 130 0
-8873 -10 0
-8873 126 0
-347 8871 8872 8873 0
-8874 -16 0
-8874 211 0
-8875 -18 0
-8875 196 0
-8876 -22 0
-8876 192 0
-347 8874 8875 8876 0
-8877 -27 0
-8877 266 0
-8878 -29 0
-8878 251 0
-8879 -33 0
-8879 247 0
-347 8877 8878 8879 0
-8880 -37 0
-8880 311 0
-8881 -39 0
-8881 296 0
-8882 -43 0
-8882 292 0
-347 8880 8881 8882 0
-8883 -47 0
-8883 375 0
-8884 -56 0
-8884 340 0
-8885 -60 0
-8885 336 0
-347 8883 8884 8885 0
-8886 -49 0
-8886 402 0
-8887 -64 0
-8887 353 0
-8888 -73 0
-8888 344 0
-347 8886 8887 8888 0
-8889 -50 0
-8889 407 0
-8890 -65 0
-8890 358 0
-8891 -78 0
-8891 345 0
-347 8889 8890 8891 0
-8892 -51 0
-8892 411 0
-8893 -66 0
-8893 362 0
-8894 -82 0
-8894 346 0
-347 8892 8893 8894 0
-8895 -53 0
-8895 415 0
-8896 -68 0
-8896 366 0
-8897 -86 0
-8897 348 0
-347 8895 8896 8897 0
-8898 -54 0
-8898 416 0
-8899 -69 0
-8899 367 0
-8900 -87 0
-8900 349 0
-347 8898 8899 8900 0
-8901 -55 0
-8901 417 0
-8902 -70 0
-8902 368 0
-8903 -88 0
-8903 350 0
-347 8901 8902 8903 0
-8904 -4 0
-8904 146 0
-8905 -6 0
-8905 131 0
-8906 -11 0
-8906 126 0
-348 8904 8905 8906 0
-8907 -16 0
-8907 212 0
-8908 -18 0
-8908 197 0
-8909 -23 0
-8909 192 0
-348 8907 8908 8909 0
-8910 -27 0
-8910 267 0
-8911 -29 0
-8911 252 0
-8912 -34 0
-8912 247 0
-348 8910 8911 8912 0
-8913 -37 0
-8913 312 0
-8914 -39 0
-8914 297 0
-8915 -44 0
-8915 292 0
-348 8913 8914 8915 0
-8916 -47 0
-8916 376 0
-8917 -56 0
-8917 341 0
-8918 -61 0
-8918 336 0
-348 8916 8917 8918 0
-8919 -49 0
-8919 403 0
-8920 -64 0
-8920 354 0
-8921 -74 0
-8921 344 0
-348 8919 8920 8921 0
-8922 -50 0
-8922 408 0
-8923 -65 0
-8923 359 0
-8924 -79 0
-8924 345 0
-348 8922 8923 8924 0
-8925 -51 0
-8925 412 0
-8926 -66 0
-8926 363 0
-8927 -83 0
-8927 346 0
-348 8925 8926 8927 0
-8928 -52 0
-8928 415 0
-8929 -67 0
-8929 366 0
-8930 -86 0
-8930 347 0
-348 8928 8929 8930 0
-8931 -54 0
-8931 418 0
-8932 -69 0
-8932 369 0
-8933 -89 0
-8933 349 0
-348 8931 8932 8933 0
-8934 -55 0
-8934 419 0
-8935 -70 0
-8935 370 0
-8936 -90 0
-8936 350 0
-348 8934 8935 8936 0
-8937 -4 0
-8937 147 0
-8938 -6 0
-8938 132 0
-8939 -12 0
-8939 126 0
-349 8937 8938 8939 0
-8940 -16 0
-8940 213 0
-8941 -18 0
-8941 198 0
-8942 -24 0
-8942 192 0
-349 8940 8941 8942 0
-8943 -27 0
-8943 268 0
-8944 -29 0
-8944 253 0
-8945 -35 0
-8945 247 0
-349 8943 8944 8945 0
-8946 -37 0
-8946 313 0
-8947 -39 0
-8947 298 0
-8948 -45 0
-8948 292 0
-349 8946 8947 8948 0
-8949 -47 0
-8949 377 0
-8950 -56 0
-8950 342 0
-8951 -62 0
-8951 336 0
-349 8949 8950 8951 0
-8952 -49 0
-8952 404 0
-8953 -64 0
-8953 355 0
-8954 -75 0
-8954 344 0
-349 8952 8953 8954 0
-8955 -50 0
-8955 409 0
-8956 -65 0
-8956 360 0
-8957 -80 0
-8957 345 0
-349 8955 8956 8957 0
-8958 -51 0
-8958 413 0
-8959 -66 0
-8959 364 0
-8960 -84 0
-8960 346 0
-349 8958 8959 8960 0
-8961 -52 0
-8961 416 0
-8962 -67 0
-8962 367 0
-8963 -87 0
-8963 347 0
-349 8961 8962 8963 0
-8964 -53 0
-8964 418 0
-8965 -68 0
-8965 369 0
-8966 -89 0
-8966 348 0
-349 8964 8965 8966 0
-8967 -55 0
-8967 420 0
-8968 -70 0
-8968 371 0
-8969 -91 0
-8969 350 0
-349 8967 8968 8969 0
-8970 -4 0
-8970 148 0
-8971 -6 0
-8971 133 0
-8972 -13 0
-8972 126 0
-350 8970 8971 8972 0
-8973 -16 0
-8973 214 0
-8974 -18 0
-8974 199 0
-8975 -25 0
-8975 192 0
-350 8973 8974 8975 0
-8976 -27 0
-8976 269 0
-8977 -29 0
-8977 254 0
-8978 -36 0
-8978 247 0
-350 8976 8977 8978 0
-8979 -37 0
-8979 314 0
-8980 -39 0
-8980 299 0
-8981 -46 0
-8981 292 0
-350 8979 8980 8981 0
-8982 -47 0
-8982 378 0
-8983 -56 0
-8983 343 0
-8984 -63 0
-8984 336 0
-350 8982 8983 8984 0
-8985 -49 0
-8985 405 0
-8986 -64 0
-8986 356 0
-8987 -76 0
-8987 344 0
-350 8985 8986 8987 0
-8988 -50 0
-8988 410 0
-8989 -65 0
-8989 361 0
-8990 -81 0
-8990 345 0
-350 8988 8989 8990 0
-8991 -51 0
-8991 414 0
-8992 -66 0
-8992 365 0
-8993 -85 0
-8993 346 0
-350 8991 8992 8993 0
-8994 -52 0
-8994 417 0
-8995 -67 0
-8995 368 0
-8996 -88 0
-8996 347 0
-350 8994 8995 8996 0
-8997 -53 0
-8997 419 0
-8998 -68 0
-8998 370 0
-8999 -90 0
-8999 348 0
-350 8997 8998 8999 0
-9000 -54 0
-9000 420 0
-9001 -69 0
-9001 371 0
-9002 -91 0
-9002 349 0
-350 9000 9001 9002 0
-9003 -4 0
-9003 149 0
-9004 -7 0
-9004 128 0
-9005 -8 0
-9005 127 0
-351 9003 9004 9005 0
-9006 -16 0
-9006 215 0
-9007 -19 0
-9007 194 0
-9008 -20 0
-9008 193 0
-351 9006 9007 9008 0
-9009 -27 0
-9009 270 0
-9010 -30 0
-9010 249 0
-9011 -31 0
-9011 248 0
-351 9009 9010 9011 0
-9012 -37 0
-9012 315 0
-9013 -40 0
-9013 294 0
-9014 -41 0
-9014 293 0
-351 9012 9013 9014 0
-9015 -47 0
-9015 379 0
-9016 -57 0
-9016 338 0
-9017 -58 0
-9017 337 0
-351 9015 9016 9017 0
-9018 -48 0
-9018 400 0
-9019 -64 0
-9019 345 0
-9020 -65 0
-9020 344 0
-351 9018 9019 9020 0
-9021 -51 0
-9021 421 0
-9022 -72 0
-9022 357 0
-9023 -77 0
-9023 352 0
-351 9021 9022 9023 0
-9024 -52 0
-9024 422 0
-9025 -73 0
-9025 358 0
-9026 -78 0
-9026 353 0
-351 9024 9025 9026 0
-9027 -53 0
-9027 423 0
-9028 -74 0
-9028 359 0
-9029 -79 0
-9029 354 0
-351 9027 9028 9029 0
-9030 -54 0
-9030 424 0
-9031 -75 0
-9031 360 0
-9032 -80 0
-9032 355 0
-351 9030 9031 9032 0
-9033 -55 0
-9033 425 0
-9034 -76 0
-9034 361 0
-9035 -81 0
-9035 356 0
-351 9033 9034 9035 0
-9036 -4 0
-9036 150 0
-9037 -7 0
-9037 129 0
-9038 -9 0
-9038 127 0
-352 9036 9037 9038 0
-9039 -16 0
-9039 216 0
-9040 -19 0
-9040 195 0
-9041 -21 0
-9041 193 0
-352 9039 9040 9041 0
-9042 -27 0
-9042 271 0
-9043 -30 0
-9043 250 0
-9044 -32 0
-9044 248 0
-352 9042 9043 9044 0
-9045 -37 0
-9045 316 0
-9046 -40 0
-9046 295 0
-9047 -42 0
-9047 293 0
-352 9045 9046 9047 0
-9048 -47 0
-9048 380 0
-9049 -57 0
-9049 339 0
-9050 -59 0
-9050 337 0
-352 9048 9049 9050 0
-9051 -48 0
-9051 401 0
-9052 -64 0
-9052 346 0
-9053 -66 0
-9053 344 0
-352 9051 9052 9053 0
-9054 -50 0
-9054 421 0
-9055 -71 0
-9055 357 0
-9056 -77 0
-9056 351 0
-352 9054 9055 9056 0
-9057 -52 0
-9057 426 0
-9058 -73 0
-9058 362 0
-9059 -82 0
-9059 353 0
-352 9057 9058 9059 0
-9060 -53 0
-9060 427 0
-9061 -74 0
-9061 363 0
-9062 -83 0
-9062 354 0
-352 9060 9061 9062 0
-9063 -54 0
-9063 428 0
-9064 -75 0
-9064 364 0
-9065 -84 0
-9065 355 0
-352 9063 9064 9065 0
-9066 -55 0
-9066 429 0
-9067 -76 0
-9067 365 0
-9068 -85 0
-9068 356 0
-352 9066 9067 9068 0
-9069 -4 0
-9069 151 0
-9070 -7 0
-9070 130 0
-9071 -10 0
-9071 127 0
-353 9069 9070 9071 0
-9072 -16 0
-9072 217 0
-9073 -19 0
-9073 196 0
-9074 -22 0
-9074 193 0
-353 9072 9073 9074 0
-9075 -27 0
-9075 272 0
-9076 -30 0
-9076 251 0
-9077 -33 0
-9077 248 0
-353 9075 9076 9077 0
-9078 -37 0
-9078 317 0
-9079 -40 0
-9079 296 0
-9080 -43 0
-9080 293 0
-353 9078 9079 9080 0
-9081 -47 0
-9081 381 0
-9082 -57 0
-9082 340 0
-9083 -60 0
-9083 337 0
-353 9081 9082 9083 0
-9084 -48 0
-9084 402 0
-9085 -64 0
-9085 347 0
-9086 -67 0
-9086 344 0
-353 9084 9085 9086 0
-9087 -50 0
-9087 422 0
-9088 -71 0
-9088 358 0
-9089 -78 0
-9089 351 0
-353 9087 9088 9089 0
-9090 -51 0
-9090 426 0
-9091 -72 0
-9091 362 0
-9092 -82 0
-9092 352 0
-353 9090 9091 9092 0
-9093 -53 0
-9093 430 0
-9094 -74 0
-9094 366 0
-9095 -86 0
-9095 354 0
-353 9093 9094 9095 0
-9096 -54 0
-9096 431 0
-9097 -75 0
-9097 367 0
-9098 -87 0
-9098 355 0
-353 9096 9097 9098 0
-9099 -55 0
-9099 432 0
-9100 -76 0
-9100 368 0
-9101 -88 0
-9101 356 0
-353 9099 9100 9101 0
-9102 -4 0
-9102 152 0
-9103 -7 0
-9103 131 0
-9104 -11 0
-9104 127 0
-354 9102 9103 9104 0
-9105 -16 0
-9105 218 0
-9106 -19 0
-9106 197 0
-9107 -23 0
-9107 193 0
-354 9105 9106 9107 0
-9108 -27 0
-9108 273 0
-9109 -30 0
-9109 252 0
-9110 -34 0
-9110 248 0
-354 9108 9109 9110 0
-9111 -37 0
-9111 318 0
-9112 -40 0
-9112 297 0
-9113 -44 0
-9113 293 0
-354 9111 9112 9113 0
-9114 -47 0
-9114 382 0
-9115 -57 0
-9115 341 0
-9116 -61 0
-9116 337 0
-354 9114 9115 9116 0
-9117 -48 0
-9117 403 0
-9118 -64 0
-9118 348 0
-9119 -68 0
-9119 344 0
-354 9117 9118 9119 0
-9120 -50 0
-9120 423 0
-9121 -71 0
-9121 359 0
-9122 -79 0
-9122 351 0
-354 9120 9121 9122 0
-9123 -51 0
-9123 427 0
-9124 -72 0
-9124 363 0
-9125 -83 0
-9125 352 0
-354 9123 9124 9125 0
-9126 -52 0
-9126 430 0
-9127 -73 0
-9127 366 0
-9128 -86 0
-9128 353 0
-354 9126 9127 9128 0
-9129 -54 0
-9129 433 0
-9130 -75 0
-9130 369 0
-9131 -89 0
-9131 355 0
-354 9129 9130 9131 0
-9132 -55 0
-9132 434 0
-9133 -76 0
-9133 370 0
-9134 -90 0
-9134 356 0
-354 9132 9133 9134 0
-9135 -4 0
-9135 153 0
-9136 -7 0
-9136 132 0
-9137 -12 0
-9137 127 0
-355 9135 9136 9137 0
-9138 -16 0
-9138 219 0
-9139 -19 0
-9139 198 0
-9140 -24 0
-9140 193 0
-355 9138 9139 9140 0
-9141 -27 0
-9141 274 0
-9142 -30 0
-9142 253 0
-9143 -35 0
-9143 248 0
-355 9141 9142 9143 0
-9144 -37 0
-9144 319 0
-9145 -40 0
-9145 298 0
-9146 -45 0
-9146 293 0
-355 9144 9145 9146 0
-9147 -47 0
-9147 383 0
-9148 -57 0
-9148 342 0
-9149 -62 0
-9149 337 0
-355 9147 9148 9149 0
-9150 -48 0
-9150 404 0
-9151 -64 0
-9151 349 0
-9152 -69 0
-9152 344 0
-355 9150 9151 9152 0
-9153 -50 0
-9153 424 0
-9154 -71 0
-9154 360 0
-9155 -80 0
-9155 351 0
-355 9153 9154 9155 0
-9156 -51 0
-9156 428 0
-9157 -72 0
-9157 364 0
-9158 -84 0
-9158 352 0
-355 9156 9157 9158 0
-9159 -52 0
-9159 431 0
-9160 -73 0
-9160 367 0
-9161 -87 0
-9161 353 0
-355 9159 9160 9161 0
-9162 -53 0
-9162 433 0
-9163 -74 0
-9163 369 0
-9164 -89 0
-9164 354 0
-355 9162 9163 9164 0
-9165 -55 0
-9165 435 0
-9166 -76 0
-9166 371 0
-9167 -91 0
-9167 356 0
-355 9165 9166 9167 0
-9168 -4 0
-9168 154 0
-9169 -7 0
-9169 133 0
-9170 -13 0
-9170 127 0
-356 9168 9169 9170 0
-9171 -16 0
-9171 220 0
-9172 -19 0
-9172 199 0
-9173 -25 0
-9173 193 0
-356 9171 9172 9173 0
-9174 -27 0
-9174 275 0
-9175 -30 0
-9175 254 0
-9176 -36 0
-9176 248 0
-356 9174 9175 9176 0
-9177 -37 0
-9177 320 0
-9178 -40 0
-9178 299 0
-9179 -46 0
-9179 293 0
-356 9177 9178 9179 0
-9180 -47 0
-9180 384 0
-9181 -57 0
-9181 343 0
-9182 -63 0
-9182 337 0
-356 9180 9181 9182 0
-9183 -48 0
-9183 405 0
-9184 -64 0
-9184 350 0
-9185 -70 0
-9185 344 0
-356 9183 9184 9185 0
-9186 -50 0
-9186 425 0
-9187 -71 0
-9187 361 0
-9188 -81 0
-9188 351 0
-356 9186 9187 9188 0
-9189 -51 0
-9189 429 0
-9190 -72 0
-9190 365 0
-9191 -85 0
-9191 352 0
-356 9189 9190 9191 0
-9192 -52 0
-9192 432 0
-9193 -73 0
-9193 368 0
-9194 -88 0
-9194 353 0
-356 9192 9193 9194 0
-9195 -53 0
-9195 434 0
-9196 -74 0
-9196 370 0
-9197 -90 0
-9197 354 0
-356 9195 9196 9197 0
-9198 -54 0
-9198 435 0
-9199 -75 0
-9199 371 0
-9200 -91 0
-9200 355 0
-356 9198 9199 9200 0
-9201 -4 0
-9201 155 0
-9202 -8 0
-9202 129 0
-9203 -9 0
-9203 128 0
-357 9201 9202 9203 0
-9204 -16 0
-9204 221 0
-9205 -20 0
-9205 195 0
-9206 -21 0
-9206 194 0
-357 9204 9205 9206 0
-9207 -27 0
-9207 276 0
-9208 -31 0
-9208 250 0
-9209 -32 0
-9209 249 0
-357 9207 9208 9209 0
-9210 -37 0
-9210 321 0
-9211 -41 0
-9211 295 0
-9212 -42 0
-9212 294 0
-357 9210 9211 9212 0
-9213 -47 0
-9213 385 0
-9214 -58 0
-9214 339 0
-9215 -59 0
-9215 338 0
-357 9213 9214 9215 0
-9216 -48 0
-9216 406 0
-9217 -65 0
-9217 346 0
-9218 -66 0
-9218 345 0
-357 9216 9217 9218 0
-9219 -49 0
-9219 421 0
-9220 -71 0
-9220 352 0
-9221 -72 0
-9221 351 0
-357 9219 9220 9221 0
-9222 -52 0
-9222 436 0
-9223 -78 0
-9223 362 0
-9224 -82 0
-9224 358 0
-357 9222 9223 9224 0
-9225 -53 0
-9225 437 0
-9226 -79 0
-9226 363 0
-9227 -83 0
-9227 359 0
-357 9225 9226 9227 0
-9228 -54 0
-9228 438 0
-9229 -80 0
-9229 364 0
-9230 -84 0
-9230 360 0
-357 9228 9229 9230 0
-9231 -55 0
-9231 439 0
-9232 -81 0
-9232 365 0
-9233 -85 0
-9233 361 0
-357 9231 9232 9233 0
-9234 -4 0
-9234 156 0
-9235 -8 0
-9235 130 0
-9236 -10 0
-9236 128 0
-358 9234 9235 9236 0
-9237 -16 0
-9237 222 0
-9238 -20 0
-9238 196 0
-9239 -22 0
-9239 194 0
-358 9237 9238 9239 0
-9240 -27 0
-9240 277 0
-9241 -31 0
-9241 251 0
-9242 -33 0
-9242 249 0
-358 9240 9241 9242 0
-9243 -37 0
-9243 322 0
-9244 -41 0
-9244 296 0
-9245 -43 0
-9245 294 0
-358 9243 9244 9245 0
-9246 -47 0
-9246 386 0
-9247 -58 0
-9247 340 0
-9248 -60 0
-9248 338 0
-358 9246 9247 9248 0
-9249 -48 0
-9249 407 0
-9250 -65 0
-9250 347 0
-9251 -67 0
-9251 345 0
-358 9249 9250 9251 0
-9252 -49 0
-9252 422 0
-9253 -71 0
-9253 353 0
-9254 -73 0
-9254 351 0
-358 9252 9253 9254 0
-9255 -51 0
-9255 436 0
-9256 -77 0
-9256 362 0
-9257 -82 0
-9257 357 0
-358 9255 9256 9257 0
-9258 -53 0
-9258 440 0
-9259 -79 0
-9259 366 0
-9260 -86 0
-9260 359 0
-358 9258 9259 9260 0
-9261 -54 0
-9261 441 0
-9262 -80 0
-9262 367 0
-9263 -87 0
-9263 360 0
-358 9261 9262 9263 0
-9264 -55 0
-9264 442 0
-9265 -81 0
-9265 368 0
-9266 -88 0
-9266 361 0
-358 9264 9265 9266 0
-9267 -4 0
-9267 157 0
-9268 -8 0
-9268 131 0
-9269 -11 0
-9269 128 0
-359 9267 9268 9269 0
-9270 -16 0
-9270 223 0
-9271 -20 0
-9271 197 0
-9272 -23 0
-9272 194 0
-359 9270 9271 9272 0
-9273 -27 0
-9273 278 0
-9274 -31 0
-9274 252 0
-9275 -34 0
-9275 249 0
-359 9273 9274 9275 0
-9276 -37 0
-9276 323 0
-9277 -41 0
-9277 297 0
-9278 -44 0
-9278 294 0
-359 9276 9277 9278 0
-9279 -47 0
-9279 387 0
-9280 -58 0
-9280 341 0
-9281 -61 0
-9281 338 0
-359 9279 9280 9281 0
-9282 -48 0
-9282 408 0
-9283 -65 0
-9283 348 0
-9284 -68 0
-9284 345 0
-359 9282 9283 9284 0
-9285 -49 0
-9285 423 0
-9286 -71 0
-9286 354 0
-9287 -74 0
-9287 351 0
-359 9285 9286 9287 0
-9288 -51 0
-9288 437 0
-9289 -77 0
-9289 363 0
-9290 -83 0
-9290 357 0
-359 9288 9289 9290 0
-9291 -52 0
-9291 440 0
-9292 -78 0
-9292 366 0
-9293 -86 0
-9293 358 0
-359 9291 9292 9293 0
-9294 -54 0
-9294 443 0
-9295 -80 0
-9295 369 0
-9296 -89 0
-9296 360 0
-359 9294 9295 9296 0
-9297 -55 0
-9297 444 0
-9298 -81 0
-9298 370 0
-9299 -90 0
-9299 361 0
-359 9297 9298 9299 0
-9300 -4 0
-9300 158 0
-9301 -8 0
-9301 132 0
-9302 -12 0
-9302 128 0
-360 9300 9301 9302 0
-9303 -16 0
-9303 224 0
-9304 -20 0
-9304 198 0
-9305 -24 0
-9305 194 0
-360 9303 9304 9305 0
-9306 -27 0
-9306 279 0
-9307 -31 0
-9307 253 0
-9308 -35 0
-9308 249 0
-360 9306 9307 9308 0
-9309 -37 0
-9309 324 0
-9310 -41 0
-9310 298 0
-9311 -45 0
-9311 294 0
-360 9309 9310 9311 0
-9312 -47 0
-9312 388 0
-9313 -58 0
-9313 342 0
-9314 -62 0
-9314 338 0
-360 9312 9313 9314 0
-9315 -48 0
-9315 409 0
-9316 -65 0
-9316 349 0
-9317 -69 0
-9317 345 0
-360 9315 9316 9317 0
-9318 -49 0
-9318 424 0
-9319 -71 0
-9319 355 0
-9320 -75 0
-9320 351 0
-360 9318 9319 9320 0
-9321 -51 0
-9321 438 0
-9322 -77 0
-9322 364 0
-9323 -84 0
-9323 357 0
-360 9321 9322 9323 0
-9324 -52 0
-9324 441 0
-9325 -78 0
-9325 367 0
-9326 -87 0
-9326 358 0
-360 9324 9325 9326 0
-9327 -53 0
-9327 443 0
-9328 -79 0
-9328 369 0
-9329 -89 0
-9329 359 0
-360 9327 9328 9329 0
-9330 -55 0
-9330 445 0
-9331 -81 0
-9331 371 0
-9332 -91 0
-9332 361 0
-360 9330 9331 9332 0
-9333 -4 0
-9333 159 0
-9334 -8 0
-9334 133 0
-9335 -13 0
-9335 128 0
-361 9333 9334 9335 0
-9336 -16 0
-9336 225 0
-9337 -20 0
-9337 199 0
-9338 -25 0
-9338 194 0
-361 9336 9337 9338 0
-9339 -27 0
-9339 280 0
-9340 -31 0
-9340 254 0
-9341 -36 0
-9341 249 0
-361 9339 9340 9341 0
-9342 -37 0
-9342 325 0
-9343 -41 0
-9343 299 0
-9344 -46 0
-9344 294 0
-361 9342 9343 9344 0
-9345 -47 0
-9345 389 0
-9346 -58 0
-9346 343 0
-9347 -63 0
-9347 338 0
-361 9345 9346 9347 0
-9348 -48 0
-9348 410 0
-9349 -65 0
-9349 350 0
-9350 -70 0
-9350 345 0
-361 9348 9349 9350 0
-9351 -49 0
-9351 425 0
-9352 -71 0
-9352 356 0
-9353 -76 0
-9353 351 0
-361 9351 9352 9353 0
-9354 -51 0
-9354 439 0
-9355 -77 0
-9355 365 0
-9356 -85 0
-9356 357 0
-361 9354 9355 9356 0
-9357 -52 0
-9357 442 0
-9358 -78 0
-9358 368 0
-9359 -88 0
-9359 358 0
-361 9357 9358 9359 0
-9360 -53 0
-9360 444 0
-9361 -79 0
-9361 370 0
-9362 -90 0
-9362 359 0
-361 9360 9361 9362 0
-9363 -54 0
-9363 445 0
-9364 -80 0
-9364 371 0
-9365 -91 0
-9365 360 0
-361 9363 9364 9365 0
-9366 -4 0
-9366 160 0
-9367 -9 0
-9367 130 0
-9368 -10 0
-9368 129 0
-362 9366 9367 9368 0
-9369 -16 0
-9369 226 0
-9370 -21 0
-9370 196 0
-9371 -22 0
-9371 195 0
-362 9369 9370 9371 0
-9372 -27 0
-9372 281 0
-9373 -32 0
-9373 251 0
-9374 -33 0
-9374 250 0
-362 9372 9373 9374 0
-9375 -37 0
-9375 326 0
-9376 -42 0
-9376 296 0
-9377 -43 0
-9377 295 0
-362 9375 9376 9377 0
-9378 -47 0
-9378 390 0
-9379 -59 0
-9379 340 0
-9380 -60 0
-9380 339 0
-362 9378 9379 9380 0
-9381 -48 0
-9381 411 0
-9382 -66 0
-9382 347 0
-9383 -67 0
-9383 346 0
-362 9381 9382 9383 0
-9384 -49 0
-9384 426 0
-9385 -72 0
-9385 353 0
-9386 -73 0
-9386 352 0
-362 9384 9385 9386 0
-9387 -50 0
-9387 436 0
-9388 -77 0
-9388 358 0
-9389 -78 0
-9389 357 0
-362 9387 9388 9389 0
-9390 -53 0
-9390 446 0
-9391 -83 0
-9391 366 0
-9392 -86 0
-9392 363 0
-362 9390 9391 9392 0
-9393 -54 0
-9393 447 0
-9394 -84 0
-9394 367 0
-9395 -87 0
-9395 364 0
-362 9393 9394 9395 0
-9396 -55 0
-9396 448 0
-9397 -85 0
-9397 368 0
-9398 -88 0
-9398 365 0
-362 9396 9397 9398 0
-9399 -4 0
-9399 161 0
-9400 -9 0
-9400 131 0
-9401 -11 0
-9401 129 0
-363 9399 9400 9401 0
-9402 -16 0
-9402 227 0
-9403 -21 0
-9403 197 0
-9404 -23 0
-9404 195 0
-363 9402 9403 9404 0
-9405 -27 0
-9405 282 0
-9406 -32 0
-9406 252 0
-9407 -34 0
-9407 250 0
-363 9405 9406 9407 0
-9408 -37 0
-9408 327 0
-9409 -42 0
-9409 297 0
-9410 -44 0
-9410 295 0
-363 9408 9409 9410 0
-9411 -47 0
-9411 391 0
-9412 -59 0
-9412 341 0
-9413 -61 0
-9413 339 0
-363 9411 9412 9413 0
-9414 -48 0
-9414 412 0
-9415 -66 0
-9415 348 0
-9416 -68 0
-9416 346 0
-363 9414 9415 9416 0
-9417 -49 0
-9417 427 0
-9418 -72 0
-9418 354 0
-9419 -74 0
-9419 352 0
-363 9417 9418 9419 0
-9420 -50 0
-9420 437 0
-9421 -77 0
-9421 359 0
-9422 -79 0
-9422 357 0
-363 9420 9421 9422 0
-9423 -52 0
-9423 446 0
-9424 -82 0
-9424 366 0
-9425 -86 0
-9425 362 0
-363 9423 9424 9425 0
-9426 -54 0
-9426 449 0
-9427 -84 0
-9427 369 0
-9428 -89 0
-9428 364 0
-363 9426 9427 9428 0
-9429 -55 0
-9429 450 0
-9430 -85 0
-9430 370 0
-9431 -90 0
-9431 365 0
-363 9429 9430 9431 0
-9432 -4 0
-9432 162 0
-9433 -9 0
-9433 132 0
-9434 -12 0
-9434 129 0
-364 9432 9433 9434 0
-9435 -16 0
-9435 228 0
-9436 -21 0
-9436 198 0
-9437 -24 0
-9437 195 0
-364 9435 9436 9437 0
-9438 -27 0
-9438 283 0
-9439 -32 0
-9439 253 0
-9440 -35 0
-9440 250 0
-364 9438 9439 9440 0
-9441 -37 0
-9441 328 0
-9442 -42 0
-9442 298 0
-9443 -45 0
-9443 295 0
-364 9441 9442 9443 0
-9444 -47 0
-9444 392 0
-9445 -59 0
-9445 342 0
-9446 -62 0
-9446 339 0
-364 9444 9445 9446 0
-9447 -48 0
-9447 413 0
-9448 -66 0
-9448 349 0
-9449 -69 0
-9449 346 0
-364 9447 9448 9449 0
-9450 -49 0
-9450 428 0
-9451 -72 0
-9451 355 0
-9452 -75 0
-9452 352 0
-364 9450 9451 9452 0
-9453 -50 0
-9453 438 0
-9454 -77 0
-9454 360 0
-9455 -80 0
-9455 357 0
-364 9453 9454 9455 0
-9456 -52 0
-9456 447 0
-9457 -82 0
-9457 367 0
-9458 -87 0
-9458 362 0
-364 9456 9457 9458 0
-9459 -53 0
-9459 449 0
-9460 -83 0
-9460 369 0
-9461 -89 0
-9461 363 0
-364 9459 9460 9461 0
-9462 -55 0
-9462 451 0
-9463 -85 0
-9463 371 0
-9464 -91 0
-9464 365 0
-364 9462 9463 9464 0
-9465 -4 0
-9465 163 0
-9466 -9 0
-9466 133 0
-9467 -13 0
-9467 129 0
-365 9465 9466 9467 0
-9468 -16 0
-9468 229 0
-9469 -21 0
-9469 199 0
-9470 -25 0
-9470 195 0
-365 9468 9469 9470 0
-9471 -27 0
-9471 284 0
-9472 -32 0
-9472 254 0
-9473 -36 0
-9473 250 0
-365 9471 9472 9473 0
-9474 -37 0
-9474 329 0
-9475 -42 0
-9475 299 0
-9476 -46 0
-9476 295 0
-365 9474 9475 9476 0
-9477 -47 0
-9477 393 0
-9478 -59 0
-9478 343 0
-9479 -63 0
-9479 339 0
-365 9477 9478 9479 0
-9480 -48 0
-9480 414 0
-9481 -66 0
-9481 350 0
-9482 -70 0
-9482 346 0
-365 9480 9481 9482 0
-9483 -49 0
-9483 429 0
-9484 -72 0
-9484 356 0
-9485 -76 0
-9485 352 0
-365 9483 9484 9485 0
-9486 -50 0
-9486 439 0
-9487 -77 0
-9487 361 0
-9488 -81 0
-9488 357 0
-365 9486 9487 9488 0
-9489 -52 0
-9489 448 0
-9490 -82 0
-9490 368 0
-9491 -88 0
-9491 362 0
-365 9489 9490 9491 0
-9492 -53 0
-9492 450 0
-9493 -83 0
-9493 370 0
-9494 -90 0
-9494 363 0
-365 9492 9493 9494 0
-9495 -54 0
-9495 451 0
-9496 -84 0
-9496 371 0
-9497 -91 0
-9497 364 0
-365 9495 9496 9497 0
-9498 -4 0
-9498 164 0
-9499 -10 0
-9499 131 0
-9500 -11 0
-9500 130 0
-366 9498 9499 9500 0
-9501 -16 0
-9501 230 0
-9502 -22 0
-9502 197 0
-9503 -23 0
-9503 196 0
-366 9501 9502 9503 0
-9504 -27 0
-9504 285 0
-9505 -33 0
-9505 252 0
-9506 -34 0
-9506 251 0
-366 9504 9505 9506 0
-9507 -37 0
-9507 330 0
-9508 -43 0
-9508 297 0
-9509 -44 0
-9509 296 0
-366 9507 9508 9509 0
-9510 -47 0
-9510 394 0
-9511 -60 0
-9511 341 0
-9512 -61 0
-9512 340 0
-366 9510 9511 9512 0
-9513 -48 0
-9513 415 0
-9514 -67 0
-9514 348 0
-9515 -68 0
-9515 347 0
-366 9513 9514 9515 0
-9516 -49 0
-9516 430 0
-9517 -73 0
-9517 354 0
-9518 -74 0
-9518 353 0
-366 9516 9517 9518 0
-9519 -50 0
-9519 440 0
-9520 -78 0
-9520 359 0
-9521 -79 0
-9521 358 0
-366 9519 9520 9521 0
-9522 -51 0
-9522 446 0
-9523 -82 0
-9523 363 0
-9524 -83 0
-9524 362 0
-366 9522 9523 9524 0
-9525 -54 0
-9525 452 0
-9526 -87 0
-9526 369 0
-9527 -89 0
-9527 367 0
-366 9525 9526 9527 0
-9528 -55 0
-9528 453 0
-9529 -88 0
-9529 370 0
-9530 -90 0
-9530 368 0
-366 9528 9529 9530 0
-9531 -4 0
-9531 165 0
-9532 -10 0
-9532 132 0
-9533 -12 0
-9533 130 0
-367 9531 9532 9533 0
-9534 -16 0
-9534 231 0
-9535 -22 0
-9535 198 0
-9536 -24 0
-9536 196 0
-367 9534 9535 9536 0
-9537 -27 0
-9537 286 0
-9538 -33 0
-9538 253 0
-9539 -35 0
-9539 251 0
-367 9537 9538 9539 0
-9540 -37 0
-9540 331 0
-9541 -43 0
-9541 298 0
-9542 -45 0
-9542 296 0
-367 9540 9541 9542 0
-9543 -47 0
-9543 395 0
-9544 -60 0
-9544 342 0
-9545 -62 0
-9545 340 0
-367 9543 9544 9545 0
-9546 -48 0
-9546 416 0
-9547 -67 0
-9547 349 0
-9548 -69 0
-9548 347 0
-367 9546 9547 9548 0
-9549 -49 0
-9549 431 0
-9550 -73 0
-9550 355 0
-9551 -75 0
-9551 353 0
-367 9549 9550 9551 0
-9552 -50 0
-9552 441 0
-9553 -78 0
-9553 360 0
-9554 -80 0
-9554 358 0
-367 9552 9553 9554 0
-9555 -51 0
-9555 447 0
-9556 -82 0
-9556 364 0
-9557 -84 0
-9557 362 0
-367 9555 9556 9557 0
-9558 -53 0
-9558 452 0
-9559 -86 0
-9559 369 0
-9560 -89 0
-9560 366 0
-367 9558 9559 9560 0
-9561 -55 0
-9561 454 0
-9562 -88 0
-9562 371 0
-9563 -91 0
-9563 368 0
-367 9561 9562 9563 0
-9564 -4 0
-9564 166 0
-9565 -10 0
-9565 133 0
-9566 -13 0
-9566 130 0
-368 9564 9565 9566 0
-9567 -16 0
-9567 232 0
-9568 -22 0
-9568 199 0
-9569 -25 0
-9569 196 0
-368 9567 9568 9569 0
-9570 -27 0
-9570 287 0
-9571 -33 0
-9571 254 0
-9572 -36 0
-9572 251 0
-368 9570 9571 9572 0
-9573 -37 0
-9573 332 0
-9574 -43 0
-9574 299 0
-9575 -46 0
-9575 296 0
-368 9573 9574 9575 0
-9576 -47 0
-9576 396 0
-9577 -60 0
-9577 343 0
-9578 -63 0
-9578 340 0
-368 9576 9577 9578 0
-9579 -48 0
-9579 417 0
-9580 -67 0
-9580 350 0
-9581 -70 0
-9581 347 0
-368 9579 9580 9581 0
-9582 -49 0
-9582 432 0
-9583 -73 0
-9583 356 0
-9584 -76 0
-9584 353 0
-368 9582 9583 9584 0
-9585 -50 0
-9585 442 0
-9586 -78 0
-9586 361 0
-9587 -81 0
-9587 358 0
-368 9585 9586 9587 0
-9588 -51 0
-9588 448 0
-9589 -82 0
-9589 365 0
-9590 -85 0
-9590 362 0
-368 9588 9589 9590 0
-9591 -53 0
-9591 453 0
-9592 -86 0
-9592 370 0
-9593 -90 0
-9593 366 0
-368 9591 9592 9593 0
-9594 -54 0
-9594 454 0
-9595 -87 0
-9595 371 0
-9596 -91 0
-9596 367 0
-368 9594 9595 9596 0
-9597 -4 0
-9597 167 0
-9598 -11 0
-9598 132 0
-9599 -12 0
-9599 131 0
-369 9597 9598 9599 0
-9600 -16 0
-9600 233 0
-9601 -23 0
-9601 198 0
-9602 -24 0
-9602 197 0
-369 9600 9601 9602 0
-9603 -27 0
-9603 288 0
-9604 -34 0
-9604 253 0
-9605 -35 0
-9605 252 0
-369 9603 9604 9605 0
-9606 -37 0
-9606 333 0
-9607 -44 0
-9607 298 0
-9608 -45 0
-9608 297 0
-369 9606 9607 9608 0
-9609 -47 0
-9609 397 0
-9610 -61 0
-9610 342 0
-9611 -62 0
-9611 341 0
-369 9609 9610 9611 0
-9612 -48 0
-9612 418 0
-9613 -68 0
-9613 349 0
-9614 -69 0
-9614 348 0
-369 9612 9613 9614 0
-9615 -49 0
-9615 433 0
-9616 -74 0
-9616 355 0
-9617 -75 0
-9617 354 0
-369 9615 9616 9617 0
-9618 -50 0
-9618 443 0
-9619 -79 0
-9619 360 0
-9620 -80 0
-9620 359 0
-369 9618 9619 9620 0
-9621 -51 0
-9621 449 0
-9622 -83 0
-9622 364 0
-9623 -84 0
-9623 363 0
-369 9621 9622 9623 0
-9624 -52 0
-9624 452 0
-9625 -86 0
-9625 367 0
-9626 -87 0
-9626 366 0
-369 9624 9625 9626 0
-9627 -55 0
-9627 455 0
-9628 -90 0
-9628 371 0
-9629 -91 0
-9629 370 0
-369 9627 9628 9629 0
-9630 -4 0
-9630 168 0
-9631 -11 0
-9631 133 0
-9632 -13 0
-9632 131 0
-370 9630 9631 9632 0
-9633 -16 0
-9633 234 0
-9634 -23 0
-9634 199 0
-9635 -25 0
-9635 197 0
-370 9633 9634 9635 0
-9636 -27 0
-9636 289 0
-9637 -34 0
-9637 254 0
-9638 -36 0
-9638 252 0
-370 9636 9637 9638 0
-9639 -37 0
-9639 334 0
-9640 -44 0
-9640 299 0
-9641 -46 0
-9641 297 0
-370 9639 9640 9641 0
-9642 -47 0
-9642 398 0
-9643 -61 0
-9643 343 0
-9644 -63 0
-9644 341 0
-370 9642 9643 9644 0
-9645 -48 0
-9645 419 0
-9646 -68 0
-9646 350 0
-9647 -70 0
-9647 348 0
-370 9645 9646 9647 0
-9648 -49 0
-9648 434 0
-9649 -74 0
-9649 356 0
-9650 -76 0
-9650 354 0
-370 9648 9649 9650 0
-9651 -50 0
-9651 444 0
-9652 -79 0
-9652 361 0
-9653 -81 0
-9653 359 0
-370 9651 9652 9653 0
-9654 -51 0
-9654 450 0
-9655 -83 0
-9655 365 0
-9656 -85 0
-9656 363 0
-370 9654 9655 9656 0
-9657 -52 0
-9657 453 0
-9658 -86 0
-9658 368 0
-9659 -88 0
-9659 366 0
-370 9657 9658 9659 0
-9660 -54 0
-9660 455 0
-9661 -89 0
-9661 371 0
-9662 -91 0
-9662 369 0
-370 9660 9661 9662 0
-9663 -4 0
-9663 169 0
-9664 -12 0
-9664 133 0
-9665 -13 0
-9665 132 0
-371 9663 9664 9665 0
-9666 -16 0
-9666 235 0
-9667 -24 0
-9667 199 0
-9668 -25 0
-9668 198 0
-371 9666 9667 9668 0
-9669 -27 0
-9669 290 0
-9670 -35 0
-9670 254 0
-9671 -36 0
-9671 253 0
-371 9669 9670 9671 0
-9672 -37 0
-9672 335 0
-9673 -45 0
-9673 299 0
-9674 -46 0
-9674 298 0
-371 9672 9673 9674 0
-9675 -47 0
-9675 399 0
-9676 -62 0
-9676 343 0
-9677 -63 0
-9677 342 0
-371 9675 9676 9677 0
-9678 -48 0
-9678 420 0
-9679 -69 0
-9679 350 0
-9680 -70 0
-9680 349 0
-371 9678 9679 9680 0
-9681 -49 0
-9681 435 0
-9682 -75 0
-9682 356 0
-9683 -76 0
-9683 355 0
-371 9681 9682 9683 0
-9684 -50 0
-9684 445 0
-9685 -80 0
-9685 361 0
-9686 -81 0
-9686 360 0
-371 9684 9685 9686 0
-9687 -51 0
-9687 451 0
-9688 -84 0
-9688 365 0
-9689 -85 0
-9689 364 0
-371 9687 9688 9689 0
-9690 -52 0
-9690 454 0
-9691 -87 0
-9691 368 0
-9692 -88 0
-9692 367 0
-371 9690 9691 9692 0
-9693 -53 0
-9693 455 0
-9694 -89 0
-9694 370 0
-9695 -90 0
-9695 369 0
-371 9693 9694 9695 0
-9696 -5 0
-9696 142 0
-9697 -6 0
-9697 135 0
-9698 -7 0
-9698 134 0
-372 9696 9697 9698 0
-9699 -17 0
-9699 208 0
-9700 -18 0
-9700 201 0
-9701 -19 0
-9701 200 0
-372 9699 9700 9701 0
-9702 -28 0
-9702 263 0
-9703 -29 0
-9703 256 0
-9704 -30 0
-9704 255 0
-372 9702 9703 9704 0
-9705 -38 0
-9705 308 0
-9706 -39 0
-9706 301 0
-9707 -40 0
-9707 300 0
-372 9705 9706 9707 0
-9708 -47 0
-9708 344 0
-9709 -48 0
-9709 337 0
-9710 -49 0
-9710 336 0
-372 9708 9709 9710 0
-9711 -58 0
-9711 400 0
-9712 -65 0
-9712 379 0
-9713 -71 0
-9713 373 0
-372 9711 9712 9713 0
-9714 -59 0
-9714 401 0
-9715 -66 0
-9715 380 0
-9716 -72 0
-9716 374 0
-372 9714 9715 9716 0
-9717 -60 0
-9717 402 0
-9718 -67 0
-9718 381 0
-9719 -73 0
-9719 375 0
-372 9717 9718 9719 0
-9720 -61 0
-9720 403 0
-9721 -68 0
-9721 382 0
-9722 -74 0
-9722 376 0
-372 9720 9721 9722 0
-9723 -62 0
-9723 404 0
-9724 -69 0
-9724 383 0
-9725 -75 0
-9725 377 0
-372 9723 9724 9725 0
-9726 -63 0
-9726 405 0
-9727 -70 0
-9727 384 0
-9728 -76 0
-9728 378 0
-372 9726 9727 9728 0
-9729 -5 0
-9729 143 0
-9730 -6 0
-9730 136 0
-9731 -8 0
-9731 134 0
-373 9729 9730 9731 0
-9732 -17 0
-9732 209 0
-9733 -18 0
-9733 202 0
-9734 -20 0
-9734 200 0
-373 9732 9733 9734 0
-9735 -28 0
-9735 264 0
-9736 -29 0
-9736 257 0
-9737 -31 0
-9737 255 0
-373 9735 9736 9737 0
-9738 -38 0
-9738 309 0
-9739 -39 0
-9739 302 0
-9740 -41 0
-9740 300 0
-373 9738 9739 9740 0
-9741 -47 0
-9741 345 0
-9742 -48 0
-9742 338 0
-9743 -50 0
-9743 336 0
-373 9741 9742 9743 0
-9744 -57 0
-9744 400 0
-9745 -64 0
-9745 379 0
-9746 -71 0
-9746 372 0
-373 9744 9745 9746 0
-9747 -59 0
-9747 406 0
-9748 -66 0
-9748 385 0
-9749 -77 0
-9749 374 0
-373 9747 9748 9749 0
-9750 -60 0
-9750 407 0
-9751 -67 0
-9751 386 0
-9752 -78 0
-9752 375 0
-373 9750 9751 9752 0
-9753 -61 0
-9753 408 0
-9754 -68 0
-9754 387 0
-9755 -79 0
-9755 376 0
-373 9753 9754 9755 0
-9756 -62 0
-9756 409 0
-9757 -69 0
-9757 388 0
-9758 -80 0
-9758 377 0
-373 9756 9757 9758 0
-9759 -63 0
-9759 410 0
-9760 -70 0
-9760 389 0
-9761 -81 0
-9761 378 0
-373 9759 9760 9761 0
-9762 -5 0
-9762 144 0
-9763 -6 0
-9763 137 0
-9764 -9 0
-9764 134 0
-374 9762 9763 9764 0
-9765 -17 0
-9765 210 0
-9766 -18 0
-9766 203 0
-9767 -21 0
-9767 200 0
-374 9765 9766 9767 0
-9768 -28 0
-9768 265 0
-9769 -29 0
-9769 258 0
-9770 -32 0
-9770 255 0
-374 9768 9769 9770 0
-9771 -38 0
-9771 310 0
-9772 -39 0
-9772 303 0
-9773 -42 0
-9773 300 0
-374 9771 9772 9773 0
-9774 -47 0
-9774 346 0
-9775 -48 0
-9775 339 0
-9776 -51 0
-9776 336 0
-374 9774 9775 9776 0
-9777 -57 0
-9777 401 0
-9778 -64 0
-9778 380 0
-9779 -72 0
-9779 372 0
-374 9777 9778 9779 0
-9780 -58 0
-9780 406 0
-9781 -65 0
-9781 385 0
-9782 -77 0
-9782 373 0
-374 9780 9781 9782 0
-9783 -60 0
-9783 411 0
-9784 -67 0
-9784 390 0
-9785 -82 0
-9785 375 0
-374 9783 9784 9785 0
-9786 -61 0
-9786 412 0
-9787 -68 0
-9787 391 0
-9788 -83 0
-9788 376 0
-374 9786 9787 9788 0
-9789 -62 0
-9789 413 0
-9790 -69 0
-9790 392 0
-9791 -84 0
-9791 377 0
-374 9789 9790 9791 0
-9792 -63 0
-9792 414 0
-9793 -70 0
-9793 393 0
-9794 -85 0
-9794 378 0
-374 9792 9793 9794 0
-9795 -5 0
-9795 145 0
-9796 -6 0
-9796 138 0
-9797 -10 0
-9797 134 0
-375 9795 9796 9797 0
-9798 -17 0
-9798 211 0
-9799 -18 0
-9799 204 0
-9800 -22 0
-9800 200 0
-375 9798 9799 9800 0
-9801 -28 0
-9801 266 0
-9802 -29 0
-9802 259 0
-9803 -33 0
-9803 255 0
-375 9801 9802 9803 0
-9804 -38 0
-9804 311 0
-9805 -39 0
-9805 304 0
-9806 -43 0
-9806 300 0
-375 9804 9805 9806 0
-9807 -47 0
-9807 347 0
-9808 -48 0
-9808 340 0
-9809 -52 0
-9809 336 0
-375 9807 9808 9809 0
-9810 -57 0
-9810 402 0
-9811 -64 0
-9811 381 0
-9812 -73 0
-9812 372 0
-375 9810 9811 9812 0
-9813 -58 0
-9813 407 0
-9814 -65 0
-9814 386 0
-9815 -78 0
-9815 373 0
-375 9813 9814 9815 0
-9816 -59 0
-9816 411 0
-9817 -66 0
-9817 390 0
-9818 -82 0
-9818 374 0
-375 9816 9817 9818 0
-9819 -61 0
-9819 415 0
-9820 -68 0
-9820 394 0
-9821 -86 0
-9821 376 0
-375 9819 9820 9821 0
-9822 -62 0
-9822 416 0
-9823 -69 0
-9823 395 0
-9824 -87 0
-9824 377 0
-375 9822 9823 9824 0
-9825 -63 0
-9825 417 0
-9826 -70 0
-9826 396 0
-9827 -88 0
-9827 378 0
-375 9825 9826 9827 0
-9828 -5 0
-9828 146 0
-9829 -6 0
-9829 139 0
-9830 -11 0
-9830 134 0
-376 9828 9829 9830 0
-9831 -17 0
-9831 212 0
-9832 -18 0
-9832 205 0
-9833 -23 0
-9833 200 0
-376 9831 9832 9833 0
-9834 -28 0
-9834 267 0
-9835 -29 0
-9835 260 0
-9836 -34 0
-9836 255 0
-376 9834 9835 9836 0
-9837 -38 0
-9837 312 0
-9838 -39 0
-9838 305 0
-9839 -44 0
-9839 300 0
-376 9837 9838 9839 0
-9840 -47 0
-9840 348 0
-9841 -48 0
-9841 341 0
-9842 -53 0
-9842 336 0
-376 9840 9841 9842 0
-9843 -57 0
-9843 403 0
-9844 -64 0
-9844 382 0
-9845 -74 0
-9845 372 0
-376 9843 9844 9845 0
-9846 -58 0
-9846 408 0
-9847 -65 0
-9847 387 0
-9848 -79 0
-9848 373 0
-376 9846 9847 9848 0
-9849 -59 0
-9849 412 0
-9850 -66 0
-9850 391 0
-9851 -83 0
-9851 374 0
-376 9849 9850 9851 0
-9852 -60 0
-9852 415 0
-9853 -67 0
-9853 394 0
-9854 -86 0
-9854 375 0
-376 9852 9853 9854 0
-9855 -62 0
-9855 418 0
-9856 -69 0
-9856 397 0
-9857 -89 0
-9857 377 0
-376 9855 9856 9857 0
-9858 -63 0
-9858 419 0
-9859 -70 0
-9859 398 0
-9860 -90 0
-9860 378 0
-376 9858 9859 9860 0
-9861 -5 0
-9861 147 0
-9862 -6 0
-9862 140 0
-9863 -12 0
-9863 134 0
-377 9861 9862 9863 0
-9864 -17 0
-9864 213 0
-9865 -18 0
-9865 206 0
-9866 -24 0
-9866 200 0
-377 9864 9865 9866 0
-9867 -28 0
-9867 268 0
-9868 -29 0
-9868 261 0
-9869 -35 0
-9869 255 0
-377 9867 9868 9869 0
-9870 -38 0
-9870 313 0
-9871 -39 0
-9871 306 0
-9872 -45 0
-9872 300 0
-377 9870 9871 9872 0
-9873 -47 0
-9873 349 0
-9874 -48 0
-9874 342 0
-9875 -54 0
-9875 336 0
-377 9873 9874 9875 0
-9876 -57 0
-9876 404 0
-9877 -64 0
-9877 383 0
-9878 -75 0
-9878 372 0
-377 9876 9877 9878 0
-9879 -58 0
-9879 409 0
-9880 -65 0
-9880 388 0
-9881 -80 0
-9881 373 0
-377 9879 9880 9881 0
-9882 -59 0
-9882 413 0
-9883 -66 0
-9883 392 0
-9884 -84 0
-9884 374 0
-377 9882 9883 9884 0
-9885 -60 0
-9885 416 0
-9886 -67 0
-9886 395 0
-9887 -87 0
-9887 375 0
-377 9885 9886 9887 0
-9888 -61 0
-9888 418 0
-9889 -68 0
-9889 397 0
-9890 -89 0
-9890 376 0
-377 9888 9889 9890 0
-9891 -63 0
-9891 420 0
-9892 -70 0
-9892 399 0
-9893 -91 0
-9893 378 0
-377 9891 9892 9893 0
-9894 -5 0
-9894 148 0
-9895 -6 0
-9895 141 0
-9896 -13 0
-9896 134 0
-378 9894 9895 9896 0
-9897 -17 0
-9897 214 0
-9898 -18 0
-9898 207 0
-9899 -25 0
-9899 200 0
-378 9897 9898 9899 0
-9900 -28 0
-9900 269 0
-9901 -29 0
-9901 262 0
-9902 -36 0
-9902 255 0
-378 9900 9901 9902 0
-9903 -38 0
-9903 314 0
-9904 -39 0
-9904 307 0
-9905 -46 0
-9905 300 0
-378 9903 9904 9905 0
-9906 -47 0
-9906 350 0
-9907 -48 0
-9907 343 0
-9908 -55 0
-9908 336 0
-378 9906 9907 9908 0
-9909 -57 0
-9909 405 0
-9910 -64 0
-9910 384 0
-9911 -76 0
-9911 372 0
-378 9909 9910 9911 0
-9912 -58 0
-9912 410 0
-9913 -65 0
-9913 389 0
-9914 -81 0
-9914 373 0
-378 9912 9913 9914 0
-9915 -59 0
-9915 414 0
-9916 -66 0
-9916 393 0
-9917 -85 0
-9917 374 0
-378 9915 9916 9917 0
-9918 -60 0
-9918 417 0
-9919 -67 0
-9919 396 0
-9920 -88 0
-9920 375 0
-378 9918 9919 9920 0
-9921 -61 0
-9921 419 0
-9922 -68 0
-9922 398 0
-9923 -90 0
-9923 376 0
-378 9921 9922 9923 0
-9924 -62 0
-9924 420 0
-9925 -69 0
-9925 399 0
-9926 -91 0
-9926 377 0
-378 9924 9925 9926 0
-9927 -5 0
-9927 149 0
-9928 -7 0
-9928 136 0
-9929 -8 0
-9929 135 0
-379 9927 9928 9929 0
-9930 -17 0
-9930 215 0
-9931 -19 0
-9931 202 0
-9932 -20 0
-9932 201 0
-379 9930 9931 9932 0
-9933 -28 0
-9933 270 0
-9934 -30 0
-9934 257 0
-9935 -31 0
-9935 256 0
-379 9933 9934 9935 0
-9936 -38 0
-9936 315 0
-9937 -40 0
-9937 302 0
-9938 -41 0
-9938 301 0
-379 9936 9937 9938 0
-9939 -47 0
-9939 351 0
-9940 -49 0
-9940 338 0
-9941 -50 0
-9941 337 0
-379 9939 9940 9941 0
-9942 -56 0
-9942 400 0
-9943 -64 0
-9943 373 0
-9944 -65 0
-9944 372 0
-379 9942 9943 9944 0
-9945 -59 0
-9945 421 0
-9946 -72 0
-9946 385 0
-9947 -77 0
-9947 380 0
-379 9945 9946 9947 0
-9948 -60 0
-9948 422 0
-9949 -73 0
-9949 386 0
-9950 -78 0
-9950 381 0
-379 9948 9949 9950 0
-9951 -61 0
-9951 423 0
-9952 -74 0
-9952 387 0
-9953 -79 0
-9953 382 0
-379 9951 9952 9953 0
-9954 -62 0
-9954 424 0
-9955 -75 0
-9955 388 0
-9956 -80 0
-9956 383 0
-379 9954 9955 9956 0
-9957 -63 0
-9957 425 0
-9958 -76 0
-9958 389 0
-9959 -81 0
-9959 384 0
-379 9957 9958 9959 0
-9960 -5 0
-9960 150 0
-9961 -7 0
-9961 137 0
-9962 -9 0
-9962 135 0
-380 9960 9961 9962 0
-9963 -17 0
-9963 216 0
-9964 -19 0
-9964 203 0
-9965 -21 0
-9965 201 0
-380 9963 9964 9965 0
-9966 -28 0
-9966 271 0
-9967 -30 0
-9967 258 0
-9968 -32 0
-9968 256 0
-380 9966 9967 9968 0
-9969 -38 0
-9969 316 0
-9970 -40 0
-9970 303 0
-9971 -42 0
-9971 301 0
-380 9969 9970 9971 0
-9972 -47 0
-9972 352 0
-9973 -49 0
-9973 339 0
-9974 -51 0
-9974 337 0
-380 9972 9973 9974 0
-9975 -56 0
-9975 401 0
-9976 -64 0
-9976 374 0
-9977 -66 0
-9977 372 0
-380 9975 9976 9977 0
-9978 -58 0
-9978 421 0
-9979 -71 0
-9979 385 0
-9980 -77 0
-9980 379 0
-380 9978 9979 9980 0
-9981 -60 0
-9981 426 0
-9982 -73 0
-9982 390 0
-9983 -82 0
-9983 381 0
-380 9981 9982 9983 0
-9984 -61 0
-9984 427 0
-9985 -74 0
-9985 391 0
-9986 -83 0
-9986 382 0
-380 9984 9985 9986 0
-9987 -62 0
-9987 428 0
-9988 -75 0
-9988 392 0
-9989 -84 0
-9989 383 0
-380 9987 9988 9989 0
-9990 -63 0
-9990 429 0
-9991 -76 0
-9991 393 0
-9992 -85 0
-9992 384 0
-380 9990 9991 9992 0
-9993 -5 0
-9993 151 0
-9994 -7 0
-9994 138 0
-9995 -10 0
-9995 135 0
-381 9993 9994 9995 0
-9996 -17 0
-9996 217 0
-9997 -19 0
-9997 204 0
-9998 -22 0
-9998 201 0
-381 9996 9997 9998 0
-9999 -28 0
-9999 272 0
-10000 -30 0
-10000 259 0
-10001 -33 0
-10001 256 0
-381 9999 10000 10001 0
-10002 -38 0
-10002 317 0
-10003 -40 0
-10003 304 0
-10004 -43 0
-10004 301 0
-381 10002 10003 10004 0
-10005 -47 0
-10005 353 0
-10006 -49 0
-10006 340 0
-10007 -52 0
-10007 337 0
-381 10005 10006 10007 0
-10008 -56 0
-10008 402 0
-10009 -64 0
-10009 375 0
-10010 -67 0
-10010 372 0
-381 10008 10009 10010 0
-10011 -58 0
-10011 422 0
-10012 -71 0
-10012 386 0
-10013 -78 0
-10013 379 0
-381 10011 10012 10013 0
-10014 -59 0
-10014 426 0
-10015 -72 0
-10015 390 0
-10016 -82 0
-10016 380 0
-381 10014 10015 10016 0
-10017 -61 0
-10017 430 0
-10018 -74 0
-10018 394 0
-10019 -86 0
-10019 382 0
-381 10017 10018 10019 0
-10020 -62 0
-10020 431 0
-10021 -75 0
-10021 395 0
-10022 -87 0
-10022 383 0
-381 10020 10021 10022 0
-10023 -63 0
-10023 432 0
-10024 -76 0
-10024 396 0
-10025 -88 0
-10025 384 0
-381 10023 10024 10025 0
-10026 -5 0
-10026 152 0
-10027 -7 0
-10027 139 0
-10028 -11 0
-10028 135 0
-382 10026 10027 10028 0
-10029 -17 0
-10029 218 0
-10030 -19 0
-10030 205 0
-10031 -23 0
-10031 201 0
-382 10029 10030 10031 0
-10032 -28 0
-10032 273 0
-10033 -30 0
-10033 260 0
-10034 -34 0
-10034 256 0
-382 10032 10033 10034 0
-10035 -38 0
-10035 318 0
-10036 -40 0
-10036 305 0
-10037 -44 0
-10037 301 0
-382 10035 10036 10037 0
-10038 -47 0
-10038 354 0
-10039 -49 0
-10039 341 0
-10040 -53 0
-10040 337 0
-382 10038 10039 10040 0
-10041 -56 0
-10041 403 0
-10042 -64 0
-10042 376 0
-10043 -68 0
-10043 372 0
-382 10041 10042 10043 0
-10044 -58 0
-10044 423 0
-10045 -71 0
-10045 387 0
-10046 -79 0
-10046 379 0
-382 10044 10045 10046 0
-10047 -59 0
-10047 427 0
-10048 -72 0
-10048 391 0
-10049 -83 0
-10049 380 0
-382 10047 10048 10049 0
-10050 -60 0
-10050 430 0
-10051 -73 0
-10051 394 0
-10052 -86 0
-10052 381 0
-382 10050 10051 10052 0
-10053 -62 0
-10053 433 0
-10054 -75 0
-10054 397 0
-10055 -89 0
-10055 383 0
-382 10053 10054 10055 0
-10056 -63 0
-10056 434 0
-10057 -76 0
-10057 398 0
-10058 -90 0
-10058 384 0
-382 10056 10057 10058 0
-10059 -5 0
-10059 153 0
-10060 -7 0
-10060 140 0
-10061 -12 0
-10061 135 0
-383 10059 10060 10061 0
-10062 -17 0
-10062 219 0
-10063 -19 0
-10063 206 0
-10064 -24 0
-10064 201 0
-383 10062 10063 10064 0
-10065 -28 0
-10065 274 0
-10066 -30 0
-10066 261 0
-10067 -35 0
-10067 256 0
-383 10065 10066 10067 0
-10068 -38 0
-10068 319 0
-10069 -40 0
-10069 306 0
-10070 -45 0
-10070 301 0
-383 10068 10069 10070 0
-10071 -47 0
-10071 355 0
-10072 -49 0
-10072 342 0
-10073 -54 0
-10073 337 0
-383 10071 10072 10073 0
-10074 -56 0
-10074 404 0
-10075 -64 0
-10075 377 0
-10076 -69 0
-10076 372 0
-383 10074 10075 10076 0
-10077 -58 0
-10077 424 0
-10078 -71 0
-10078 388 0
-10079 -80 0
-10079 379 0
-383 10077 10078 10079 0
-10080 -59 0
-10080 428 0
-10081 -72 0
-10081 392 0
-10082 -84 0
-10082 380 0
-383 10080 10081 10082 0
-10083 -60 0
-10083 431 0
-10084 -73 0
-10084 395 0
-10085 -87 0
-10085 381 0
-383 10083 10084 10085 0
-10086 -61 0
-10086 433 0
-10087 -74 0
-10087 397 0
-10088 -89 0
-10088 382 0
-383 10086 10087 10088 0
-10089 -63 0
-10089 435 0
-10090 -76 0
-10090 399 0
-10091 -91 0
-10091 384 0
-383 10089 10090 10091 0
-10092 -5 0
-10092 154 0
-10093 -7 0
-10093 141 0
-10094 -13 0
-10094 135 0
-384 10092 10093 10094 0
-10095 -17 0
-10095 220 0
-10096 -19 0
-10096 207 0
-10097 -25 0
-10097 201 0
-384 10095 10096 10097 0
-10098 -28 0
-10098 275 0
-10099 -30 0
-10099 262 0
-10100 -36 0
-10100 256 0
-384 10098 10099 10100 0
-10101 -38 0
-10101 320 0
-10102 -40 0
-10102 307 0
-10103 -46 0
-10103 301 0
-384 10101 10102 10103 0
-10104 -47 0
-10104 356 0
-10105 -49 0
-10105 343 0
-10106 -55 0
-10106 337 0
-384 10104 10105 10106 0
-10107 -56 0
-10107 405 0
-10108 -64 0
-10108 378 0
-10109 -70 0
-10109 372 0
-384 10107 10108 10109 0
-10110 -58 0
-10110 425 0
-10111 -71 0
-10111 389 0
-10112 -81 0
-10112 379 0
-384 10110 10111 10112 0
-10113 -59 0
-10113 429 0
-10114 -72 0
-10114 393 0
-10115 -85 0
-10115 380 0
-384 10113 10114 10115 0
-10116 -60 0
-10116 432 0
-10117 -73 0
-10117 396 0
-10118 -88 0
-10118 381 0
-384 10116 10117 10118 0
-10119 -61 0
-10119 434 0
-10120 -74 0
-10120 398 0
-10121 -90 0
-10121 382 0
-384 10119 10120 10121 0
-10122 -62 0
-10122 435 0
-10123 -75 0
-10123 399 0
-10124 -91 0
-10124 383 0
-384 10122 10123 10124 0
-10125 -5 0
-10125 155 0
-10126 -8 0
-10126 137 0
-10127 -9 0
-10127 136 0
-385 10125 10126 10127 0
-10128 -17 0
-10128 221 0
-10129 -20 0
-10129 203 0
-10130 -21 0
-10130 202 0
-385 10128 10129 10130 0
-10131 -28 0
-10131 276 0
-10132 -31 0
-10132 258 0
-10133 -32 0
-10133 257 0
-385 10131 10132 10133 0
-10134 -38 0
-10134 321 0
-10135 -41 0
-10135 303 0
-10136 -42 0
-10136 302 0
-385 10134 10135 10136 0
-10137 -47 0
-10137 357 0
-10138 -50 0
-10138 339 0
-10139 -51 0
-10139 338 0
-385 10137 10138 10139 0
-10140 -56 0
-10140 406 0
-10141 -65 0
-10141 374 0
-10142 -66 0
-10142 373 0
-385 10140 10141 10142 0
-10143 -57 0
-10143 421 0
-10144 -71 0
-10144 380 0
-10145 -72 0
-10145 379 0
-385 10143 10144 10145 0
-10146 -60 0
-10146 436 0
-10147 -78 0
-10147 390 0
-10148 -82 0
-10148 386 0
-385 10146 10147 10148 0
-10149 -61 0
-10149 437 0
-10150 -79 0
-10150 391 0
-10151 -83 0
-10151 387 0
-385 10149 10150 10151 0
-10152 -62 0
-10152 438 0
-10153 -80 0
-10153 392 0
-10154 -84 0
-10154 388 0
-385 10152 10153 10154 0
-10155 -63 0
-10155 439 0
-10156 -81 0
-10156 393 0
-10157 -85 0
-10157 389 0
-385 10155 10156 10157 0
-10158 -5 0
-10158 156 0
-10159 -8 0
-10159 138 0
-10160 -10 0
-10160 136 0
-386 10158 10159 10160 0
-10161 -17 0
-10161 222 0
-10162 -20 0
-10162 204 0
-10163 -22 0
-10163 202 0
-386 10161 10162 10163 0
-10164 -28 0
-10164 277 0
-10165 -31 0
-10165 259 0
-10166 -33 0
-10166 257 0
-386 10164 10165 10166 0
-10167 -38 0
-10167 322 0
-10168 -41 0
-10168 304 0
-10169 -43 0
-10169 302 0
-386 10167 10168 10169 0
-10170 -47 0
-10170 358 0
-10171 -50 0
-10171 340 0
-10172 -52 0
-10172 338 0
-386 10170 10171 10172 0
-10173 -56 0
-10173 407 0
-10174 -65 0
-10174 375 0
-10175 -67 0
-10175 373 0
-386 10173 10174 10175 0
-10176 -57 0
-10176 422 0
-10177 -71 0
-10177 381 0
-10178 -73 0
-10178 379 0
-386 10176 10177 10178 0
-10179 -59 0
-10179 436 0
-10180 -77 0
-10180 390 0
-10181 -82 0
-10181 385 0
-386 10179 10180 10181 0
-10182 -61 0
-10182 440 0
-10183 -79 0
-10183 394 0
-10184 -86 0
-10184 387 0
-386 10182 10183 10184 0
-10185 -62 0
-10185 441 0
-10186 -80 0
-10186 395 0
-10187 -87 0
-10187 388 0
-386 10185 10186 10187 0
-10188 -63 0
-10188 442 0
-10189 -81 0
-10189 396 0
-10190 -88 0
-10190 389 0
-386 10188 10189 10190 0
-10191 -5 0
-10191 157 0
-10192 -8 0
-10192 139 0
-10193 -11 0
-10193 136 0
-387 10191 10192 10193 0
-10194 -17 0
-10194 223 0
-10195 -20 0
-10195 205 0
-10196 -23 0
-10196 202 0
-387 10194 10195 10196 0
-10197 -28 0
-10197 278 0
-10198 -31 0
-10198 260 0
-10199 -34 0
-10199 257 0
-387 10197 10198 10199 0
-10200 -38 0
-10200 323 0
-10201 -41 0
-10201 305 0
-10202 -44 0
-10202 302 0
-387 10200 10201 10202 0
-10203 -47 0
-10203 359 0
-10204 -50 0
-10204 341 0
-10205 -53 0
-10205 338 0
-387 10203 10204 10205 0
-10206 -56 0
-10206 408 0
-10207 -65 0
-10207 376 0
-10208 -68 0
-10208 373 0
-387 10206 10207 10208 0
-10209 -57 0
-10209 423 0
-10210 -71 0
-10210 382 0
-10211 -74 0
-10211 379 0
-387 10209 10210 10211 0
-10212 -59 0
-10212 437 0
-10213 -77 0
-10213 391 0
-10214 -83 0
-10214 385 0
-387 10212 10213 10214 0
-10215 -60 0
-10215 440 0
-10216 -78 0
-10216 394 0
-10217 -86 0
-10217 386 0
-387 10215 10216 10217 0
-10218 -62 0
-10218 443 0
-10219 -80 0
-10219 397 0
-10220 -89 0
-10220 388 0
-387 10218 10219 10220 0
-10221 -63 0
-10221 444 0
-10222 -81 0
-10222 398 0
-10223 -90 0
-10223 389 0
-387 10221 10222 10223 0
-10224 -5 0
-10224 158 0
-10225 -8 0
-10225 140 0
-10226 -12 0
-10226 136 0
-388 10224 10225 10226 0
-10227 -17 0
-10227 224 0
-10228 -20 0
-10228 206 0
-10229 -24 0
-10229 202 0
-388 10227 10228 10229 0
-10230 -28 0
-10230 279 0
-10231 -31 0
-10231 261 0
-10232 -35 0
-10232 257 0
-388 10230 10231 10232 0
-10233 -38 0
-10233 324 0
-10234 -41 0
-10234 306 0
-10235 -45 0
-10235 302 0
-388 10233 10234 10235 0
-10236 -47 0
-10236 360 0
-10237 -50 0
-10237 342 0
-10238 -54 0
-10238 338 0
-388 10236 10237 10238 0
-10239 -56 0
-10239 409 0
-10240 -65 0
-10240 377 0
-10241 -69 0
-10241 373 0
-388 10239 10240 10241 0
-10242 -57 0
-10242 424 0
-10243 -71 0
-10243 383 0
-10244 -75 0
-10244 379 0
-388 10242 10243 10244 0
-10245 -59 0
-10245 438 0
-10246 -77 0
-10246 392 0
-10247 -84 0
-10247 385 0
-388 10245 10246 10247 0
-10248 -60 0
-10248 441 0
-10249 -78 0
-10249 395 0
-10250 -87 0
-10250 386 0
-388 10248 10249 10250 0
-10251 -61 0
-10251 443 0
-10252 -79 0
-10252 397 0
-10253 -89 0
-10253 387 0
-388 10251 10252 10253 0
-10254 -63 0
-10254 445 0
-10255 -81 0
-10255 399 0
-10256 -91 0
-10256 389 0
-388 10254 10255 10256 0
-10257 -5 0
-10257 159 0
-10258 -8 0
-10258 141 0
-10259 -13 0
-10259 136 0
-389 10257 10258 10259 0
-10260 -17 0
-10260 225 0
-10261 -20 0
-10261 207 0
-10262 -25 0
-10262 202 0
-389 10260 10261 10262 0
-10263 -28 0
-10263 280 0
-10264 -31 0
-10264 262 0
-10265 -36 0
-10265 257 0
-389 10263 10264 10265 0
-10266 -38 0
-10266 325 0
-10267 -41 0
-10267 307 0
-10268 -46 0
-10268 302 0
-389 10266 10267 10268 0
-10269 -47 0
-10269 361 0
-10270 -50 0
-10270 343 0
-10271 -55 0
-10271 338 0
-389 10269 10270 10271 0
-10272 -56 0
-10272 410 0
-10273 -65 0
-10273 378 0
-10274 -70 0
-10274 373 0
-389 10272 10273 10274 0
-10275 -57 0
-10275 425 0
-10276 -71 0
-10276 384 0
-10277 -76 0
-10277 379 0
-389 10275 10276 10277 0
-10278 -59 0
-10278 439 0
-10279 -77 0
-10279 393 0
-10280 -85 0
-10280 385 0
-389 10278 10279 10280 0
-10281 -60 0
-10281 442 0
-10282 -78 0
-10282 396 0
-10283 -88 0
-10283 386 0
-389 10281 10282 10283 0
-10284 -61 0
-10284 444 0
-10285 -79 0
-10285 398 0
-10286 -90 0
-10286 387 0
-389 10284 10285 10286 0
-10287 -62 0
-10287 445 0
-10288 -80 0
-10288 399 0
-10289 -91 0
-10289 388 0
-389 10287 10288 10289 0
-10290 -5 0
-10290 160 0
-10291 -9 0
-10291 138 0
-10292 -10 0
-10292 137 0
-390 10290 10291 10292 0
-10293 -17 0
-10293 226 0
-10294 -21 0
-10294 204 0
-10295 -22 0
-10295 203 0
-390 10293 10294 10295 0
-10296 -28 0
-10296 281 0
-10297 -32 0
-10297 259 0
-10298 -33 0
-10298 258 0
-390 10296 10297 10298 0
-10299 -38 0
-10299 326 0
-10300 -42 0
-10300 304 0
-10301 -43 0
-10301 303 0
-390 10299 10300 10301 0
-10302 -47 0
-10302 362 0
-10303 -51 0
-10303 340 0
-10304 -52 0
-10304 339 0
-390 10302 10303 10304 0
-10305 -56 0
-10305 411 0
-10306 -66 0
-10306 375 0
-10307 -67 0
-10307 374 0
-390 10305 10306 10307 0
-10308 -57 0
-10308 426 0
-10309 -72 0
-10309 381 0
-10310 -73 0
-10310 380 0
-390 10308 10309 10310 0
-10311 -58 0
-10311 436 0
-10312 -77 0
-10312 386 0
-10313 -78 0
-10313 385 0
-390 10311 10312 10313 0
-10314 -61 0
-10314 446 0
-10315 -83 0
-10315 394 0
-10316 -86 0
-10316 391 0
-390 10314 10315 10316 0
-10317 -62 0
-10317 447 0
-10318 -84 0
-10318 395 0
-10319 -87 0
-10319 392 0
-390 10317 10318 10319 0
-10320 -63 0
-10320 448 0
-10321 -85 0
-10321 396 0
-10322 -88 0
-10322 393 0
-390 10320 10321 10322 0
-10323 -5 0
-10323 161 0
-10324 -9 0
-10324 139 0
-10325 -11 0
-10325 137 0
-391 10323 10324 10325 0
-10326 -17 0
-10326 227 0
-10327 -21 0
-10327 205 0
-10328 -23 0
-10328 203 0
-391 10326 10327 10328 0
-10329 -28 0
-10329 282 0
-10330 -32 0
-10330 260 0
-10331 -34 0
-10331 258 0
-391 10329 10330 10331 0
-10332 -38 0
-10332 327 0
-10333 -42 0
-10333 305 0
-10334 -44 0
-10334 303 0
-391 10332 10333 10334 0
-10335 -47 0
-10335 363 0
-10336 -51 0
-10336 341 0
-10337 -53 0
-10337 339 0
-391 10335 10336 10337 0
-10338 -56 0
-10338 412 0
-10339 -66 0
-10339 376 0
-10340 -68 0
-10340 374 0
-391 10338 10339 10340 0
-10341 -57 0
-10341 427 0
-10342 -72 0
-10342 382 0
-10343 -74 0
-10343 380 0
-391 10341 10342 10343 0
-10344 -58 0
-10344 437 0
-10345 -77 0
-10345 387 0
-10346 -79 0
-10346 385 0
-391 10344 10345 10346 0
-10347 -60 0
-10347 446 0
-10348 -82 0
-10348 394 0
-10349 -86 0
-10349 390 0
-391 10347 10348 10349 0
-10350 -62 0
-10350 449 0
-10351 -84 0
-10351 397 0
-10352 -89 0
-10352 392 0
-391 10350 10351 10352 0
-10353 -63 0
-10353 450 0
-10354 -85 0
-10354 398 0
-10355 -90 0
-10355 393 0
-391 10353 10354 10355 0
-10356 -5 0
-10356 162 0
-10357 -9 0
-10357 140 0
-10358 -12 0
-10358 137 0
-392 10356 10357 10358 0
-10359 -17 0
-10359 228 0
-10360 -21 0
-10360 206 0
-10361 -24 0
-10361 203 0
-392 10359 10360 10361 0
-10362 -28 0
-10362 283 0
-10363 -32 0
-10363 261 0
-10364 -35 0
-10364 258 0
-392 10362 10363 10364 0
-10365 -38 0
-10365 328 0
-10366 -42 0
-10366 306 0
-10367 -45 0
-10367 303 0
-392 10365 10366 10367 0
-10368 -47 0
-10368 364 0
-10369 -51 0
-10369 342 0
-10370 -54 0
-10370 339 0
-392 10368 10369 10370 0
-10371 -56 0
-10371 413 0
-10372 -66 0
-10372 377 0
-10373 -69 0
-10373 374 0
-392 10371 10372 10373 0
-10374 -57 0
-10374 428 0
-10375 -72 0
-10375 383 0
-10376 -75 0
-10376 380 0
-392 10374 10375 10376 0
-10377 -58 0
-10377 438 0
-10378 -77 0
-10378 388 0
-10379 -80 0
-10379 385 0
-392 10377 10378 10379 0
-10380 -60 0
-10380 447 0
-10381 -82 0
-10381 395 0
-10382 -87 0
-10382 390 0
-392 10380 10381 10382 0
-10383 -61 0
-10383 449 0
-10384 -83 0
-10384 397 0
-10385 -89 0
-10385 391 0
-392 10383 10384 10385 0
-10386 -63 0
-10386 451 0
-10387 -85 0
-10387 399 0
-10388 -91 0
-10388 393 0
-392 10386 10387 10388 0
-10389 -5 0
-10389 163 0
-10390 -9 0
-10390 141 0
-10391 -13 0
-10391 137 0
-393 10389 10390 10391 0
-10392 -17 0
-10392 229 0
-10393 -21 0
-10393 207 0
-10394 -25 0
-10394 203 0
-393 10392 10393 10394 0
-10395 -28 0
-10395 284 0
-10396 -32 0
-10396 262 0
-10397 -36 0
-10397 258 0
-393 10395 10396 10397 0
-10398 -38 0
-10398 329 0
-10399 -42 0
-10399 307 0
-10400 -46 0
-10400 303 0
-393 10398 10399 10400 0
-10401 -47 0
-10401 365 0
-10402 -51 0
-10402 343 0
-10403 -55 0
-10403 339 0
-393 10401 10402 10403 0
-10404 -56 0
-10404 414 0
-10405 -66 0
-10405 378 0
-10406 -70 0
-10406 374 0
-393 10404 10405 10406 0
-10407 -57 0
-10407 429 0
-10408 -72 0
-10408 384 0
-10409 -76 0
-10409 380 0
-393 10407 10408 10409 0
-10410 -58 0
-10410 439 0
-10411 -77 0
-10411 389 0
-10412 -81 0
-10412 385 0
-393 10410 10411 10412 0
-10413 -60 0
-10413 448 0
-10414 -82 0
-10414 396 0
-10415 -88 0
-10415 390 0
-393 10413 10414 10415 0
-10416 -61 0
-10416 450 0
-10417 -83 0
-10417 398 0
-10418 -90 0
-10418 391 0
-393 10416 10417 10418 0
-10419 -62 0
-10419 451 0
-10420 -84 0
-10420 399 0
-10421 -91 0
-10421 392 0
-393 10419 10420 10421 0
-10422 -5 0
-10422 164 0
-10423 -10 0
-10423 139 0
-10424 -11 0
-10424 138 0
-394 10422 10423 10424 0
-10425 -17 0
-10425 230 0
-10426 -22 0
-10426 205 0
-10427 -23 0
-10427 204 0
-394 10425 10426 10427 0
-10428 -28 0
-10428 285 0
-10429 -33 0
-10429 260 0
-10430 -34 0
-10430 259 0
-394 10428 10429 10430 0
-10431 -38 0
-10431 330 0
-10432 -43 0
-10432 305 0
-10433 -44 0
-10433 304 0
-394 10431 10432 10433 0
-10434 -47 0
-10434 366 0
-10435 -52 0
-10435 341 0
-10436 -53 0
-10436 340 0
-394 10434 10435 10436 0
-10437 -56 0
-10437 415 0
-10438 -67 0
-10438 376 0
-10439 -68 0
-10439 375 0
-394 10437 10438 10439 0
-10440 -57 0
-10440 430 0
-10441 -73 0
-10441 382 0
-10442 -74 0
-10442 381 0
-394 10440 10441 10442 0
-10443 -58 0
-10443 440 0
-10444 -78 0
-10444 387 0
-10445 -79 0
-10445 386 0
-394 10443 10444 10445 0
-10446 -59 0
-10446 446 0
-10447 -82 0
-10447 391 0
-10448 -83 0
-10448 390 0
-394 10446 10447 10448 0
-10449 -62 0
-10449 452 0
-10450 -87 0
-10450 397 0
-10451 -89 0
-10451 395 0
-394 10449 10450 10451 0
-10452 -63 0
-10452 453 0
-10453 -88 0
-10453 398 0
-10454 -90 0
-10454 396 0
-394 10452 10453 10454 0
-10455 -5 0
-10455 165 0
-10456 -10 0
-10456 140 0
-10457 -12 0
-10457 138 0
-395 10455 10456 10457 0
-10458 -17 0
-10458 231 0
-10459 -22 0
-10459 206 0
-10460 -24 0
-10460 204 0
-395 10458 10459 10460 0
-10461 -28 0
-10461 286 0
-10462 -33 0
-10462 261 0
-10463 -35 0
-10463 259 0
-395 10461 10462 10463 0
-10464 -38 0
-10464 331 0
-10465 -43 0
-10465 306 0
-10466 -45 0
-10466 304 0
-395 10464 10465 10466 0
-10467 -47 0
-10467 367 0
-10468 -52 0
-10468 342 0
-10469 -54 0
-10469 340 0
-395 10467 10468 10469 0
-10470 -56 0
-10470 416 0
-10471 -67 0
-10471 377 0
-10472 -69 0
-10472 375 0
-395 10470 10471 10472 0
-10473 -57 0
-10473 431 0
-10474 -73 0
-10474 383 0
-10475 -75 0
-10475 381 0
-395 10473 10474 10475 0
-10476 -58 0
-10476 441 0
-10477 -78 0
-10477 388 0
-10478 -80 0
-10478 386 0
-395 10476 10477 10478 0
-10479 -59 0
-10479 447 0
-10480 -82 0
-10480 392 0
-10481 -84 0
-10481 390 0
-395 10479 10480 10481 0
-10482 -61 0
-10482 452 0
-10483 -86 0
-10483 397 0
-10484 -89 0
-10484 394 0
-395 10482 10483 10484 0
-10485 -63 0
-10485 454 0
-10486 -88 0
-10486 399 0
-10487 -91 0
-10487 396 0
-395 10485 10486 10487 0
-10488 -5 0
-10488 166 0
-10489 -10 0
-10489 141 0
-10490 -13 0
-10490 138 0
-396 10488 10489 10490 0
-10491 -17 0
-10491 232 0
-10492 -22 0
-10492 207 0
-10493 -25 0
-10493 204 0
-396 10491 10492 10493 0
-10494 -28 0
-10494 287 0
-10495 -33 0
-10495 262 0
-10496 -36 0
-10496 259 0
-396 10494 10495 10496 0
-10497 -38 0
-10497 332 0
-10498 -43 0
-10498 307 0
-10499 -46 0
-10499 304 0
-396 10497 10498 10499 0
-10500 -47 0
-10500 368 0
-10501 -52 0
-10501 343 0
-10502 -55 0
-10502 340 0
-396 10500 10501 10502 0
-10503 -56 0
-10503 417 0
-10504 -67 0
-10504 378 0
-10505 -70 0
-10505 375 0
-396 10503 10504 10505 0
-10506 -57 0
-10506 432 0
-10507 -73 0
-10507 384 0
-10508 -76 0
-10508 381 0
-396 10506 10507 10508 0
-10509 -58 0
-10509 442 0
-10510 -78 0
-10510 389 0
-10511 -81 0
-10511 386 0
-396 10509 10510 10511 0
-10512 -59 0
-10512 448 0
-10513 -82 0
-10513 393 0
-10514 -85 0
-10514 390 0
-396 10512 10513 10514 0
-10515 -61 0
-10515 453 0
-10516 -86 0
-10516 398 0
-10517 -90 0
-10517 394 0
-396 10515 10516 10517 0
-10518 -62 0
-10518 454 0
-10519 -87 0
-10519 399 0
-10520 -91 0
-10520 395 0
-396 10518 10519 10520 0
-10521 -5 0
-10521 167 0
-10522 -11 0
-10522 140 0
-10523 -12 0
-10523 139 0
-397 10521 10522 10523 0
-10524 -17 0
-10524 233 0
-10525 -23 0
-10525 206 0
-10526 -24 0
-10526 205 0
-397 10524 10525 10526 0
-10527 -28 0
-10527 288 0
-10528 -34 0
-10528 261 0
-10529 -35 0
-10529 260 0
-397 10527 10528 10529 0
-10530 -38 0
-10530 333 0
-10531 -44 0
-10531 306 0
-10532 -45 0
-10532 305 0
-397 10530 10531 10532 0
-10533 -47 0
-10533 369 0
-10534 -53 0
-10534 342 0
-10535 -54 0
-10535 341 0
-397 10533 10534 10535 0
-10536 -56 0
-10536 418 0
-10537 -68 0
-10537 377 0
-10538 -69 0
-10538 376 0
-397 10536 10537 10538 0
-10539 -57 0
-10539 433 0
-10540 -74 0
-10540 383 0
-10541 -75 0
-10541 382 0
-397 10539 10540 10541 0
-10542 -58 0
-10542 443 0
-10543 -79 0
-10543 388 0
-10544 -80 0
-10544 387 0
-397 10542 10543 10544 0
-10545 -59 0
-10545 449 0
-10546 -83 0
-10546 392 0
-10547 -84 0
-10547 391 0
-397 10545 10546 10547 0
-10548 -60 0
-10548 452 0
-10549 -86 0
-10549 395 0
-10550 -87 0
-10550 394 0
-397 10548 10549 10550 0
-10551 -63 0
-10551 455 0
-10552 -90 0
-10552 399 0
-10553 -91 0
-10553 398 0
-397 10551 10552 10553 0
-10554 -5 0
-10554 168 0
-10555 -11 0
-10555 141 0
-10556 -13 0
-10556 139 0
-398 10554 10555 10556 0
-10557 -17 0
-10557 234 0
-10558 -23 0
-10558 207 0
-10559 -25 0
-10559 205 0
-398 10557 10558 10559 0
-10560 -28 0
-10560 289 0
-10561 -34 0
-10561 262 0
-10562 -36 0
-10562 260 0
-398 10560 10561 10562 0
-10563 -38 0
-10563 334 0
-10564 -44 0
-10564 307 0
-10565 -46 0
-10565 305 0
-398 10563 10564 10565 0
-10566 -47 0
-10566 370 0
-10567 -53 0
-10567 343 0
-10568 -55 0
-10568 341 0
-398 10566 10567 10568 0
-10569 -56 0
-10569 419 0
-10570 -68 0
-10570 378 0
-10571 -70 0
-10571 376 0
-398 10569 10570 10571 0
-10572 -57 0
-10572 434 0
-10573 -74 0
-10573 384 0
-10574 -76 0
-10574 382 0
-398 10572 10573 10574 0
-10575 -58 0
-10575 444 0
-10576 -79 0
-10576 389 0
-10577 -81 0
-10577 387 0
-398 10575 10576 10577 0
-10578 -59 0
-10578 450 0
-10579 -83 0
-10579 393 0
-10580 -85 0
-10580 391 0
-398 10578 10579 10580 0
-10581 -60 0
-10581 453 0
-10582 -86 0
-10582 396 0
-10583 -88 0
-10583 394 0
-398 10581 10582 10583 0
-10584 -62 0
-10584 455 0
-10585 -89 0
-10585 399 0
-10586 -91 0
-10586 397 0
-398 10584 10585 10586 0
-10587 -5 0
-10587 169 0
-10588 -12 0
-10588 141 0
-10589 -13 0
-10589 140 0
-399 10587 10588 10589 0
-10590 -17 0
-10590 235 0
-10591 -24 0
-10591 207 0
-10592 -25 0
-10592 206 0
-399 10590 10591 10592 0
-10593 -28 0
-10593 290 0
-10594 -35 0
-10594 262 0
-10595 -36 0
-10595 261 0
-399 10593 10594 10595 0
-10596 -38 0
-10596 335 0
-10597 -45 0
-10597 307 0
-10598 -46 0
-10598 306 0
-399 10596 10597 10598 0
-10599 -47 0
-10599 371 0
-10600 -54 0
-10600 343 0
-10601 -55 0
-10601 342 0
-399 10599 10600 10601 0
-10602 -56 0
-10602 420 0
-10603 -69 0
-10603 378 0
-10604 -70 0
-10604 377 0
-399 10602 10603 10604 0
-10605 -57 0
-10605 435 0
-10606 -75 0
-10606 384 0
-10607 -76 0
-10607 383 0
-399 10605 10606 10607 0
-10608 -58 0
-10608 445 0
-10609 -80 0
-10609 389 0
-10610 -81 0
-10610 388 0
-399 10608 10609 10610 0
-10611 -59 0
-10611 451 0
-10612 -84 0
-10612 393 0
-10613 -85 0
-10613 392 0
-399 10611 10612 10613 0
-10614 -60 0
-10614 454 0
-10615 -87 0
-10615 396 0
-10616 -88 0
-10616 395 0
-399 10614 10615 10616 0
-10617 -61 0
-10617 455 0
-10618 -89 0
-10618 398 0
-10619 -90 0
-10619 397 0
-399 10617 10618 10619 0
-10620 -6 0
-10620 149 0
-10621 -7 0
-10621 143 0
-10622 -8 0
-10622 142 0
-400 10620 10621 10622 0
-10623 -18 0
-10623 215 0
-10624 -19 0
-10624 209 0
-10625 -20 0
-10625 208 0
-400 10623 10624 10625 0
-10626 -29 0
-10626 270 0
-10627 -30 0
-10627 264 0
-10628 -31 0
-10628 263 0
-400 10626 10627 10628 0
-10629 -39 0
-10629 315 0
-10630 -40 0
-10630 309 0
-10631 -41 0
-10631 308 0
-400 10629 10630 10631 0
-10632 -48 0
-10632 351 0
-10633 -49 0
-10633 345 0
-10634 -50 0
-10634 344 0
-400 10632 10633 10634 0
-10635 -56 0
-10635 379 0
-10636 -57 0
-10636 373 0
-10637 -58 0
-10637 372 0
-400 10635 10636 10637 0
-10638 -66 0
-10638 421 0
-10639 -72 0
-10639 406 0
-10640 -77 0
-10640 401 0
-400 10638 10639 10640 0
-10641 -67 0
-10641 422 0
-10642 -73 0
-10642 407 0
-10643 -78 0
-10643 402 0
-400 10641 10642 10643 0
-10644 -68 0
-10644 423 0
-10645 -74 0
-10645 408 0
-10646 -79 0
-10646 403 0
-400 10644 10645 10646 0
-10647 -69 0
-10647 424 0
-10648 -75 0
-10648 409 0
-10649 -80 0
-10649 404 0
-400 10647 10648 10649 0
-10650 -70 0
-10650 425 0
-10651 -76 0
-10651 410 0
-10652 -81 0
-10652 405 0
-400 10650 10651 10652 0
-10653 -6 0
-10653 150 0
-10654 -7 0
-10654 144 0
-10655 -9 0
-10655 142 0
-401 10653 10654 10655 0
-10656 -18 0
-10656 216 0
-10657 -19 0
-10657 210 0
-10658 -21 0
-10658 208 0
-401 10656 10657 10658 0
-10659 -29 0
-10659 271 0
-10660 -30 0
-10660 265 0
-10661 -32 0
-10661 263 0
-401 10659 10660 10661 0
-10662 -39 0
-10662 316 0
-10663 -40 0
-10663 310 0
-10664 -42 0
-10664 308 0
-401 10662 10663 10664 0
-10665 -48 0
-10665 352 0
-10666 -49 0
-10666 346 0
-10667 -51 0
-10667 344 0
-401 10665 10666 10667 0
-10668 -56 0
-10668 380 0
-10669 -57 0
-10669 374 0
-10670 -59 0
-10670 372 0
-401 10668 10669 10670 0
-10671 -65 0
-10671 421 0
-10672 -71 0
-10672 406 0
-10673 -77 0
-10673 400 0
-401 10671 10672 10673 0
-10674 -67 0
-10674 426 0
-10675 -73 0
-10675 411 0
-10676 -82 0
-10676 402 0
-401 10674 10675 10676 0
-10677 -68 0
-10677 427 0
-10678 -74 0
-10678 412 0
-10679 -83 0
-10679 403 0
-401 10677 10678 10679 0
-10680 -69 0
-10680 428 0
-10681 -75 0
-10681 413 0
-10682 -84 0
-10682 404 0
-401 10680 10681 10682 0
-10683 -70 0
-10683 429 0
-10684 -76 0
-10684 414 0
-10685 -85 0
-10685 405 0
-401 10683 10684 10685 0
-10686 -6 0
-10686 151 0
-10687 -7 0
-10687 145 0
-10688 -10 0
-10688 142 0
-402 10686 10687 10688 0
-10689 -18 0
-10689 217 0
-10690 -19 0
-10690 211 0
-10691 -22 0
-10691 208 0
-402 10689 10690 10691 0
-10692 -29 0
-10692 272 0
-10693 -30 0
-10693 266 0
-10694 -33 0
-10694 263 0
-402 10692 10693 10694 0
-10695 -39 0
-10695 317 0
-10696 -40 0
-10696 311 0
-10697 -43 0
-10697 308 0
-402 10695 10696 10697 0
-10698 -48 0
-10698 353 0
-10699 -49 0
-10699 347 0
-10700 -52 0
-10700 344 0
-402 10698 10699 10700 0
-10701 -56 0
-10701 381 0
-10702 -57 0
-10702 375 0
-10703 -60 0
-10703 372 0
-402 10701 10702 10703 0
-10704 -65 0
-10704 422 0
-10705 -71 0
-10705 407 0
-10706 -78 0
-10706 400 0
-402 10704 10705 10706 0
-10707 -66 0
-10707 426 0
-10708 -72 0
-10708 411 0
-10709 -82 0
-10709 401 0
-402 10707 10708 10709 0
-10710 -68 0
-10710 430 0
-10711 -74 0
-10711 415 0
-10712 -86 0
-10712 403 0
-402 10710 10711 10712 0
-10713 -69 0
-10713 431 0
-10714 -75 0
-10714 416 0
-10715 -87 0
-10715 404 0
-402 10713 10714 10715 0
-10716 -70 0
-10716 432 0
-10717 -76 0
-10717 417 0
-10718 -88 0
-10718 405 0
-402 10716 10717 10718 0
-10719 -6 0
-10719 152 0
-10720 -7 0
-10720 146 0
-10721 -11 0
-10721 142 0
-403 10719 10720 10721 0
-10722 -18 0
-10722 218 0
-10723 -19 0
-10723 212 0
-10724 -23 0
-10724 208 0
-403 10722 10723 10724 0
-10725 -29 0
-10725 273 0
-10726 -30 0
-10726 267 0
-10727 -34 0
-10727 263 0
-403 10725 10726 10727 0
-10728 -39 0
-10728 318 0
-10729 -40 0
-10729 312 0
-10730 -44 0
-10730 308 0
-403 10728 10729 10730 0
-10731 -48 0
-10731 354 0
-10732 -49 0
-10732 348 0
-10733 -53 0
-10733 344 0
-403 10731 10732 10733 0
-10734 -56 0
-10734 382 0
-10735 -57 0
-10735 376 0
-10736 -61 0
-10736 372 0
-403 10734 10735 10736 0
-10737 -65 0
-10737 423 0
-10738 -71 0
-10738 408 0
-10739 -79 0
-10739 400 0
-403 10737 10738 10739 0
-10740 -66 0
-10740 427 0
-10741 -72 0
-10741 412 0
-10742 -83 0
-10742 401 0
-403 10740 10741 10742 0
-10743 -67 0
-10743 430 0
-10744 -73 0
-10744 415 0
-10745 -86 0
-10745 402 0
-403 10743 10744 10745 0
-10746 -69 0
-10746 433 0
-10747 -75 0
-10747 418 0
-10748 -89 0
-10748 404 0
-403 10746 10747 10748 0
-10749 -70 0
-10749 434 0
-10750 -76 0
-10750 419 0
-10751 -90 0
-10751 405 0
-403 10749 10750 10751 0
-10752 -6 0
-10752 153 0
-10753 -7 0
-10753 147 0
-10754 -12 0
-10754 142 0
-404 10752 10753 10754 0
-10755 -18 0
-10755 219 0
-10756 -19 0
-10756 213 0
-10757 -24 0
-10757 208 0
-404 10755 10756 10757 0
-10758 -29 0
-10758 274 0
-10759 -30 0
-10759 268 0
-10760 -35 0
-10760 263 0
-404 10758 10759 10760 0
-10761 -39 0
-10761 319 0
-10762 -40 0
-10762 313 0
-10763 -45 0
-10763 308 0
-404 10761 10762 10763 0
-10764 -48 0
-10764 355 0
-10765 -49 0
-10765 349 0
-10766 -54 0
-10766 344 0
-404 10764 10765 10766 0
-10767 -56 0
-10767 383 0
-10768 -57 0
-10768 377 0
-10769 -62 0
-10769 372 0
-404 10767 10768 10769 0
-10770 -65 0
-10770 424 0
-10771 -71 0
-10771 409 0
-10772 -80 0
-10772 400 0
-404 10770 10771 10772 0
-10773 -66 0
-10773 428 0
-10774 -72 0
-10774 413 0
-10775 -84 0
-10775 401 0
-404 10773 10774 10775 0
-10776 -67 0
-10776 431 0
-10777 -73 0
-10777 416 0
-10778 -87 0
-10778 402 0
-404 10776 10777 10778 0
-10779 -68 0
-10779 433 0
-10780 -74 0
-10780 418 0
-10781 -89 0
-10781 403 0
-404 10779 10780 10781 0
-10782 -70 0
-10782 435 0
-10783 -76 0
-10783 420 0
-10784 -91 0
-10784 405 0
-404 10782 10783 10784 0
-10785 -6 0
-10785 154 0
-10786 -7 0
-10786 148 0
-10787 -13 0
-10787 142 0
-405 10785 10786 10787 0
-10788 -18 0
-10788 220 0
-10789 -19 0
-10789 214 0
-10790 -25 0
-10790 208 0
-405 10788 10789 10790 0
-10791 -29 0
-10791 275 0
-10792 -30 0
-10792 269 0
-10793 -36 0
-10793 263 0
-405 10791 10792 10793 0
-10794 -39 0
-10794 320 0
-10795 -40 0
-10795 314 0
-10796 -46 0
-10796 308 0
-405 10794 10795 10796 0
-10797 -48 0
-10797 356 0
-10798 -49 0
-10798 350 0
-10799 -55 0
-10799 344 0
-405 10797 10798 10799 0
-10800 -56 0
-10800 384 0
-10801 -57 0
-10801 378 0
-10802 -63 0
-10802 372 0
-405 10800 10801 10802 0
-10803 -65 0
-10803 425 0
-10804 -71 0
-10804 410 0
-10805 -81 0
-10805 400 0
-405 10803 10804 10805 0
-10806 -66 0
-10806 429 0
-10807 -72 0
-10807 414 0
-10808 -85 0
-10808 401 0
-405 10806 10807 10808 0
-10809 -67 0
-10809 432 0
-10810 -73 0
-10810 417 0
-10811 -88 0
-10811 402 0
-405 10809 10810 10811 0
-10812 -68 0
-10812 434 0
-10813 -74 0
-10813 419 0
-10814 -90 0
-10814 403 0
-405 10812 10813 10814 0
-10815 -69 0
-10815 435 0
-10816 -75 0
-10816 420 0
-10817 -91 0
-10817 404 0
-405 10815 10816 10817 0
-10818 -6 0
-10818 155 0
-10819 -8 0
-10819 144 0
-10820 -9 0
-10820 143 0
-406 10818 10819 10820 0
-10821 -18 0
-10821 221 0
-10822 -20 0
-10822 210 0
-10823 -21 0
-10823 209 0
-406 10821 10822 10823 0
-10824 -29 0
-10824 276 0
-10825 -31 0
-10825 265 0
-10826 -32 0
-10826 264 0
-406 10824 10825 10826 0
-10827 -39 0
-10827 321 0
-10828 -41 0
-10828 310 0
-10829 -42 0
-10829 309 0
-406 10827 10828 10829 0
-10830 -48 0
-10830 357 0
-10831 -50 0
-10831 346 0
-10832 -51 0
-10832 345 0
-406 10830 10831 10832 0
-10833 -56 0
-10833 385 0
-10834 -58 0
-10834 374 0
-10835 -59 0
-10835 373 0
-406 10833 10834 10835 0
-10836 -64 0
-10836 421 0
-10837 -71 0
-10837 401 0
-10838 -72 0
-10838 400 0
-406 10836 10837 10838 0
-10839 -67 0
-10839 436 0
-10840 -78 0
-10840 411 0
-10841 -82 0
-10841 407 0
-406 10839 10840 10841 0
-10842 -68 0
-10842 437 0
-10843 -79 0
-10843 412 0
-10844 -83 0
-10844 408 0
-406 10842 10843 10844 0
-10845 -69 0
-10845 438 0
-10846 -80 0
-10846 413 0
-10847 -84 0
-10847 409 0
-406 10845 10846 10847 0
-10848 -70 0
-10848 439 0
-10849 -81 0
-10849 414 0
-10850 -85 0
-10850 410 0
-406 10848 10849 10850 0
-10851 -6 0
-10851 156 0
-10852 -8 0
-10852 145 0
-10853 -10 0
-10853 143 0
-407 10851 10852 10853 0
-10854 -18 0
-10854 222 0
-10855 -20 0
-10855 211 0
-10856 -22 0
-10856 209 0
-407 10854 10855 10856 0
-10857 -29 0
-10857 277 0
-10858 -31 0
-10858 266 0
-10859 -33 0
-10859 264 0
-407 10857 10858 10859 0
-10860 -39 0
-10860 322 0
-10861 -41 0
-10861 311 0
-10862 -43 0
-10862 309 0
-407 10860 10861 10862 0
-10863 -48 0
-10863 358 0
-10864 -50 0
-10864 347 0
-10865 -52 0
-10865 345 0
-407 10863 10864 10865 0
-10866 -56 0
-10866 386 0
-10867 -58 0
-10867 375 0
-10868 -60 0
-10868 373 0
-407 10866 10867 10868 0
-10869 -64 0
-10869 422 0
-10870 -71 0
-10870 402 0
-10871 -73 0
-10871 400 0
-407 10869 10870 10871 0
-10872 -66 0
-10872 436 0
-10873 -77 0
-10873 411 0
-10874 -82 0
-10874 406 0
-407 10872 10873 10874 0
-10875 -68 0
-10875 440 0
-10876 -79 0
-10876 415 0
-10877 -86 0
-10877 408 0
-407 10875 10876 10877 0
-10878 -69 0
-10878 441 0
-10879 -80 0
-10879 416 0
-10880 -87 0
-10880 409 0
-407 10878 10879 10880 0
-10881 -70 0
-10881 442 0
-10882 -81 0
-10882 417 0
-10883 -88 0
-10883 410 0
-407 10881 10882 10883 0
-10884 -6 0
-10884 157 0
-10885 -8 0
-10885 146 0
-10886 -11 0
-10886 143 0
-408 10884 10885 10886 0
-10887 -18 0
-10887 223 0
-10888 -20 0
-10888 212 0
-10889 -23 0
-10889 209 0
-408 10887 10888 10889 0
-10890 -29 0
-10890 278 0
-10891 -31 0
-10891 267 0
-10892 -34 0
-10892 264 0
-408 10890 10891 10892 0
-10893 -39 0
-10893 323 0
-10894 -41 0
-10894 312 0
-10895 -44 0
-10895 309 0
-408 10893 10894 10895 0
-10896 -48 0
-10896 359 0
-10897 -50 0
-10897 348 0
-10898 -53 0
-10898 345 0
-408 10896 10897 10898 0
-10899 -56 0
-10899 387 0
-10900 -58 0
-10900 376 0
-10901 -61 0
-10901 373 0
-408 10899 10900 10901 0
-10902 -64 0
-10902 423 0
-10903 -71 0
-10903 403 0
-10904 -74 0
-10904 400 0
-408 10902 10903 10904 0
-10905 -66 0
-10905 437 0
-10906 -77 0
-10906 412 0
-10907 -83 0
-10907 406 0
-408 10905 10906 10907 0
-10908 -67 0
-10908 440 0
-10909 -78 0
-10909 415 0
-10910 -86 0
-10910 407 0
-408 10908 10909 10910 0
-10911 -69 0
-10911 443 0
-10912 -80 0
-10912 418 0
-10913 -89 0
-10913 409 0
-408 10911 10912 10913 0
-10914 -70 0
-10914 444 0
-10915 -81 0
-10915 419 0
-10916 -90 0
-10916 410 0
-408 10914 10915 10916 0
-10917 -6 0
-10917 158 0
-10918 -8 0
-10918 147 0
-10919 -12 0
-10919 143 0
-409 10917 10918 10919 0
-10920 -18 0
-10920 224 0
-10921 -20 0
-10921 213 0
-10922 -24 0
-10922 209 0
-409 10920 10921 10922 0
-10923 -29 0
-10923 279 0
-10924 -31 0
-10924 268 0
-10925 -35 0
-10925 264 0
-409 10923 10924 10925 0
-10926 -39 0
-10926 324 0
-10927 -41 0
-10927 313 0
-10928 -45 0
-10928 309 0
-409 10926 10927 10928 0
-10929 -48 0
-10929 360 0
-10930 -50 0
-10930 349 0
-10931 -54 0
-10931 345 0
-409 10929 10930 10931 0
-10932 -56 0
-10932 388 0
-10933 -58 0
-10933 377 0
-10934 -62 0
-10934 373 0
-409 10932 10933 10934 0
-10935 -64 0
-10935 424 0
-10936 -71 0
-10936 404 0
-10937 -75 0
-10937 400 0
-409 10935 10936 10937 0
-10938 -66 0
-10938 438 0
-10939 -77 0
-10939 413 0
-10940 -84 0
-10940 406 0
-409 10938 10939 10940 0
-10941 -67 0
-10941 441 0
-10942 -78 0
-10942 416 0
-10943 -87 0
-10943 407 0
-409 10941 10942 10943 0
-10944 -68 0
-10944 443 0
-10945 -79 0
-10945 418 0
-10946 -89 0
-10946 408 0
-409 10944 10945 10946 0
-10947 -70 0
-10947 445 0
-10948 -81 0
-10948 420 0
-10949 -91 0
-10949 410 0
-409 10947 10948 10949 0
-10950 -6 0
-10950 159 0
-10951 -8 0
-10951 148 0
-10952 -13 0
-10952 143 0
-410 10950 10951 10952 0
-10953 -18 0
-10953 225 0
-10954 -20 0
-10954 214 0
-10955 -25 0
-10955 209 0
-410 10953 10954 10955 0
-10956 -29 0
-10956 280 0
-10957 -31 0
-10957 269 0
-10958 -36 0
-10958 264 0
-410 10956 10957 10958 0
-10959 -39 0
-10959 325 0
-10960 -41 0
-10960 314 0
-10961 -46 0
-10961 309 0
-410 10959 10960 10961 0
-10962 -48 0
-10962 361 0
-10963 -50 0
-10963 350 0
-10964 -55 0
-10964 345 0
-410 10962 10963 10964 0
-10965 -56 0
-10965 389 0
-10966 -58 0
-10966 378 0
-10967 -63 0
-10967 373 0
-410 10965 10966 10967 0
-10968 -64 0
-10968 425 0
-10969 -71 0
-10969 405 0
-10970 -76 0
-10970 400 0
-410 10968 10969 10970 0
-10971 -66 0
-10971 439 0
-10972 -77 0
-10972 414 0
-10973 -85 0
-10973 406 0
-410 10971 10972 10973 0
-10974 -67 0
-10974 442 0
-10975 -78 0
-10975 417 0
-10976 -88 0
-10976 407 0
-410 10974 10975 10976 0
-10977 -68 0
-10977 444 0
-10978 -79 0
-10978 419 0
-10979 -90 0
-10979 408 0
-410 10977 10978 10979 0
-10980 -69 0
-10980 445 0
-10981 -80 0
-10981 420 0
-10982 -91 0
-10982 409 0
-410 10980 10981 10982 0
-10983 -6 0
-10983 160 0
-10984 -9 0
-10984 145 0
-10985 -10 0
-10985 144 0
-411 10983 10984 10985 0
-10986 -18 0
-10986 226 0
-10987 -21 0
-10987 211 0
-10988 -22 0
-10988 210 0
-411 10986 10987 10988 0
-10989 -29 0
-10989 281 0
-10990 -32 0
-10990 266 0
-10991 -33 0
-10991 265 0
-411 10989 10990 10991 0
-10992 -39 0
-10992 326 0
-10993 -42 0
-10993 311 0
-10994 -43 0
-10994 310 0
-411 10992 10993 10994 0
-10995 -48 0
-10995 362 0
-10996 -51 0
-10996 347 0
-10997 -52 0
-10997 346 0
-411 10995 10996 10997 0
-10998 -56 0
-10998 390 0
-10999 -59 0
-10999 375 0
-11000 -60 0
-11000 374 0
-411 10998 10999 11000 0
-11001 -64 0
-11001 426 0
-11002 -72 0
-11002 402 0
-11003 -73 0
-11003 401 0
-411 11001 11002 11003 0
-11004 -65 0
-11004 436 0
-11005 -77 0
-11005 407 0
-11006 -78 0
-11006 406 0
-411 11004 11005 11006 0
-11007 -68 0
-11007 446 0
-11008 -83 0
-11008 415 0
-11009 -86 0
-11009 412 0
-411 11007 11008 11009 0
-11010 -69 0
-11010 447 0
-11011 -84 0
-11011 416 0
-11012 -87 0
-11012 413 0
-411 11010 11011 11012 0
-11013 -70 0
-11013 448 0
-11014 -85 0
-11014 417 0
-11015 -88 0
-11015 414 0
-411 11013 11014 11015 0
-11016 -6 0
-11016 161 0
-11017 -9 0
-11017 146 0
-11018 -11 0
-11018 144 0
-412 11016 11017 11018 0
-11019 -18 0
-11019 227 0
-11020 -21 0
-11020 212 0
-11021 -23 0
-11021 210 0
-412 11019 11020 11021 0
-11022 -29 0
-11022 282 0
-11023 -32 0
-11023 267 0
-11024 -34 0
-11024 265 0
-412 11022 11023 11024 0
-11025 -39 0
-11025 327 0
-11026 -42 0
-11026 312 0
-11027 -44 0
-11027 310 0
-412 11025 11026 11027 0
-11028 -48 0
-11028 363 0
-11029 -51 0
-11029 348 0
-11030 -53 0
-11030 346 0
-412 11028 11029 11030 0
-11031 -56 0
-11031 391 0
-11032 -59 0
-11032 376 0
-11033 -61 0
-11033 374 0
-412 11031 11032 11033 0
-11034 -64 0
-11034 427 0
-11035 -72 0
-11035 403 0
-11036 -74 0
-11036 401 0
-412 11034 11035 11036 0
-11037 -65 0
-11037 437 0
-11038 -77 0
-11038 408 0
-11039 -79 0
-11039 406 0
-412 11037 11038 11039 0
-11040 -67 0
-11040 446 0
-11041 -82 0
-11041 415 0
-11042 -86 0
-11042 411 0
-412 11040 11041 11042 0
-11043 -69 0
-11043 449 0
-11044 -84 0
-11044 418 0
-11045 -89 0
-11045 413 0
-412 11043 11044 11045 0
-11046 -70 0
-11046 450 0
-11047 -85 0
-11047 419 0
-11048 -90 0
-11048 414 0
-412 11046 11047 11048 0
-11049 -6 0
-11049 162 0
-11050 -9 0
-11050 147 0
-11051 -12 0
-11051 144 0
-413 11049 11050 11051 0
-11052 -18 0
-11052 228 0
-11053 -21 0
-11053 213 0
-11054 -24 0
-11054 210 0
-413 11052 11053 11054 0
-11055 -29 0
-11055 283 0
-11056 -32 0
-11056 268 0
-11057 -35 0
-11057 265 0
-413 11055 11056 11057 0
-11058 -39 0
-11058 328 0
-11059 -42 0
-11059 313 0
-11060 -45 0
-11060 310 0
-413 11058 11059 11060 0
-11061 -48 0
-11061 364 0
-11062 -51 0
-11062 349 0
-11063 -54 0
-11063 346 0
-413 11061 11062 11063 0
-11064 -56 0
-11064 392 0
-11065 -59 0
-11065 377 0
-11066 -62 0
-11066 374 0
-413 11064 11065 11066 0
-11067 -64 0
-11067 428 0
-11068 -72 0
-11068 404 0
-11069 -75 0
-11069 401 0
-413 11067 11068 11069 0
-11070 -65 0
-11070 438 0
-11071 -77 0
-11071 409 0
-11072 -80 0
-11072 406 0
-413 11070 11071 11072 0
-11073 -67 0
-11073 447 0
-11074 -82 0
-11074 416 0
-11075 -87 0
-11075 411 0
-413 11073 11074 11075 0
-11076 -68 0
-11076 449 0
-11077 -83 0
-11077 418 0
-11078 -89 0
-11078 412 0
-413 11076 11077 11078 0
-11079 -70 0
-11079 451 0
-11080 -85 0
-11080 420 0
-11081 -91 0
-11081 414 0
-413 11079 11080 11081 0
-11082 -6 0
-11082 163 0
-11083 -9 0
-11083 148 0
-11084 -13 0
-11084 144 0
-414 11082 11083 11084 0
-11085 -18 0
-11085 229 0
-11086 -21 0
-11086 214 0
-11087 -25 0
-11087 210 0
-414 11085 11086 11087 0
-11088 -29 0
-11088 284 0
-11089 -32 0
-11089 269 0
-11090 -36 0
-11090 265 0
-414 11088 11089 11090 0
-11091 -39 0
-11091 329 0
-11092 -42 0
-11092 314 0
-11093 -46 0
-11093 310 0
-414 11091 11092 11093 0
-11094 -48 0
-11094 365 0
-11095 -51 0
-11095 350 0
-11096 -55 0
-11096 346 0
-414 11094 11095 11096 0
-11097 -56 0
-11097 393 0
-11098 -59 0
-11098 378 0
-11099 -63 0
-11099 374 0
-414 11097 11098 11099 0
-11100 -64 0
-11100 429 0
-11101 -72 0
-11101 405 0
-11102 -76 0
-11102 401 0
-414 11100 11101 11102 0
-11103 -65 0
-11103 439 0
-11104 -77 0
-11104 410 0
-11105 -81 0
-11105 406 0
-414 11103 11104 11105 0
-11106 -67 0
-11106 448 0
-11107 -82 0
-11107 417 0
-11108 -88 0
-11108 411 0
-414 11106 11107 11108 0
-11109 -68 0
-11109 450 0
-11110 -83 0
-11110 419 0
-11111 -90 0
-11111 412 0
-414 11109 11110 11111 0
-11112 -69 0
-11112 451 0
-11113 -84 0
-11113 420 0
-11114 -91 0
-11114 413 0
-414 11112 11113 11114 0
-11115 -6 0
-11115 164 0
-11116 -10 0
-11116 146 0
-11117 -11 0
-11117 145 0
-415 11115 11116 11117 0
-11118 -18 0
-11118 230 0
-11119 -22 0
-11119 212 0
-11120 -23 0
-11120 211 0
-415 11118 11119 11120 0
-11121 -29 0
-11121 285 0
-11122 -33 0
-11122 267 0
-11123 -34 0
-11123 266 0
-415 11121 11122 11123 0
-11124 -39 0
-11124 330 0
-11125 -43 0
-11125 312 0
-11126 -44 0
-11126 311 0
-415 11124 11125 11126 0
-11127 -48 0
-11127 366 0
-11128 -52 0
-11128 348 0
-11129 -53 0
-11129 347 0
-415 11127 11128 11129 0
-11130 -56 0
-11130 394 0
-11131 -60 0
-11131 376 0
-11132 -61 0
-11132 375 0
-415 11130 11131 11132 0
-11133 -64 0
-11133 430 0
-11134 -73 0
-11134 403 0
-11135 -74 0
-11135 402 0
-415 11133 11134 11135 0
-11136 -65 0
-11136 440 0
-11137 -78 0
-11137 408 0
-11138 -79 0
-11138 407 0
-415 11136 11137 11138 0
-11139 -66 0
-11139 446 0
-11140 -82 0
-11140 412 0
-11141 -83 0
-11141 411 0
-415 11139 11140 11141 0
-11142 -69 0
-11142 452 0
-11143 -87 0
-11143 418 0
-11144 -89 0
-11144 416 0
-415 11142 11143 11144 0
-11145 -70 0
-11145 453 0
-11146 -88 0
-11146 419 0
-11147 -90 0
-11147 417 0
-415 11145 11146 11147 0
-11148 -6 0
-11148 165 0
-11149 -10 0
-11149 147 0
-11150 -12 0
-11150 145 0
-416 11148 11149 11150 0
-11151 -18 0
-11151 231 0
-11152 -22 0
-11152 213 0
-11153 -24 0
-11153 211 0
-416 11151 11152 11153 0
-11154 -29 0
-11154 286 0
-11155 -33 0
-11155 268 0
-11156 -35 0
-11156 266 0
-416 11154 11155 11156 0
-11157 -39 0
-11157 331 0
-11158 -43 0
-11158 313 0
-11159 -45 0
-11159 311 0
-416 11157 11158 11159 0
-11160 -48 0
-11160 367 0
-11161 -52 0
-11161 349 0
-11162 -54 0
-11162 347 0
-416 11160 11161 11162 0
-11163 -56 0
-11163 395 0
-11164 -60 0
-11164 377 0
-11165 -62 0
-11165 375 0
-416 11163 11164 11165 0
-11166 -64 0
-11166 431 0
-11167 -73 0
-11167 404 0
-11168 -75 0
-11168 402 0
-416 11166 11167 11168 0
-11169 -65 0
-11169 441 0
-11170 -78 0
-11170 409 0
-11171 -80 0
-11171 407 0
-416 11169 11170 11171 0
-11172 -66 0
-11172 447 0
-11173 -82 0
-11173 413 0
-11174 -84 0
-11174 411 0
-416 11172 11173 11174 0
-11175 -68 0
-11175 452 0
-11176 -86 0
-11176 418 0
-11177 -89 0
-11177 415 0
-416 11175 11176 11177 0
-11178 -70 0
-11178 454 0
-11179 -88 0
-11179 420 0
-11180 -91 0
-11180 417 0
-416 11178 11179 11180 0
-11181 -6 0
-11181 166 0
-11182 -10 0
-11182 148 0
-11183 -13 0
-11183 145 0
-417 11181 11182 11183 0
-11184 -18 0
-11184 232 0
-11185 -22 0
-11185 214 0
-11186 -25 0
-11186 211 0
-417 11184 11185 11186 0
-11187 -29 0
-11187 287 0
-11188 -33 0
-11188 269 0
-11189 -36 0
-11189 266 0
-417 11187 11188 11189 0
-11190 -39 0
-11190 332 0
-11191 -43 0
-11191 314 0
-11192 -46 0
-11192 311 0
-417 11190 11191 11192 0
-11193 -48 0
-11193 368 0
-11194 -52 0
-11194 350 0
-11195 -55 0
-11195 347 0
-417 11193 11194 11195 0
-11196 -56 0
-11196 396 0
-11197 -60 0
-11197 378 0
-11198 -63 0
-11198 375 0
-417 11196 11197 11198 0
-11199 -64 0
-11199 432 0
-11200 -73 0
-11200 405 0
-11201 -76 0
-11201 402 0
-417 11199 11200 11201 0
-11202 -65 0
-11202 442 0
-11203 -78 0
-11203 410 0
-11204 -81 0
-11204 407 0
-417 11202 11203 11204 0
-11205 -66 0
-11205 448 0
-11206 -82 0
-11206 414 0
-11207 -85 0
-11207 411 0
-417 11205 11206 11207 0
-11208 -68 0
-11208 453 0
-11209 -86 0
-11209 419 0
-11210 -90 0
-11210 415 0
-417 11208 11209 11210 0
-11211 -69 0
-11211 454 0
-11212 -87 0
-11212 420 0
-11213 -91 0
-11213 416 0
-417 11211 11212 11213 0
-11214 -6 0
-11214 167 0
-11215 -11 0
-11215 147 0
-11216 -12 0
-11216 146 0
-418 11214 11215 11216 0
-11217 -18 0
-11217 233 0
-11218 -23 0
-11218 213 0
-11219 -24 0
-11219 212 0
-418 11217 11218 11219 0
-11220 -29 0
-11220 288 0
-11221 -34 0
-11221 268 0
-11222 -35 0
-11222 267 0
-418 11220 11221 11222 0
-11223 -39 0
-11223 333 0
-11224 -44 0
-11224 313 0
-11225 -45 0
-11225 312 0
-418 11223 11224 11225 0
-11226 -48 0
-11226 369 0
-11227 -53 0
-11227 349 0
-11228 -54 0
-11228 348 0
-418 11226 11227 11228 0
-11229 -56 0
-11229 397 0
-11230 -61 0
-11230 377 0
-11231 -62 0
-11231 376 0
-418 11229 11230 11231 0
-11232 -64 0
-11232 433 0
-11233 -74 0
-11233 404 0
-11234 -75 0
-11234 403 0
-418 11232 11233 11234 0
-11235 -65 0
-11235 443 0
-11236 -79 0
-11236 409 0
-11237 -80 0
-11237 408 0
-418 11235 11236 11237 0
-11238 -66 0
-11238 449 0
-11239 -83 0
-11239 413 0
-11240 -84 0
-11240 412 0
-418 11238 11239 11240 0
-11241 -67 0
-11241 452 0
-11242 -86 0
-11242 416 0
-11243 -87 0
-11243 415 0
-418 11241 11242 11243 0
-11244 -70 0
-11244 455 0
-11245 -90 0
-11245 420 0
-11246 -91 0
-11246 419 0
-418 11244 11245 11246 0
-11247 -6 0
-11247 168 0
-11248 -11 0
-11248 148 0
-11249 -13 0
-11249 146 0
-419 11247 11248 11249 0
-11250 -18 0
-11250 234 0
-11251 -23 0
-11251 214 0
-11252 -25 0
-11252 212 0
-419 11250 11251 11252 0
-11253 -29 0
-11253 289 0
-11254 -34 0
-11254 269 0
-11255 -36 0
-11255 267 0
-419 11253 11254 11255 0
-11256 -39 0
-11256 334 0
-11257 -44 0
-11257 314 0
-11258 -46 0
-11258 312 0
-419 11256 11257 11258 0
-11259 -48 0
-11259 370 0
-11260 -53 0
-11260 350 0
-11261 -55 0
-11261 348 0
-419 11259 11260 11261 0
-11262 -56 0
-11262 398 0
-11263 -61 0
-11263 378 0
-11264 -63 0
-11264 376 0
-419 11262 11263 11264 0
-11265 -64 0
-11265 434 0
-11266 -74 0
-11266 405 0
-11267 -76 0
-11267 403 0
-419 11265 11266 11267 0
-11268 -65 0
-11268 444 0
-11269 -79 0
-11269 410 0
-11270 -81 0
-11270 408 0
-419 11268 11269 11270 0
-11271 -66 0
-11271 450 0
-11272 -83 0
-11272 414 0
-11273 -85 0
-11273 412 0
-419 11271 11272 11273 0
-11274 -67 0
-11274 453 0
-11275 -86 0
-11275 417 0
-11276 -88 0
-11276 415 0
-419 11274 11275 11276 0
-11277 -69 0
-11277 455 0
-11278 -89 0
-11278 420 0
-11279 -91 0
-11279 418 0
-419 11277 11278 11279 0
-11280 -6 0
-11280 169 0
-11281 -12 0
-11281 148 0
-11282 -13 0
-11282 147 0
-420 11280 11281 11282 0
-11283 -18 0
-11283 235 0
-11284 -24 0
-11284 214 0
-11285 -25 0
-11285 213 0
-420 11283 11284 11285 0
-11286 -29 0
-11286 290 0
-11287 -35 0
-11287 269 0
-11288 -36 0
-11288 268 0
-420 11286 11287 11288 0
-11289 -39 0
-11289 335 0
-11290 -45 0
-11290 314 0
-11291 -46 0
-11291 313 0
-420 11289 11290 11291 0
-11292 -48 0
-11292 371 0
-11293 -54 0
-11293 350 0
-11294 -55 0
-11294 349 0
-420 11292 11293 11294 0
-11295 -56 0
-11295 399 0
-11296 -62 0
-11296 378 0
-11297 -63 0
-11297 377 0
-420 11295 11296 11297 0
-11298 -64 0
-11298 435 0
-11299 -75 0
-11299 405 0
-11300 -76 0
-11300 404 0
-420 11298 11299 11300 0
-11301 -65 0
-11301 445 0
-11302 -80 0
-11302 410 0
-11303 -81 0
-11303 409 0
-420 11301 11302 11303 0
-11304 -66 0
-11304 451 0
-11305 -84 0
-11305 414 0
-11306 -85 0
-11306 413 0
-420 11304 11305 11306 0
-11307 -67 0
-11307 454 0
-11308 -87 0
-11308 417 0
-11309 -88 0
-11309 416 0
-420 11307 11308 11309 0
-11310 -68 0
-11310 455 0
-11311 -89 0
-11311 419 0
-11312 -90 0
-11312 418 0
-420 11310 11311 11312 0
-11313 -7 0
-11313 155 0
-11314 -8 0
-11314 150 0
-11315 -9 0
-11315 149 0
-421 11313 11314 11315 0
-11316 -19 0
-11316 221 0
-11317 -20 0
-11317 216 0
-11318 -21 0
-11318 215 0
-421 11316 11317 11318 0
-11319 -30 0
-11319 276 0
-11320 -31 0
-11320 271 0
-11321 -32 0
-11321 270 0
-421 11319 11320 11321 0
-11322 -40 0
-11322 321 0
-11323 -41 0
-11323 316 0
-11324 -42 0
-11324 315 0
-421 11322 11323 11324 0
-11325 -49 0
-11325 357 0
-11326 -50 0
-11326 352 0
-11327 -51 0
-11327 351 0
-421 11325 11326 11327 0
-11328 -57 0
-11328 385 0
-11329 -58 0
-11329 380 0
-11330 -59 0
-11330 379 0
-421 11328 11329 11330 0
-11331 -64 0
-11331 406 0
-11332 -65 0
-11332 401 0
-11333 -66 0
-11333 400 0
-421 11331 11332 11333 0
-11334 -73 0
-11334 436 0
-11335 -78 0
-11335 426 0
-11336 -82 0
-11336 422 0
-421 11334 11335 11336 0
-11337 -74 0
-11337 437 0
-11338 -79 0
-11338 427 0
-11339 -83 0
-11339 423 0
-421 11337 11338 11339 0
-11340 -75 0
-11340 438 0
-11341 -80 0
-11341 428 0
-11342 -84 0
-11342 424 0
-421 11340 11341 11342 0
-11343 -76 0
-11343 439 0
-11344 -81 0
-11344 429 0
-11345 -85 0
-11345 425 0
-421 11343 11344 11345 0
-11346 -7 0
-11346 156 0
-11347 -8 0
-11347 151 0
-11348 -10 0
-11348 149 0
-422 11346 11347 11348 0
-11349 -19 0
-11349 222 0
-11350 -20 0
-11350 217 0
-11351 -22 0
-11351 215 0
-422 11349 11350 11351 0
-11352 -30 0
-11352 277 0
-11353 -31 0
-11353 272 0
-11354 -33 0
-11354 270 0
-422 11352 11353 11354 0
-11355 -40 0
-11355 322 0
-11356 -41 0
-11356 317 0
-11357 -43 0
-11357 315 0
-422 11355 11356 11357 0
-11358 -49 0
-11358 358 0
-11359 -50 0
-11359 353 0
-11360 -52 0
-11360 351 0
-422 11358 11359 11360 0
-11361 -57 0
-11361 386 0
-11362 -58 0
-11362 381 0
-11363 -60 0
-11363 379 0
-422 11361 11362 11363 0
-11364 -64 0
-11364 407 0
-11365 -65 0
-11365 402 0
-11366 -67 0
-11366 400 0
-422 11364 11365 11366 0
-11367 -72 0
-11367 436 0
-11368 -77 0
-11368 426 0
-11369 -82 0
-11369 421 0
-422 11367 11368 11369 0
-11370 -74 0
-11370 440 0
-11371 -79 0
-11371 430 0
-11372 -86 0
-11372 423 0
-422 11370 11371 11372 0
-11373 -75 0
-11373 441 0
-11374 -80 0
-11374 431 0
-11375 -87 0
-11375 424 0
-422 11373 11374 11375 0
-11376 -76 0
-11376 442 0
-11377 -81 0
-11377 432 0
-11378 -88 0
-11378 425 0
-422 11376 11377 11378 0
-11379 -7 0
-11379 157 0
-11380 -8 0
-11380 152 0
-11381 -11 0
-11381 149 0
-423 11379 11380 11381 0
-11382 -19 0
-11382 223 0
-11383 -20 0
-11383 218 0
-11384 -23 0
-11384 215 0
-423 11382 11383 11384 0
-11385 -30 0
-11385 278 0
-11386 -31 0
-11386 273 0
-11387 -34 0
-11387 270 0
-423 11385 11386 11387 0
-11388 -40 0
-11388 323 0
-11389 -41 0
-11389 318 0
-11390 -44 0
-11390 315 0
-423 11388 11389 11390 0
-11391 -49 0
-11391 359 0
-11392 -50 0
-11392 354 0
-11393 -53 0
-11393 351 0
-423 11391 11392 11393 0
-11394 -57 0
-11394 387 0
-11395 -58 0
-11395 382 0
-11396 -61 0
-11396 379 0
-423 11394 11395 11396 0
-11397 -64 0
-11397 408 0
-11398 -65 0
-11398 403 0
-11399 -68 0
-11399 400 0
-423 11397 11398 11399 0
-11400 -72 0
-11400 437 0
-11401 -77 0
-11401 427 0
-11402 -83 0
-11402 421 0
-423 11400 11401 11402 0
-11403 -73 0
-11403 440 0
-11404 -78 0
-11404 430 0
-11405 -86 0
-11405 422 0
-423 11403 11404 11405 0
-11406 -75 0
-11406 443 0
-11407 -80 0
-11407 433 0
-11408 -89 0
-11408 424 0
-423 11406 11407 11408 0
-11409 -76 0
-11409 444 0
-11410 -81 0
-11410 434 0
-11411 -90 0
-11411 425 0
-423 11409 11410 11411 0
-11412 -7 0
-11412 158 0
-11413 -8 0
-11413 153 0
-11414 -12 0
-11414 149 0
-424 11412 11413 11414 0
-11415 -19 0
-11415 224 0
-11416 -20 0
-11416 219 0
-11417 -24 0
-11417 215 0
-424 11415 11416 11417 0
-11418 -30 0
-11418 279 0
-11419 -31 0
-11419 274 0
-11420 -35 0
-11420 270 0
-424 11418 11419 11420 0
-11421 -40 0
-11421 324 0
-11422 -41 0
-11422 319 0
-11423 -45 0
-11423 315 0
-424 11421 11422 11423 0
-11424 -49 0
-11424 360 0
-11425 -50 0
-11425 355 0
-11426 -54 0
-11426 351 0
-424 11424 11425 11426 0
-11427 -57 0
-11427 388 0
-11428 -58 0
-11428 383 0
-11429 -62 0
-11429 379 0
-424 11427 11428 11429 0
-11430 -64 0
-11430 409 0
-11431 -65 0
-11431 404 0
-11432 -69 0
-11432 400 0
-424 11430 11431 11432 0
-11433 -72 0
-11433 438 0
-11434 -77 0
-11434 428 0
-11435 -84 0
-11435 421 0
-424 11433 11434 11435 0
-11436 -73 0
-11436 441 0
-11437 -78 0
-11437 431 0
-11438 -87 0
-11438 422 0
-424 11436 11437 11438 0
-11439 -74 0
-11439 443 0
-11440 -79 0
-11440 433 0
-11441 -89 0
-11441 423 0
-424 11439 11440 11441 0
-11442 -76 0
-11442 445 0
-11443 -81 0
-11443 435 0
-11444 -91 0
-11444 425 0
-424 11442 11443 11444 0
-11445 -7 0
-11445 159 0
-11446 -8 0
-11446 154 0
-11447 -13 0
-11447 149 0
-425 11445 11446 11447 0
-11448 -19 0
-11448 225 0
-11449 -20 0
-11449 220 0
-11450 -25 0
-11450 215 0
-425 11448 11449 11450 0
-11451 -30 0
-11451 280 0
-11452 -31 0
-11452 275 0
-11453 -36 0
-11453 270 0
-425 11451 11452 11453 0
-11454 -40 0
-11454 325 0
-11455 -41 0
-11455 320 0
-11456 -46 0
-11456 315 0
-425 11454 11455 11456 0
-11457 -49 0
-11457 361 0
-11458 -50 0
-11458 356 0
-11459 -55 0
-11459 351 0
-425 11457 11458 11459 0
-11460 -57 0
-11460 389 0
-11461 -58 0
-11461 384 0
-11462 -63 0
-11462 379 0
-425 11460 11461 11462 0
-11463 -64 0
-11463 410 0
-11464 -65 0
-11464 405 0
-11465 -70 0
-11465 400 0
-425 11463 11464 11465 0
-11466 -72 0
-11466 439 0
-11467 -77 0
-11467 429 0
-11468 -85 0
-11468 421 0
-425 11466 11467 11468 0
-11469 -73 0
-11469 442 0
-11470 -78 0
-11470 432 0
-11471 -88 0
-11471 422 0
-425 11469 11470 11471 0
-11472 -74 0
-11472 444 0
-11473 -79 0
-11473 434 0
-11474 -90 0
-11474 423 0
-425 11472 11473 11474 0
-11475 -75 0
-11475 445 0
-11476 -80 0
-11476 435 0
-11477 -91 0
-11477 424 0
-425 11475 11476 11477 0
-11478 -7 0
-11478 160 0
-11479 -9 0
-11479 151 0
-11480 -10 0
-11480 150 0
-426 11478 11479 11480 0
-11481 -19 0
-11481 226 0
-11482 -21 0
-11482 217 0
-11483 -22 0
-11483 216 0
-426 11481 11482 11483 0
-11484 -30 0
-11484 281 0
-11485 -32 0
-11485 272 0
-11486 -33 0
-11486 271 0
-426 11484 11485 11486 0
-11487 -40 0
-11487 326 0
-11488 -42 0
-11488 317 0
-11489 -43 0
-11489 316 0
-426 11487 11488 11489 0
-11490 -49 0
-11490 362 0
-11491 -51 0
-11491 353 0
-11492 -52 0
-11492 352 0
-426 11490 11491 11492 0
-11493 -57 0
-11493 390 0
-11494 -59 0
-11494 381 0
-11495 -60 0
-11495 380 0
-426 11493 11494 11495 0
-11496 -64 0
-11496 411 0
-11497 -66 0
-11497 402 0
-11498 -67 0
-11498 401 0
-426 11496 11497 11498 0
-11499 -71 0
-11499 436 0
-11500 -77 0
-11500 422 0
-11501 -78 0
-11501 421 0
-426 11499 11500 11501 0
-11502 -74 0
-11502 446 0
-11503 -83 0
-11503 430 0
-11504 -86 0
-11504 427 0
-426 11502 11503 11504 0
-11505 -75 0
-11505 447 0
-11506 -84 0
-11506 431 0
-11507 -87 0
-11507 428 0
-426 11505 11506 11507 0
-11508 -76 0
-11508 448 0
-11509 -85 0
-11509 432 0
-11510 -88 0
-11510 429 0
-426 11508 11509 11510 0
-11511 -7 0
-11511 161 0
-11512 -9 0
-11512 152 0
-11513 -11 0
-11513 150 0
-427 11511 11512 11513 0
-11514 -19 0
-11514 227 0
-11515 -21 0
-11515 218 0
-11516 -23 0
-11516 216 0
-427 11514 11515 11516 0
-11517 -30 0
-11517 282 0
-11518 -32 0
-11518 273 0
-11519 -34 0
-11519 271 0
-427 11517 11518 11519 0
-11520 -40 0
-11520 327 0
-11521 -42 0
-11521 318 0
-11522 -44 0
-11522 316 0
-427 11520 11521 11522 0
-11523 -49 0
-11523 363 0
-11524 -51 0
-11524 354 0
-11525 -53 0
-11525 352 0
-427 11523 11524 11525 0
-11526 -57 0
-11526 391 0
-11527 -59 0
-11527 382 0
-11528 -61 0
-11528 380 0
-427 11526 11527 11528 0
-11529 -64 0
-11529 412 0
-11530 -66 0
-11530 403 0
-11531 -68 0
-11531 401 0
-427 11529 11530 11531 0
-11532 -71 0
-11532 437 0
-11533 -77 0
-11533 423 0
-11534 -79 0
-11534 421 0
-427 11532 11533 11534 0
-11535 -73 0
-11535 446 0
-11536 -82 0
-11536 430 0
-11537 -86 0
-11537 426 0
-427 11535 11536 11537 0
-11538 -75 0
-11538 449 0
-11539 -84 0
-11539 433 0
-11540 -89 0
-11540 428 0
-427 11538 11539 11540 0
-11541 -76 0
-11541 450 0
-11542 -85 0
-11542 434 0
-11543 -90 0
-11543 429 0
-427 11541 11542 11543 0
-11544 -7 0
-11544 162 0
-11545 -9 0
-11545 153 0
-11546 -12 0
-11546 150 0
-428 11544 11545 11546 0
-11547 -19 0
-11547 228 0
-11548 -21 0
-11548 219 0
-11549 -24 0
-11549 216 0
-428 11547 11548 11549 0
-11550 -30 0
-11550 283 0
-11551 -32 0
-11551 274 0
-11552 -35 0
-11552 271 0
-428 11550 11551 11552 0
-11553 -40 0
-11553 328 0
-11554 -42 0
-11554 319 0
-11555 -45 0
-11555 316 0
-428 11553 11554 11555 0
-11556 -49 0
-11556 364 0
-11557 -51 0
-11557 355 0
-11558 -54 0
-11558 352 0
-428 11556 11557 11558 0
-11559 -57 0
-11559 392 0
-11560 -59 0
-11560 383 0
-11561 -62 0
-11561 380 0
-428 11559 11560 11561 0
-11562 -64 0
-11562 413 0
-11563 -66 0
-11563 404 0
-11564 -69 0
-11564 401 0
-428 11562 11563 11564 0
-11565 -71 0
-11565 438 0
-11566 -77 0
-11566 424 0
-11567 -80 0
-11567 421 0
-428 11565 11566 11567 0
-11568 -73 0
-11568 447 0
-11569 -82 0
-11569 431 0
-11570 -87 0
-11570 426 0
-428 11568 11569 11570 0
-11571 -74 0
-11571 449 0
-11572 -83 0
-11572 433 0
-11573 -89 0
-11573 427 0
-428 11571 11572 11573 0
-11574 -76 0
-11574 451 0
-11575 -85 0
-11575 435 0
-11576 -91 0
-11576 429 0
-428 11574 11575 11576 0
-11577 -7 0
-11577 163 0
-11578 -9 0
-11578 154 0
-11579 -13 0
-11579 150 0
-429 11577 11578 11579 0
-11580 -19 0
-11580 229 0
-11581 -21 0
-11581 220 0
-11582 -25 0
-11582 216 0
-429 11580 11581 11582 0
-11583 -30 0
-11583 284 0
-11584 -32 0
-11584 275 0
-11585 -36 0
-11585 271 0
-429 11583 11584 11585 0
-11586 -40 0
-11586 329 0
-11587 -42 0
-11587 320 0
-11588 -46 0
-11588 316 0
-429 11586 11587 11588 0
-11589 -49 0
-11589 365 0
-11590 -51 0
-11590 356 0
-11591 -55 0
-11591 352 0
-429 11589 11590 11591 0
-11592 -57 0
-11592 393 0
-11593 -59 0
-11593 384 0
-11594 -63 0
-11594 380 0
-429 11592 11593 11594 0
-11595 -64 0
-11595 414 0
-11596 -66 0
-11596 405 0
-11597 -70 0
-11597 401 0
-429 11595 11596 11597 0
-11598 -71 0
-11598 439 0
-11599 -77 0
-11599 425 0
-11600 -81 0
-11600 421 0
-429 11598 11599 11600 0
-11601 -73 0
-11601 448 0
-11602 -82 0
-11602 432 0
-11603 -88 0
-11603 426 0
-429 11601 11602 11603 0
-11604 -74 0
-11604 450 0
-11605 -83 0
-11605 434 0
-11606 -90 0
-11606 427 0
-429 11604 11605 11606 0
-11607 -75 0
-11607 451 0
-11608 -84 0
-11608 435 0
-11609 -91 0
-11609 428 0
-429 11607 11608 11609 0
-11610 -7 0
-11610 164 0
-11611 -10 0
-11611 152 0
-11612 -11 0
-11612 151 0
-430 11610 11611 11612 0
-11613 -19 0
-11613 230 0
-11614 -22 0
-11614 218 0
-11615 -23 0
-11615 217 0
-430 11613 11614 11615 0
-11616 -30 0
-11616 285 0
-11617 -33 0
-11617 273 0
-11618 -34 0
-11618 272 0
-430 11616 11617 11618 0
-11619 -40 0
-11619 330 0
-11620 -43 0
-11620 318 0
-11621 -44 0
-11621 317 0
-430 11619 11620 11621 0
-11622 -49 0
-11622 366 0
-11623 -52 0
-11623 354 0
-11624 -53 0
-11624 353 0
-430 11622 11623 11624 0
-11625 -57 0
-11625 394 0
-11626 -60 0
-11626 382 0
-11627 -61 0
-11627 381 0
-430 11625 11626 11627 0
-11628 -64 0
-11628 415 0
-11629 -67 0
-11629 403 0
-11630 -68 0
-11630 402 0
-430 11628 11629 11630 0
-11631 -71 0
-11631 440 0
-11632 -78 0
-11632 423 0
-11633 -79 0
-11633 422 0
-430 11631 11632 11633 0
-11634 -72 0
-11634 446 0
-11635 -82 0
-11635 427 0
-11636 -83 0
-11636 426 0
-430 11634 11635 11636 0
-11637 -75 0
-11637 452 0
-11638 -87 0
-11638 433 0
-11639 -89 0
-11639 431 0
-430 11637 11638 11639 0
-11640 -76 0
-11640 453 0
-11641 -88 0
-11641 434 0
-11642 -90 0
-11642 432 0
-430 11640 11641 11642 0
-11643 -7 0
-11643 165 0
-11644 -10 0
-11644 153 0
-11645 -12 0
-11645 151 0
-431 11643 11644 11645 0
-11646 -19 0
-11646 231 0
-11647 -22 0
-11647 219 0
-11648 -24 0
-11648 217 0
-431 11646 11647 11648 0
-11649 -30 0
-11649 286 0
-11650 -33 0
-11650 274 0
-11651 -35 0
-11651 272 0
-431 11649 11650 11651 0
-11652 -40 0
-11652 331 0
-11653 -43 0
-11653 319 0
-11654 -45 0
-11654 317 0
-431 11652 11653 11654 0
-11655 -49 0
-11655 367 0
-11656 -52 0
-11656 355 0
-11657 -54 0
-11657 353 0
-431 11655 11656 11657 0
-11658 -57 0
-11658 395 0
-11659 -60 0
-11659 383 0
-11660 -62 0
-11660 381 0
-431 11658 11659 11660 0
-11661 -64 0
-11661 416 0
-11662 -67 0
-11662 404 0
-11663 -69 0
-11663 402 0
-431 11661 11662 11663 0
-11664 -71 0
-11664 441 0
-11665 -78 0
-11665 424 0
-11666 -80 0
-11666 422 0
-431 11664 11665 11666 0
-11667 -72 0
-11667 447 0
-11668 -82 0
-11668 428 0
-11669 -84 0
-11669 426 0
-431 11667 11668 11669 0
-11670 -74 0
-11670 452 0
-11671 -86 0
-11671 433 0
-11672 -89 0
-11672 430 0
-431 11670 11671 11672 0
-11673 -76 0
-11673 454 0
-11674 -88 0
-11674 435 0
-11675 -91 0
-11675 432 0
-431 11673 11674 11675 0
-11676 -7 0
-11676 166 0
-11677 -10 0
-11677 154 0
-11678 -13 0
-11678 151 0
-432 11676 11677 11678 0
-11679 -19 0
-11679 232 0
-11680 -22 0
-11680 220 0
-11681 -25 0
-11681 217 0
-432 11679 11680 11681 0
-11682 -30 0
-11682 287 0
-11683 -33 0
-11683 275 0
-11684 -36 0
-11684 272 0
-432 11682 11683 11684 0
-11685 -40 0
-11685 332 0
-11686 -43 0
-11686 320 0
-11687 -46 0
-11687 317 0
-432 11685 11686 11687 0
-11688 -49 0
-11688 368 0
-11689 -52 0
-11689 356 0
-11690 -55 0
-11690 353 0
-432 11688 11689 11690 0
-11691 -57 0
-11691 396 0
-11692 -60 0
-11692 384 0
-11693 -63 0
-11693 381 0
-432 11691 11692 11693 0
-11694 -64 0
-11694 417 0
-11695 -67 0
-11695 405 0
-11696 -70 0
-11696 402 0
-432 11694 11695 11696 0
-11697 -71 0
-11697 442 0
-11698 -78 0
-11698 425 0
-11699 -81 0
-11699 422 0
-432 11697 11698 11699 0
-11700 -72 0
-11700 448 0
-11701 -82 0
-11701 429 0
-11702 -85 0
-11702 426 0
-432 11700 11701 11702 0
-11703 -74 0
-11703 453 0
-11704 -86 0
-11704 434 0
-11705 -90 0
-11705 430 0
-432 11703 11704 11705 0
-11706 -75 0
-11706 454 0
-11707 -87 0
-11707 435 0
-11708 -91 0
-11708 431 0
-432 11706 11707 11708 0
-11709 -7 0
-11709 167 0
-11710 -11 0
-11710 153 0
-11711 -12 0
-11711 152 0
-433 11709 11710 11711 0
-11712 -19 0
-11712 233 0
-11713 -23 0
-11713 219 0
-11714 -24 0
-11714 218 0
-433 11712 11713 11714 0
-11715 -30 0
-11715 288 0
-11716 -34 0
-11716 274 0
-11717 -35 0
-11717 273 0
-433 11715 11716 11717 0
-11718 -40 0
-11718 333 0
-11719 -44 0
-11719 319 0
-11720 -45 0
-11720 318 0
-433 11718 11719 11720 0
-11721 -49 0
-11721 369 0
-11722 -53 0
-11722 355 0
-11723 -54 0
-11723 354 0
-433 11721 11722 11723 0
-11724 -57 0
-11724 397 0
-11725 -61 0
-11725 383 0
-11726 -62 0
-11726 382 0
-433 11724 11725 11726 0
-11727 -64 0
-11727 418 0
-11728 -68 0
-11728 404 0
-11729 -69 0
-11729 403 0
-433 11727 11728 11729 0
-11730 -71 0
-11730 443 0
-11731 -79 0
-11731 424 0
-11732 -80 0
-11732 423 0
-433 11730 11731 11732 0
-11733 -72 0
-11733 449 0
-11734 -83 0
-11734 428 0
-11735 -84 0
-11735 427 0
-433 11733 11734 11735 0
-11736 -73 0
-11736 452 0
-11737 -86 0
-11737 431 0
-11738 -87 0
-11738 430 0
-433 11736 11737 11738 0
-11739 -76 0
-11739 455 0
-11740 -90 0
-11740 435 0
-11741 -91 0
-11741 434 0
-433 11739 11740 11741 0
-11742 -7 0
-11742 168 0
-11743 -11 0
-11743 154 0
-11744 -13 0
-11744 152 0
-434 11742 11743 11744 0
-11745 -19 0
-11745 234 0
-11746 -23 0
-11746 220 0
-11747 -25 0
-11747 218 0
-434 11745 11746 11747 0
-11748 -30 0
-11748 289 0
-11749 -34 0
-11749 275 0
-11750 -36 0
-11750 273 0
-434 11748 11749 11750 0
-11751 -40 0
-11751 334 0
-11752 -44 0
-11752 320 0
-11753 -46 0
-11753 318 0
-434 11751 11752 11753 0
-11754 -49 0
-11754 370 0
-11755 -53 0
-11755 356 0
-11756 -55 0
-11756 354 0
-434 11754 11755 11756 0
-11757 -57 0
-11757 398 0
-11758 -61 0
-11758 384 0
-11759 -63 0
-11759 382 0
-434 11757 11758 11759 0
-11760 -64 0
-11760 419 0
-11761 -68 0
-11761 405 0
-11762 -70 0
-11762 403 0
-434 11760 11761 11762 0
-11763 -71 0
-11763 444 0
-11764 -79 0
-11764 425 0
-11765 -81 0
-11765 423 0
-434 11763 11764 11765 0
-11766 -72 0
-11766 450 0
-11767 -83 0
-11767 429 0
-11768 -85 0
-11768 427 0
-434 11766 11767 11768 0
-11769 -73 0
-11769 453 0
-11770 -86 0
-11770 432 0
-11771 -88 0
-11771 430 0
-434 11769 11770 11771 0
-11772 -75 0
-11772 455 0
-11773 -89 0
-11773 435 0
-11774 -91 0
-11774 433 0
-434 11772 11773 11774 0
-11775 -7 0
-11775 169 0
-11776 -12 0
-11776 154 0
-11777 -13 0
-11777 153 0
-435 11775 11776 11777 0
-11778 -19 0
-11778 235 0
-11779 -24 0
-11779 220 0
-11780 -25 0
-11780 219 0
-435 11778 11779 11780 0
-11781 -30 0
-11781 290 0
-11782 -35 0
-11782 275 0
-11783 -36 0
-11783 274 0
-435 11781 11782 11783 0
-11784 -40 0
-11784 335 0
-11785 -45 0
-11785 320 0
-11786 -46 0
-11786 319 0
-435 11784 11785 11786 0
-11787 -49 0
-11787 371 0
-11788 -54 0
-11788 356 0
-11789 -55 0
-11789 355 0
-435 11787 11788 11789 0
-11790 -57 0
-11790 399 0
-11791 -62 0
-11791 384 0
-11792 -63 0
-11792 383 0
-435 11790 11791 11792 0
-11793 -64 0
-11793 420 0
-11794 -69 0
-11794 405 0
-11795 -70 0
-11795 404 0
-435 11793 11794 11795 0
-11796 -71 0
-11796 445 0
-11797 -80 0
-11797 425 0
-11798 -81 0
-11798 424 0
-435 11796 11797 11798 0
-11799 -72 0
-11799 451 0
-11800 -84 0
-11800 429 0
-11801 -85 0
-11801 428 0
-435 11799 11800 11801 0
-11802 -73 0
-11802 454 0
-11803 -87 0
-11803 432 0
-11804 -88 0
-11804 431 0
-435 11802 11803 11804 0
-11805 -74 0
-11805 455 0
-11806 -89 0
-11806 434 0
-11807 -90 0
-11807 433 0
-435 11805 11806 11807 0
-11808 -8 0
-11808 160 0
-11809 -9 0
-11809 156 0
-11810 -10 0
-11810 155 0
-436 11808 11809 11810 0
-11811 -20 0
-11811 226 0
-11812 -21 0
-11812 222 0
-11813 -22 0
-11813 221 0
-436 11811 11812 11813 0
-11814 -31 0
-11814 281 0
-11815 -32 0
-11815 277 0
-11816 -33 0
-11816 276 0
-436 11814 11815 11816 0
-11817 -41 0
-11817 326 0
-11818 -42 0
-11818 322 0
-11819 -43 0
-11819 321 0
-436 11817 11818 11819 0
-11820 -50 0
-11820 362 0
-11821 -51 0
-11821 358 0
-11822 -52 0
-11822 357 0
-436 11820 11821 11822 0
-11823 -58 0
-11823 390 0
-11824 -59 0
-11824 386 0
-11825 -60 0
-11825 385 0
-436 11823 11824 11825 0
-11826 -65 0
-11826 411 0
-11827 -66 0
-11827 407 0
-11828 -67 0
-11828 406 0
-436 11826 11827 11828 0
-11829 -71 0
-11829 426 0
-11830 -72 0
-11830 422 0
-11831 -73 0
-11831 421 0
-436 11829 11830 11831 0
-11832 -79 0
-11832 446 0
-11833 -83 0
-11833 440 0
-11834 -86 0
-11834 437 0
-436 11832 11833 11834 0
-11835 -80 0
-11835 447 0
-11836 -84 0
-11836 441 0
-11837 -87 0
-11837 438 0
-436 11835 11836 11837 0
-11838 -81 0
-11838 448 0
-11839 -85 0
-11839 442 0
-11840 -88 0
-11840 439 0
-436 11838 11839 11840 0
-11841 -8 0
-11841 161 0
-11842 -9 0
-11842 157 0
-11843 -11 0
-11843 155 0
-437 11841 11842 11843 0
-11844 -20 0
-11844 227 0
-11845 -21 0
-11845 223 0
-11846 -23 0
-11846 221 0
-437 11844 11845 11846 0
-11847 -31 0
-11847 282 0
-11848 -32 0
-11848 278 0
-11849 -34 0
-11849 276 0
-437 11847 11848 11849 0
-11850 -41 0
-11850 327 0
-11851 -42 0
-11851 323 0
-11852 -44 0
-11852 321 0
-437 11850 11851 11852 0
-11853 -50 0
-11853 363 0
-11854 -51 0
-11854 359 0
-11855 -53 0
-11855 357 0
-437 11853 11854 11855 0
-11856 -58 0
-11856 391 0
-11857 -59 0
-11857 387 0
-11858 -61 0
-11858 385 0
-437 11856 11857 11858 0
-11859 -65 0
-11859 412 0
-11860 -66 0
-11860 408 0
-11861 -68 0
-11861 406 0
-437 11859 11860 11861 0
-11862 -71 0
-11862 427 0
-11863 -72 0
-11863 423 0
-11864 -74 0
-11864 421 0
-437 11862 11863 11864 0
-11865 -78 0
-11865 446 0
-11866 -82 0
-11866 440 0
-11867 -86 0
-11867 436 0
-437 11865 11866 11867 0
-11868 -80 0
-11868 449 0
-11869 -84 0
-11869 443 0
-11870 -89 0
-11870 438 0
-437 11868 11869 11870 0
-11871 -81 0
-11871 450 0
-11872 -85 0
-11872 444 0
-11873 -90 0
-11873 439 0
-437 11871 11872 11873 0
-11874 -8 0
-11874 162 0
-11875 -9 0
-11875 158 0
-11876 -12 0
-11876 155 0
-438 11874 11875 11876 0
-11877 -20 0
-11877 228 0
-11878 -21 0
-11878 224 0
-11879 -24 0
-11879 221 0
-438 11877 11878 11879 0
-11880 -31 0
-11880 283 0
-11881 -32 0
-11881 279 0
-11882 -35 0
-11882 276 0
-438 11880 11881 11882 0
-11883 -41 0
-11883 328 0
-11884 -42 0
-11884 324 0
-11885 -45 0
-11885 321 0
-438 11883 11884 11885 0
-11886 -50 0
-11886 364 0
-11887 -51 0
-11887 360 0
-11888 -54 0
-11888 357 0
-438 11886 11887 11888 0
-11889 -58 0
-11889 392 0
-11890 -59 0
-11890 388 0
-11891 -62 0
-11891 385 0
-438 11889 11890 11891 0
-11892 -65 0
-11892 413 0
-11893 -66 0
-11893 409 0
-11894 -69 0
-11894 406 0
-438 11892 11893 11894 0
-11895 -71 0
-11895 428 0
-11896 -72 0
-11896 424 0
-11897 -75 0
-11897 421 0
-438 11895 11896 11897 0
-11898 -78 0
-11898 447 0
-11899 -82 0
-11899 441 0
-11900 -87 0
-11900 436 0
-438 11898 11899 11900 0
-11901 -79 0
-11901 449 0
-11902 -83 0
-11902 443 0
-11903 -89 0
-11903 437 0
-438 11901 11902 11903 0
-11904 -81 0
-11904 451 0
-11905 -85 0
-11905 445 0
-11906 -91 0
-11906 439 0
-438 11904 11905 11906 0
-11907 -8 0
-11907 163 0
-11908 -9 0
-11908 159 0
-11909 -13 0
-11909 155 0
-439 11907 11908 11909 0
-11910 -20 0
-11910 229 0
-11911 -21 0
-11911 225 0
-11912 -25 0
-11912 221 0
-439 11910 11911 11912 0
-11913 -31 0
-11913 284 0
-11914 -32 0
-11914 280 0
-11915 -36 0
-11915 276 0
-439 11913 11914 11915 0
-11916 -41 0
-11916 329 0
-11917 -42 0
-11917 325 0
-11918 -46 0
-11918 321 0
-439 11916 11917 11918 0
-11919 -50 0
-11919 365 0
-11920 -51 0
-11920 361 0
-11921 -55 0
-11921 357 0
-439 11919 11920 11921 0
-11922 -58 0
-11922 393 0
-11923 -59 0
-11923 389 0
-11924 -63 0
-11924 385 0
-439 11922 11923 11924 0
-11925 -65 0
-11925 414 0
-11926 -66 0
-11926 410 0
-11927 -70 0
-11927 406 0
-439 11925 11926 11927 0
-11928 -71 0
-11928 429 0
-11929 -72 0
-11929 425 0
-11930 -76 0
-11930 421 0
-439 11928 11929 11930 0
-11931 -78 0
-11931 448 0
-11932 -82 0
-11932 442 0
-11933 -88 0
-11933 436 0
-439 11931 11932 11933 0
-11934 -79 0
-11934 450 0
-11935 -83 0
-11935 444 0
-11936 -90 0
-11936 437 0
-439 11934 11935 11936 0
-11937 -80 0
-11937 451 0
-11938 -84 0
-11938 445 0
-11939 -91 0
-11939 438 0
-439 11937 11938 11939 0
-11940 -8 0
-11940 164 0
-11941 -10 0
-11941 157 0
-11942 -11 0
-11942 156 0
-440 11940 11941 11942 0
-11943 -20 0
-11943 230 0
-11944 -22 0
-11944 223 0
-11945 -23 0
-11945 222 0
-440 11943 11944 11945 0
-11946 -31 0
-11946 285 0
-11947 -33 0
-11947 278 0
-11948 -34 0
-11948 277 0
-440 11946 11947 11948 0
-11949 -41 0
-11949 330 0
-11950 -43 0
-11950 323 0
-11951 -44 0
-11951 322 0
-440 11949 11950 11951 0
-11952 -50 0
-11952 366 0
-11953 -52 0
-11953 359 0
-11954 -53 0
-11954 358 0
-440 11952 11953 11954 0
-11955 -58 0
-11955 394 0
-11956 -60 0
-11956 387 0
-11957 -61 0
-11957 386 0
-440 11955 11956 11957 0
-11958 -65 0
-11958 415 0
-11959 -67 0
-11959 408 0
-11960 -68 0
-11960 407 0
-440 11958 11959 11960 0
-11961 -71 0
-11961 430 0
-11962 -73 0
-11962 423 0
-11963 -74 0
-11963 422 0
-440 11961 11962 11963 0
-11964 -77 0
-11964 446 0
-11965 -82 0
-11965 437 0
-11966 -83 0
-11966 436 0
-440 11964 11965 11966 0
-11967 -80 0
-11967 452 0
-11968 -87 0
-11968 443 0
-11969 -89 0
-11969 441 0
-440 11967 11968 11969 0
-11970 -81 0
-11970 453 0
-11971 -88 0
-11971 444 0
-11972 -90 0
-11972 442 0
-440 11970 11971 11972 0
-11973 -8 0
-11973 165 0
-11974 -10 0
-11974 158 0
-11975 -12 0
-11975 156 0
-441 11973 11974 11975 0
-11976 -20 0
-11976 231 0
-11977 -22 0
-11977 224 0
-11978 -24 0
-11978 222 0
-441 11976 11977 11978 0
-11979 -31 0
-11979 286 0
-11980 -33 0
-11980 279 0
-11981 -35 0
-11981 277 0
-441 11979 11980 11981 0
-11982 -41 0
-11982 331 0
-11983 -43 0
-11983 324 0
-11984 -45 0
-11984 322 0
-441 11982 11983 11984 0
-11985 -50 0
-11985 367 0
-11986 -52 0
-11986 360 0
-11987 -54 0
-11987 358 0
-441 11985 11986 11987 0
-11988 -58 0
-11988 395 0
-11989 -60 0
-11989 388 0
-11990 -62 0
-11990 386 0
-441 11988 11989 11990 0
-11991 -65 0
-11991 416 0
-11992 -67 0
-11992 409 0
-11993 -69 0
-11993 407 0
-441 11991 11992 11993 0
-11994 -71 0
-11994 431 0
-11995 -73 0
-11995 424 0
-11996 -75 0
-11996 422 0
-441 11994 11995 11996 0
-11997 -77 0
-11997 447 0
-11998 -82 0
-11998 438 0
-11999 -84 0
-11999 436 0
-441 11997 11998 11999 0
-12000 -79 0
-12000 452 0
-12001 -86 0
-12001 443 0
-12002 -89 0
-12002 440 0
-441 12000 12001 12002 0
-12003 -81 0
-12003 454 0
-12004 -88 0
-12004 445 0
-12005 -91 0
-12005 442 0
-441 12003 12004 12005 0
-12006 -8 0
-12006 166 0
-12007 -10 0
-12007 159 0
-12008 -13 0
-12008 156 0
-442 12006 12007 12008 0
-12009 -20 0
-12009 232 0
-12010 -22 0
-12010 225 0
-12011 -25 0
-12011 222 0
-442 12009 12010 12011 0
-12012 -31 0
-12012 287 0
-12013 -33 0
-12013 280 0
-12014 -36 0
-12014 277 0
-442 12012 12013 12014 0
-12015 -41 0
-12015 332 0
-12016 -43 0
-12016 325 0
-12017 -46 0
-12017 322 0
-442 12015 12016 12017 0
-12018 -50 0
-12018 368 0
-12019 -52 0
-12019 361 0
-12020 -55 0
-12020 358 0
-442 12018 12019 12020 0
-12021 -58 0
-12021 396 0
-12022 -60 0
-12022 389 0
-12023 -63 0
-12023 386 0
-442 12021 12022 12023 0
-12024 -65 0
-12024 417 0
-12025 -67 0
-12025 410 0
-12026 -70 0
-12026 407 0
-442 12024 12025 12026 0
-12027 -71 0
-12027 432 0
-12028 -73 0
-12028 425 0
-12029 -76 0
-12029 422 0
-442 12027 12028 12029 0
-12030 -77 0
-12030 448 0
-12031 -82 0
-12031 439 0
-12032 -85 0
-12032 436 0
-442 12030 12031 12032 0
-12033 -79 0
-12033 453 0
-12034 -86 0
-12034 444 0
-12035 -90 0
-12035 440 0
-442 12033 12034 12035 0
-12036 -80 0
-12036 454 0
-12037 -87 0
-12037 445 0
-12038 -91 0
-12038 441 0
-442 12036 12037 12038 0
-12039 -8 0
-12039 167 0
-12040 -11 0
-12040 158 0
-12041 -12 0
-12041 157 0
-443 12039 12040 12041 0
-12042 -20 0
-12042 233 0
-12043 -23 0
-12043 224 0
-12044 -24 0
-12044 223 0
-443 12042 12043 12044 0
-12045 -31 0
-12045 288 0
-12046 -34 0
-12046 279 0
-12047 -35 0
-12047 278 0
-443 12045 12046 12047 0
-12048 -41 0
-12048 333 0
-12049 -44 0
-12049 324 0
-12050 -45 0
-12050 323 0
-443 12048 12049 12050 0
-12051 -50 0
-12051 369 0
-12052 -53 0
-12052 360 0
-12053 -54 0
-12053 359 0
-443 12051 12052 12053 0
-12054 -58 0
-12054 397 0
-12055 -61 0
-12055 388 0
-12056 -62 0
-12056 387 0
-443 12054 12055 12056 0
-12057 -65 0
-12057 418 0
-12058 -68 0
-12058 409 0
-12059 -69 0
-12059 408 0
-443 12057 12058 12059 0
-12060 -71 0
-12060 433 0
-12061 -74 0
-12061 424 0
-12062 -75 0
-12062 423 0
-443 12060 12061 12062 0
-12063 -77 0
-12063 449 0
-12064 -83 0
-12064 438 0
-12065 -84 0
-12065 437 0
-443 12063 12064 12065 0
-12066 -78 0
-12066 452 0
-12067 -86 0
-12067 441 0
-12068 -87 0
-12068 440 0
-443 12066 12067 12068 0
-12069 -81 0
-12069 455 0
-12070 -90 0
-12070 445 0
-12071 -91 0
-12071 444 0
-443 12069 12070 12071 0
-12072 -8 0
-12072 168 0
-12073 -11 0
-12073 159 0
-12074 -13 0
-12074 157 0
-444 12072 12073 12074 0
-12075 -20 0
-12075 234 0
-12076 -23 0
-12076 225 0
-12077 -25 0
-12077 223 0
-444 12075 12076 12077 0
-12078 -31 0
-12078 289 0
-12079 -34 0
-12079 280 0
-12080 -36 0
-12080 278 0
-444 12078 12079 12080 0
-12081 -41 0
-12081 334 0
-12082 -44 0
-12082 325 0
-12083 -46 0
-12083 323 0
-444 12081 12082 12083 0
-12084 -50 0
-12084 370 0
-12085 -53 0
-12085 361 0
-12086 -55 0
-12086 359 0
-444 12084 12085 12086 0
-12087 -58 0
-12087 398 0
-12088 -61 0
-12088 389 0
-12089 -63 0
-12089 387 0
-444 12087 12088 12089 0
-12090 -65 0
-12090 419 0
-12091 -68 0
-12091 410 0
-12092 -70 0
-12092 408 0
-444 12090 12091 12092 0
-12093 -71 0
-12093 434 0
-12094 -74 0
-12094 425 0
-12095 -76 0
-12095 423 0
-444 12093 12094 12095 0
-12096 -77 0
-12096 450 0
-12097 -83 0
-12097 439 0
-12098 -85 0
-12098 437 0
-444 12096 12097 12098 0
-12099 -78 0
-12099 453 0
-12100 -86 0
-12100 442 0
-12101 -88 0
-12101 440 0
-444 12099 12100 12101 0
-12102 -80 0
-12102 455 0
-12103 -89 0
-12103 445 0
-12104 -91 0
-12104 443 0
-444 12102 12103 12104 0
-12105 -8 0
-12105 169 0
-12106 -12 0
-12106 159 0
-12107 -13 0
-12107 158 0
-445 12105 12106 12107 0
-12108 -20 0
-12108 235 0
-12109 -24 0
-12109 225 0
-12110 -25 0
-12110 224 0
-445 12108 12109 12110 0
-12111 -31 0
-12111 290 0
-12112 -35 0
-12112 280 0
-12113 -36 0
-12113 279 0
-445 12111 12112 12113 0
-12114 -41 0
-12114 335 0
-12115 -45 0
-12115 325 0
-12116 -46 0
-12116 324 0
-445 12114 12115 12116 0
-12117 -50 0
-12117 371 0
-12118 -54 0
-12118 361 0
-12119 -55 0
-12119 360 0
-445 12117 12118 12119 0
-12120 -58 0
-12120 399 0
-12121 -62 0
-12121 389 0
-12122 -63 0
-12122 388 0
-445 12120 12121 12122 0
-12123 -65 0
-12123 420 0
-12124 -69 0
-12124 410 0
-12125 -70 0
-12125 409 0
-445 12123 12124 12125 0
-12126 -71 0
-12126 435 0
-12127 -75 0
-12127 425 0
-12128 -76 0
-12128 424 0
-445 12126 12127 12128 0
-12129 -77 0
-12129 451 0
-12130 -84 0
-12130 439 0
-12131 -85 0
-12131 438 0
-445 12129 12130 12131 0
-12132 -78 0
-12132 454 0
-12133 -87 0
-12133 442 0
-12134 -88 0
-12134 441 0
-445 12132 12133 12134 0
-12135 -79 0
-12135 455 0
-12136 -89 0
-12136 444 0
-12137 -90 0
-12137 443 0
-445 12135 12136 12137 0
-12138 -9 0
-12138 164 0
-12139 -10 0
-12139 161 0
-12140 -11 0
-12140 160 0
-446 12138 12139 12140 0
-12141 -21 0
-12141 230 0
-12142 -22 0
-12142 227 0
-12143 -23 0
-12143 226 0
-446 12141 12142 12143 0
-12144 -32 0
-12144 285 0
-12145 -33 0
-12145 282 0
-12146 -34 0
-12146 281 0
-446 12144 12145 12146 0
-12147 -42 0
-12147 330 0
-12148 -43 0
-12148 327 0
-12149 -44 0
-12149 326 0
-446 12147 12148 12149 0
-12150 -51 0
-12150 366 0
-12151 -52 0
-12151 363 0
-12152 -53 0
-12152 362 0
-446 12150 12151 12152 0
-12153 -59 0
-12153 394 0
-12154 -60 0
-12154 391 0
-12155 -61 0
-12155 390 0
-446 12153 12154 12155 0
-12156 -66 0
-12156 415 0
-12157 -67 0
-12157 412 0
-12158 -68 0
-12158 411 0
-446 12156 12157 12158 0
-12159 -72 0
-12159 430 0
-12160 -73 0
-12160 427 0
-12161 -74 0
-12161 426 0
-446 12159 12160 12161 0
-12162 -77 0
-12162 440 0
-12163 -78 0
-12163 437 0
-12164 -79 0
-12164 436 0
-446 12162 12163 12164 0
-12165 -84 0
-12165 452 0
-12166 -87 0
-12166 449 0
-12167 -89 0
-12167 447 0
-446 12165 12166 12167 0
-12168 -85 0
-12168 453 0
-12169 -88 0
-12169 450 0
-12170 -90 0
-12170 448 0
-446 12168 12169 12170 0
-12171 -9 0
-12171 165 0
-12172 -10 0
-12172 162 0
-12173 -12 0
-12173 160 0
-447 12171 12172 12173 0
-12174 -21 0
-12174 231 0
-12175 -22 0
-12175 228 0
-12176 -24 0
-12176 226 0
-447 12174 12175 12176 0
-12177 -32 0
-12177 286 0
-12178 -33 0
-12178 283 0
-12179 -35 0
-12179 281 0
-447 12177 12178 12179 0
-12180 -42 0
-12180 331 0
-12181 -43 0
-12181 328 0
-12182 -45 0
-12182 326 0
-447 12180 12181 12182 0
-12183 -51 0
-12183 367 0
-12184 -52 0
-12184 364 0
-12185 -54 0
-12185 362 0
-447 12183 12184 12185 0
-12186 -59 0
-12186 395 0
-12187 -60 0
-12187 392 0
-12188 -62 0
-12188 390 0
-447 12186 12187 12188 0
-12189 -66 0
-12189 416 0
-12190 -67 0
-12190 413 0
-12191 -69 0
-12191 411 0
-447 12189 12190 12191 0
-12192 -72 0
-12192 431 0
-12193 -73 0
-12193 428 0
-12194 -75 0
-12194 426 0
-447 12192 12193 12194 0
-12195 -77 0
-12195 441 0
-12196 -78 0
-12196 438 0
-12197 -80 0
-12197 436 0
-447 12195 12196 12197 0
-12198 -83 0
-12198 452 0
-12199 -86 0
-12199 449 0
-12200 -89 0
-12200 446 0
-447 12198 12199 12200 0
-12201 -85 0
-12201 454 0
-12202 -88 0
-12202 451 0
-12203 -91 0
-12203 448 0
-447 12201 12202 12203 0
-12204 -9 0
-12204 166 0
-12205 -10 0
-12205 163 0
-12206 -13 0
-12206 160 0
-448 12204 12205 12206 0
-12207 -21 0
-12207 232 0
-12208 -22 0
-12208 229 0
-12209 -25 0
-12209 226 0
-448 12207 12208 12209 0
-12210 -32 0
-12210 287 0
-12211 -33 0
-12211 284 0
-12212 -36 0
-12212 281 0
-448 12210 12211 12212 0
-12213 -42 0
-12213 332 0
-12214 -43 0
-12214 329 0
-12215 -46 0
-12215 326 0
-448 12213 12214 12215 0
-12216 -51 0
-12216 368 0
-12217 -52 0
-12217 365 0
-12218 -55 0
-12218 362 0
-448 12216 12217 12218 0
-12219 -59 0
-12219 396 0
-12220 -60 0
-12220 393 0
-12221 -63 0
-12221 390 0
-448 12219 12220 12221 0
-12222 -66 0
-12222 417 0
-12223 -67 0
-12223 414 0
-12224 -70 0
-12224 411 0
-448 12222 12223 12224 0
-12225 -72 0
-12225 432 0
-12226 -73 0
-12226 429 0
-12227 -76 0
-12227 426 0
-448 12225 12226 12227 0
-12228 -77 0
-12228 442 0
-12229 -78 0
-12229 439 0
-12230 -81 0
-12230 436 0
-448 12228 12229 12230 0
-12231 -83 0
-12231 453 0
-12232 -86 0
-12232 450 0
-12233 -90 0
-12233 446 0
-448 12231 12232 12233 0
-12234 -84 0
-12234 454 0
-12235 -87 0
-12235 451 0
-12236 -91 0
-12236 447 0
-448 12234 12235 12236 0
-12237 -9 0
-12237 167 0
-12238 -11 0
-12238 162 0
-12239 -12 0
-12239 161 0
-449 12237 12238 12239 0
-12240 -21 0
-12240 233 0
-12241 -23 0
-12241 228 0
-12242 -24 0
-12242 227 0
-449 12240 12241 12242 0
-12243 -32 0
-12243 288 0
-12244 -34 0
-12244 283 0
-12245 -35 0
-12245 282 0
-449 12243 12244 12245 0
-12246 -42 0
-12246 333 0
-12247 -44 0
-12247 328 0
-12248 -45 0
-12248 327 0
-449 12246 12247 12248 0
-12249 -51 0
-12249 369 0
-12250 -53 0
-12250 364 0
-12251 -54 0
-12251 363 0
-449 12249 12250 12251 0
-12252 -59 0
-12252 397 0
-12253 -61 0
-12253 392 0
-12254 -62 0
-12254 391 0
-449 12252 12253 12254 0
-12255 -66 0
-12255 418 0
-12256 -68 0
-12256 413 0
-12257 -69 0
-12257 412 0
-449 12255 12256 12257 0
-12258 -72 0
-12258 433 0
-12259 -74 0
-12259 428 0
-12260 -75 0
-12260 427 0
-449 12258 12259 12260 0
-12261 -77 0
-12261 443 0
-12262 -79 0
-12262 438 0
-12263 -80 0
-12263 437 0
-449 12261 12262 12263 0
-12264 -82 0
-12264 452 0
-12265 -86 0
-12265 447 0
-12266 -87 0
-12266 446 0
-449 12264 12265 12266 0
-12267 -85 0
-12267 455 0
-12268 -90 0
-12268 451 0
-12269 -91 0
-12269 450 0
-449 12267 12268 12269 0
-12270 -9 0
-12270 168 0
-12271 -11 0
-12271 163 0
-12272 -13 0
-12272 161 0
-450 12270 12271 12272 0
-12273 -21 0
-12273 234 0
-12274 -23 0
-12274 229 0
-12275 -25 0
-12275 227 0
-450 12273 12274 12275 0
-12276 -32 0
-12276 289 0
-12277 -34 0
-12277 284 0
-12278 -36 0
-12278 282 0
-450 12276 12277 12278 0
-12279 -42 0
-12279 334 0
-12280 -44 0
-12280 329 0
-12281 -46 0
-12281 327 0
-450 12279 12280 12281 0
-12282 -51 0
-12282 370 0
-12283 -53 0
-12283 365 0
-12284 -55 0
-12284 363 0
-450 12282 12283 12284 0
-12285 -59 0
-12285 398 0
-12286 -61 0
-12286 393 0
-12287 -63 0
-12287 391 0
-450 12285 12286 12287 0
-12288 -66 0
-12288 419 0
-12289 -68 0
-12289 414 0
-12290 -70 0
-12290 412 0
-450 12288 12289 12290 0
-12291 -72 0
-12291 434 0
-12292 -74 0
-12292 429 0
-12293 -76 0
-12293 427 0
-450 12291 12292 12293 0
-12294 -77 0
-12294 444 0
-12295 -79 0
-12295 439 0
-12296 -81 0
-12296 437 0
-450 12294 12295 12296 0
-12297 -82 0
-12297 453 0
-12298 -86 0
-12298 448 0
-12299 -88 0
-12299 446 0
-450 12297 12298 12299 0
-12300 -84 0
-12300 455 0
-12301 -89 0
-12301 451 0
-12302 -91 0
-12302 449 0
-450 12300 12301 12302 0
-12303 -9 0
-12303 169 0
-12304 -12 0
-12304 163 0
-12305 -13 0
-12305 162 0
-451 12303 12304 12305 0
-12306 -21 0
-12306 235 0
-12307 -24 0
-12307 229 0
-12308 -25 0
-12308 228 0
-451 12306 12307 12308 0
-12309 -32 0
-12309 290 0
-12310 -35 0
-12310 284 0
-12311 -36 0
-12311 283 0
-451 12309 12310 12311 0
-12312 -42 0
-12312 335 0
-12313 -45 0
-12313 329 0
-12314 -46 0
-12314 328 0
-451 12312 12313 12314 0
-12315 -51 0
-12315 371 0
-12316 -54 0
-12316 365 0
-12317 -55 0
-12317 364 0
-451 12315 12316 12317 0
-12318 -59 0
-12318 399 0
-12319 -62 0
-12319 393 0
-12320 -63 0
-12320 392 0
-451 12318 12319 12320 0
-12321 -66 0
-12321 420 0
-12322 -69 0
-12322 414 0
-12323 -70 0
-12323 413 0
-451 12321 12322 12323 0
-12324 -72 0
-12324 435 0
-12325 -75 0
-12325 429 0
-12326 -76 0
-12326 428 0
-451 12324 12325 12326 0
-12327 -77 0
-12327 445 0
-12328 -80 0
-12328 439 0
-12329 -81 0
-12329 438 0
-451 12327 12328 12329 0
-12330 -82 0
-12330 454 0
-12331 -87 0
-12331 448 0
-12332 -88 0
-12332 447 0
-451 12330 12331 12332 0
-12333 -83 0
-12333 455 0
-12334 -89 0
-12334 450 0
-12335 -90 0
-12335 449 0
-451 12333 12334 12335 0
-12336 -10 0
-12336 167 0
-12337 -11 0
-12337 165 0
-12338 -12 0
-12338 164 0
-452 12336 12337 12338 0
-12339 -22 0
-12339 233 0
-12340 -23 0
-12340 231 0
-12341 -24 0
-12341 230 0
-452 12339 12340 12341 0
-12342 -33 0
-12342 288 0
-12343 -34 0
-12343 286 0
-12344 -35 0
-12344 285 0
-452 12342 12343 12344 0
-12345 -43 0
-12345 333 0
-12346 -44 0
-12346 331 0
-12347 -45 0
-12347 330 0
-452 12345 12346 12347 0
-12348 -52 0
-12348 369 0
-12349 -53 0
-12349 367 0
-12350 -54 0
-12350 366 0
-452 12348 12349 12350 0
-12351 -60 0
-12351 397 0
-12352 -61 0
-12352 395 0
-12353 -62 0
-12353 394 0
-452 12351 12352 12353 0
-12354 -67 0
-12354 418 0
-12355 -68 0
-12355 416 0
-12356 -69 0
-12356 415 0
-452 12354 12355 12356 0
-12357 -73 0
-12357 433 0
-12358 -74 0
-12358 431 0
-12359 -75 0
-12359 430 0
-452 12357 12358 12359 0
-12360 -78 0
-12360 443 0
-12361 -79 0
-12361 441 0
-12362 -80 0
-12362 440 0
-452 12360 12361 12362 0
-12363 -82 0
-12363 449 0
-12364 -83 0
-12364 447 0
-12365 -84 0
-12365 446 0
-452 12363 12364 12365 0
-12366 -88 0
-12366 455 0
-12367 -90 0
-12367 454 0
-12368 -91 0
-12368 453 0
-452 12366 12367 12368 0
-12369 -10 0
-12369 168 0
-12370 -11 0
-12370 166 0
-12371 -13 0
-12371 164 0
-453 12369 12370 12371 0
-12372 -22 0
-12372 234 0
-12373 -23 0
-12373 232 0
-12374 -25 0
-12374 230 0
-453 12372 12373 12374 0
-12375 -33 0
-12375 289 0
-12376 -34 0
-12376 287 0
-12377 -36 0
-12377 285 0
-453 12375 12376 12377 0
-12378 -43 0
-12378 334 0
-12379 -44 0
-12379 332 0
-12380 -46 0
-12380 330 0
-453 12378 12379 12380 0
-12381 -52 0
-12381 370 0
-12382 -53 0
-12382 368 0
-12383 -55 0
-12383 366 0
-453 12381 12382 12383 0
-12384 -60 0
-12384 398 0
-12385 -61 0
-12385 396 0
-12386 -63 0
-12386 394 0
-453 12384 12385 12386 0
-12387 -67 0
-12387 419 0
-12388 -68 0
-12388 417 0
-12389 -70 0
-12389 415 0
-453 12387 12388 12389 0
-12390 -73 0
-12390 434 0
-12391 -74 0
-12391 432 0
-12392 -76 0
-12392 430 0
-453 12390 12391 12392 0
-12393 -78 0
-12393 444 0
-12394 -79 0
-12394 442 0
-12395 -81 0
-12395 440 0
-453 12393 12394 12395 0
-12396 -82 0
-12396 450 0
-12397 -83 0
-12397 448 0
-12398 -85 0
-12398 446 0
-453 12396 12397 12398 0
-12399 -87 0
-12399 455 0
-12400 -89 0
-12400 454 0
-12401 -91 0
-12401 452 0
-453 12399 12400 12401 0
-12402 -10 0
-12402 169 0
-12403 -12 0
-12403 166 0
-12404 -13 0
-12404 165 0
-454 12402 12403 12404 0
-12405 -22 0
-12405 235 0
-12406 -24 0
-12406 232 0
-12407 -25 0
-12407 231 0
-454 12405 12406 12407 0
-12408 -33 0
-12408 290 0
-12409 -35 0
-12409 287 0
-12410 -36 0
-12410 286 0
-454 12408 12409 12410 0
-12411 -43 0
-12411 335 0
-12412 -45 0
-12412 332 0
-12413 -46 0
-12413 331 0
-454 12411 12412 12413 0
-12414 -52 0
-12414 371 0
-12415 -54 0
-12415 368 0
-12416 -55 0
-12416 367 0
-454 12414 12415 12416 0
-12417 -60 0
-12417 399 0
-12418 -62 0
-12418 396 0
-12419 -63 0
-12419 395 0
-454 12417 12418 12419 0
-12420 -67 0
-12420 420 0
-12421 -69 0
-12421 417 0
-12422 -70 0
-12422 416 0
-454 12420 12421 12422 0
-12423 -73 0
-12423 435 0
-12424 -75 0
-12424 432 0
-12425 -76 0
-12425 431 0
-454 12423 12424 12425 0
-12426 -78 0
-12426 445 0
-12427 -80 0
-12427 442 0
-12428 -81 0
-12428 441 0
-454 12426 12427 12428 0
-12429 -82 0
-12429 451 0
-12430 -84 0
-12430 448 0
-12431 -85 0
-12431 447 0
-454 12429 12430 12431 0
-12432 -86 0
-12432 455 0
-12433 -89 0
-12433 453 0
-12434 -90 0
-12434 452 0
-454 12432 12433 12434 0
-12435 -11 0
-12435 169 0
-12436 -12 0
-12436 168 0
-12437 -13 0
-12437 167 0
-455 12435 12436 12437 0
-12438 -23 0
-12438 235 0
-12439 -24 0
-12439 234 0
-12440 -25 0
-12440 233 0
-455 12438 12439 12440 0
-12441 -34 0
-12441 290 0
-12442 -35 0
-12442 289 0
-12443 -36 0
-12443 288 0
-455 12441 12442 12443 0
-12444 -44 0
-12444 335 0
-12445 -45 0
-12445 334 0
-12446 -46 0
-12446 333 0
-455 12444 12445 12446 0
-12447 -53 0
-12447 371 0
-12448 -54 0
-12448 370 0
-12449 -55 0
-12449 369 0
-455 12447 12448 12449 0
-12450 -61 0
-12450 399 0
-12451 -62 0
-12451 398 0
-12452 -63 0
-12452 397 0
-455 12450 12451 12452 0
-12453 -68 0
-12453 420 0
-12454 -69 0
-12454 419 0
-12455 -70 0
-12455 418 0
-455 12453 12454 12455 0
-12456 -74 0
-12456 435 0
-12457 -75 0
-12457 434 0
-12458 -76 0
-12458 433 0
-455 12456 12457 12458 0
-12459 -79 0
-12459 445 0
-12460 -80 0
-12460 444 0
-12461 -81 0
-12461 443 0
-455 12459 12460 12461 0
-12462 -83 0
-12462 451 0
-12463 -84 0
-12463 450 0
-12464 -85 0
-12464 449 0
-455 12462 12463 12464 0
-12465 -86 0
-12465 454 0
-12466 -87 0
-12466 453 0
-12467 -88 0
-12467 452 0
-455 12465 12466 12467 0
1 0
-2 0
-3 0
-4 0
-5 0
6 0
14 0
-15 0
-16 0
-17 0
-18 0
26 0
-27 0
-28 0
-29 0
37 0
-38 0
-39 0
47 0
-48 0
56 0
7 0
19 0
97 0
-220 0
-154 0
20 0
31 0
175 0
-280 0
-225 0
30 0
40 0
239 0
-320 0
-275 0
42 0
51 0
295 0
-365 0
-329 0
52 0
60 0
340 0
-396 0
-368 0
61 0
68 0
376 0
-419 0
-398 0
69 0
12 0
147 0
-169 0
-420 0
