p cnf 16940 43736
-106 -3 -16 -28 0
-106 -4 -17 -29 0
-106 -5 -18 -30 0
-106 -6 -19 -31 0
-106 -7 -20 -32 0
-106 -8 -21 -33 0
-106 -9 -22 -34 0
-106 -10 -23 -35 0
-106 -11 -24 -36 0
-106 -12 -25 -37 0
-106 -13 -26 -38 0
-106 -14 -27 -39 0
-107 -2 -15 -28 0
-107 -4 -17 -40 0
-107 -5 -18 -41 0
-107 -6 -19 -42 0
-107 -7 -20 -43 0
-107 -8 -21 -44 0
-107 -9 -22 -45 0
-107 -10 -23 -46 0
-107 -11 -24 -47 0
-107 -12 -25 -48 0
-107 -13 -26 -49 0
-107 -14 -27 -50 0
-108 -2 -15 -29 0
-108 -3 -16 -40 0
-108 -5 -18 -51 0
-108 -6 -19 -52 0
-108 -7 -20 -53 0
-108 -8 -21 -54 0
-108 -9 -22 -55 0
-108 -10 -23 -56 0
-108 -11 -24 -57 0
-108 -12 -25 -58 0
-108 -13 -26 -59 0
-108 -14 -27 -60 0
-109 -2 -15 -30 0
-109 -3 -16 -41 0
-109 -4 -17 -51 0
-109 -6 -19 -61 0
-109 -7 -20 -62 0
-109 -8 -21 -63 0
-109 -9 -22 -64 0
-109 -10 -23 -65 0
-109 -11 -24 -66 0
-109 -12 -25 -67 0
-109 -13 -26 -68 0
-109 -14 -27 -69 0
-110 -2 -15 -31 0
-110 -3 -16 -42 0
-110 -4 -17 -52 0
-110 -5 -18 -61 0
-110 -7 -20 -70 0
-110 -8 -21 -71 0
-110 -9 -22 -72 0
-110 -10 -23 -73 0
-110 -11 -24 -74 0
-110 -12 -25 -75 0
-110 -13 -26 -76 0
-110 -14 -27 -77 0
-111 -2 -15 -32 0
-111 -3 -16 -43 0
-111 -4 -17 -53 0
-111 -5 -18 -62 0
-111 -6 -19 -70 0
-111 -8 -21 -78 0
-111 -9 -22 -79 0
-111 -10 -23 -80 0
-111 -11 -24 -81 0
-111 -12 -25 -82 0
-111 -13 -26 -83 0
-111 -14 -27 -84 0
-112 -2 -15 -33 0
-112 -3 -16 -44 0
-112 -4 -17 -54 0
-112 -5 -18 -63 0
-112 -6 -19 -71 0
-112 -7 -20 -78 0
-112 -9 -22 -85 0
-112 -10 -23 -86 0
-112 -11 -24 -87 0
-112 -12 -25 -88 0
-112 -13 -26 -89 0
-112 -14 -27 -90 0
-113 -2 -15 -34 0
-113 -3 -16 -45 0
-113 -4 -17 -55 0
-113 -5 -18 -64 0
-113 -6 -19 -72 0
-113 -7 -20 -79 0
-113 -8 -21 -85 0
-113 -10 -23 -91 0
-113 -11 -24 -92 0
-113 -12 -25 -93 0
-113 -13 -26 -94 0
-113 -14 -27 -95 0
-114 -2 -15 -35 0
-114 -3 -16 -46 0
-114 -4 -17 -56 0
-114 -5 -18 -65 0
-114 -6 -19 -73 0
-114 -7 -20 -80 0
-114 -8 -21 -86 0
-114 -9 -22 -91 0
-114 -11 -24 -96 0
-114 -12 -25 -97 0
-114 -13 -26 -98 0
-114 -14 -27 -99 0
-115 -2 -15 -36 0
-115 -3 -16 -47 0
-115 -4 -17 -57 0
-115 -5 -18 -66 0
-115 -6 -19 -74 0
-115 -7 -20 -81 0
-115 -8 -21 -87 0
-115 -9 -22 -92 0
-115 -10 -23 -96 0
-115 -12 -25 -100 0
-115 -13 -26 -101 0
-115 -14 -27 -102 0
-116 -2 -15 -37 0
-116 -3 -16 -48 0
-116 -4 -17 -58 0
-116 -5 -18 -67 0
-116 -6 -19 -75 0
-116 -7 -20 -82 0
-116 -8 -21 -88 0
-116 -9 -22 -93 0
-116 -10 -23 -97 0
-116 -11 -24 -100 0
-116 -13 -26 -103 0
-116 -14 -27 -104 0
-117 -2 -15 -38 0
-117 -3 -16 -49 0
-117 -4 -17 -59 0
-117 -5 -18 -68 0
-117 -6 -19 -76 0
-117 -7 -20 -83 0
-117 -8 -21 -89 0
-117 -9 -22 -94 0
-117 -10 -23 -98 0
-117 -11 -24 -101 0
-117 -12 -25 -103 0
-117 -14 -27 -105 0
-118 -2 -15 -39 0
-118 -3 -16 -50 0
-118 -4 -17 -60 0
-118 -5 -18 -69 0
-118 -6 -19 -77 0
-118 -7 -20 -84 0
-118 -8 -21 -90 0
-118 -9 -22 -95 0
-118 -10 -23 -99 0
-118 -11 -24 -102 0
-118 -12 -25 -104 0
-118 -13 -26 -105 0
-119 -1 -15 -16 0
-119 -4 -29 -40 0
-119 -5 -30 -41 0
-119 -6 -31 -42 0
-119 -7 -32 -43 0
-119 -8 -33 -44 0
-119 -9 -34 -45 0
-119 -10 -35 -46 0
-119 -11 -36 -47 0
-119 -12 -37 -48 0
-119 -13 -38 -49 0
-119 -14 -39 -50 0
-120 -1 -15 -17 0
-120 -3 -28 -40 0
-120 -5 -30 -51 0
-120 -6 -31 -52 0
-120 -7 -32 -53 0
-120 -8 -33 -54 0
-120 -9 -34 -55 0
-120 -10 -35 -56 0
-120 -11 -36 -57 0
-120 -12 -37 -58 0
-120 -13 -38 -59 0
-120 -14 -39 -60 0
-121 -1 -15 -18 0
-121 -3 -28 -41 0
-121 -4 -29 -51 0
-121 -6 -31 -61 0
-121 -7 -32 -62 0
-121 -8 -33 -63 0
-121 -9 -34 -64 0
-121 -10 -35 -65 0
-121 -11 -36 -66 0
-121 -12 -37 -67 0
-121 -13 -38 -68 0
-121 -14 -39 -69 0
-122 -1 -15 -19 0
-122 -3 -28 -42 0
-122 -4 -29 -52 0
-122 -5 -30 -61 0
-122 -7 -32 -70 0
-122 -8 -33 -71 0
-122 -9 -34 -72 0
-122 -10 -35 -73 0
-122 -11 -36 -74 0
-122 -12 -37 -75 0
-122 -13 -38 -76 0
-122 -14 -39 -77 0
-123 -1 -15 -20 0
-123 -3 -28 -43 0
-123 -4 -29 -53 0
-123 -5 -30 -62 0
-123 -6 -31 -70 0
-123 -8 -33 -78 0
-123 -9 -34 -79 0
-123 -10 -35 -80 0
-123 -11 -36 -81 0
-123 -12 -37 -82 0
-123 -13 -38 -83 0
-123 -14 -39 -84 0
-124 -1 -15 -21 0
-124 -3 -28 -44 0
-124 -4 -29 -54 0
-124 -5 -30 -63 0
-124 -6 -31 -71 0
-124 -7 -32 -78 0
-124 -9 -34 -85 0
-124 -10 -35 -86 0
-124 -11 -36 -87 0
-124 -12 -37 -88 0
-124 -13 -38 -89 0
-124 -14 -39 -90 0
-125 -1 -15 -22 0
-125 -3 -28 -45 0
-125 -4 -29 -55 0
-125 -5 -30 -64 0
-125 -6 -31 -72 0
-125 -7 -32 -79 0
-125 -8 -33 -85 0
-125 -10 -35 -91 0
-125 -11 -36 -92 0
-125 -12 -37 -93 0
-125 -13 -38 -94 0
-125 -14 -39 -95 0
-126 -1 -15 -23 0
-126 -3 -28 -46 0
-126 -4 -29 -56 0
-126 -5 -30 -65 0
-126 -6 -31 -73 0
-126 -7 -32 -80 0
-126 -8 -33 -86 0
-126 -9 -34 -91 0
-126 -11 -36 -96 0
-126 -12 -37 -97 0
-126 -13 -38 -98 0
-126 -14 -39 -99 0
-127 -1 -15 -24 0
-127 -3 -28 -47 0
-127 -4 -29 -57 0
-127 -5 -30 -66 0
-127 -6 -31 -74 0
-127 -7 -32 -81 0
-127 -8 -33 -87 0
-127 -9 -34 -92 0
-127 -10 -35 -96 0
-127 -12 -37 -100 0
-127 -13 -38 -101 0
-127 -14 -39 -102 0
-128 -1 -15 -25 0
-128 -3 -28 -48 0
-128 -4 -29 -58 0
-128 -5 -30 -67 0
-128 -6 -31 -75 0
-128 -7 -32 -82 0
-128 -8 -33 -88 0
-128 -9 -34 -93 0
-128 -10 -35 -97 0
-128 -11 -36 -100 0
-128 -13 -38 -103 0
-128 -14 -39 -104 0
-129 -1 -15 -26 0
-129 -3 -28 -49 0
-129 -4 -29 -59 0
-129 -5 -30 -68 0
-129 -6 -31 -76 0
-129 -7 -32 -83 0
-129 -8 -33 -89 0
-129 -9 -34 -94 0
-129 -10 -35 -98 0
-129 -11 -36 -101 0
-129 -12 -37 -103 0
-129 -14 -39 -105 0
-130 -1 -15 -27 0
-130 -3 -28 -50 0
-130 -4 -29 -60 0
-130 -5 -30 -69 0
-130 -6 -31 -77 0
-130 -7 -32 -84 0
-130 -8 -33 -90 0
-130 -9 -34 -95 0
-130 -10 -35 -99 0
-130 -11 -36 -102 0
-130 -12 -37 -104 0
-130 -13 -38 -105 0
-131 -1 -16 -17 0
-131 -2 -28 -29 0
-131 -5 -41 -51 0
-131 -6 -42 -52 0
-131 -7 -43 -53 0
-131 -8 -44 -54 0
-131 -9 -45 -55 0
-131 -10 -46 -56 0
-131 -11 -47 -57 0
-131 -12 -48 -58 0
-131 -13 -49 -59 0
-131 -14 -50 -60 0
-132 -1 -16 -18 0
-132 -2 -28 -30 0
-132 -4 -40 -51 0
-132 -6 -42 -61 0
-132 -7 -43 -62 0
-132 -8 -44 -63 0
-132 -9 -45 -64 0
-132 -10 -46 -65 0
-132 -11 -47 -66 0
-132 -12 -48 -67 0
-132 -13 -49 -68 0
-132 -14 -50 -69 0
-133 -1 -16 -19 0
-133 -2 -28 -31 0
-133 -4 -40 -52 0
-133 -5 -41 -61 0
-133 -7 -43 -70 0
-133 -8 -44 -71 0
-133 -9 -45 -72 0
-133 -10 -46 -73 0
-133 -11 -47 -74 0
-133 -12 -48 -75 0
-133 -13 -49 -76 0
-133 -14 -50 -77 0
-134 -1 -16 -20 0
-134 -2 -28 -32 0
-134 -4 -40 -53 0
-134 -5 -41 -62 0
-134 -6 -42 -70 0
-134 -8 -44 -78 0
-134 -9 -45 -79 0
-134 -10 -46 -80 0
-134 -11 -47 -81 0
-134 -12 -48 -82 0
-134 -13 -49 -83 0
-134 -14 -50 -84 0
-135 -1 -16 -21 0
-135 -2 -28 -33 0
-135 -4 -40 -54 0
-135 -5 -41 -63 0
-135 -6 -42 -71 0
-135 -7 -43 -78 0
-135 -9 -45 -85 0
-135 -10 -46 -86 0
-135 -11 -47 -87 0
-135 -12 -48 -88 0
-135 -13 -49 -89 0
-135 -14 -50 -90 0
-136 -1 -16 -22 0
-136 -2 -28 -34 0
-136 -4 -40 -55 0
-136 -5 -41 -64 0
-136 -6 -42 -72 0
-136 -7 -43 -79 0
-136 -8 -44 -85 0
-136 -10 -46 -91 0
-136 -11 -47 -92 0
-136 -12 -48 -93 0
-136 -13 -49 -94 0
-136 -14 -50 -95 0
-137 -1 -16 -23 0
-137 -2 -28 -35 0
-137 -4 -40 -56 0
-137 -5 -41 -65 0
-137 -6 -42 -73 0
-137 -7 -43 -80 0
-137 -8 -44 -86 0
-137 -9 -45 -91 0
-137 -11 -47 -96 0
-137 -12 -48 -97 0
-137 -13 -49 -98 0
-137 -14 -50 -99 0
-138 -1 -16 -24 0
-138 -2 -28 -36 0
-138 -4 -40 -57 0
-138 -5 -41 -66 0
-138 -6 -42 -74 0
-138 -7 -43 -81 0
-138 -8 -44 -87 0
-138 -9 -45 -92 0
-138 -10 -46 -96 0
-138 -12 -48 -100 0
-138 -13 -49 -101 0
-138 -14 -50 -102 0
-139 -1 -16 -25 0
-139 -2 -28 -37 0
-139 -4 -40 -58 0
-139 -5 -41 -67 0
-139 -6 -42 -75 0
-139 -7 -43 -82 0
-139 -8 -44 -88 0
-139 -9 -45 -93 0
-139 -10 -46 -97 0
-139 -11 -47 -100 0
-139 -13 -49 -103 0
-139 -14 -50 -104 0
-140 -1 -16 -26 0
-140 -2 -28 -38 0
-140 -4 -40 -59 0
-140 -5 -41 -68 0
-140 -6 -42 -76 0
-140 -7 -43 -83 0
-140 -8 -44 -89 0
-140 -9 -45 -94 0
-140 -10 -46 -98 0
-140 -11 -47 -101 0
-140 -12 -48 -103 0
-140 -14 -50 -105 0
-141 -1 -16 -27 0
-141 -2 -28 -39 0
-141 -4 -40 -60 0
-141 -5 -41 -69 0
-141 -6 -42 -77 0
-141 -7 -43 -84 0
-141 -8 -44 -90 0
-141 -9 -45 -95 0
-141 -10 -46 -99 0
-141 -11 -47 -102 0
-141 -12 -48 -104 0
-141 -13 -49 -105 0
-142 -1 -17 -18 0
-142 -2 -29 -30 0
-142 -3 -40 -41 0
-142 -6 -52 -61 0
-142 -7 -53 -62 0
-142 -8 -54 -63 0
-142 -9 -55 -64 0
-142 -10 -56 -65 0
-142 -11 -57 -66 0
-142 -12 -58 -67 0
-142 -13 -59 -68 0
-142 -14 -60 -69 0
-143 -1 -17 -19 0
-143 -2 -29 -31 0
-143 -3 -40 -42 0
-143 -5 -51 -61 0
-143 -7 -53 -70 0
-143 -8 -54 -71 0
-143 -9 -55 -72 0
-143 -10 -56 -73 0
-143 -11 -57 -74 0
-143 -12 -58 -75 0
-143 -13 -59 -76 0
-143 -14 -60 -77 0
-144 -1 -17 -20 0
-144 -2 -29 -32 0
-144 -3 -40 -43 0
-144 -5 -51 -62 0
-144 -6 -52 -70 0
-144 -8 -54 -78 0
-144 -9 -55 -79 0
-144 -10 -56 -80 0
-144 -11 -57 -81 0
-144 -12 -58 -82 0
-144 -13 -59 -83 0
-144 -14 -60 -84 0
-145 -1 -17 -21 0
-145 -2 -29 -33 0
-145 -3 -40 -44 0
-145 -5 -51 -63 0
-145 -6 -52 -71 0
-145 -7 -53 -78 0
-145 -9 -55 -85 0
-145 -10 -56 -86 0
-145 -11 -57 -87 0
-145 -12 -58 -88 0
-145 -13 -59 -89 0
-145 -14 -60 -90 0
-146 -1 -17 -22 0
-146 -2 -29 -34 0
-146 -3 -40 -45 0
-146 -5 -51 -64 0
-146 -6 -52 -72 0
-146 -7 -53 -79 0
-146 -8 -54 -85 0
-146 -10 -56 -91 0
-146 -11 -57 -92 0
-146 -12 -58 -93 0
-146 -13 -59 -94 0
-146 -14 -60 -95 0
-147 -1 -17 -23 0
-147 -2 -29 -35 0
-147 -3 -40 -46 0
-147 -5 -51 -65 0
-147 -6 -52 -73 0
-147 -7 -53 -80 0
-147 -8 -54 -86 0
-147 -9 -55 -91 0
-147 -11 -57 -96 0
-147 -12 -58 -97 0
-147 -13 -59 -98 0
-147 -14 -60 -99 0
-148 -1 -17 -24 0
-148 -2 -29 -36 0
-148 -3 -40 -47 0
-148 -5 -51 -66 0
-148 -6 -52 -74 0
-148 -7 -53 -81 0
-148 -8 -54 -87 0
-148 -9 -55 -92 0
-148 -10 -56 -96 0
-148 -12 -58 -100 0
-148 -13 -59 -101 0
-148 -14 -60 -102 0
-149 -1 -17 -25 0
-149 -2 -29 -37 0
-149 -3 -40 -48 0
-149 -5 -51 -67 0
-149 -6 -52 -75 0
-149 -7 -53 -82 0
-149 -8 -54 -88 0
-149 -9 -55 -93 0
-149 -10 -56 -97 0
-149 -11 -57 -100 0
-149 -13 -59 -103 0
-149 -14 -60 -104 0
-150 -1 -17 -26 0
-150 -2 -29 -38 0
-150 -3 -40 -49 0
-150 -5 -51 -68 0
-150 -6 -52 -76 0
-150 -7 -53 -83 0
-150 -8 -54 -89 0
-150 -9 -55 -94 0
-150 -10 -56 -98 0
-150 -11 -57 -101 0
-150 -12 -58 -103 0
-150 -14 -60 -105 0
-151 -1 -17 -27 0
-151 -2 -29 -39 0
-151 -3 -40 -50 0
-151 -5 -51 -69 0
-151 -6 -52 -77 0
-151 -7 -53 -84 0
-151 -8 -54 -90 0
-151 -9 -55 -95 0
-151 -10 -56 -99 0
-151 -11 -57 -102 0
-151 -12 -58 -104 0
-151 -13 -59 -105 0
-152 -1 -18 -19 0
-152 -2 -30 -31 0
-152 -3 -41 -42 0
-152 -4 -51 -52 0
-152 -7 -62 -70 0
-152 -8 -63 -71 0
-152 -9 -64 -72 0
-152 -10 -65 -73 0
-152 -11 -66 -74 0
-152 -12 -67 -75 0
-152 -13 -68 -76 0
-152 -14 -69 -77 0
-153 -1 -18 -20 0
-153 -2 -30 -32 0
-153 -3 -41 -43 0
-153 -4 -51 -53 0
-153 -6 -61 -70 0
-153 -8 -63 -78 0
-153 -9 -64 -79 0
-153 -10 -65 -80 0
-153 -11 -66 -81 0
-153 -12 -67 -82 0
-153 -13 -68 -83 0
-153 -14 -69 -84 0
-154 -1 -18 -21 0
-154 -2 -30 -33 0
-154 -3 -41 -44 0
-154 -4 -51 -54 0
-154 -6 -61 -71 0
-154 -7 -62 -78 0
-154 -9 -64 -85 0
-154 -10 -65 -86 0
-154 -11 -66 -87 0
-154 -12 -67 -88 0
-154 -13 -68 -89 0
-154 -14 -69 -90 0
-155 -1 -18 -22 0
-155 -2 -30 -34 0
-155 -3 -41 -45 0
-155 -4 -51 -55 0
-155 -6 -61 -72 0
-155 -7 -62 -79 0
-155 -8 -63 -85 0
-155 -10 -65 -91 0
-155 -11 -66 -92 0
-155 -12 -67 -93 0
-155 -13 -68 -94 0
-155 -14 -69 -95 0
-156 -1 -18 -23 0
-156 -2 -30 -35 0
-156 -3 -41 -46 0
-156 -4 -51 -56 0
-156 -6 -61 -73 0
-156 -7 -62 -80 0
-156 -8 -63 -86 0
-156 -9 -64 -91 0
-156 -11 -66 -96 0
-156 -12 -67 -97 0
-156 -13 -68 -98 0
-156 -14 -69 -99 0
-157 -1 -18 -24 0
-157 -2 -30 -36 0
-157 -3 -41 -47 0
-157 -4 -51 -57 0
-157 -6 -61 -74 0
-157 -7 -62 -81 0
-157 -8 -63 -87 0
-157 -9 -64 -92 0
-157 -10 -65 -96 0
-157 -12 -67 -100 0
-157 -13 -68 -101 0
-157 -14 -69 -102 0
-158 -1 -18 -25 0
-158 -2 -30 -37 0
-158 -3 -41 -48 0
-158 -4 -51 -58 0
-158 -6 -61 -75 0
-158 -7 -62 -82 0
-158 -8 -63 -88 0
-158 -9 -64 -93 0
-158 -10 -65 -97 0
-158 -11 -66 -100 0
-158 -13 -68 -103 0
-158 -14 -69 -104 0
-159 -1 -18 -26 0
-159 -2 -30 -38 0
-159 -3 -41 -49 0
-159 -4 -51 -59 0
-159 -6 -61 -76 0
-159 -7 -62 -83 0
-159 -8 -63 -89 0
-159 -9 -64 -94 0
-159 -10 -65 -98 0
-159 -11 -66 -101 0
-159 -12 -67 -103 0
-159 -14 -69 -105 0
-160 -1 -18 -27 0
-160 -2 -30 -39 0
-160 -3 -41 -50 0
-160 -4 -51 -60 0
-160 -6 -61 -77 0
-160 -7 -62 -84 0
-160 -8 -63 -90 0
-160 -9 -64 -95 0
-160 -10 -65 -99 0
-160 -11 -66 -102 0
-160 -12 -67 -104 0
-160 -13 -68 -105 0
-161 -1 -19 -20 0
-161 -2 -31 -32 0
-161 -3 -42 -43 0
-161 -4 -52 -53 0
-161 -5 -61 -62 0
-161 -8 -71 -78 0
-161 -9 -72 -79 0
-161 -10 -73 -80 0
-161 -11 -74 -81 0
-161 -12 -75 -82 0
-161 -13 -76 -83 0
-161 -14 -77 -84 0
-162 -1 -19 -21 0
-162 -2 -31 -33 0
-162 -3 -42 -44 0
-162 -4 -52 -54 0
-162 -5 -61 -63 0
-162 -7 -70 -78 0
-162 -9 -72 -85 0
-162 -10 -73 -86 0
-162 -11 -74 -87 0
-162 -12 -75 -88 0
-162 -13 -76 -89 0
-162 -14 -77 -90 0
-163 -1 -19 -22 0
-163 -2 -31 -34 0
-163 -3 -42 -45 0
-163 -4 -52 -55 0
-163 -5 -61 -64 0
-163 -7 -70 -79 0
-163 -8 -71 -85 0
-163 -10 -73 -91 0
-163 -11 -74 -92 0
-163 -12 -75 -93 0
-163 -13 -76 -94 0
-163 -14 -77 -95 0
-164 -1 -19 -23 0
-164 -2 -31 -35 0
-164 -3 -42 -46 0
-164 -4 -52 -56 0
-164 -5 -61 -65 0
-164 -7 -70 -80 0
-164 -8 -71 -86 0
-164 -9 -72 -91 0
-164 -11 -74 -96 0
-164 -12 -75 -97 0
-164 -13 -76 -98 0
-164 -14 -77 -99 0
-165 -1 -19 -24 0
-165 -2 -31 -36 0
-165 -3 -42 -47 0
-165 -4 -52 -57 0
-165 -5 -61 -66 0
-165 -7 -70 -81 0
-165 -8 -71 -87 0
-165 -9 -72 -92 0
-165 -10 -73 -96 0
-165 -12 -75 -100 0
-165 -13 -76 -101 0
-165 -14 -77 -102 0
-166 -1 -19 -25 0
-166 -2 -31 -37 0
-166 -3 -42 -48 0
-166 -4 -52 -58 0
-166 -5 -61 -67 0
-166 -7 -70 -82 0
-166 -8 -71 -88 0
-166 -9 -72 -93 0
-166 -10 -73 -97 0
-166 -11 -74 -100 0
-166 -13 -76 -103 0
-166 -14 -77 -104 0
-167 -1 -19 -26 0
-167 -2 -31 -38 0
-167 -3 -42 -49 0
-167 -4 -52 -59 0
-167 -5 -61 -68 0
-167 -7 -70 -83 0
-167 -8 -71 -89 0
-167 -9 -72 -94 0
-167 -10 -73 -98 0
-167 -11 -74 -101 0
-167 -12 -75 -103 0
-167 -14 -77 -105 0
-168 -1 -19 -27 0
-168 -2 -31 -39 0
-168 -3 -42 -50 0
-168 -4 -52 -60 0
-168 -5 -61 -69 0
-168 -7 -70 -84 0
-168 -8 -71 -90 0
-168 -9 -72 -95 0
-168 -10 -73 -99 0
-168 -11 -74 -102 0
-168 -12 -75 -104 0
-168 -13 -76 -105 0
-169 -1 -20 -21 0
-169 -2 -32 -33 0
-169 -3 -43 -44 0
-169 -4 -53 -54 0
-169 -5 -62 -63 0
-169 -6 -70 -71 0
-169 -9 -79 -85 0
-169 -10 -80 -86 0
-169 -11 -81 -87 0
-169 -12 -82 -88 0
-169 -13 -83 -89 0
-169 -14 -84 -90 0
-170 -1 -20 -22 0
-170 -2 -32 -34 0
-170 -3 -43 -45 0
-170 -4 -53 -55 0
-170 -5 -62 -64 0
-170 -6 -70 -72 0
-170 -8 -78 -85 0
-170 -10 -80 -91 0
-170 -11 -81 -92 0
-170 -12 -82 -93 0
-170 -13 -83 -94 0
-170 -14 -84 -95 0
-171 -1 -20 -23 0
-171 -2 -32 -35 0
-171 -3 -43 -46 0
-171 -4 -53 -56 0
-171 -5 -62 -65 0
-171 -6 -70 -73 0
-171 -8 -78 -86 0
-171 -9 -79 -91 0
-171 -11 -81 -96 0
-171 -12 -82 -97 0
-171 -13 -83 -98 0
-171 -14 -84 -99 0
-172 -1 -20 -24 0
-172 -2 -32 -36 0
-172 -3 -43 -47 0
-172 -4 -53 -57 0
-172 -5 -62 -66 0
-172 -6 -70 -74 0
-172 -8 -78 -87 0
-172 -9 -79 -92 0
-172 -10 -80 -96 0
-172 -12 -82 -100 0
-172 -13 -83 -101 0
-172 -14 -84 -102 0
-173 -1 -20 -25 0
-173 -2 -32 -37 0
-173 -3 -43 -48 0
-173 -4 -53 -58 0
-173 -5 -62 -67 0
-173 -6 -70 -75 0
-173 -8 -78 -88 0
-173 -9 -79 -93 0
-173 -10 -80 -97 0
-173 -11 -81 -100 0
-173 -13 -83 -103 0
-173 -14 -84 -104 0
-174 -1 -20 -26 0
-174 -2 -32 -38 0
-174 -3 -43 -49 0
-174 -4 -53 -59 0
-174 -5 -62 -68 0
-174 -6 -70 -76 0
-174 -8 -78 -89 0
-174 -9 -79 -94 0
-174 -10 -80 -98 0
-174 -11 -81 -101 0
-174 -12 -82 -103 0
-174 -14 -84 -105 0
-175 -1 -20 -27 0
-175 -2 -32 -39 0
-175 -3 -43 -50 0
-175 -4 -53 -60 0
-175 -5 -62 -69 0
-175 -6 -70 -77 0
-175 -8 -78 -90 0
-175 -9 -79 -95 0
-175 -10 -80 -99 0
-175 -11 -81 -102 0
-175 -12 -82 -104 0
-175 -13 -83 -105 0
-176 -1 -21 -22 0
-176 -2 -33 -34 0
-176 -3 -44 -45 0
-176 -4 -54 -55 0
-176 -5 -63 -64 0
-176 -6 -71 -72 0
-176 -7 -78 -79 0
-176 -10 -86 -91 0
-176 -11 -87 -92 0
-176 -12 -88 -93 0
-176 -13 -89 -94 0
-176 -14 -90 -95 0
-177 -1 -21 -23 0
-177 -2 -33 -35 0
-177 -3 -44 -46 0
-177 -4 -54 -56 0
-177 -5 -63 -65 0
-177 -6 -71 -73 0
-177 -7 -78 -80 0
-177 -9 -85 -91 0
-177 -11 -87 -96 0
-177 -12 -88 -97 0
-177 -13 -89 -98 0
-177 -14 -90 -99 0
-178 -1 -21 -24 0
-178 -2 -33 -36 0
-178 -3 -44 -47 0
-178 -4 -54 -57 0
-178 -5 -63 -66 0
-178 -6 -71 -74 0
-178 -7 -78 -81 0
-178 -9 -85 -92 0
-178 -10 -86 -96 0
-178 -12 -88 -100 0
-178 -13 -89 -101 0
-178 -14 -90 -102 0
-179 -1 -21 -25 0
-179 -2 -33 -37 0
-179 -3 -44 -48 0
-179 -4 -54 -58 0
-179 -5 -63 -67 0
-179 -6 -71 -75 0
-179 -7 -78 -82 0
-179 -9 -85 -93 0
-179 -10 -86 -97 0
-179 -11 -87 -100 0
-179 -13 -89 -103 0
-179 -14 -90 -104 0
-180 -1 -21 -26 0
-180 -2 -33 -38 0
-180 -3 -44 -49 0
-180 -4 -54 -59 0
-180 -5 -63 -68 0
-180 -6 -71 -76 0
-180 -7 -78 -83 0
-180 -9 -85 -94 0
-180 -10 -86 -98 0
-180 -11 -87 -101 0
-180 -12 -88 -103 0
-180 -14 -90 -105 0
-181 -1 -21 -27 0
-181 -2 -33 -39 0
-181 -3 -44 -50 0
-181 -4 -54 -60 0
-181 -5 -63 -69 0
-181 -6 -71 -77 0
-181 -7 -78 -84 0
-181 -9 -85 -95 0
-181 -10 -86 -99 0
-181 -11 -87 -102 0
-181 -12 -88 -104 0
-181 -13 -89 -105 0
-182 -1 -22 -23 0
-182 -2 -34 -35 0
-182 -3 -45 -46 0
-182 -4 -55 -56 0
-182 -5 -64 -65 0
-182 -6 -72 -73 0
-182 -7 -79 -80 0
-182 -8 -85 -86 0
-182 -11 -92 -96 0
-182 -12 -93 -97 0
-182 -13 -94 -98 0
-182 -14 -95 -99 0
-183 -1 -22 -24 0
-183 -2 -34 -36 0
-183 -3 -45 -47 0
-183 -4 -55 -57 0
-183 -5 -64 -66 0
-183 -6 -72 -74 0
-183 -7 -79 -81 0
-183 -8 -85 -87 0
-183 -10 -91 -96 0
-183 -12 -93 -100 0
-183 -13 -94 -101 0
-183 -14 -95 -102 0
-184 -1 -22 -25 0
-184 -2 -34 -37 0
-184 -3 -45 -48 0
-184 -4 -55 -58 0
-184 -5 -64 -67 0
-184 -6 -72 -75 0
-184 -7 -79 -82 0
-184 -8 -85 -88 0
-184 -10 -91 -97 0
-184 -11 -92 -100 0
-184 -13 -94 -103 0
-184 -14 -95 -104 0
-185 -1 -22 -26 0
-185 -2 -34 -38 0
-185 -3 -45 -49 0
-185 -4 -55 -59 0
-185 -5 -64 -68 0
-185 -6 -72 -76 0
-185 -7 -79 -83 0
-185 -8 -85 -89 0
-185 -10 -91 -98 0
-185 -11 -92 -101 0
-185 -12 -93 -103 0
-185 -14 -95 -105 0
-186 -1 -22 -27 0
-186 -2 -34 -39 0
-186 -3 -45 -50 0
-186 -4 -55 -60 0
-186 -5 -64 -69 0
-186 -6 -72 -77 0
-186 -7 -79 -84 0
-186 -8 -85 -90 0
-186 -10 -91 -99 0
-186 -11 -92 -102 0
-186 -12 -93 -104 0
-186 -13 -94 -105 0
-187 -1 -23 -24 0
-187 -2 -35 -36 0
-187 -3 -46 -47 0
-187 -4 -56 -57 0
-187 -5 -65 -66 0
-187 -6 -73 -74 0
-187 -7 -80 -81 0
-187 -8 -86 -87 0
-187 -9 -91 -92 0
-187 -12 -97 -100 0
-187 -13 -98 -101 0
-187 -14 -99 -102 0
-188 -1 -23 -25 0
-188 -2 -35 -37 0
-188 -3 -46 -48 0
-188 -4 -56 -58 0
-188 -5 -65 -67 0
-188 -6 -73 -75 0
-188 -7 -80 -82 0
-188 -8 -86 -88 0
-188 -9 -91 -93 0
-188 -11 -96 -100 0
-188 -13 -98 -103 0
-188 -14 -99 -104 0
-189 -1 -23 -26 0
-189 -2 -35 -38 0
-189 -3 -46 -49 0
-189 -4 -56 -59 0
-189 -5 -65 -68 0
-189 -6 -73 -76 0
-189 -7 -80 -83 0
-189 -8 -86 -89 0
-189 -9 -91 -94 0
-189 -11 -96 -101 0
-189 -12 -97 -103 0
-189 -14 -99 -105 0
-190 -1 -23 -27 0
-190 -2 -35 -39 0
-190 -3 -46 -50 0
-190 -4 -56 -60 0
-190 -5 -65 -69 0
-190 -6 -73 -77 0
-190 -7 -80 -84 0
-190 -8 -86 -90 0
-190 -9 -91 -95 0
-190 -11 -96 -102 0
-190 -12 -97 -104 0
-190 -13 -98 -105 0
-191 -1 -24 -25 0
-191 -2 -36 -37 0
-191 -3 -47 -48 0
-191 -4 -57 -58 0
-191 -5 -66 -67 0
-191 -6 -74 -75 0
-191 -7 -81 -82 0
-191 -8 -87 -88 0
-191 -9 -92 -93 0
-191 -10 -96 -97 0
-191 -13 -101 -103 0
-191 -14 -102 -104 0
-192 -1 -24 -26 0
-192 -2 -36 -38 0
-192 -3 -47 -49 0
-192 -4 -57 -59 0
-192 -5 -66 -68 0
-192 -6 -74 -76 0
-192 -7 -81 -83 0
-192 -8 -87 -89 0
-192 -9 -92 -94 0
-192 -10 -96 -98 0
-192 -12 -100 -103 0
-192 -14 -102 -105 0
-193 -1 -24 -27 0
-193 -2 -36 -39 0
-193 -3 -47 -50 0
-193 -4 -57 -60 0
-193 -5 -66 -69 0
-193 -6 -74 -77 0
-193 -7 -81 -84 0
-193 -8 -87 -90 0
-193 -9 -92 -95 0
-193 -10 -96 -99 0
-193 -12 -100 -104 0
-193 -13 -101 -105 0
-194 -1 -25 -26 0
-194 -2 -37 -38 0
-194 -3 -48 -49 0
-194 -4 -58 -59 0
-194 -5 -67 -68 0
-194 -6 -75 -76 0
-194 -7 -82 -83 0
-194 -8 -88 -89 0
-194 -9 -93 -94 0
-194 -10 -97 -98 0
-194 -11 -100 -101 0
-194 -14 -104 -105 0
-195 -1 -25 -27 0
-195 -2 -37 -39 0
-195 -3 -48 -50 0
-195 -4 -58 -60 0
-195 -5 -67 -69 0
-195 -6 -75 -77 0
-195 -7 -82 -84 0
-195 -8 -88 -90 0
-195 -9 -93 -95 0
-195 -10 -97 -99 0
-195 -11 -100 -102 0
-195 -13 -103 -105 0
-196 -1 -26 -27 0
-196 -2 -38 -39 0
-196 -3 -49 -50 0
-196 -4 -59 -60 0
-196 -5 -68 -69 0
-196 -6 -76 -77 0
-196 -7 -83 -84 0
-196 -8 -89 -90 0
-196 -9 -94 -95 0
-196 -10 -98 -99 0
-196 -11 -101 -102 0
-196 -12 -103 -104 0
-197 -1 -2 -3 0
-197 -17 -29 -40 0
-197 -18 -30 -41 0
-197 -19 -31 -42 0
-197 -20 -32 -43 0
-197 -21 -33 -44 0
-197 -22 -34 -45 0
-197 -23 -35 -46 0
-197 -24 -36 -47 0
-197 -25 -37 -48 0
-197 -26 -38 -49 0
-197 -27 -39 -50 0
-198 -1 -2 -4 0
-198 -16 -28 -40 0
-198 -18 -30 -51 0
-198 -19 -31 -52 0
-198 -20 -32 -53 0
-198 -21 -33 -54 0
-198 -22 -34 -55 0
-198 -23 -35 -56 0
-198 -24 -36 -57 0
-198 -25 -37 -58 0
-198 -26 -38 -59 0
-198 -27 -39 -60 0
-199 -1 -2 -5 0
-199 -16 -28 -41 0
-199 -17 -29 -51 0
-199 -19 -31 -61 0
-199 -20 -32 -62 0
-199 -21 -33 -63 0
-199 -22 -34 -64 0
-199 -23 -35 -65 0
-199 -24 -36 -66 0
-199 -25 -37 -67 0
-199 -26 -38 -68 0
-199 -27 -39 -69 0
-200 -1 -2 -6 0
-200 -16 -28 -42 0
-200 -17 -29 -52 0
-200 -18 -30 -61 0
-200 -20 -32 -70 0
-200 -21 -33 -71 0
-200 -22 -34 -72 0
-200 -23 -35 -73 0
-200 -24 -36 -74 0
-200 -25 -37 -75 0
-200 -26 -38 -76 0
-200 -27 -39 -77 0
-201 -1 -2 -7 0
-201 -16 -28 -43 0
-201 -17 -29 -53 0
-201 -18 -30 -62 0
-201 -19 -31 -70 0
-201 -21 -33 -78 0
-201 -22 -34 -79 0
-201 -23 -35 -80 0
-201 -24 -36 -81 0
-201 -25 -37 -82 0
-201 -26 -38 -83 0
-201 -27 -39 -84 0
-202 -1 -2 -8 0
-202 -16 -28 -44 0
-202 -17 -29 -54 0
-202 -18 -30 -63 0
-202 -19 -31 -71 0
-202 -20 -32 -78 0
-202 -22 -34 -85 0
-202 -23 -35 -86 0
-202 -24 -36 -87 0
-202 -25 -37 -88 0
-202 -26 -38 -89 0
-202 -27 -39 -90 0
-203 -1 -2 -9 0
-203 -16 -28 -45 0
-203 -17 -29 -55 0
-203 -18 -30 -64 0
-203 -19 -31 -72 0
-203 -20 -32 -79 0
-203 -21 -33 -85 0
-203 -23 -35 -91 0
-203 -24 -36 -92 0
-203 -25 -37 -93 0
-203 -26 -38 -94 0
-203 -27 -39 -95 0
-204 -1 -2 -10 0
-204 -16 -28 -46 0
-204 -17 -29 -56 0
-204 -18 -30 -65 0
-204 -19 -31 -73 0
-204 -20 -32 -80 0
-204 -21 -33 -86 0
-204 -22 -34 -91 0
-204 -24 -36 -96 0
-204 -25 -37 -97 0
-204 -26 -38 -98 0
-204 -27 -39 -99 0
-205 -1 -2 -11 0
-205 -16 -28 -47 0
-205 -17 -29 -57 0
-205 -18 -30 -66 0
-205 -19 -31 -74 0
-205 -20 -32 -81 0
-205 -21 -33 -87 0
-205 -22 -34 -92 0
-205 -23 -35 -96 0
-205 -25 -37 -100 0
-205 -26 -38 -101 0
-205 -27 -39 -102 0
-206 -1 -2 -12 0
-206 -16 -28 -48 0
-206 -17 -29 -58 0
-206 -18 -30 -67 0
-206 -19 -31 -75 0
-206 -20 -32 -82 0
-206 -21 -33 -88 0
-206 -22 -34 -93 0
-206 -23 -35 -97 0
-206 -24 -36 -100 0
-206 -26 -38 -103 0
-206 -27 -39 -104 0
-207 -1 -2 -13 0
-207 -16 -28 -49 0
-207 -17 -29 -59 0
-207 -18 -30 -68 0
-207 -19 -31 -76 0
-207 -20 -32 -83 0
-207 -21 -33 -89 0
-207 -22 -34 -94 0
-207 -23 -35 -98 0
-207 -24 -36 -101 0
-207 -25 -37 -103 0
-207 -27 -39 -105 0
-208 -1 -2 -14 0
-208 -16 -28 -50 0
-208 -17 -29 -60 0
-208 -18 -30 -69 0
-208 -19 -31 -77 0
-208 -20 -32 -84 0
-208 -21 -33 -90 0
-208 -22 -34 -95 0
-208 -23 -35 -99 0
-208 -24 -36 -102 0
-208 -25 -37 -104 0
-208 -26 -38 -105 0
-209 -1 -3 -4 0
-209 -15 -28 -29 0
-209 -18 -41 -51 0
-209 -19 -42 -52 0
-209 -20 -43 -53 0
-209 -21 -44 -54 0
-209 -22 -45 -55 0
-209 -23 -46 -56 0
-209 -24 -47 -57 0
-209 -25 -48 -58 0
-209 -26 -49 -59 0
-209 -27 -50 -60 0
-210 -1 -3 -5 0
-210 -15 -28 -30 0
-210 -17 -40 -51 0
-210 -19 -42 -61 0
-210 -20 -43 -62 0
-210 -21 -44 -63 0
-210 -22 -45 -64 0
-210 -23 -46 -65 0
-210 -24 -47 -66 0
-210 -25 -48 -67 0
-210 -26 -49 -68 0
-210 -27 -50 -69 0
-211 -1 -3 -6 0
-211 -15 -28 -31 0
-211 -17 -40 -52 0
-211 -18 -41 -61 0
-211 -20 -43 -70 0
-211 -21 -44 -71 0
-211 -22 -45 -72 0
-211 -23 -46 -73 0
-211 -24 -47 -74 0
-211 -25 -48 -75 0
-211 -26 -49 -76 0
-211 -27 -50 -77 0
-212 -1 -3 -7 0
-212 -15 -28 -32 0
-212 -17 -40 -53 0
-212 -18 -41 -62 0
-212 -19 -42 -70 0
-212 -21 -44 -78 0
-212 -22 -45 -79 0
-212 -23 -46 -80 0
-212 -24 -47 -81 0
-212 -25 -48 -82 0
-212 -26 -49 -83 0
-212 -27 -50 -84 0
-213 -1 -3 -8 0
-213 -15 -28 -33 0
-213 -17 -40 -54 0
-213 -18 -41 -63 0
-213 -19 -42 -71 0
-213 -20 -43 -78 0
-213 -22 -45 -85 0
-213 -23 -46 -86 0
-213 -24 -47 -87 0
-213 -25 -48 -88 0
-213 -26 -49 -89 0
-213 -27 -50 -90 0
-214 -1 -3 -9 0
-214 -15 -28 -34 0
-214 -17 -40 -55 0
-214 -18 -41 -64 0
-214 -19 -42 -72 0
-214 -20 -43 -79 0
-214 -21 -44 -85 0
-214 -23 -46 -91 0
-214 -24 -47 -92 0
-214 -25 -48 -93 0
-214 -26 -49 -94 0
-214 -27 -50 -95 0
-215 -1 -3 -10 0
-215 -15 -28 -35 0
-215 -17 -40 -56 0
-215 -18 -41 -65 0
-215 -19 -42 -73 0
-215 -20 -43 -80 0
-215 -21 -44 -86 0
-215 -22 -45 -91 0
-215 -24 -47 -96 0
-215 -25 -48 -97 0
-215 -26 -49 -98 0
-215 -27 -50 -99 0
-216 -1 -3 -11 0
-216 -15 -28 -36 0
-216 -17 -40 -57 0
-216 -18 -41 -66 0
-216 -19 -42 -74 0
-216 -20 -43 -81 0
-216 -21 -44 -87 0
-216 -22 -45 -92 0
-216 -23 -46 -96 0
-216 -25 -48 -100 0
-216 -26 -49 -101 0
-216 -27 -50 -102 0
-217 -1 -3 -12 0
-217 -15 -28 -37 0
-217 -17 -40 -58 0
-217 -18 -41 -67 0
-217 -19 -42 -75 0
-217 -20 -43 -82 0
-217 -21 -44 -88 0
-217 -22 -45 -93 0
-217 -23 -46 -97 0
-217 -24 -47 -100 0
-217 -26 -49 -103 0
-217 -27 -50 -104 0
-218 -1 -3 -13 0
-218 -15 -28 -38 0
-218 -17 -40 -59 0
-218 -18 -41 -68 0
-218 -19 -42 -76 0
-218 -20 -43 -83 0
-218 -21 -44 -89 0
-218 -22 -45 -94 0
-218 -23 -46 -98 0
-218 -24 -47 -101 0
-218 -25 -48 -103 0
-218 -27 -50 -105 0
-219 -1 -3 -14 0
-219 -15 -28 -39 0
-219 -17 -40 -60 0
-219 -18 -41 -69 0
-219 -19 -42 -77 0
-219 -20 -43 -84 0
-219 -21 -44 -90 0
-219 -22 -45 -95 0
-219 -23 -46 -99 0
-219 -24 -47 -102 0
-219 -25 -48 -104 0
-219 -26 -49 -105 0
-220 -1 -4 -5 0
-220 -15 -29 -30 0
-220 -16 -40 -41 0
-220 -19 -52 -61 0
-220 -20 -53 -62 0
-220 -21 -54 -63 0
-220 -22 -55 -64 0
-220 -23 -56 -65 0
-220 -24 -57 -66 0
-220 -25 -58 -67 0
-220 -26 -59 -68 0
-220 -27 -60 -69 0
-221 -1 -4 -6 0
-221 -15 -29 -31 0
-221 -16 -40 -42 0
-221 -18 -51 -61 0
-221 -20 -53 -70 0
-221 -21 -54 -71 0
-221 -22 -55 -72 0
-221 -23 -56 -73 0
-221 -24 -57 -74 0
-221 -25 -58 -75 0
-221 -26 -59 -76 0
-221 -27 -60 -77 0
-222 -1 -4 -7 0
-222 -15 -29 -32 0
-222 -16 -40 -43 0
-222 -18 -51 -62 0
-222 -19 -52 -70 0
-222 -21 -54 -78 0
-222 -22 -55 -79 0
-222 -23 -56 -80 0
-222 -24 -57 -81 0
-222 -25 -58 -82 0
-222 -26 -59 -83 0
-222 -27 -60 -84 0
-223 -1 -4 -8 0
-223 -15 -29 -33 0
-223 -16 -40 -44 0
-223 -18 -51 -63 0
-223 -19 -52 -71 0
-223 -20 -53 -78 0
-223 -22 -55 -85 0
-223 -23 -56 -86 0
-223 -24 -57 -87 0
-223 -25 -58 -88 0
-223 -26 -59 -89 0
-223 -27 -60 -90 0
-224 -1 -4 -9 0
-224 -15 -29 -34 0
-224 -16 -40 -45 0
-224 -18 -51 -64 0
-224 -19 -52 -72 0
-224 -20 -53 -79 0
-224 -21 -54 -85 0
-224 -23 -56 -91 0
-224 -24 -57 -92 0
-224 -25 -58 -93 0
-224 -26 -59 -94 0
-224 -27 -60 -95 0
-225 -1 -4 -10 0
-225 -15 -29 -35 0
-225 -16 -40 -46 0
-225 -18 -51 -65 0
-225 -19 -52 -73 0
-225 -20 -53 -80 0
-225 -21 -54 -86 0
-225 -22 -55 -91 0
-225 -24 -57 -96 0
-225 -25 -58 -97 0
-225 -26 -59 -98 0
-225 -27 -60 -99 0
-226 -1 -4 -11 0
-226 -15 -29 -36 0
-226 -16 -40 -47 0
-226 -18 -51 -66 0
-226 -19 -52 -74 0
-226 -20 -53 -81 0
-226 -21 -54 -87 0
-226 -22 -55 -92 0
-226 -23 -56 -96 0
-226 -25 -58 -100 0
-226 -26 -59 -101 0
-226 -27 -60 -102 0
-227 -1 -4 -12 0
-227 -15 -29 -37 0
-227 -16 -40 -48 0
-227 -18 -51 -67 0
-227 -19 -52 -75 0
-227 -20 -53 -82 0
-227 -21 -54 -88 0
-227 -22 -55 -93 0
-227 -23 -56 -97 0
-227 -24 -57 -100 0
-227 -26 -59 -103 0
-227 -27 -60 -104 0
-228 -1 -4 -13 0
-228 -15 -29 -38 0
-228 -16 -40 -49 0
-228 -18 -51 -68 0
-228 -19 -52 -76 0
-228 -20 -53 -83 0
-228 -21 -54 -89 0
-228 -22 -55 -94 0
-228 -23 -56 -98 0
-228 -24 -57 -101 0
-228 -25 -58 -103 0
-228 -27 -60 -105 0
-229 -1 -4 -14 0
-229 -15 -29 -39 0
-229 -16 -40 -50 0
-229 -18 -51 -69 0
-229 -19 -52 -77 0
-229 -20 -53 -84 0
-229 -21 -54 -90 0
-229 -22 -55 -95 0
-229 -23 -56 -99 0
-229 -24 -57 -102 0
-229 -25 -58 -104 0
-229 -26 -59 -105 0
-230 -1 -5 -6 0
-230 -15 -30 -31 0
-230 -16 -41 -42 0
-230 -17 -51 -52 0
-230 -20 -62 -70 0
-230 -21 -63 -71 0
-230 -22 -64 -72 0
-230 -23 -65 -73 0
-230 -24 -66 -74 0
-230 -25 -67 -75 0
-230 -26 -68 -76 0
-230 -27 -69 -77 0
-231 -1 -5 -7 0
-231 -15 -30 -32 0
-231 -16 -41 -43 0
-231 -17 -51 -53 0
-231 -19 -61 -70 0
-231 -21 -63 -78 0
-231 -22 -64 -79 0
-231 -23 -65 -80 0
-231 -24 -66 -81 0
-231 -25 -67 -82 0
-231 -26 -68 -83 0
-231 -27 -69 -84 0
-232 -1 -5 -8 0
-232 -15 -30 -33 0
-232 -16 -41 -44 0
-232 -17 -51 -54 0
-232 -19 -61 -71 0
-232 -20 -62 -78 0
-232 -22 -64 -85 0
-232 -23 -65 -86 0
-232 -24 -66 -87 0
-232 -25 -67 -88 0
-232 -26 -68 -89 0
-232 -27 -69 -90 0
-233 -1 -5 -9 0
-233 -15 -30 -34 0
-233 -16 -41 -45 0
-233 -17 -51 -55 0
-233 -19 -61 -72 0
-233 -20 -62 -79 0
-233 -21 -63 -85 0
-233 -23 -65 -91 0
-233 -24 -66 -92 0
-233 -25 -67 -93 0
-233 -26 -68 -94 0
-233 -27 -69 -95 0
-234 -1 -5 -10 0
-234 -15 -30 -35 0
-234 -16 -41 -46 0
-234 -17 -51 -56 0
-234 -19 -61 -73 0
-234 -20 -62 -80 0
-234 -21 -63 -86 0
-234 -22 -64 -91 0
-234 -24 -66 -96 0
-234 -25 -67 -97 0
-234 -26 -68 -98 0
-234 -27 -69 -99 0
-235 -1 -5 -11 0
-235 -15 -30 -36 0
-235 -16 -41 -47 0
-235 -17 -51 -57 0
-235 -19 -61 -74 0
-235 -20 -62 -81 0
-235 -21 -63 -87 0
-235 -22 -64 -92 0
-235 -23 -65 -96 0
-235 -25 -67 -100 0
-235 -26 -68 -101 0
-235 -27 -69 -102 0
-236 -1 -5 -12 0
-236 -15 -30 -37 0
-236 -16 -41 -48 0
-236 -17 -51 -58 0
-236 -19 -61 -75 0
-236 -20 -62 -82 0
-236 -21 -63 -88 0
-236 -22 -64 -93 0
-236 -23 -65 -97 0
-236 -24 -66 -100 0
-236 -26 -68 -103 0
-236 -27 -69 -104 0
-237 -1 -5 -13 0
-237 -15 -30 -38 0
-237 -16 -41 -49 0
-237 -17 -51 -59 0
-237 -19 -61 -76 0
-237 -20 -62 -83 0
-237 -21 -63 -89 0
-237 -22 -64 -94 0
-237 -23 -65 -98 0
-237 -24 -66 -101 0
-237 -25 -67 -103 0
-237 -27 -69 -105 0
-238 -1 -5 -14 0
-238 -15 -30 -39 0
-238 -16 -41 -50 0
-238 -17 -51 -60 0
-238 -19 -61 -77 0
-238 -20 -62 -84 0
-238 -21 -63 -90 0
-238 -22 -64 -95 0
-238 -23 -65 -99 0
-238 -24 -66 -102 0
-238 -25 -67 -104 0
-238 -26 -68 -105 0
-239 -1 -6 -7 0
-239 -15 -31 -32 0
-239 -16 -42 -43 0
-239 -17 -52 -53 0
-239 -18 -61 -62 0
-239 -21 -71 -78 0
-239 -22 -72 -79 0
-239 -23 -73 -80 0
-239 -24 -74 -81 0
-239 -25 -75 -82 0
-239 -26 -76 -83 0
-239 -27 -77 -84 0
-240 -1 -6 -8 0
-240 -15 -31 -33 0
-240 -16 -42 -44 0
-240 -17 -52 -54 0
-240 -18 -61 -63 0
-240 -20 -70 -78 0
-240 -22 -72 -85 0
-240 -23 -73 -86 0
-240 -24 -74 -87 0
-240 -25 -75 -88 0
-240 -26 -76 -89 0
-240 -27 -77 -90 0
-241 -1 -6 -9 0
-241 -15 -31 -34 0
-241 -16 -42 -45 0
-241 -17 -52 -55 0
-241 -18 -61 -64 0
-241 -20 -70 -79 0
-241 -21 -71 -85 0
-241 -23 -73 -91 0
-241 -24 -74 -92 0
-241 -25 -75 -93 0
-241 -26 -76 -94 0
-241 -27 -77 -95 0
-242 -1 -6 -10 0
-242 -15 -31 -35 0
-242 -16 -42 -46 0
-242 -17 -52 -56 0
-242 -18 -61 -65 0
-242 -20 -70 -80 0
-242 -21 -71 -86 0
-242 -22 -72 -91 0
-242 -24 -74 -96 0
-242 -25 -75 -97 0
-242 -26 -76 -98 0
-242 -27 -77 -99 0
-243 -1 -6 -11 0
-243 -15 -31 -36 0
-243 -16 -42 -47 0
-243 -17 -52 -57 0
-243 -18 -61 -66 0
-243 -20 -70 -81 0
-243 -21 -71 -87 0
-243 -22 -72 -92 0
-243 -23 -73 -96 0
-243 -25 -75 -100 0
-243 -26 -76 -101 0
-243 -27 -77 -102 0
-244 -1 -6 -12 0
-244 -15 -31 -37 0
-244 -16 -42 -48 0
-244 -17 -52 -58 0
-244 -18 -61 -67 0
-244 -20 -70 -82 0
-244 -21 -71 -88 0
-244 -22 -72 -93 0
-244 -23 -73 -97 0
-244 -24 -74 -100 0
-244 -26 -76 -103 0
-244 -27 -77 -104 0
-245 -1 -6 -13 0
-245 -15 -31 -38 0
-245 -16 -42 -49 0
-245 -17 -52 -59 0
-245 -18 -61 -68 0
-245 -20 -70 -83 0
-245 -21 -71 -89 0
-245 -22 -72 -94 0
-245 -23 -73 -98 0
-245 -24 -74 -101 0
-245 -25 -75 -103 0
-245 -27 -77 -105 0
-246 -1 -6 -14 0
-246 -15 -31 -39 0
-246 -16 -42 -50 0
-246 -17 -52 -60 0
-246 -18 -61 -69 0
-246 -20 -70 -84 0
-246 -21 -71 -90 0
-246 -22 -72 -95 0
-246 -23 -73 -99 0
-246 -24 -74 -102 0
-246 -25 -75 -104 0
-246 -26 -76 -105 0
-247 -1 -7 -8 0
-247 -15 -32 -33 0
-247 -16 -43 -44 0
-247 -17 -53 -54 0
-247 -18 -62 -63 0
-247 -19 -70 -71 0
-247 -22 -79 -85 0
-247 -23 -80 -86 0
-247 -24 -81 -87 0
-247 -25 -82 -88 0
-247 -26 -83 -89 0
-247 -27 -84 -90 0
-248 -1 -7 -9 0
-248 -15 -32 -34 0
-248 -16 -43 -45 0
-248 -17 -53 -55 0
-248 -18 -62 -64 0
-248 -19 -70 -72 0
-248 -21 -78 -85 0
-248 -23 -80 -91 0
-248 -24 -81 -92 0
-248 -25 -82 -93 0
-248 -26 -83 -94 0
-248 -27 -84 -95 0
-249 -1 -7 -10 0
-249 -15 -32 -35 0
-249 -16 -43 -46 0
-249 -17 -53 -56 0
-249 -18 -62 -65 0
-249 -19 -70 -73 0
-249 -21 -78 -86 0
-249 -22 -79 -91 0
-249 -24 -81 -96 0
-249 -25 -82 -97 0
-249 -26 -83 -98 0
-249 -27 -84 -99 0
-250 -1 -7 -11 0
-250 -15 -32 -36 0
-250 -16 -43 -47 0
-250 -17 -53 -57 0
-250 -18 -62 -66 0
-250 -19 -70 -74 0
-250 -21 -78 -87 0
-250 -22 -79 -92 0
-250 -23 -80 -96 0
-250 -25 -82 -100 0
-250 -26 -83 -101 0
-250 -27 -84 -102 0
-251 -1 -7 -12 0
-251 -15 -32 -37 0
-251 -16 -43 -48 0
-251 -17 -53 -58 0
-251 -18 -62 -67 0
-251 -19 -70 -75 0
-251 -21 -78 -88 0
-251 -22 -79 -93 0
-251 -23 -80 -97 0
-251 -24 -81 -100 0
-251 -26 -83 -103 0
-251 -27 -84 -104 0
-252 -1 -7 -13 0
-252 -15 -32 -38 0
-252 -16 -43 -49 0
-252 -17 -53 -59 0
-252 -18 -62 -68 0
-252 -19 -70 -76 0
-252 -21 -78 -89 0
-252 -22 -79 -94 0
-252 -23 -80 -98 0
-252 -24 -81 -101 0
-252 -25 -82 -103 0
-252 -27 -84 -105 0
-253 -1 -7 -14 0
-253 -15 -32 -39 0
-253 -16 -43 -50 0
-253 -17 -53 -60 0
-253 -18 -62 -69 0
-253 -19 -70 -77 0
-253 -21 -78 -90 0
-253 -22 -79 -95 0
-253 -23 -80 -99 0
-253 -24 -81 -102 0
-253 -25 -82 -104 0
-253 -26 -83 -105 0
-254 -1 -8 -9 0
-254 -15 -33 -34 0
-254 -16 -44 -45 0
-254 -17 -54 -55 0
-254 -18 -63 -64 0
-254 -19 -71 -72 0
-254 -20 -78 -79 0
-254 -23 -86 -91 0
-254 -24 -87 -92 0
-254 -25 -88 -93 0
-254 -26 -89 -94 0
-254 -27 -90 -95 0
-255 -1 -8 -10 0
-255 -15 -33 -35 0
-255 -16 -44 -46 0
-255 -17 -54 -56 0
-255 -18 -63 -65 0
-255 -19 -71 -73 0
-255 -20 -78 -80 0
-255 -22 -85 -91 0
-255 -24 -87 -96 0
-255 -25 -88 -97 0
-255 -26 -89 -98 0
-255 -27 -90 -99 0
-256 -1 -8 -11 0
-256 -15 -33 -36 0
-256 -16 -44 -47 0
-256 -17 -54 -57 0
-256 -18 -63 -66 0
-256 -19 -71 -74 0
-256 -20 -78 -81 0
-256 -22 -85 -92 0
-256 -23 -86 -96 0
-256 -25 -88 -100 0
-256 -26 -89 -101 0
-256 -27 -90 -102 0
-257 -1 -8 -12 0
-257 -15 -33 -37 0
-257 -16 -44 -48 0
-257 -17 -54 -58 0
-257 -18 -63 -67 0
-257 -19 -71 -75 0
-257 -20 -78 -82 0
-257 -22 -85 -93 0
-257 -23 -86 -97 0
-257 -24 -87 -100 0
-257 -26 -89 -103 0
-257 -27 -90 -104 0
-258 -1 -8 -13 0
-258 -15 -33 -38 0
-258 -16 -44 -49 0
-258 -17 -54 -59 0
-258 -18 -63 -68 0
-258 -19 -71 -76 0
-258 -20 -78 -83 0
-258 -22 -85 -94 0
-258 -23 -86 -98 0
-258 -24 -87 -101 0
-258 -25 -88 -103 0
-258 -27 -90 -105 0
-259 -1 -8 -14 0
-259 -15 -33 -39 0
-259 -16 -44 -50 0
-259 -17 -54 -60 0
-259 -18 -63 -69 0
-259 -19 -71 -77 0
-259 -20 -78 -84 0
-259 -22 -85 -95 0
-259 -23 -86 -99 0
-259 -24 -87 -102 0
-259 -25 -88 -104 0
-259 -26 -89 -105 0
-260 -1 -9 -10 0
-260 -15 -34 -35 0
-260 -16 -45 -46 0
-260 -17 -55 -56 0
-260 -18 -64 -65 0
-260 -19 -72 -73 0
-260 -20 -79 -80 0
-260 -21 -85 -86 0
-260 -24 -92 -96 0
-260 -25 -93 -97 0
-260 -26 -94 -98 0
-260 -27 -95 -99 0
-261 -1 -9 -11 0
-261 -15 -34 -36 0
-261 -16 -45 -47 0
-261 -17 -55 -57 0
-261 -18 -64 -66 0
-261 -19 -72 -74 0
-261 -20 -79 -81 0
-261 -21 -85 -87 0
-261 -23 -91 -96 0
-261 -25 -93 -100 0
-261 -26 -94 -101 0
-261 -27 -95 -102 0
-262 -1 -9 -12 0
-262 -15 -34 -37 0
-262 -16 -45 -48 0
-262 -17 -55 -58 0
-262 -18 -64 -67 0
-262 -19 -72 -75 0
-262 -20 -79 -82 0
-262 -21 -85 -88 0
-262 -23 -91 -97 0
-262 -24 -92 -100 0
-262 -26 -94 -103 0
-262 -27 -95 -104 0
-263 -1 -9 -13 0
-263 -15 -34 -38 0
-263 -16 -45 -49 0
-263 -17 -55 -59 0
-263 -18 -64 -68 0
-263 -19 -72 -76 0
-263 -20 -79 -83 0
-263 -21 -85 -89 0
-263 -23 -91 -98 0
-263 -24 -92 -101 0
-263 -25 -93 -103 0
-263 -27 -95 -105 0
-264 -1 -9 -14 0
-264 -15 -34 -39 0
-264 -16 -45 -50 0
-264 -17 -55 -60 0
-264 -18 -64 -69 0
-264 -19 -72 -77 0
-264 -20 -79 -84 0
-264 -21 -85 -90 0
-264 -23 -91 -99 0
-264 -24 -92 -102 0
-264 -25 -93 -104 0
-264 -26 -94 -105 0
-265 -1 -10 -11 0
-265 -15 -35 -36 0
-265 -16 -46 -47 0
-265 -17 -56 -57 0
-265 -18 -65 -66 0
-265 -19 -73 -74 0
-265 -20 -80 -81 0
-265 -21 -86 -87 0
-265 -22 -91 -92 0
-265 -25 -97 -100 0
-265 -26 -98 -101 0
-265 -27 -99 -102 0
-266 -1 -10 -12 0
-266 -15 -35 -37 0
-266 -16 -46 -48 0
-266 -17 -56 -58 0
-266 -18 -65 -67 0
-266 -19 -73 -75 0
-266 -20 -80 -82 0
-266 -21 -86 -88 0
-266 -22 -91 -93 0
-266 -24 -96 -100 0
-266 -26 -98 -103 0
-266 -27 -99 -104 0
-267 -1 -10 -13 0
-267 -15 -35 -38 0
-267 -16 -46 -49 0
-267 -17 -56 -59 0
-267 -18 -65 -68 0
-267 -19 -73 -76 0
-267 -20 -80 -83 0
-267 -21 -86 -89 0
-267 -22 -91 -94 0
-267 -24 -96 -101 0
-267 -25 -97 -103 0
-267 -27 -99 -105 0
-268 -1 -10 -14 0
-268 -15 -35 -39 0
-268 -16 -46 -50 0
-268 -17 -56 -60 0
-268 -18 -65 -69 0
-268 -19 -73 -77 0
-268 -20 -80 -84 0
-268 -21 -86 -90 0
-268 -22 -91 -95 0
-268 -24 -96 -102 0
-268 -25 -97 -104 0
-268 -26 -98 -105 0
-269 -1 -11 -12 0
-269 -15 -36 -37 0
-269 -16 -47 -48 0
-269 -17 -57 -58 0
-269 -18 -66 -67 0
-269 -19 -74 -75 0
-269 -20 -81 -82 0
-269 -21 -87 -88 0
-269 -22 -92 -93 0
-269 -23 -96 -97 0
-269 -26 -101 -103 0
-269 -27 -102 -104 0
-270 -1 -11 -13 0
-270 -15 -36 -38 0
-270 -16 -47 -49 0
-270 -17 -57 -59 0
-270 -18 -66 -68 0
-270 -19 -74 -76 0
-270 -20 -81 -83 0
-270 -21 -87 -89 0
-270 -22 -92 -94 0
-270 -23 -96 -98 0
-270 -25 -100 -103 0
-270 -27 -102 -105 0
-271 -1 -11 -14 0
-271 -15 -36 -39 0
-271 -16 -47 -50 0
-271 -17 -57 -60 0
-271 -18 -66 -69 0
-271 -19 -74 -77 0
-271 -20 -81 -84 0
-271 -21 -87 -90 0
-271 -22 -92 -95 0
-271 -23 -96 -99 0
-271 -25 -100 -104 0
-271 -26 -101 -105 0
-272 -1 -12 -13 0
-272 -15 -37 -38 0
-272 -16 -48 -49 0
-272 -17 -58 -59 0
-272 -18 -67 -68 0
-272 -19 -75 -76 0
-272 -20 -82 -83 0
-272 -21 -88 -89 0
-272 -22 -93 -94 0
-272 -23 -97 -98 0
-272 -24 -100 -101 0
-272 -27 -104 -105 0
-273 -1 -12 -14 0
-273 -15 -37 -39 0
-273 -16 -48 -50 0
-273 -17 -58 -60 0
-273 -18 -67 -69 0
-273 -19 -75 -77 0
-273 -20 -82 -84 0
-273 -21 -88 -90 0
-273 -22 -93 -95 0
-273 -23 -97 -99 0
-273 -24 -100 -102 0
-273 -26 -103 -105 0
-274 -1 -13 -14 0
-274 -15 -38 -39 0
-274 -16 -49 -50 0
-274 -17 -59 -60 0
-274 -18 -68 -69 0
-274 -19 -76 -77 0
-274 -20 -83 -84 0
-274 -21 -89 -90 0
-274 -22 -94 -95 0
-274 -23 -98 -99 0
-274 -24 -101 -102 0
-274 -25 -103 -104 0
-275 -2 -3 -4 0
-275 -15 -16 -17 0
-275 -30 -41 -51 0
-275 -31 -42 -52 0
-275 -32 -43 -53 0
-275 -33 -44 -54 0
-275 -34 -45 -55 0
-275 -35 -46 -56 0
-275 -36 -47 -57 0
-275 -37 -48 -58 0
-275 -38 -49 -59 0
-275 -39 -50 -60 0
-276 -2 -3 -5 0
-276 -15 -16 -18 0
-276 -29 -40 -51 0
-276 -31 -42 -61 0
-276 -32 -43 -62 0
-276 -33 -44 -63 0
-276 -34 -45 -64 0
-276 -35 -46 -65 0
-276 -36 -47 -66 0
-276 -37 -48 -67 0
-276 -38 -49 -68 0
-276 -39 -50 -69 0
-277 -2 -3 -6 0
-277 -15 -16 -19 0
-277 -29 -40 -52 0
-277 -30 -41 -61 0
-277 -32 -43 -70 0
-277 -33 -44 -71 0
-277 -34 -45 -72 0
-277 -35 -46 -73 0
-277 -36 -47 -74 0
-277 -37 -48 -75 0
-277 -38 -49 -76 0
-277 -39 -50 -77 0
-278 -2 -3 -7 0
-278 -15 -16 -20 0
-278 -29 -40 -53 0
-278 -30 -41 -62 0
-278 -31 -42 -70 0
-278 -33 -44 -78 0
-278 -34 -45 -79 0
-278 -35 -46 -80 0
-278 -36 -47 -81 0
-278 -37 -48 -82 0
-278 -38 -49 -83 0
-278 -39 -50 -84 0
-279 -2 -3 -8 0
-279 -15 -16 -21 0
-279 -29 -40 -54 0
-279 -30 -41 -63 0
-279 -31 -42 -71 0
-279 -32 -43 -78 0
-279 -34 -45 -85 0
-279 -35 -46 -86 0
-279 -36 -47 -87 0
-279 -37 -48 -88 0
-279 -38 -49 -89 0
-279 -39 -50 -90 0
-280 -2 -3 -9 0
-280 -15 -16 -22 0
-280 -29 -40 -55 0
-280 -30 -41 -64 0
-280 -31 -42 -72 0
-280 -32 -43 -79 0
-280 -33 -44 -85 0
-280 -35 -46 -91 0
-280 -36 -47 -92 0
-280 -37 -48 -93 0
-280 -38 -49 -94 0
-280 -39 -50 -95 0
-281 -2 -3 -10 0
-281 -15 -16 -23 0
-281 -29 -40 -56 0
-281 -30 -41 -65 0
-281 -31 -42 -73 0
-281 -32 -43 -80 0
-281 -33 -44 -86 0
-281 -34 -45 -91 0
-281 -36 -47 -96 0
-281 -37 -48 -97 0
-281 -38 -49 -98 0
-281 -39 -50 -99 0
-282 -2 -3 -11 0
-282 -15 -16 -24 0
-282 -29 -40 -57 0
-282 -30 -41 -66 0
-282 -31 -42 -74 0
-282 -32 -43 -81 0
-282 -33 -44 -87 0
-282 -34 -45 -92 0
-282 -35 -46 -96 0
-282 -37 -48 -100 0
-282 -38 -49 -101 0
-282 -39 -50 -102 0
-283 -2 -3 -12 0
-283 -15 -16 -25 0
-283 -29 -40 -58 0
-283 -30 -41 -67 0
-283 -31 -42 -75 0
-283 -32 -43 -82 0
-283 -33 -44 -88 0
-283 -34 -45 -93 0
-283 -35 -46 -97 0
-283 -36 -47 -100 0
-283 -38 -49 -103 0
-283 -39 -50 -104 0
-284 -2 -3 -13 0
-284 -15 -16 -26 0
-284 -29 -40 -59 0
-284 -30 -41 -68 0
-284 -31 -42 -76 0
-284 -32 -43 -83 0
-284 -33 -44 -89 0
-284 -34 -45 -94 0
-284 -35 -46 -98 0
-284 -36 -47 -101 0
-284 -37 -48 -103 0
-284 -39 -50 -105 0
-285 -2 -3 -14 0
-285 -15 -16 -27 0
-285 -29 -40 -60 0
-285 -30 -41 -69 0
-285 -31 -42 -77 0
-285 -32 -43 -84 0
-285 -33 -44 -90 0
-285 -34 -45 -95 0
-285 -35 -46 -99 0
-285 -36 -47 -102 0
-285 -37 -48 -104 0
-285 -38 -49 -105 0
-286 -2 -4 -5 0
-286 -15 -17 -18 0
-286 -28 -40 -41 0
-286 -31 -52 -61 0
-286 -32 -53 -62 0
-286 -33 -54 -63 0
-286 -34 -55 -64 0
-286 -35 -56 -65 0
-286 -36 -57 -66 0
-286 -37 -58 -67 0
-286 -38 -59 -68 0
-286 -39 -60 -69 0
-287 -2 -4 -6 0
-287 -15 -17 -19 0
-287 -28 -40 -42 0
-287 -30 -51 -61 0
-287 -32 -53 -70 0
-287 -33 -54 -71 0
-287 -34 -55 -72 0
-287 -35 -56 -73 0
-287 -36 -57 -74 0
-287 -37 -58 -75 0
-287 -38 -59 -76 0
-287 -39 -60 -77 0
-288 -2 -4 -7 0
-288 -15 -17 -20 0
-288 -28 -40 -43 0
-288 -30 -51 -62 0
-288 -31 -52 -70 0
-288 -33 -54 -78 0
-288 -34 -55 -79 0
-288 -35 -56 -80 0
-288 -36 -57 -81 0
-288 -37 -58 -82 0
-288 -38 -59 -83 0
-288 -39 -60 -84 0
-289 -2 -4 -8 0
-289 -15 -17 -21 0
-289 -28 -40 -44 0
-289 -30 -51 -63 0
-289 -31 -52 -71 0
-289 -32 -53 -78 0
-289 -34 -55 -85 0
-289 -35 -56 -86 0
-289 -36 -57 -87 0
-289 -37 -58 -88 0
-289 -38 -59 -89 0
-289 -39 -60 -90 0
-290 -2 -4 -9 0
-290 -15 -17 -22 0
-290 -28 -40 -45 0
-290 -30 -51 -64 0
-290 -31 -52 -72 0
-290 -32 -53 -79 0
-290 -33 -54 -85 0
-290 -35 -56 -91 0
-290 -36 -57 -92 0
-290 -37 -58 -93 0
-290 -38 -59 -94 0
-290 -39 -60 -95 0
-291 -2 -4 -10 0
-291 -15 -17 -23 0
-291 -28 -40 -46 0
-291 -30 -51 -65 0
-291 -31 -52 -73 0
-291 -32 -53 -80 0
-291 -33 -54 -86 0
-291 -34 -55 -91 0
-291 -36 -57 -96 0
-291 -37 -58 -97 0
-291 -38 -59 -98 0
-291 -39 -60 -99 0
-292 -2 -4 -11 0
-292 -15 -17 -24 0
-292 -28 -40 -47 0
-292 -30 -51 -66 0
-292 -31 -52 -74 0
-292 -32 -53 -81 0
-292 -33 -54 -87 0
-292 -34 -55 -92 0
-292 -35 -56 -96 0
-292 -37 -58 -100 0
-292 -38 -59 -101 0
-292 -39 -60 -102 0
-293 -2 -4 -12 0
-293 -15 -17 -25 0
-293 -28 -40 -48 0
-293 -30 -51 -67 0
-293 -31 -52 -75 0
-293 -32 -53 -82 0
-293 -33 -54 -88 0
-293 -34 -55 -93 0
-293 -35 -56 -97 0
-293 -36 -57 -100 0
-293 -38 -59 -103 0
-293 -39 -60 -104 0
-294 -2 -4 -13 0
-294 -15 -17 -26 0
-294 -28 -40 -49 0
-294 -30 -51 -68 0
-294 -31 -52 -76 0
-294 -32 -53 -83 0
-294 -33 -54 -89 0
-294 -34 -55 -94 0
-294 -35 -56 -98 0
-294 -36 -57 -101 0
-294 -37 -58 -103 0
-294 -39 -60 -105 0
-295 -2 -4 -14 0
-295 -15 -17 -27 0
-295 -28 -40 -50 0
-295 -30 -51 -69 0
-295 -31 -52 -77 0
-295 -32 -53 -84 0
-295 -33 -54 -90 0
-295 -34 -55 -95 0
-295 -35 -56 -99 0
-295 -36 -57 -102 0
-295 -37 -58 -104 0
-295 -38 -59 -105 0
-296 -2 -5 -6 0
-296 -15 -18 -19 0
-296 -28 -41 -42 0
-296 -29 -51 -52 0
-296 -32 -62 -70 0
-296 -33 -63 -71 0
-296 -34 -64 -72 0
-296 -35 -65 -73 0
-296 -36 -66 -74 0
-296 -37 -67 -75 0
-296 -38 -68 -76 0
-296 -39 -69 -77 0
-297 -2 -5 -7 0
-297 -15 -18 -20 0
-297 -28 -41 -43 0
-297 -29 -51 -53 0
-297 -31 -61 -70 0
-297 -33 -63 -78 0
-297 -34 -64 -79 0
-297 -35 -65 -80 0
-297 -36 -66 -81 0
-297 -37 -67 -82 0
-297 -38 -68 -83 0
-297 -39 -69 -84 0
-298 -2 -5 -8 0
-298 -15 -18 -21 0
-298 -28 -41 -44 0
-298 -29 -51 -54 0
-298 -31 -61 -71 0
-298 -32 -62 -78 0
-298 -34 -64 -85 0
-298 -35 -65 -86 0
-298 -36 -66 -87 0
-298 -37 -67 -88 0
-298 -38 -68 -89 0
-298 -39 -69 -90 0
-299 -2 -5 -9 0
-299 -15 -18 -22 0
-299 -28 -41 -45 0
-299 -29 -51 -55 0
-299 -31 -61 -72 0
-299 -32 -62 -79 0
-299 -33 -63 -85 0
-299 -35 -65 -91 0
-299 -36 -66 -92 0
-299 -37 -67 -93 0
-299 -38 -68 -94 0
-299 -39 -69 -95 0
-300 -2 -5 -10 0
-300 -15 -18 -23 0
-300 -28 -41 -46 0
-300 -29 -51 -56 0
-300 -31 -61 -73 0
-300 -32 -62 -80 0
-300 -33 -63 -86 0
-300 -34 -64 -91 0
-300 -36 -66 -96 0
-300 -37 -67 -97 0
-300 -38 -68 -98 0
-300 -39 -69 -99 0
-301 -2 -5 -11 0
-301 -15 -18 -24 0
-301 -28 -41 -47 0
-301 -29 -51 -57 0
-301 -31 -61 -74 0
-301 -32 -62 -81 0
-301 -33 -63 -87 0
-301 -34 -64 -92 0
-301 -35 -65 -96 0
-301 -37 -67 -100 0
-301 -38 -68 -101 0
-301 -39 -69 -102 0
-302 -2 -5 -12 0
-302 -15 -18 -25 0
-302 -28 -41 -48 0
-302 -29 -51 -58 0
-302 -31 -61 -75 0
-302 -32 -62 -82 0
-302 -33 -63 -88 0
-302 -34 -64 -93 0
-302 -35 -65 -97 0
-302 -36 -66 -100 0
-302 -38 -68 -103 0
-302 -39 -69 -104 0
-303 -2 -5 -13 0
-303 -15 -18 -26 0
-303 -28 -41 -49 0
-303 -29 -51 -59 0
-303 -31 -61 -76 0
-303 -32 -62 -83 0
-303 -33 -63 -89 0
-303 -34 -64 -94 0
-303 -35 -65 -98 0
-303 -36 -66 -101 0
-303 -37 -67 -103 0
-303 -39 -69 -105 0
-304 -2 -5 -14 0
-304 -15 -18 -27 0
-304 -28 -41 -50 0
-304 -29 -51 -60 0
-304 -31 -61 -77 0
-304 -32 -62 -84 0
-304 -33 -63 -90 0
-304 -34 -64 -95 0
-304 -35 -65 -99 0
-304 -36 -66 -102 0
-304 -37 -67 -104 0
-304 -38 -68 -105 0
-305 -2 -6 -7 0
-305 -15 -19 -20 0
-305 -28 -42 -43 0
-305 -29 -52 -53 0
-305 -30 -61 -62 0
-305 -33 -71 -78 0
-305 -34 -72 -79 0
-305 -35 -73 -80 0
-305 -36 -74 -81 0
-305 -37 -75 -82 0
-305 -38 -76 -83 0
-305 -39 -77 -84 0
-306 -2 -6 -8 0
-306 -15 -19 -21 0
-306 -28 -42 -44 0
-306 -29 -52 -54 0
-306 -30 -61 -63 0
-306 -32 -70 -78 0
-306 -34 -72 -85 0
-306 -35 -73 -86 0
-306 -36 -74 -87 0
-306 -37 -75 -88 0
-306 -38 -76 -89 0
-306 -39 -77 -90 0
-307 -2 -6 -9 0
-307 -15 -19 -22 0
-307 -28 -42 -45 0
-307 -29 -52 -55 0
-307 -30 -61 -64 0
-307 -32 -70 -79 0
-307 -33 -71 -85 0
-307 -35 -73 -91 0
-307 -36 -74 -92 0
-307 -37 -75 -93 0
-307 -38 -76 -94 0
-307 -39 -77 -95 0
-308 -2 -6 -10 0
-308 -15 -19 -23 0
-308 -28 -42 -46 0
-308 -29 -52 -56 0
-308 -30 -61 -65 0
-308 -32 -70 -80 0
-308 -33 -71 -86 0
-308 -34 -72 -91 0
-308 -36 -74 -96 0
-308 -37 -75 -97 0
-308 -38 -76 -98 0
-308 -39 -77 -99 0
-309 -2 -6 -11 0
-309 -15 -19 -24 0
-309 -28 -42 -47 0
-309 -29 -52 -57 0
-309 -30 -61 -66 0
-309 -32 -70 -81 0
-309 -33 -71 -87 0
-309 -34 -72 -92 0
-309 -35 -73 -96 0
-309 -37 -75 -100 0
-309 -38 -76 -101 0
-309 -39 -77 -102 0
-310 -2 -6 -12 0
-310 -15 -19 -25 0
-310 -28 -42 -48 0
-310 -29 -52 -58 0
-310 -30 -61 -67 0
-310 -32 -70 -82 0
-310 -33 -71 -88 0
-310 -34 -72 -93 0
-310 -35 -73 -97 0
-310 -36 -74 -100 0
-310 -38 -76 -103 0
-310 -39 -77 -104 0
-311 -2 -6 -13 0
-311 -15 -19 -26 0
-311 -28 -42 -49 0
-311 -29 -52 -59 0
-311 -30 -61 -68 0
-311 -32 -70 -83 0
-311 -33 -71 -89 0
-311 -34 -72 -94 0
-311 -35 -73 -98 0
-311 -36 -74 -101 0
-311 -37 -75 -103 0
-311 -39 -77 -105 0
-312 -2 -6 -14 0
-312 -15 -19 -27 0
-312 -28 -42 -50 0
-312 -29 -52 -60 0
-312 -30 -61 -69 0
-312 -32 -70 -84 0
-312 -33 -71 -90 0
-312 -34 -72 -95 0
-312 -35 -73 -99 0
-312 -36 -74 -102 0
-312 -37 -75 -104 0
-312 -38 -76 -105 0
-313 -2 -7 -8 0
-313 -15 -20 -21 0
-313 -28 -43 -44 0
-313 -29 -53 -54 0
-313 -30 -62 -63 0
-313 -31 -70 -71 0
-313 -34 -79 -85 0
-313 -35 -80 -86 0
-313 -36 -81 -87 0
-313 -37 -82 -88 0
-313 -38 -83 -89 0
-313 -39 -84 -90 0
-314 -2 -7 -9 0
-314 -15 -20 -22 0
-314 -28 -43 -45 0
-314 -29 -53 -55 0
-314 -30 -62 -64 0
-314 -31 -70 -72 0
-314 -33 -78 -85 0
-314 -35 -80 -91 0
-314 -36 -81 -92 0
-314 -37 -82 -93 0
-314 -38 -83 -94 0
-314 -39 -84 -95 0
-315 -2 -7 -10 0
-315 -15 -20 -23 0
-315 -28 -43 -46 0
-315 -29 -53 -56 0
-315 -30 -62 -65 0
-315 -31 -70 -73 0
-315 -33 -78 -86 0
-315 -34 -79 -91 0
-315 -36 -81 -96 0
-315 -37 -82 -97 0
-315 -38 -83 -98 0
-315 -39 -84 -99 0
-316 -2 -7 -11 0
-316 -15 -20 -24 0
-316 -28 -43 -47 0
-316 -29 -53 -57 0
-316 -30 -62 -66 0
-316 -31 -70 -74 0
-316 -33 -78 -87 0
-316 -34 -79 -92 0
-316 -35 -80 -96 0
-316 -37 -82 -100 0
-316 -38 -83 -101 0
-316 -39 -84 -102 0
-317 -2 -7 -12 0
-317 -15 -20 -25 0
-317 -28 -43 -48 0
-317 -29 -53 -58 0
-317 -30 -62 -67 0
-317 -31 -70 -75 0
-317 -33 -78 -88 0
-317 -34 -79 -93 0
-317 -35 -80 -97 0
-317 -36 -81 -100 0
-317 -38 -83 -103 0
-317 -39 -84 -104 0
-318 -2 -7 -13 0
-318 -15 -20 -26 0
-318 -28 -43 -49 0
-318 -29 -53 -59 0
-318 -30 -62 -68 0
-318 -31 -70 -76 0
-318 -33 -78 -89 0
-318 -34 -79 -94 0
-318 -35 -80 -98 0
-318 -36 -81 -101 0
-318 -37 -82 -103 0
-318 -39 -84 -105 0
-319 -2 -7 -14 0
-319 -15 -20 -27 0
-319 -28 -43 -50 0
-319 -29 -53 -60 0
-319 -30 -62 -69 0
-319 -31 -70 -77 0
-319 -33 -78 -90 0
-319 -34 -79 -95 0
-319 -35 -80 -99 0
-319 -36 -81 -102 0
-319 -37 -82 -104 0
-319 -38 -83 -105 0
-320 -2 -8 -9 0
-320 -15 -21 -22 0
-320 -28 -44 -45 0
-320 -29 -54 -55 0
-320 -30 -63 -64 0
-320 -31 -71 -72 0
-320 -32 -78 -79 0
-320 -35 -86 -91 0
-320 -36 -87 -92 0
-320 -37 -88 -93 0
-320 -38 -89 -94 0
-320 -39 -90 -95 0
-321 -2 -8 -10 0
-321 -15 -21 -23 0
-321 -28 -44 -46 0
-321 -29 -54 -56 0
-321 -30 -63 -65 0
-321 -31 -71 -73 0
-321 -32 -78 -80 0
-321 -34 -85 -91 0
-321 -36 -87 -96 0
-321 -37 -88 -97 0
-321 -38 -89 -98 0
-321 -39 -90 -99 0
-322 -2 -8 -11 0
-322 -15 -21 -24 0
-322 -28 -44 -47 0
-322 -29 -54 -57 0
-322 -30 -63 -66 0
-322 -31 -71 -74 0
-322 -32 -78 -81 0
-322 -34 -85 -92 0
-322 -35 -86 -96 0
-322 -37 -88 -100 0
-322 -38 -89 -101 0
-322 -39 -90 -102 0
-323 -2 -8 -12 0
-323 -15 -21 -25 0
-323 -28 -44 -48 0
-323 -29 -54 -58 0
-323 -30 -63 -67 0
-323 -31 -71 -75 0
-323 -32 -78 -82 0
-323 -34 -85 -93 0
-323 -35 -86 -97 0
-323 -36 -87 -100 0
-323 -38 -89 -103 0
-323 -39 -90 -104 0
-324 -2 -8 -13 0
-324 -15 -21 -26 0
-324 -28 -44 -49 0
-324 -29 -54 -59 0
-324 -30 -63 -68 0
-324 -31 -71 -76 0
-324 -32 -78 -83 0
-324 -34 -85 -94 0
-324 -35 -86 -98 0
-324 -36 -87 -101 0
-324 -37 -88 -103 0
-324 -39 -90 -105 0
-325 -2 -8 -14 0
-325 -15 -21 -27 0
-325 -28 -44 -50 0
-325 -29 -54 -60 0
-325 -30 -63 -69 0
-325 -31 -71 -77 0
-325 -32 -78 -84 0
-325 -34 -85 -95 0
-325 -35 -86 -99 0
-325 -36 -87 -102 0
-325 -37 -88 -104 0
-325 -38 -89 -105 0
-326 -2 -9 -10 0
-326 -15 -22 -23 0
-326 -28 -45 -46 0
-326 -29 -55 -56 0
-326 -30 -64 -65 0
-326 -31 -72 -73 0
-326 -32 -79 -80 0
-326 -33 -85 -86 0
-326 -36 -92 -96 0
-326 -37 -93 -97 0
-326 -38 -94 -98 0
-326 -39 -95 -99 0
-327 -2 -9 -11 0
-327 -15 -22 -24 0
-327 -28 -45 -47 0
-327 -29 -55 -57 0
-327 -30 -64 -66 0
-327 -31 -72 -74 0
-327 -32 -79 -81 0
-327 -33 -85 -87 0
-327 -35 -91 -96 0
-327 -37 -93 -100 0
-327 -38 -94 -101 0
-327 -39 -95 -102 0
-328 -2 -9 -12 0
-328 -15 -22 -25 0
-328 -28 -45 -48 0
-328 -29 -55 -58 0
-328 -30 -64 -67 0
-328 -31 -72 -75 0
-328 -32 -79 -82 0
-328 -33 -85 -88 0
-328 -35 -91 -97 0
-328 -36 -92 -100 0
-328 -38 -94 -103 0
-328 -39 -95 -104 0
-329 -2 -9 -13 0
-329 -15 -22 -26 0
-329 -28 -45 -49 0
-329 -29 -55 -59 0
-329 -30 -64 -68 0
-329 -31 -72 -76 0
-329 -32 -79 -83 0
-329 -33 -85 -89 0
-329 -35 -91 -98 0
-329 -36 -92 -101 0
-329 -37 -93 -103 0
-329 -39 -95 -105 0
-330 -2 -9 -14 0
-330 -15 -22 -27 0
-330 -28 -45 -50 0
-330 -29 -55 -60 0
-330 -30 -64 -69 0
-330 -31 -72 -77 0
-330 -32 -79 -84 0
-330 -33 -85 -90 0
-330 -35 -91 -99 0
-330 -36 -92 -102 0
-330 -37 -93 -104 0
-330 -38 -94 -105 0
-331 -2 -10 -11 0
-331 -15 -23 -24 0
-331 -28 -46 -47 0
-331 -29 -56 -57 0
-331 -30 -65 -66 0
-331 -31 -73 -74 0
-331 -32 -80 -81 0
-331 -33 -86 -87 0
-331 -34 -91 -92 0
-331 -37 -97 -100 0
-331 -38 -98 -101 0
-331 -39 -99 -102 0
-332 -2 -10 -12 0
-332 -15 -23 -25 0
-332 -28 -46 -48 0
-332 -29 -56 -58 0
-332 -30 -65 -67 0
-332 -31 -73 -75 0
-332 -32 -80 -82 0
-332 -33 -86 -88 0
-332 -34 -91 -93 0
-332 -36 -96 -100 0
-332 -38 -98 -103 0
-332 -39 -99 -104 0
-333 -2 -10 -13 0
-333 -15 -23 -26 0
-333 -28 -46 -49 0
-333 -29 -56 -59 0
-333 -30 -65 -68 0
-333 -31 -73 -76 0
-333 -32 -80 -83 0
-333 -33 -86 -89 0
-333 -34 -91 -94 0
-333 -36 -96 -101 0
-333 -37 -97 -103 0
-333 -39 -99 -105 0
-334 -2 -10 -14 0
-334 -15 -23 -27 0
-334 -28 -46 -50 0
-334 -29 -56 -60 0
-334 -30 -65 -69 0
-334 -31 -73 -77 0
-334 -32 -80 -84 0
-334 -33 -86 -90 0
-334 -34 -91 -95 0
-334 -36 -96 -102 0
-334 -37 -97 -104 0
-334 -38 -98 -105 0
-335 -2 -11 -12 0
-335 -15 -24 -25 0
-335 -28 -47 -48 0
-335 -29 -57 -58 0
-335 -30 -66 -67 0
-335 -31 -74 -75 0
-335 -32 -81 -82 0
-335 -33 -87 -88 0
-335 -34 -92 -93 0
-335 -35 -96 -97 0
-335 -38 -101 -103 0
-335 -39 -102 -104 0
-336 -2 -11 -13 0
-336 -15 -24 -26 0
-336 -28 -47 -49 0
-336 -29 -57 -59 0
-336 -30 -66 -68 0
-336 -31 -74 -76 0
-336 -32 -81 -83 0
-336 -33 -87 -89 0
-336 -34 -92 -94 0
-336 -35 -96 -98 0
-336 -37 -100 -103 0
-336 -39 -102 -105 0
-337 -2 -11 -14 0
-337 -15 -24 -27 0
-337 -28 -47 -50 0
-337 -29 -57 -60 0
-337 -30 -66 -69 0
-337 -31 -74 -77 0
-337 -32 -81 -84 0
-337 -33 -87 -90 0
-337 -34 -92 -95 0
-337 -35 -96 -99 0
-337 -37 -100 -104 0
-337 -38 -101 -105 0
-338 -2 -12 -13 0
-338 -15 -25 -26 0
-338 -28 -48 -49 0
-338 -29 -58 -59 0
-338 -30 -67 -68 0
-338 -31 -75 -76 0
-338 -32 -82 -83 0
-338 -33 -88 -89 0
-338 -34 -93 -94 0
-338 -35 -97 -98 0
-338 -36 -100 -101 0
-338 -39 -104 -105 0
-339 -2 -12 -14 0
-339 -15 -25 -27 0
-339 -28 -48 -50 0
-339 -29 -58 -60 0
-339 -30 -67 -69 0
-339 -31 -75 -77 0
-339 -32 -82 -84 0
-339 -33 -88 -90 0
-339 -34 -93 -95 0
-339 -35 -97 -99 0
-339 -36 -100 -102 0
-339 -38 -103 -105 0
-340 -2 -13 -14 0
-340 -15 -26 -27 0
-340 -28 -49 -50 0
-340 -29 -59 -60 0
-340 -30 -68 -69 0
-340 -31 -76 -77 0
-340 -32 -83 -84 0
-340 -33 -89 -90 0
-340 -34 -94 -95 0
-340 -35 -98 -99 0
-340 -36 -101 -102 0
-340 -37 -103 -104 0
-341 -3 -4 -5 0
-341 -16 -17 -18 0
-341 -28 -29 -30 0
-341 -42 -52 -61 0
-341 -43 -53 -62 0
-341 -44 -54 -63 0
-341 -45 -55 -64 0
-341 -46 -56 -65 0
-341 -47 -57 -66 0
-341 -48 -58 -67 0
-341 -49 -59 -68 0
-341 -50 -60 -69 0
-342 -3 -4 -6 0
-342 -16 -17 -19 0
-342 -28 -29 -31 0
-342 -41 -51 -61 0
-342 -43 -53 -70 0
-342 -44 -54 -71 0
-342 -45 -55 -72 0
-342 -46 -56 -73 0
-342 -47 -57 -74 0
-342 -48 -58 -75 0
-342 -49 -59 -76 0
-342 -50 -60 -77 0
-343 -3 -4 -7 0
-343 -16 -17 -20 0
-343 -28 -29 -32 0
-343 -41 -51 -62 0
-343 -42 -52 -70 0
-343 -44 -54 -78 0
-343 -45 -55 -79 0
-343 -46 -56 -80 0
-343 -47 -57 -81 0
-343 -48 -58 -82 0
-343 -49 -59 -83 0
-343 -50 -60 -84 0
-344 -3 -4 -8 0
-344 -16 -17 -21 0
-344 -28 -29 -33 0
-344 -41 -51 -63 0
-344 -42 -52 -71 0
-344 -43 -53 -78 0
-344 -45 -55 -85 0
-344 -46 -56 -86 0
-344 -47 -57 -87 0
-344 -48 -58 -88 0
-344 -49 -59 -89 0
-344 -50 -60 -90 0
-345 -3 -4 -9 0
-345 -16 -17 -22 0
-345 -28 -29 -34 0
-345 -41 -51 -64 0
-345 -42 -52 -72 0
-345 -43 -53 -79 0
-345 -44 -54 -85 0
-345 -46 -56 -91 0
-345 -47 -57 -92 0
-345 -48 -58 -93 0
-345 -49 -59 -94 0
-345 -50 -60 -95 0
-346 -3 -4 -10 0
-346 -16 -17 -23 0
-346 -28 -29 -35 0
-346 -41 -51 -65 0
-346 -42 -52 -73 0
-346 -43 -53 -80 0
-346 -44 -54 -86 0
-346 -45 -55 -91 0
-346 -47 -57 -96 0
-346 -48 -58 -97 0
-346 -49 -59 -98 0
-346 -50 -60 -99 0
-347 -3 -4 -11 0
-347 -16 -17 -24 0
-347 -28 -29 -36 0
-347 -41 -51 -66 0
-347 -42 -52 -74 0
-347 -43 -53 -81 0
-347 -44 -54 -87 0
-347 -45 -55 -92 0
-347 -46 -56 -96 0
-347 -48 -58 -100 0
-347 -49 -59 -101 0
-347 -50 -60 -102 0
-348 -3 -4 -12 0
-348 -16 -17 -25 0
-348 -28 -29 -37 0
-348 -41 -51 -67 0
-348 -42 -52 -75 0
-348 -43 -53 -82 0
-348 -44 -54 -88 0
-348 -45 -55 -93 0
-348 -46 -56 -97 0
-348 -47 -57 -100 0
-348 -49 -59 -103 0
-348 -50 -60 -104 0
-349 -3 -4 -13 0
-349 -16 -17 -26 0
-349 -28 -29 -38 0
-349 -41 -51 -68 0
-349 -42 -52 -76 0
-349 -43 -53 -83 0
-349 -44 -54 -89 0
-349 -45 -55 -94 0
-349 -46 -56 -98 0
-349 -47 -57 -101 0
-349 -48 -58 -103 0
-349 -50 -60 -105 0
-350 -3 -4 -14 0
-350 -16 -17 -27 0
-350 -28 -29 -39 0
-350 -41 -51 -69 0
-350 -42 -52 -77 0
-350 -43 -53 -84 0
-350 -44 -54 -90 0
-350 -45 -55 -95 0
-350 -46 -56 -99 0
-350 -47 -57 -102 0
-350 -48 -58 -104 0
-350 -49 -59 -105 0
-351 -3 -5 -6 0
-351 -16 -18 -19 0
-351 -28 -30 -31 0
-351 -40 -51 -52 0
-351 -43 -62 -70 0
-351 -44 -63 -71 0
-351 -45 -64 -72 0
-351 -46 -65 -73 0
-351 -47 -66 -74 0
-351 -48 -67 -75 0
-351 -49 -68 -76 0
-351 -50 -69 -77 0
-352 -3 -5 -7 0
-352 -16 -18 -20 0
-352 -28 -30 -32 0
-352 -40 -51 -53 0
-352 -42 -61 -70 0
-352 -44 -63 -78 0
-352 -45 -64 -79 0
-352 -46 -65 -80 0
-352 -47 -66 -81 0
-352 -48 -67 -82 0
-352 -49 -68 -83 0
-352 -50 -69 -84 0
-353 -3 -5 -8 0
-353 -16 -18 -21 0
-353 -28 -30 -33 0
-353 -40 -51 -54 0
-353 -42 -61 -71 0
-353 -43 -62 -78 0
-353 -45 -64 -85 0
-353 -46 -65 -86 0
-353 -47 -66 -87 0
-353 -48 -67 -88 0
-353 -49 -68 -89 0
-353 -50 -69 -90 0
-354 -3 -5 -9 0
-354 -16 -18 -22 0
-354 -28 -30 -34 0
-354 -40 -51 -55 0
-354 -42 -61 -72 0
-354 -43 -62 -79 0
-354 -44 -63 -85 0
-354 -46 -65 -91 0
-354 -47 -66 -92 0
-354 -48 -67 -93 0
-354 -49 -68 -94 0
-354 -50 -69 -95 0
-355 -3 -5 -10 0
-355 -16 -18 -23 0
-355 -28 -30 -35 0
-355 -40 -51 -56 0
-355 -42 -61 -73 0
-355 -43 -62 -80 0
-355 -44 -63 -86 0
-355 -45 -64 -91 0
-355 -47 -66 -96 0
-355 -48 -67 -97 0
-355 -49 -68 -98 0
-355 -50 -69 -99 0
-356 -3 -5 -11 0
-356 -16 -18 -24 0
-356 -28 -30 -36 0
-356 -40 -51 -57 0
-356 -42 -61 -74 0
-356 -43 -62 -81 0
-356 -44 -63 -87 0
-356 -45 -64 -92 0
-356 -46 -65 -96 0
-356 -48 -67 -100 0
-356 -49 -68 -101 0
-356 -50 -69 -102 0
-357 -3 -5 -12 0
-357 -16 -18 -25 0
-357 -28 -30 -37 0
-357 -40 -51 -58 0
-357 -42 -61 -75 0
-357 -43 -62 -82 0
-357 -44 -63 -88 0
-357 -45 -64 -93 0
-357 -46 -65 -97 0
-357 -47 -66 -100 0
-357 -49 -68 -103 0
-357 -50 -69 -104 0
-358 -3 -5 -13 0
-358 -16 -18 -26 0
-358 -28 -30 -38 0
-358 -40 -51 -59 0
-358 -42 -61 -76 0
-358 -43 -62 -83 0
-358 -44 -63 -89 0
-358 -45 -64 -94 0
-358 -46 -65 -98 0
-358 -47 -66 -101 0
-358 -48 -67 -103 0
-358 -50 -69 -105 0
-359 -3 -5 -14 0
-359 -16 -18 -27 0
-359 -28 -30 -39 0
-359 -40 -51 -60 0
-359 -42 -61 -77 0
-359 -43 -62 -84 0
-359 -44 -63 -90 0
-359 -45 -64 -95 0
-359 -46 -65 -99 0
-359 -47 -66 -102 0
-359 -48 -67 -104 0
-359 -49 -68 -105 0
-360 -3 -6 -7 0
-360 -16 -19 -20 0
-360 -28 -31 -32 0
-360 -40 -52 -53 0
-360 -41 -61 -62 0
-360 -44 -71 -78 0
-360 -45 -72 -79 0
-360 -46 -73 -80 0
-360 -47 -74 -81 0
-360 -48 -75 -82 0
-360 -49 -76 -83 0
-360 -50 -77 -84 0
-361 -3 -6 -8 0
-361 -16 -19 -21 0
-361 -28 -31 -33 0
-361 -40 -52 -54 0
-361 -41 -61 -63 0
-361 -43 -70 -78 0
-361 -45 -72 -85 0
-361 -46 -73 -86 0
-361 -47 -74 -87 0
-361 -48 -75 -88 0
-361 -49 -76 -89 0
-361 -50 -77 -90 0
-362 -3 -6 -9 0
-362 -16 -19 -22 0
-362 -28 -31 -34 0
-362 -40 -52 -55 0
-362 -41 -61 -64 0
-362 -43 -70 -79 0
-362 -44 -71 -85 0
-362 -46 -73 -91 0
-362 -47 -74 -92 0
-362 -48 -75 -93 0
-362 -49 -76 -94 0
-362 -50 -77 -95 0
-363 -3 -6 -10 0
-363 -16 -19 -23 0
-363 -28 -31 -35 0
-363 -40 -52 -56 0
-363 -41 -61 -65 0
-363 -43 -70 -80 0
-363 -44 -71 -86 0
-363 -45 -72 -91 0
-363 -47 -74 -96 0
-363 -48 -75 -97 0
-363 -49 -76 -98 0
-363 -50 -77 -99 0
-364 -3 -6 -11 0
-364 -16 -19 -24 0
-364 -28 -31 -36 0
-364 -40 -52 -57 0
-364 -41 -61 -66 0
-364 -43 -70 -81 0
-364 -44 -71 -87 0
-364 -45 -72 -92 0
-364 -46 -73 -96 0
-364 -48 -75 -100 0
-364 -49 -76 -101 0
-364 -50 -77 -102 0
-365 -3 -6 -12 0
-365 -16 -19 -25 0
-365 -28 -31 -37 0
-365 -40 -52 -58 0
-365 -41 -61 -67 0
-365 -43 -70 -82 0
-365 -44 -71 -88 0
-365 -45 -72 -93 0
-365 -46 -73 -97 0
-365 -47 -74 -100 0
-365 -49 -76 -103 0
-365 -50 -77 -104 0
-366 -3 -6 -13 0
-366 -16 -19 -26 0
-366 -28 -31 -38 0
-366 -40 -52 -59 0
-366 -41 -61 -68 0
-366 -43 -70 -83 0
-366 -44 -71 -89 0
-366 -45 -72 -94 0
-366 -46 -73 -98 0
-366 -47 -74 -101 0
-366 -48 -75 -103 0
-366 -50 -77 -105 0
-367 -3 -6 -14 0
-367 -16 -19 -27 0
-367 -28 -31 -39 0
-367 -40 -52 -60 0
-367 -41 -61 -69 0
-367 -43 -70 -84 0
-367 -44 -71 -90 0
-367 -45 -72 -95 0
-367 -46 -73 -99 0
-367 -47 -74 -102 0
-367 -48 -75 -104 0
-367 -49 -76 -105 0
-368 -3 -7 -8 0
-368 -16 -20 -21 0
-368 -28 -32 -33 0
-368 -40 -53 -54 0
-368 -41 -62 -63 0
-368 -42 -70 -71 0
-368 -45 -79 -85 0
-368 -46 -80 -86 0
-368 -47 -81 -87 0
-368 -48 -82 -88 0
-368 -49 -83 -89 0
-368 -50 -84 -90 0
-369 -3 -7 -9 0
-369 -16 -20 -22 0
-369 -28 -32 -34 0
-369 -40 -53 -55 0
-369 -41 -62 -64 0
-369 -42 -70 -72 0
-369 -44 -78 -85 0
-369 -46 -80 -91 0
-369 -47 -81 -92 0
-369 -48 -82 -93 0
-369 -49 -83 -94 0
-369 -50 -84 -95 0
-370 -3 -7 -10 0
-370 -16 -20 -23 0
-370 -28 -32 -35 0
-370 -40 -53 -56 0
-370 -41 -62 -65 0
-370 -42 -70 -73 0
-370 -44 -78 -86 0
-370 -45 -79 -91 0
-370 -47 -81 -96 0
-370 -48 -82 -97 0
-370 -49 -83 -98 0
-370 -50 -84 -99 0
-371 -3 -7 -11 0
-371 -16 -20 -24 0
-371 -28 -32 -36 0
-371 -40 -53 -57 0
-371 -41 -62 -66 0
-371 -42 -70 -74 0
-371 -44 -78 -87 0
-371 -45 -79 -92 0
-371 -46 -80 -96 0
-371 -48 -82 -100 0
-371 -49 -83 -101 0
-371 -50 -84 -102 0
-372 -3 -7 -12 0
-372 -16 -20 -25 0
-372 -28 -32 -37 0
-372 -40 -53 -58 0
-372 -41 -62 -67 0
-372 -42 -70 -75 0
-372 -44 -78 -88 0
-372 -45 -79 -93 0
-372 -46 -80 -97 0
-372 -47 -81 -100 0
-372 -49 -83 -103 0
-372 -50 -84 -104 0
-373 -3 -7 -13 0
-373 -16 -20 -26 0
-373 -28 -32 -38 0
-373 -40 -53 -59 0
-373 -41 -62 -68 0
-373 -42 -70 -76 0
-373 -44 -78 -89 0
-373 -45 -79 -94 0
-373 -46 -80 -98 0
-373 -47 -81 -101 0
-373 -48 -82 -103 0
-373 -50 -84 -105 0
-374 -3 -7 -14 0
-374 -16 -20 -27 0
-374 -28 -32 -39 0
-374 -40 -53 -60 0
-374 -41 -62 -69 0
-374 -42 -70 -77 0
-374 -44 -78 -90 0
-374 -45 -79 -95 0
-374 -46 -80 -99 0
-374 -47 -81 -102 0
-374 -48 -82 -104 0
-374 -49 -83 -105 0
-375 -3 -8 -9 0
-375 -16 -21 -22 0
-375 -28 -33 -34 0
-375 -40 -54 -55 0
-375 -41 -63 -64 0
-375 -42 -71 -72 0
-375 -43 -78 -79 0
-375 -46 -86 -91 0
-375 -47 -87 -92 0
-375 -48 -88 -93 0
-375 -49 -89 -94 0
-375 -50 -90 -95 0
-376 -3 -8 -10 0
-376 -16 -21 -23 0
-376 -28 -33 -35 0
-376 -40 -54 -56 0
-376 -41 -63 -65 0
-376 -42 -71 -73 0
-376 -43 -78 -80 0
-376 -45 -85 -91 0
-376 -47 -87 -96 0
-376 -48 -88 -97 0
-376 -49 -89 -98 0
-376 -50 -90 -99 0
-377 -3 -8 -11 0
-377 -16 -21 -24 0
-377 -28 -33 -36 0
-377 -40 -54 -57 0
-377 -41 -63 -66 0
-377 -42 -71 -74 0
-377 -43 -78 -81 0
-377 -45 -85 -92 0
-377 -46 -86 -96 0
-377 -48 -88 -100 0
-377 -49 -89 -101 0
-377 -50 -90 -102 0
-378 -3 -8 -12 0
-378 -16 -21 -25 0
-378 -28 -33 -37 0
-378 -40 -54 -58 0
-378 -41 -63 -67 0
-378 -42 -71 -75 0
-378 -43 -78 -82 0
-378 -45 -85 -93 0
-378 -46 -86 -97 0
-378 -47 -87 -100 0
-378 -49 -89 -103 0
-378 -50 -90 -104 0
-379 -3 -8 -13 0
-379 -16 -21 -26 0
-379 -28 -33 -38 0
-379 -40 -54 -59 0
-379 -41 -63 -68 0
-379 -42 -71 -76 0
-379 -43 -78 -83 0
-379 -45 -85 -94 0
-379 -46 -86 -98 0
-379 -47 -87 -101 0
-379 -48 -88 -103 0
-379 -50 -90 -105 0
-380 -3 -8 -14 0
-380 -16 -21 -27 0
-380 -28 -33 -39 0
-380 -40 -54 -60 0
-380 -41 -63 -69 0
-380 -42 -71 -77 0
-380 -43 -78 -84 0
-380 -45 -85 -95 0
-380 -46 -86 -99 0
-380 -47 -87 -102 0
-380 -48 -88 -104 0
-380 -49 -89 -105 0
-381 -3 -9 -10 0
-381 -16 -22 -23 0
-381 -28 -34 -35 0
-381 -40 -55 -56 0
-381 -41 -64 -65 0
-381 -42 -72 -73 0
-381 -43 -79 -80 0
-381 -44 -85 -86 0
-381 -47 -92 -96 0
-381 -48 -93 -97 0
-381 -49 -94 -98 0
-381 -50 -95 -99 0
-382 -3 -9 -11 0
-382 -16 -22 -24 0
-382 -28 -34 -36 0
-382 -40 -55 -57 0
-382 -41 -64 -66 0
-382 -42 -72 -74 0
-382 -43 -79 -81 0
-382 -44 -85 -87 0
-382 -46 -91 -96 0
-382 -48 -93 -100 0
-382 -49 -94 -101 0
-382 -50 -95 -102 0
-383 -3 -9 -12 0
-383 -16 -22 -25 0
-383 -28 -34 -37 0
-383 -40 -55 -58 0
-383 -41 -64 -67 0
-383 -42 -72 -75 0
-383 -43 -79 -82 0
-383 -44 -85 -88 0
-383 -46 -91 -97 0
-383 -47 -92 -100 0
-383 -49 -94 -103 0
-383 -50 -95 -104 0
-384 -3 -9 -13 0
-384 -16 -22 -26 0
-384 -28 -34 -38 0
-384 -40 -55 -59 0
-384 -41 -64 -68 0
-384 -42 -72 -76 0
-384 -43 -79 -83 0
-384 -44 -85 -89 0
-384 -46 -91 -98 0
-384 -47 -92 -101 0
-384 -48 -93 -103 0
-384 -50 -95 -105 0
-385 -3 -9 -14 0
-385 -16 -22 -27 0
-385 -28 -34 -39 0
-385 -40 -55 -60 0
-385 -41 -64 -69 0
-385 -42 -72 -77 0
-385 -43 -79 -84 0
-385 -44 -85 -90 0
-385 -46 -91 -99 0
-385 -47 -92 -102 0
-385 -48 -93 -104 0
-385 -49 -94 -105 0
-386 -3 -10 -11 0
-386 -16 -23 -24 0
-386 -28 -35 -36 0
-386 -40 -56 -57 0
-386 -41 -65 -66 0
-386 -42 -73 -74 0
-386 -43 -80 -81 0
-386 -44 -86 -87 0
-386 -45 -91 -92 0
-386 -48 -97 -100 0
-386 -49 -98 -101 0
-386 -50 -99 -102 0
-387 -3 -10 -12 0
-387 -16 -23 -25 0
-387 -28 -35 -37 0
-387 -40 -56 -58 0
-387 -41 -65 -67 0
-387 -42 -73 -75 0
-387 -43 -80 -82 0
-387 -44 -86 -88 0
-387 -45 -91 -93 0
-387 -47 -96 -100 0
-387 -49 -98 -103 0
-387 -50 -99 -104 0
-388 -3 -10 -13 0
-388 -16 -23 -26 0
-388 -28 -35 -38 0
-388 -40 -56 -59 0
-388 -41 -65 -68 0
-388 -42 -73 -76 0
-388 -43 -80 -83 0
-388 -44 -86 -89 0
-388 -45 -91 -94 0
-388 -47 -96 -101 0
-388 -48 -97 -103 0
-388 -50 -99 -105 0
-389 -3 -10 -14 0
-389 -16 -23 -27 0
-389 -28 -35 -39 0
-389 -40 -56 -60 0
-389 -41 -65 -69 0
-389 -42 -73 -77 0
-389 -43 -80 -84 0
-389 -44 -86 -90 0
-389 -45 -91 -95 0
-389 -47 -96 -102 0
-389 -48 -97 -104 0
-389 -49 -98 -105 0
-390 -3 -11 -12 0
-390 -16 -24 -25 0
-390 -28 -36 -37 0
-390 -40 -57 -58 0
-390 -41 -66 -67 0
-390 -42 -74 -75 0
-390 -43 -81 -82 0
-390 -44 -87 -88 0
-390 -45 -92 -93 0
-390 -46 -96 -97 0
-390 -49 -101 -103 0
-390 -50 -102 -104 0
-391 -3 -11 -13 0
-391 -16 -24 -26 0
-391 -28 -36 -38 0
-391 -40 -57 -59 0
-391 -41 -66 -68 0
-391 -42 -74 -76 0
-391 -43 -81 -83 0
-391 -44 -87 -89 0
-391 -45 -92 -94 0
-391 -46 -96 -98 0
-391 -48 -100 -103 0
-391 -50 -102 -105 0
-392 -3 -11 -14 0
-392 -16 -24 -27 0
-392 -28 -36 -39 0
-392 -40 -57 -60 0
-392 -41 -66 -69 0
-392 -42 -74 -77 0
-392 -43 -81 -84 0
-392 -44 -87 -90 0
-392 -45 -92 -95 0
-392 -46 -96 -99 0
-392 -48 -100 -104 0
-392 -49 -101 -105 0
-393 -3 -12 -13 0
-393 -16 -25 -26 0
-393 -28 -37 -38 0
-393 -40 -58 -59 0
-393 -41 -67 -68 0
-393 -42 -75 -76 0
-393 -43 -82 -83 0
-393 -44 -88 -89 0
-393 -45 -93 -94 0
-393 -46 -97 -98 0
-393 -47 -100 -101 0
-393 -50 -104 -105 0
-394 -3 -12 -14 0
-394 -16 -25 -27 0
-394 -28 -37 -39 0
-394 -40 -58 -60 0
-394 -41 -67 -69 0
-394 -42 -75 -77 0
-394 -43 -82 -84 0
-394 -44 -88 -90 0
-394 -45 -93 -95 0
-394 -46 -97 -99 0
-394 -47 -100 -102 0
-394 -49 -103 -105 0
-395 -3 -13 -14 0
-395 -16 -26 -27 0
-395 -28 -38 -39 0
-395 -40 -59 -60 0
-395 -41 -68 -69 0
-395 -42 -76 -77 0
-395 -43 -83 -84 0
-395 -44 -89 -90 0
-395 -45 -94 -95 0
-395 -46 -98 -99 0
-395 -47 -101 -102 0
-395 -48 -103 -104 0
-396 -4 -5 -6 0
-396 -17 -18 -19 0
-396 -29 -30 -31 0
-396 -40 -41 -42 0
-396 -53 -62 -70 0
-396 -54 -63 -71 0
-396 -55 -64 -72 0
-396 -56 -65 -73 0
-396 -57 -66 -74 0
-396 -58 -67 -75 0
-396 -59 -68 -76 0
-396 -60 -69 -77 0
-397 -4 -5 -7 0
-397 -17 -18 -20 0
-397 -29 -30 -32 0
-397 -40 -41 -43 0
-397 -52 -61 -70 0
-397 -54 -63 -78 0
-397 -55 -64 -79 0
-397 -56 -65 -80 0
-397 -57 -66 -81 0
-397 -58 -67 -82 0
-397 -59 -68 -83 0
-397 -60 -69 -84 0
-398 -4 -5 -8 0
-398 -17 -18 -21 0
-398 -29 -30 -33 0
-398 -40 -41 -44 0
-398 -52 -61 -71 0
-398 -53 -62 -78 0
-398 -55 -64 -85 0
-398 -56 -65 -86 0
-398 -57 -66 -87 0
-398 -58 -67 -88 0
-398 -59 -68 -89 0
-398 -60 -69 -90 0
-399 -4 -5 -9 0
-399 -17 -18 -22 0
-399 -29 -30 -34 0
-399 -40 -41 -45 0
-399 -52 -61 -72 0
-399 -53 -62 -79 0
-399 -54 -63 -85 0
-399 -56 -65 -91 0
-399 -57 -66 -92 0
-399 -58 -67 -93 0
-399 -59 -68 -94 0
-399 -60 -69 -95 0
-400 -4 -5 -10 0
-400 -17 -18 -23 0
-400 -29 -30 -35 0
-400 -40 -41 -46 0
-400 -52 -61 -73 0
-400 -53 -62 -80 0
-400 -54 -63 -86 0
-400 -55 -64 -91 0
-400 -57 -66 -96 0
-400 -58 -67 -97 0
-400 -59 -68 -98 0
-400 -60 -69 -99 0
-401 -4 -5 -11 0
-401 -17 -18 -24 0
-401 -29 -30 -36 0
-401 -40 -41 -47 0
-401 -52 -61 -74 0
-401 -53 -62 -81 0
-401 -54 -63 -87 0
-401 -55 -64 -92 0
-401 -56 -65 -96 0
-401 -58 -67 -100 0
-401 -59 -68 -101 0
-401 -60 -69 -102 0
-402 -4 -5 -12 0
-402 -17 -18 -25 0
-402 -29 -30 -37 0
-402 -40 -41 -48 0
-402 -52 -61 -75 0
-402 -53 -62 -82 0
-402 -54 -63 -88 0
-402 -55 -64 -93 0
-402 -56 -65 -97 0
-402 -57 -66 -100 0
-402 -59 -68 -103 0
-402 -60 -69 -104 0
-403 -4 -5 -13 0
-403 -17 -18 -26 0
-403 -29 -30 -38 0
-403 -40 -41 -49 0
-403 -52 -61 -76 0
-403 -53 -62 -83 0
-403 -54 -63 -89 0
-403 -55 -64 -94 0
-403 -56 -65 -98 0
-403 -57 -66 -101 0
-403 -58 -67 -103 0
-403 -60 -69 -105 0
-404 -4 -5 -14 0
-404 -17 -18 -27 0
-404 -29 -30 -39 0
-404 -40 -41 -50 0
-404 -52 -61 -77 0
-404 -53 -62 -84 0
-404 -54 -63 -90 0
-404 -55 -64 -95 0
-404 -56 -65 -99 0
-404 -57 -66 -102 0
-404 -58 -67 -104 0
-404 -59 -68 -105 0
-405 -4 -6 -7 0
-405 -17 -19 -20 0
-405 -29 -31 -32 0
-405 -40 -42 -43 0
-405 -51 -61 -62 0
-405 -54 -71 -78 0
-405 -55 -72 -79 0
-405 -56 -73 -80 0
-405 -57 -74 -81 0
-405 -58 -75 -82 0
-405 -59 -76 -83 0
-405 -60 -77 -84 0
-406 -4 -6 -8 0
-406 -17 -19 -21 0
-406 -29 -31 -33 0
-406 -40 -42 -44 0
-406 -51 -61 -63 0
-406 -53 -70 -78 0
-406 -55 -72 -85 0
-406 -56 -73 -86 0
-406 -57 -74 -87 0
-406 -58 -75 -88 0
-406 -59 -76 -89 0
-406 -60 -77 -90 0
-407 -4 -6 -9 0
-407 -17 -19 -22 0
-407 -29 -31 -34 0
-407 -40 -42 -45 0
-407 -51 -61 -64 0
-407 -53 -70 -79 0
-407 -54 -71 -85 0
-407 -56 -73 -91 0
-407 -57 -74 -92 0
-407 -58 -75 -93 0
-407 -59 -76 -94 0
-407 -60 -77 -95 0
-408 -4 -6 -10 0
-408 -17 -19 -23 0
-408 -29 -31 -35 0
-408 -40 -42 -46 0
-408 -51 -61 -65 0
-408 -53 -70 -80 0
-408 -54 -71 -86 0
-408 -55 -72 -91 0
-408 -57 -74 -96 0
-408 -58 -75 -97 0
-408 -59 -76 -98 0
-408 -60 -77 -99 0
-409 -4 -6 -11 0
-409 -17 -19 -24 0
-409 -29 -31 -36 0
-409 -40 -42 -47 0
-409 -51 -61 -66 0
-409 -53 -70 -81 0
-409 -54 -71 -87 0
-409 -55 -72 -92 0
-409 -56 -73 -96 0
-409 -58 -75 -100 0
-409 -59 -76 -101 0
-409 -60 -77 -102 0
-410 -4 -6 -12 0
-410 -17 -19 -25 0
-410 -29 -31 -37 0
-410 -40 -42 -48 0
-410 -51 -61 -67 0
-410 -53 -70 -82 0
-410 -54 -71 -88 0
-410 -55 -72 -93 0
-410 -56 -73 -97 0
-410 -57 -74 -100 0
-410 -59 -76 -103 0
-410 -60 -77 -104 0
-411 -4 -6 -13 0
-411 -17 -19 -26 0
-411 -29 -31 -38 0
-411 -40 -42 -49 0
-411 -51 -61 -68 0
-411 -53 -70 -83 0
-411 -54 -71 -89 0
-411 -55 -72 -94 0
-411 -56 -73 -98 0
-411 -57 -74 -101 0
-411 -58 -75 -103 0
-411 -60 -77 -105 0
-412 -4 -6 -14 0
-412 -17 -19 -27 0
-412 -29 -31 -39 0
-412 -40 -42 -50 0
-412 -51 -61 -69 0
-412 -53 -70 -84 0
-412 -54 -71 -90 0
-412 -55 -72 -95 0
-412 -56 -73 -99 0
-412 -57 -74 -102 0
-412 -58 -75 -104 0
-412 -59 -76 -105 0
-413 -4 -7 -8 0
-413 -17 -20 -21 0
-413 -29 -32 -33 0
-413 -40 -43 -44 0
-413 -51 -62 -63 0
-413 -52 -70 -71 0
-413 -55 -79 -85 0
-413 -56 -80 -86 0
-413 -57 -81 -87 0
-413 -58 -82 -88 0
-413 -59 -83 -89 0
-413 -60 -84 -90 0
-414 -4 -7 -9 0
-414 -17 -20 -22 0
-414 -29 -32 -34 0
-414 -40 -43 -45 0
-414 -51 -62 -64 0
-414 -52 -70 -72 0
-414 -54 -78 -85 0
-414 -56 -80 -91 0
-414 -57 -81 -92 0
-414 -58 -82 -93 0
-414 -59 -83 -94 0
-414 -60 -84 -95 0
-415 -4 -7 -10 0
-415 -17 -20 -23 0
-415 -29 -32 -35 0
-415 -40 -43 -46 0
-415 -51 -62 -65 0
-415 -52 -70 -73 0
-415 -54 -78 -86 0
-415 -55 -79 -91 0
-415 -57 -81 -96 0
-415 -58 -82 -97 0
-415 -59 -83 -98 0
-415 -60 -84 -99 0
-416 -4 -7 -11 0
-416 -17 -20 -24 0
-416 -29 -32 -36 0
-416 -40 -43 -47 0
-416 -51 -62 -66 0
-416 -52 -70 -74 0
-416 -54 -78 -87 0
-416 -55 -79 -92 0
-416 -56 -80 -96 0
-416 -58 -82 -100 0
-416 -59 -83 -101 0
-416 -60 -84 -102 0
-417 -4 -7 -12 0
-417 -17 -20 -25 0
-417 -29 -32 -37 0
-417 -40 -43 -48 0
-417 -51 -62 -67 0
-417 -52 -70 -75 0
-417 -54 -78 -88 0
-417 -55 -79 -93 0
-417 -56 -80 -97 0
-417 -57 -81 -100 0
-417 -59 -83 -103 0
-417 -60 -84 -104 0
-418 -4 -7 -13 0
-418 -17 -20 -26 0
-418 -29 -32 -38 0
-418 -40 -43 -49 0
-418 -51 -62 -68 0
-418 -52 -70 -76 0
-418 -54 -78 -89 0
-418 -55 -79 -94 0
-418 -56 -80 -98 0
-418 -57 -81 -101 0
-418 -58 -82 -103 0
-418 -60 -84 -105 0
-419 -4 -7 -14 0
-419 -17 -20 -27 0
-419 -29 -32 -39 0
-419 -40 -43 -50 0
-419 -51 -62 -69 0
-419 -52 -70 -77 0
-419 -54 -78 -90 0
-419 -55 -79 -95 0
-419 -56 -80 -99 0
-419 -57 -81 -102 0
-419 -58 -82 -104 0
-419 -59 -83 -105 0
-420 -4 -8 -9 0
-420 -17 -21 -22 0
-420 -29 -33 -34 0
-420 -40 -44 -45 0
-420 -51 -63 -64 0
-420 -52 -71 -72 0
-420 -53 -78 -79 0
-420 -56 -86 -91 0
-420 -57 -87 -92 0
-420 -58 -88 -93 0
-420 -59 -89 -94 0
-420 -60 -90 -95 0
-421 -4 -8 -10 0
-421 -17 -21 -23 0
-421 -29 -33 -35 0
-421 -40 -44 -46 0
-421 -51 -63 -65 0
-421 -52 -71 -73 0
-421 -53 -78 -80 0
-421 -55 -85 -91 0
-421 -57 -87 -96 0
-421 -58 -88 -97 0
-421 -59 -89 -98 0
-421 -60 -90 -99 0
-422 -4 -8 -11 0
-422 -17 -21 -24 0
-422 -29 -33 -36 0
-422 -40 -44 -47 0
-422 -51 -63 -66 0
-422 -52 -71 -74 0
-422 -53 -78 -81 0
-422 -55 -85 -92 0
-422 -56 -86 -96 0
-422 -58 -88 -100 0
-422 -59 -89 -101 0
-422 -60 -90 -102 0
-423 -4 -8 -12 0
-423 -17 -21 -25 0
-423 -29 -33 -37 0
-423 -40 -44 -48 0
-423 -51 -63 -67 0
-423 -52 -71 -75 0
-423 -53 -78 -82 0
-423 -55 -85 -93 0
-423 -56 -86 -97 0
-423 -57 -87 -100 0
-423 -59 -89 -103 0
-423 -60 -90 -104 0
-424 -4 -8 -13 0
-424 -17 -21 -26 0
-424 -29 -33 -38 0
-424 -40 -44 -49 0
-424 -51 -63 -68 0
-424 -52 -71 -76 0
-424 -53 -78 -83 0
-424 -55 -85 -94 0
-424 -56 -86 -98 0
-424 -57 -87 -101 0
-424 -58 -88 -103 0
-424 -60 -90 -105 0
-425 -4 -8 -14 0
-425 -17 -21 -27 0
-425 -29 -33 -39 0
-425 -40 -44 -50 0
-425 -51 -63 -69 0
-425 -52 -71 -77 0
-425 -53 -78 -84 0
-425 -55 -85 -95 0
-425 -56 -86 -99 0
-425 -57 -87 -102 0
-425 -58 -88 -104 0
-425 -59 -89 -105 0
-426 -4 -9 -10 0
-426 -17 -22 -23 0
-426 -29 -34 -35 0
-426 -40 -45 -46 0
-426 -51 -64 -65 0
-426 -52 -72 -73 0
-426 -53 -79 -80 0
-426 -54 -85 -86 0
-426 -57 -92 -96 0
-426 -58 -93 -97 0
-426 -59 -94 -98 0
-426 -60 -95 -99 0
-427 -4 -9 -11 0
-427 -17 -22 -24 0
-427 -29 -34 -36 0
-427 -40 -45 -47 0
-427 -51 -64 -66 0
-427 -52 -72 -74 0
-427 -53 -79 -81 0
-427 -54 -85 -87 0
-427 -56 -91 -96 0
-427 -58 -93 -100 0
-427 -59 -94 -101 0
-427 -60 -95 -102 0
-428 -4 -9 -12 0
-428 -17 -22 -25 0
-428 -29 -34 -37 0
-428 -40 -45 -48 0
-428 -51 -64 -67 0
-428 -52 -72 -75 0
-428 -53 -79 -82 0
-428 -54 -85 -88 0
-428 -56 -91 -97 0
-428 -57 -92 -100 0
-428 -59 -94 -103 0
-428 -60 -95 -104 0
-429 -4 -9 -13 0
-429 -17 -22 -26 0
-429 -29 -34 -38 0
-429 -40 -45 -49 0
-429 -51 -64 -68 0
-429 -52 -72 -76 0
-429 -53 -79 -83 0
-429 -54 -85 -89 0
-429 -56 -91 -98 0
-429 -57 -92 -101 0
-429 -58 -93 -103 0
-429 -60 -95 -105 0
-430 -4 -9 -14 0
-430 -17 -22 -27 0
-430 -29 -34 -39 0
-430 -40 -45 -50 0
-430 -51 -64 -69 0
-430 -52 -72 -77 0
-430 -53 -79 -84 0
-430 -54 -85 -90 0
-430 -56 -91 -99 0
-430 -57 -92 -102 0
-430 -58 -93 -104 0
-430 -59 -94 -105 0
-431 -4 -10 -11 0
-431 -17 -23 -24 0
-431 -29 -35 -36 0
-431 -40 -46 -47 0
-431 -51 -65 -66 0
-431 -52 -73 -74 0
-431 -53 -80 -81 0
-431 -54 -86 -87 0
-431 -55 -91 -92 0
-431 -58 -97 -100 0
-431 -59 -98 -101 0
-431 -60 -99 -102 0
-432 -4 -10 -12 0
-432 -17 -23 -25 0
-432 -29 -35 -37 0
-432 -40 -46 -48 0
-432 -51 -65 -67 0
-432 -52 -73 -75 0
-432 -53 -80 -82 0
-432 -54 -86 -88 0
-432 -55 -91 -93 0
-432 -57 -96 -100 0
-432 -59 -98 -103 0
-432 -60 -99 -104 0
-433 -4 -10 -13 0
-433 -17 -23 -26 0
-433 -29 -35 -38 0
-433 -40 -46 -49 0
-433 -51 -65 -68 0
-433 -52 -73 -76 0
-433 -53 -80 -83 0
-433 -54 -86 -89 0
-433 -55 -91 -94 0
-433 -57 -96 -101 0
-433 -58 -97 -103 0
-433 -60 -99 -105 0
-434 -4 -10 -14 0
-434 -17 -23 -27 0
-434 -29 -35 -39 0
-434 -40 -46 -50 0
-434 -51 -65 -69 0
-434 -52 -73 -77 0
-434 -53 -80 -84 0
-434 -54 -86 -90 0
-434 -55 -91 -95 0
-434 -57 -96 -102 0
-434 -58 -97 -104 0
-434 -59 -98 -105 0
-435 -4 -11 -12 0
-435 -17 -24 -25 0
-435 -29 -36 -37 0
-435 -40 -47 -48 0
-435 -51 -66 -67 0
-435 -52 -74 -75 0
-435 -53 -81 -82 0
-435 -54 -87 -88 0
-435 -55 -92 -93 0
-435 -56 -96 -97 0
-435 -59 -101 -103 0
-435 -60 -102 -104 0
-436 -4 -11 -13 0
-436 -17 -24 -26 0
-436 -29 -36 -38 0
-436 -40 -47 -49 0
-436 -51 -66 -68 0
-436 -52 -74 -76 0
-436 -53 -81 -83 0
-436 -54 -87 -89 0
-436 -55 -92 -94 0
-436 -56 -96 -98 0
-436 -58 -100 -103 0
-436 -60 -102 -105 0
-437 -4 -11 -14 0
-437 -17 -24 -27 0
-437 -29 -36 -39 0
-437 -40 -47 -50 0
-437 -51 -66 -69 0
-437 -52 -74 -77 0
-437 -53 -81 -84 0
-437 -54 -87 -90 0
-437 -55 -92 -95 0
-437 -56 -96 -99 0
-437 -58 -100 -104 0
-437 -59 -101 -105 0
-438 -4 -12 -13 0
-438 -17 -25 -26 0
-438 -29 -37 -38 0
-438 -40 -48 -49 0
-438 -51 -67 -68 0
-438 -52 -75 -76 0
-438 -53 -82 -83 0
-438 -54 -88 -89 0
-438 -55 -93 -94 0
-438 -56 -97 -98 0
-438 -57 -100 -101 0
-438 -60 -104 -105 0
-439 -4 -12 -14 0
-439 -17 -25 -27 0
-439 -29 -37 -39 0
-439 -40 -48 -50 0
-439 -51 -67 -69 0
-439 -52 -75 -77 0
-439 -53 -82 -84 0
-439 -54 -88 -90 0
-439 -55 -93 -95 0
-439 -56 -97 -99 0
-439 -57 -100 -102 0
-439 -59 -103 -105 0
-440 -4 -13 -14 0
-440 -17 -26 -27 0
-440 -29 -38 -39 0
-440 -40 -49 -50 0
-440 -51 -68 -69 0
-440 -52 -76 -77 0
-440 -53 -83 -84 0
-440 -54 -89 -90 0
-440 -55 -94 -95 0
-440 -56 -98 -99 0
-440 -57 -101 -102 0
-440 -58 -103 -104 0
-441 -5 -6 -7 0
-441 -18 -19 -20 0
-441 -30 -31 -32 0
-441 -41 -42 -43 0
-441 -51 -52 -53 0
-441 -63 -71 -78 0
-441 -64 -72 -79 0
-441 -65 -73 -80 0
-441 -66 -74 -81 0
-441 -67 -75 -82 0
-441 -68 -76 -83 0
-441 -69 -77 -84 0
-442 -5 -6 -8 0
-442 -18 -19 -21 0
-442 -30 -31 -33 0
-442 -41 -42 -44 0
-442 -51 -52 -54 0
-442 -62 -70 -78 0
-442 -64 -72 -85 0
-442 -65 -73 -86 0
-442 -66 -74 -87 0
-442 -67 -75 -88 0
-442 -68 -76 -89 0
-442 -69 -77 -90 0
-443 -5 -6 -9 0
-443 -18 -19 -22 0
-443 -30 -31 -34 0
-443 -41 -42 -45 0
-443 -51 -52 -55 0
-443 -62 -70 -79 0
-443 -63 -71 -85 0
-443 -65 -73 -91 0
-443 -66 -74 -92 0
-443 -67 -75 -93 0
-443 -68 -76 -94 0
-443 -69 -77 -95 0
-444 -5 -6 -10 0
-444 -18 -19 -23 0
-444 -30 -31 -35 0
-444 -41 -42 -46 0
-444 -51 -52 -56 0
-444 -62 -70 -80 0
-444 -63 -71 -86 0
-444 -64 -72 -91 0
-444 -66 -74 -96 0
-444 -67 -75 -97 0
-444 -68 -76 -98 0
-444 -69 -77 -99 0
-445 -5 -6 -11 0
-445 -18 -19 -24 0
-445 -30 -31 -36 0
-445 -41 -42 -47 0
-445 -51 -52 -57 0
-445 -62 -70 -81 0
-445 -63 -71 -87 0
-445 -64 -72 -92 0
-445 -65 -73 -96 0
-445 -67 -75 -100 0
-445 -68 -76 -101 0
-445 -69 -77 -102 0
-446 -5 -6 -12 0
-446 -18 -19 -25 0
-446 -30 -31 -37 0
-446 -41 -42 -48 0
-446 -51 -52 -58 0
-446 -62 -70 -82 0
-446 -63 -71 -88 0
-446 -64 -72 -93 0
-446 -65 -73 -97 0
-446 -66 -74 -100 0
-446 -68 -76 -103 0
-446 -69 -77 -104 0
-447 -5 -6 -13 0
-447 -18 -19 -26 0
-447 -30 -31 -38 0
-447 -41 -42 -49 0
-447 -51 -52 -59 0
-447 -62 -70 -83 0
-447 -63 -71 -89 0
-447 -64 -72 -94 0
-447 -65 -73 -98 0
-447 -66 -74 -101 0
-447 -67 -75 -103 0
-447 -69 -77 -105 0
-448 -5 -6 -14 0
-448 -18 -19 -27 0
-448 -30 -31 -39 0
-448 -41 -42 -50 0
-448 -51 -52 -60 0
-448 -62 -70 -84 0
-448 -63 -71 -90 0
-448 -64 -72 -95 0
-448 -65 -73 -99 0
-448 -66 -74 -102 0
-448 -67 -75 -104 0
-448 -68 -76 -105 0
-449 -5 -7 -8 0
-449 -18 -20 -21 0
-449 -30 -32 -33 0
-449 -41 -43 -44 0
-449 -51 -53 -54 0
-449 -61 -70 -71 0
-449 -64 -79 -85 0
-449 -65 -80 -86 0
-449 -66 -81 -87 0
-449 -67 -82 -88 0
-449 -68 -83 -89 0
-449 -69 -84 -90 0
-450 -5 -7 -9 0
-450 -18 -20 -22 0
-450 -30 -32 -34 0
-450 -41 -43 -45 0
-450 -51 -53 -55 0
-450 -61 -70 -72 0
-450 -63 -78 -85 0
-450 -65 -80 -91 0
-450 -66 -81 -92 0
-450 -67 -82 -93 0
-450 -68 -83 -94 0
-450 -69 -84 -95 0
-451 -5 -7 -10 0
-451 -18 -20 -23 0
-451 -30 -32 -35 0
-451 -41 -43 -46 0
-451 -51 -53 -56 0
-451 -61 -70 -73 0
-451 -63 -78 -86 0
-451 -64 -79 -91 0
-451 -66 -81 -96 0
-451 -67 -82 -97 0
-451 -68 -83 -98 0
-451 -69 -84 -99 0
-452 -5 -7 -11 0
-452 -18 -20 -24 0
-452 -30 -32 -36 0
-452 -41 -43 -47 0
-452 -51 -53 -57 0
-452 -61 -70 -74 0
-452 -63 -78 -87 0
-452 -64 -79 -92 0
-452 -65 -80 -96 0
-452 -67 -82 -100 0
-452 -68 -83 -101 0
-452 -69 -84 -102 0
-453 -5 -7 -12 0
-453 -18 -20 -25 0
-453 -30 -32 -37 0
-453 -41 -43 -48 0
-453 -51 -53 -58 0
-453 -61 -70 -75 0
-453 -63 -78 -88 0
-453 -64 -79 -93 0
-453 -65 -80 -97 0
-453 -66 -81 -100 0
-453 -68 -83 -103 0
-453 -69 -84 -104 0
-454 -5 -7 -13 0
-454 -18 -20 -26 0
-454 -30 -32 -38 0
-454 -41 -43 -49 0
-454 -51 -53 -59 0
-454 -61 -70 -76 0
-454 -63 -78 -89 0
-454 -64 -79 -94 0
-454 -65 -80 -98 0
-454 -66 -81 -101 0
-454 -67 -82 -103 0
-454 -69 -84 -105 0
-455 -5 -7 -14 0
-455 -18 -20 -27 0
-455 -30 -32 -39 0
-455 -41 -43 -50 0
-455 -51 -53 -60 0
-455 -61 -70 -77 0
-455 -63 -78 -90 0
-455 -64 -79 -95 0
-455 -65 -80 -99 0
-455 -66 -81 -102 0
-455 -67 -82 -104 0
-455 -68 -83 -105 0
-456 -5 -8 -9 0
-456 -18 -21 -22 0
-456 -30 -33 -34 0
-456 -41 -44 -45 0
-456 -51 -54 -55 0
-456 -61 -71 -72 0
-456 -62 -78 -79 0
-456 -65 -86 -91 0
-456 -66 -87 -92 0
-456 -67 -88 -93 0
-456 -68 -89 -94 0
-456 -69 -90 -95 0
-457 -5 -8 -10 0
-457 -18 -21 -23 0
-457 -30 -33 -35 0
-457 -41 -44 -46 0
-457 -51 -54 -56 0
-457 -61 -71 -73 0
-457 -62 -78 -80 0
-457 -64 -85 -91 0
-457 -66 -87 -96 0
-457 -67 -88 -97 0
-457 -68 -89 -98 0
-457 -69 -90 -99 0
-458 -5 -8 -11 0
-458 -18 -21 -24 0
-458 -30 -33 -36 0
-458 -41 -44 -47 0
-458 -51 -54 -57 0
-458 -61 -71 -74 0
-458 -62 -78 -81 0
-458 -64 -85 -92 0
-458 -65 -86 -96 0
-458 -67 -88 -100 0
-458 -68 -89 -101 0
-458 -69 -90 -102 0
-459 -5 -8 -12 0
-459 -18 -21 -25 0
-459 -30 -33 -37 0
-459 -41 -44 -48 0
-459 -51 -54 -58 0
-459 -61 -71 -75 0
-459 -62 -78 -82 0
-459 -64 -85 -93 0
-459 -65 -86 -97 0
-459 -66 -87 -100 0
-459 -68 -89 -103 0
-459 -69 -90 -104 0
-460 -5 -8 -13 0
-460 -18 -21 -26 0
-460 -30 -33 -38 0
-460 -41 -44 -49 0
-460 -51 -54 -59 0
-460 -61 -71 -76 0
-460 -62 -78 -83 0
-460 -64 -85 -94 0
-460 -65 -86 -98 0
-460 -66 -87 -101 0
-460 -67 -88 -103 0
-460 -69 -90 -105 0
-461 -5 -8 -14 0
-461 -18 -21 -27 0
-461 -30 -33 -39 0
-461 -41 -44 -50 0
-461 -51 -54 -60 0
-461 -61 -71 -77 0
-461 -62 -78 -84 0
-461 -64 -85 -95 0
-461 -65 -86 -99 0
-461 -66 -87 -102 0
-461 -67 -88 -104 0
-461 -68 -89 -105 0
-462 -5 -9 -10 0
-462 -18 -22 -23 0
-462 -30 -34 -35 0
-462 -41 -45 -46 0
-462 -51 -55 -56 0
-462 -61 -72 -73 0
-462 -62 -79 -80 0
-462 -63 -85 -86 0
-462 -66 -92 -96 0
-462 -67 -93 -97 0
-462 -68 -94 -98 0
-462 -69 -95 -99 0
-463 -5 -9 -11 0
-463 -18 -22 -24 0
-463 -30 -34 -36 0
-463 -41 -45 -47 0
-463 -51 -55 -57 0
-463 -61 -72 -74 0
-463 -62 -79 -81 0
-463 -63 -85 -87 0
-463 -65 -91 -96 0
-463 -67 -93 -100 0
-463 -68 -94 -101 0
-463 -69 -95 -102 0
-464 -5 -9 -12 0
-464 -18 -22 -25 0
-464 -30 -34 -37 0
-464 -41 -45 -48 0
-464 -51 -55 -58 0
-464 -61 -72 -75 0
-464 -62 -79 -82 0
-464 -63 -85 -88 0
-464 -65 -91 -97 0
-464 -66 -92 -100 0
-464 -68 -94 -103 0
-464 -69 -95 -104 0
-465 -5 -9 -13 0
-465 -18 -22 -26 0
-465 -30 -34 -38 0
-465 -41 -45 -49 0
-465 -51 -55 -59 0
-465 -61 -72 -76 0
-465 -62 -79 -83 0
-465 -63 -85 -89 0
-465 -65 -91 -98 0
-465 -66 -92 -101 0
-465 -67 -93 -103 0
-465 -69 -95 -105 0
-466 -5 -9 -14 0
-466 -18 -22 -27 0
-466 -30 -34 -39 0
-466 -41 -45 -50 0
-466 -51 -55 -60 0
-466 -61 -72 -77 0
-466 -62 -79 -84 0
-466 -63 -85 -90 0
-466 -65 -91 -99 0
-466 -66 -92 -102 0
-466 -67 -93 -104 0
-466 -68 -94 -105 0
-467 -5 -10 -11 0
-467 -18 -23 -24 0
-467 -30 -35 -36 0
-467 -41 -46 -47 0
-467 -51 -56 -57 0
-467 -61 -73 -74 0
-467 -62 -80 -81 0
-467 -63 -86 -87 0
-467 -64 -91 -92 0
-467 -67 -97 -100 0
-467 -68 -98 -101 0
-467 -69 -99 -102 0
-468 -5 -10 -12 0
-468 -18 -23 -25 0
-468 -30 -35 -37 0
-468 -41 -46 -48 0
-468 -51 -56 -58 0
-468 -61 -73 -75 0
-468 -62 -80 -82 0
-468 -63 -86 -88 0
-468 -64 -91 -93 0
-468 -66 -96 -100 0
-468 -68 -98 -103 0
-468 -69 -99 -104 0
-469 -5 -10 -13 0
-469 -18 -23 -26 0
-469 -30 -35 -38 0
-469 -41 -46 -49 0
-469 -51 -56 -59 0
-469 -61 -73 -76 0
-469 -62 -80 -83 0
-469 -63 -86 -89 0
-469 -64 -91 -94 0
-469 -66 -96 -101 0
-469 -67 -97 -103 0
-469 -69 -99 -105 0
-470 -5 -10 -14 0
-470 -18 -23 -27 0
-470 -30 -35 -39 0
-470 -41 -46 -50 0
-470 -51 -56 -60 0
-470 -61 -73 -77 0
-470 -62 -80 -84 0
-470 -63 -86 -90 0
-470 -64 -91 -95 0
-470 -66 -96 -102 0
-470 -67 -97 -104 0
-470 -68 -98 -105 0
-471 -5 -11 -12 0
-471 -18 -24 -25 0
-471 -30 -36 -37 0
-471 -41 -47 -48 0
-471 -51 -57 -58 0
-471 -61 -74 -75 0
-471 -62 -81 -82 0
-471 -63 -87 -88 0
-471 -64 -92 -93 0
-471 -65 -96 -97 0
-471 -68 -101 -103 0
-471 -69 -102 -104 0
-472 -5 -11 -13 0
-472 -18 -24 -26 0
-472 -30 -36 -38 0
-472 -41 -47 -49 0
-472 -51 -57 -59 0
-472 -61 -74 -76 0
-472 -62 -81 -83 0
-472 -63 -87 -89 0
-472 -64 -92 -94 0
-472 -65 -96 -98 0
-472 -67 -100 -103 0
-472 -69 -102 -105 0
-473 -5 -11 -14 0
-473 -18 -24 -27 0
-473 -30 -36 -39 0
-473 -41 -47 -50 0
-473 -51 -57 -60 0
-473 -61 -74 -77 0
-473 -62 -81 -84 0
-473 -63 -87 -90 0
-473 -64 -92 -95 0
-473 -65 -96 -99 0
-473 -67 -100 -104 0
-473 -68 -101 -105 0
-474 -5 -12 -13 0
-474 -18 -25 -26 0
-474 -30 -37 -38 0
-474 -41 -48 -49 0
-474 -51 -58 -59 0
-474 -61 -75 -76 0
-474 -62 -82 -83 0
-474 -63 -88 -89 0
-474 -64 -93 -94 0
-474 -65 -97 -98 0
-474 -66 -100 -101 0
-474 -69 -104 -105 0
-475 -5 -12 -14 0
-475 -18 -25 -27 0
-475 -30 -37 -39 0
-475 -41 -48 -50 0
-475 -51 -58 -60 0
-475 -61 -75 -77 0
-475 -62 -82 -84 0
-475 -63 -88 -90 0
-475 -64 -93 -95 0
-475 -65 -97 -99 0
-475 -66 -100 -102 0
-475 -68 -103 -105 0
-476 -5 -13 -14 0
-476 -18 -26 -27 0
-476 -30 -38 -39 0
-476 -41 -49 -50 0
-476 -51 -59 -60 0
-476 -61 -76 -77 0
-476 -62 -83 -84 0
-476 -63 -89 -90 0
-476 -64 -94 -95 0
-476 -65 -98 -99 0
-476 -66 -101 -102 0
-476 -67 -103 -104 0
-477 -6 -7 -8 0
-477 -19 -20 -21 0
-477 -31 -32 -33 0
-477 -42 -43 -44 0
-477 -52 -53 -54 0
-477 -61 -62 -63 0
-477 -72 -79 -85 0
-477 -73 -80 -86 0
-477 -74 -81 -87 0
-477 -75 -82 -88 0
-477 -76 -83 -89 0
-477 -77 -84 -90 0
-478 -6 -7 -9 0
-478 -19 -20 -22 0
-478 -31 -32 -34 0
-478 -42 -43 -45 0
-478 -52 -53 -55 0
-478 -61 -62 -64 0
-478 -71 -78 -85 0
-478 -73 -80 -91 0
-478 -74 -81 -92 0
-478 -75 -82 -93 0
-478 -76 -83 -94 0
-478 -77 -84 -95 0
-479 -6 -7 -10 0
-479 -19 -20 -23 0
-479 -31 -32 -35 0
-479 -42 -43 -46 0
-479 -52 -53 -56 0
-479 -61 -62 -65 0
-479 -71 -78 -86 0
-479 -72 -79 -91 0
-479 -74 -81 -96 0
-479 -75 -82 -97 0
-479 -76 -83 -98 0
-479 -77 -84 -99 0
-480 -6 -7 -11 0
-480 -19 -20 -24 0
-480 -31 -32 -36 0
-480 -42 -43 -47 0
-480 -52 -53 -57 0
-480 -61 -62 -66 0
-480 -71 -78 -87 0
-480 -72 -79 -92 0
-480 -73 -80 -96 0
-480 -75 -82 -100 0
-480 -76 -83 -101 0
-480 -77 -84 -102 0
-481 -6 -7 -12 0
-481 -19 -20 -25 0
-481 -31 -32 -37 0
-481 -42 -43 -48 0
-481 -52 -53 -58 0
-481 -61 -62 -67 0
-481 -71 -78 -88 0
-481 -72 -79 -93 0
-481 -73 -80 -97 0
-481 -74 -81 -100 0
-481 -76 -83 -103 0
-481 -77 -84 -104 0
-482 -6 -7 -13 0
-482 -19 -20 -26 0
-482 -31 -32 -38 0
-482 -42 -43 -49 0
-482 -52 -53 -59 0
-482 -61 -62 -68 0
-482 -71 -78 -89 0
-482 -72 -79 -94 0
-482 -73 -80 -98 0
-482 -74 -81 -101 0
-482 -75 -82 -103 0
-482 -77 -84 -105 0
-483 -6 -7 -14 0
-483 -19 -20 -27 0
-483 -31 -32 -39 0
-483 -42 -43 -50 0
-483 -52 -53 -60 0
-483 -61 -62 -69 0
-483 -71 -78 -90 0
-483 -72 -79 -95 0
-483 -73 -80 -99 0
-483 -74 -81 -102 0
-483 -75 -82 -104 0
-483 -76 -83 -105 0
-484 -6 -8 -9 0
-484 -19 -21 -22 0
-484 -31 -33 -34 0
-484 -42 -44 -45 0
-484 -52 -54 -55 0
-484 -61 -63 -64 0
-484 -70 -78 -79 0
-484 -73 -86 -91 0
-484 -74 -87 -92 0
-484 -75 -88 -93 0
-484 -76 -89 -94 0
-484 -77 -90 -95 0
-485 -6 -8 -10 0
-485 -19 -21 -23 0
-485 -31 -33 -35 0
-485 -42 -44 -46 0
-485 -52 -54 -56 0
-485 -61 -63 -65 0
-485 -70 -78 -80 0
-485 -72 -85 -91 0
-485 -74 -87 -96 0
-485 -75 -88 -97 0
-485 -76 -89 -98 0
-485 -77 -90 -99 0
-486 -6 -8 -11 0
-486 -19 -21 -24 0
-486 -31 -33 -36 0
-486 -42 -44 -47 0
-486 -52 -54 -57 0
-486 -61 -63 -66 0
-486 -70 -78 -81 0
-486 -72 -85 -92 0
-486 -73 -86 -96 0
-486 -75 -88 -100 0
-486 -76 -89 -101 0
-486 -77 -90 -102 0
-487 -6 -8 -12 0
-487 -19 -21 -25 0
-487 -31 -33 -37 0
-487 -42 -44 -48 0
-487 -52 -54 -58 0
-487 -61 -63 -67 0
-487 -70 -78 -82 0
-487 -72 -85 -93 0
-487 -73 -86 -97 0
-487 -74 -87 -100 0
-487 -76 -89 -103 0
-487 -77 -90 -104 0
-488 -6 -8 -13 0
-488 -19 -21 -26 0
-488 -31 -33 -38 0
-488 -42 -44 -49 0
-488 -52 -54 -59 0
-488 -61 -63 -68 0
-488 -70 -78 -83 0
-488 -72 -85 -94 0
-488 -73 -86 -98 0
-488 -74 -87 -101 0
-488 -75 -88 -103 0
-488 -77 -90 -105 0
-489 -6 -8 -14 0
-489 -19 -21 -27 0
-489 -31 -33 -39 0
-489 -42 -44 -50 0
-489 -52 -54 -60 0
-489 -61 -63 -69 0
-489 -70 -78 -84 0
-489 -72 -85 -95 0
-489 -73 -86 -99 0
-489 -74 -87 -102 0
-489 -75 -88 -104 0
-489 -76 -89 -105 0
-490 -6 -9 -10 0
-490 -19 -22 -23 0
-490 -31 -34 -35 0
-490 -42 -45 -46 0
-490 -52 -55 -56 0
-490 -61 -64 -65 0
-490 -70 -79 -80 0
-490 -71 -85 -86 0
-490 -74 -92 -96 0
-490 -75 -93 -97 0
-490 -76 -94 -98 0
-490 -77 -95 -99 0
-491 -6 -9 -11 0
-491 -19 -22 -24 0
-491 -31 -34 -36 0
-491 -42 -45 -47 0
-491 -52 -55 -57 0
-491 -61 -64 -66 0
-491 -70 -79 -81 0
-491 -71 -85 -87 0
-491 -73 -91 -96 0
-491 -75 -93 -100 0
-491 -76 -94 -101 0
-491 -77 -95 -102 0
-492 -6 -9 -12 0
-492 -19 -22 -25 0
-492 -31 -34 -37 0
-492 -42 -45 -48 0
-492 -52 -55 -58 0
-492 -61 -64 -67 0
-492 -70 -79 -82 0
-492 -71 -85 -88 0
-492 -73 -91 -97 0
-492 -74 -92 -100 0
-492 -76 -94 -103 0
-492 -77 -95 -104 0
-493 -6 -9 -13 0
-493 -19 -22 -26 0
-493 -31 -34 -38 0
-493 -42 -45 -49 0
-493 -52 -55 -59 0
-493 -61 -64 -68 0
-493 -70 -79 -83 0
-493 -71 -85 -89 0
-493 -73 -91 -98 0
-493 -74 -92 -101 0
-493 -75 -93 -103 0
-493 -77 -95 -105 0
-494 -6 -9 -14 0
-494 -19 -22 -27 0
-494 -31 -34 -39 0
-494 -42 -45 -50 0
-494 -52 -55 -60 0
-494 -61 -64 -69 0
-494 -70 -79 -84 0
-494 -71 -85 -90 0
-494 -73 -91 -99 0
-494 -74 -92 -102 0
-494 -75 -93 -104 0
-494 -76 -94 -105 0
-495 -6 -10 -11 0
-495 -19 -23 -24 0
-495 -31 -35 -36 0
-495 -42 -46 -47 0
-495 -52 -56 -57 0
-495 -61 -65 -66 0
-495 -70 -80 -81 0
-495 -71 -86 -87 0
-495 -72 -91 -92 0
-495 -75 -97 -100 0
-495 -76 -98 -101 0
-495 -77 -99 -102 0
-496 -6 -10 -12 0
-496 -19 -23 -25 0
-496 -31 -35 -37 0
-496 -42 -46 -48 0
-496 -52 -56 -58 0
-496 -61 -65 -67 0
-496 -70 -80 -82 0
-496 -71 -86 -88 0
-496 -72 -91 -93 0
-496 -74 -96 -100 0
-496 -76 -98 -103 0
-496 -77 -99 -104 0
-497 -6 -10 -13 0
-497 -19 -23 -26 0
-497 -31 -35 -38 0
-497 -42 -46 -49 0
-497 -52 -56 -59 0
-497 -61 -65 -68 0
-497 -70 -80 -83 0
-497 -71 -86 -89 0
-497 -72 -91 -94 0
-497 -74 -96 -101 0
-497 -75 -97 -103 0
-497 -77 -99 -105 0
-498 -6 -10 -14 0
-498 -19 -23 -27 0
-498 -31 -35 -39 0
-498 -42 -46 -50 0
-498 -52 -56 -60 0
-498 -61 -65 -69 0
-498 -70 -80 -84 0
-498 -71 -86 -90 0
-498 -72 -91 -95 0
-498 -74 -96 -102 0
-498 -75 -97 -104 0
-498 -76 -98 -105 0
-499 -6 -11 -12 0
-499 -19 -24 -25 0
-499 -31 -36 -37 0
-499 -42 -47 -48 0
-499 -52 -57 -58 0
-499 -61 -66 -67 0
-499 -70 -81 -82 0
-499 -71 -87 -88 0
-499 -72 -92 -93 0
-499 -73 -96 -97 0
-499 -76 -101 -103 0
-499 -77 -102 -104 0
-500 -6 -11 -13 0
-500 -19 -24 -26 0
-500 -31 -36 -38 0
-500 -42 -47 -49 0
-500 -52 -57 -59 0
-500 -61 -66 -68 0
-500 -70 -81 -83 0
-500 -71 -87 -89 0
-500 -72 -92 -94 0
-500 -73 -96 -98 0
-500 -75 -100 -103 0
-500 -77 -102 -105 0
-501 -6 -11 -14 0
-501 -19 -24 -27 0
-501 -31 -36 -39 0
-501 -42 -47 -50 0
-501 -52 -57 -60 0
-501 -61 -66 -69 0
-501 -70 -81 -84 0
-501 -71 -87 -90 0
-501 -72 -92 -95 0
-501 -73 -96 -99 0
-501 -75 -100 -104 0
-501 -76 -101 -105 0
-502 -6 -12 -13 0
-502 -19 -25 -26 0
-502 -31 -37 -38 0
-502 -42 -48 -49 0
-502 -52 -58 -59 0
-502 -61 -67 -68 0
-502 -70 -82 -83 0
-502 -71 -88 -89 0
-502 -72 -93 -94 0
-502 -73 -97 -98 0
-502 -74 -100 -101 0
-502 -77 -104 -105 0
-503 -6 -12 -14 0
-503 -19 -25 -27 0
-503 -31 -37 -39 0
-503 -42 -48 -50 0
-503 -52 -58 -60 0
-503 -61 -67 -69 0
-503 -70 -82 -84 0
-503 -71 -88 -90 0
-503 -72 -93 -95 0
-503 -73 -97 -99 0
-503 -74 -100 -102 0
-503 -76 -103 -105 0
-504 -6 -13 -14 0
-504 -19 -26 -27 0
-504 -31 -38 -39 0
-504 -42 -49 -50 0
-504 -52 -59 -60 0
-504 -61 -68 -69 0
-504 -70 -83 -84 0
-504 -71 -89 -90 0
-504 -72 -94 -95 0
-504 -73 -98 -99 0
-504 -74 -101 -102 0
-504 -75 -103 -104 0
-505 -7 -8 -9 0
-505 -20 -21 -22 0
-505 -32 -33 -34 0
-505 -43 -44 -45 0
-505 -53 -54 -55 0
-505 -62 -63 -64 0
-505 -70 -71 -72 0
-505 -80 -86 -91 0
-505 -81 -87 -92 0
-505 -82 -88 -93 0
-505 -83 -89 -94 0
-505 -84 -90 -95 0
-506 -7 -8 -10 0
-506 -20 -21 -23 0
-506 -32 -33 -35 0
-506 -43 -44 -46 0
-506 -53 -54 -56 0
-506 -62 -63 -65 0
-506 -70 -71 -73 0
-506 -79 -85 -91 0
-506 -81 -87 -96 0
-506 -82 -88 -97 0
-506 -83 -89 -98 0
-506 -84 -90 -99 0
-507 -7 -8 -11 0
-507 -20 -21 -24 0
-507 -32 -33 -36 0
-507 -43 -44 -47 0
-507 -53 -54 -57 0
-507 -62 -63 -66 0
-507 -70 -71 -74 0
-507 -79 -85 -92 0
-507 -80 -86 -96 0
-507 -82 -88 -100 0
-507 -83 -89 -101 0
-507 -84 -90 -102 0
-508 -7 -8 -12 0
-508 -20 -21 -25 0
-508 -32 -33 -37 0
-508 -43 -44 -48 0
-508 -53 -54 -58 0
-508 -62 -63 -67 0
-508 -70 -71 -75 0
-508 -79 -85 -93 0
-508 -80 -86 -97 0
-508 -81 -87 -100 0
-508 -83 -89 -103 0
-508 -84 -90 -104 0
-509 -7 -8 -13 0
-509 -20 -21 -26 0
-509 -32 -33 -38 0
-509 -43 -44 -49 0
-509 -53 -54 -59 0
-509 -62 -63 -68 0
-509 -70 -71 -76 0
-509 -79 -85 -94 0
-509 -80 -86 -98 0
-509 -81 -87 -101 0
-509 -82 -88 -103 0
-509 -84 -90 -105 0
-510 -7 -8 -14 0
-510 -20 -21 -27 0
-510 -32 -33 -39 0
-510 -43 -44 -50 0
-510 -53 -54 -60 0
-510 -62 -63 -69 0
-510 -70 -71 -77 0
-510 -79 -85 -95 0
-510 -80 -86 -99 0
-510 -81 -87 -102 0
-510 -82 -88 -104 0
-510 -83 -89 -105 0
-511 -7 -9 -10 0
-511 -20 -22 -23 0
-511 -32 -34 -35 0
-511 -43 -45 -46 0
-511 -53 -55 -56 0
-511 -62 -64 -65 0
-511 -70 -72 -73 0
-511 -78 -85 -86 0
-511 -81 -92 -96 0
-511 -82 -93 -97 0
-511 -83 -94 -98 0
-511 -84 -95 -99 0
-512 -7 -9 -11 0
-512 -20 -22 -24 0
-512 -32 -34 -36 0
-512 -43 -45 -47 0
-512 -53 -55 -57 0
-512 -62 -64 -66 0
-512 -70 -72 -74 0
-512 -78 -85 -87 0
-512 -80 -91 -96 0
-512 -82 -93 -100 0
-512 -83 -94 -101 0
-512 -84 -95 -102 0
-513 -7 -9 -12 0
-513 -20 -22 -25 0
-513 -32 -34 -37 0
-513 -43 -45 -48 0
-513 -53 -55 -58 0
-513 -62 -64 -67 0
-513 -70 -72 -75 0
-513 -78 -85 -88 0
-513 -80 -91 -97 0
-513 -81 -92 -100 0
-513 -83 -94 -103 0
-513 -84 -95 -104 0
-514 -7 -9 -13 0
-514 -20 -22 -26 0
-514 -32 -34 -38 0
-514 -43 -45 -49 0
-514 -53 -55 -59 0
-514 -62 -64 -68 0
-514 -70 -72 -76 0
-514 -78 -85 -89 0
-514 -80 -91 -98 0
-514 -81 -92 -101 0
-514 -82 -93 -103 0
-514 -84 -95 -105 0
-515 -7 -9 -14 0
-515 -20 -22 -27 0
-515 -32 -34 -39 0
-515 -43 -45 -50 0
-515 -53 -55 -60 0
-515 -62 -64 -69 0
-515 -70 -72 -77 0
-515 -78 -85 -90 0
-515 -80 -91 -99 0
-515 -81 -92 -102 0
-515 -82 -93 -104 0
-515 -83 -94 -105 0
-516 -7 -10 -11 0
-516 -20 -23 -24 0
-516 -32 -35 -36 0
-516 -43 -46 -47 0
-516 -53 -56 -57 0
-516 -62 -65 -66 0
-516 -70 -73 -74 0
-516 -78 -86 -87 0
-516 -79 -91 -92 0
-516 -82 -97 -100 0
-516 -83 -98 -101 0
-516 -84 -99 -102 0
-517 -7 -10 -12 0
-517 -20 -23 -25 0
-517 -32 -35 -37 0
-517 -43 -46 -48 0
-517 -53 -56 -58 0
-517 -62 -65 -67 0
-517 -70 -73 -75 0
-517 -78 -86 -88 0
-517 -79 -91 -93 0
-517 -81 -96 -100 0
-517 -83 -98 -103 0
-517 -84 -99 -104 0
-518 -7 -10 -13 0
-518 -20 -23 -26 0
-518 -32 -35 -38 0
-518 -43 -46 -49 0
-518 -53 -56 -59 0
-518 -62 -65 -68 0
-518 -70 -73 -76 0
-518 -78 -86 -89 0
-518 -79 -91 -94 0
-518 -81 -96 -101 0
-518 -82 -97 -103 0
-518 -84 -99 -105 0
-519 -7 -10 -14 0
-519 -20 -23 -27 0
-519 -32 -35 -39 0
-519 -43 -46 -50 0
-519 -53 -56 -60 0
-519 -62 -65 -69 0
-519 -70 -73 -77 0
-519 -78 -86 -90 0
-519 -79 -91 -95 0
-519 -81 -96 -102 0
-519 -82 -97 -104 0
-519 -83 -98 -105 0
-520 -7 -11 -12 0
-520 -20 -24 -25 0
-520 -32 -36 -37 0
-520 -43 -47 -48 0
-520 -53 -57 -58 0
-520 -62 -66 -67 0
-520 -70 -74 -75 0
-520 -78 -87 -88 0
-520 -79 -92 -93 0
-520 -80 -96 -97 0
-520 -83 -101 -103 0
-520 -84 -102 -104 0
-521 -7 -11 -13 0
-521 -20 -24 -26 0
-521 -32 -36 -38 0
-521 -43 -47 -49 0
-521 -53 -57 -59 0
-521 -62 -66 -68 0
-521 -70 -74 -76 0
-521 -78 -87 -89 0
-521 -79 -92 -94 0
-521 -80 -96 -98 0
-521 -82 -100 -103 0
-521 -84 -102 -105 0
-522 -7 -11 -14 0
-522 -20 -24 -27 0
-522 -32 -36 -39 0
-522 -43 -47 -50 0
-522 -53 -57 -60 0
-522 -62 -66 -69 0
-522 -70 -74 -77 0
-522 -78 -87 -90 0
-522 -79 -92 -95 0
-522 -80 -96 -99 0
-522 -82 -100 -104 0
-522 -83 -101 -105 0
-523 -7 -12 -13 0
-523 -20 -25 -26 0
-523 -32 -37 -38 0
-523 -43 -48 -49 0
-523 -53 -58 -59 0
-523 -62 -67 -68 0
-523 -70 -75 -76 0
-523 -78 -88 -89 0
-523 -79 -93 -94 0
-523 -80 -97 -98 0
-523 -81 -100 -101 0
-523 -84 -104 -105 0
-524 -7 -12 -14 0
-524 -20 -25 -27 0
-524 -32 -37 -39 0
-524 -43 -48 -50 0
-524 -53 -58 -60 0
-524 -62 -67 -69 0
-524 -70 -75 -77 0
-524 -78 -88 -90 0
-524 -79 -93 -95 0
-524 -80 -97 -99 0
-524 -81 -100 -102 0
-524 -83 -103 -105 0
-525 -7 -13 -14 0
-525 -20 -26 -27 0
-525 -32 -38 -39 0
-525 -43 -49 -50 0
-525 -53 -59 -60 0
-525 -62 -68 -69 0
-525 -70 -76 -77 0
-525 -78 -89 -90 0
-525 -79 -94 -95 0
-525 -80 -98 -99 0
-525 -81 -101 -102 0
-525 -82 -103 -104 0
-526 -8 -9 -10 0
-526 -21 -22 -23 0
-526 -33 -34 -35 0
-526 -44 -45 -46 0
-526 -54 -55 -56 0
-526 -63 -64 -65 0
-526 -71 -72 -73 0
-526 -78 -79 -80 0
-526 -87 -92 -96 0
-526 -88 -93 -97 0
-526 -89 -94 -98 0
-526 -90 -95 -99 0
-527 -8 -9 -11 0
-527 -21 -22 -24 0
-527 -33 -34 -36 0
-527 -44 -45 -47 0
-527 -54 -55 -57 0
-527 -63 -64 -66 0
-527 -71 -72 -74 0
-527 -78 -79 -81 0
-527 -86 -91 -96 0
-527 -88 -93 -100 0
-527 -89 -94 -101 0
-527 -90 -95 -102 0
-528 -8 -9 -12 0
-528 -21 -22 -25 0
-528 -33 -34 -37 0
-528 -44 -45 -48 0
-528 -54 -55 -58 0
-528 -63 -64 -67 0
-528 -71 -72 -75 0
-528 -78 -79 -82 0
-528 -86 -91 -97 0
-528 -87 -92 -100 0
-528 -89 -94 -103 0
-528 -90 -95 -104 0
-529 -8 -9 -13 0
-529 -21 -22 -26 0
-529 -33 -34 -38 0
-529 -44 -45 -49 0
-529 -54 -55 -59 0
-529 -63 -64 -68 0
-529 -71 -72 -76 0
-529 -78 -79 -83 0
-529 -86 -91 -98 0
-529 -87 -92 -101 0
-529 -88 -93 -103 0
-529 -90 -95 -105 0
-530 -8 -9 -14 0
-530 -21 -22 -27 0
-530 -33 -34 -39 0
-530 -44 -45 -50 0
-530 -54 -55 -60 0
-530 -63 -64 -69 0
-530 -71 -72 -77 0
-530 -78 -79 -84 0
-530 -86 -91 -99 0
-530 -87 -92 -102 0
-530 -88 -93 -104 0
-530 -89 -94 -105 0
-531 -8 -10 -11 0
-531 -21 -23 -24 0
-531 -33 -35 -36 0
-531 -44 -46 -47 0
-531 -54 -56 -57 0
-531 -63 -65 -66 0
-531 -71 -73 -74 0
-531 -78 -80 -81 0
-531 -85 -91 -92 0
-531 -88 -97 -100 0
-531 -89 -98 -101 0
-531 -90 -99 -102 0
-532 -8 -10 -12 0
-532 -21 -23 -25 0
-532 -33 -35 -37 0
-532 -44 -46 -48 0
-532 -54 -56 -58 0
-532 -63 -65 -67 0
-532 -71 -73 -75 0
-532 -78 -80 -82 0
-532 -85 -91 -93 0
-532 -87 -96 -100 0
-532 -89 -98 -103 0
-532 -90 -99 -104 0
-533 -8 -10 -13 0
-533 -21 -23 -26 0
-533 -33 -35 -38 0
-533 -44 -46 -49 0
-533 -54 -56 -59 0
-533 -63 -65 -68 0
-533 -71 -73 -76 0
-533 -78 -80 -83 0
-533 -85 -91 -94 0
-533 -87 -96 -101 0
-533 -88 -97 -103 0
-533 -90 -99 -105 0
-534 -8 -10 -14 0
-534 -21 -23 -27 0
-534 -33 -35 -39 0
-534 -44 -46 -50 0
-534 -54 -56 -60 0
-534 -63 -65 -69 0
-534 -71 -73 -77 0
-534 -78 -80 -84 0
-534 -85 -91 -95 0
-534 -87 -96 -102 0
-534 -88 -97 -104 0
-534 -89 -98 -105 0
-535 -8 -11 -12 0
-535 -21 -24 -25 0
-535 -33 -36 -37 0
-535 -44 -47 -48 0
-535 -54 -57 -58 0
-535 -63 -66 -67 0
-535 -71 -74 -75 0
-535 -78 -81 -82 0
-535 -85 -92 -93 0
-535 -86 -96 -97 0
-535 -89 -101 -103 0
-535 -90 -102 -104 0
-536 -8 -11 -13 0
-536 -21 -24 -26 0
-536 -33 -36 -38 0
-536 -44 -47 -49 0
-536 -54 -57 -59 0
-536 -63 -66 -68 0
-536 -71 -74 -76 0
-536 -78 -81 -83 0
-536 -85 -92 -94 0
-536 -86 -96 -98 0
-536 -88 -100 -103 0
-536 -90 -102 -105 0
-537 -8 -11 -14 0
-537 -21 -24 -27 0
-537 -33 -36 -39 0
-537 -44 -47 -50 0
-537 -54 -57 -60 0
-537 -63 -66 -69 0
-537 -71 -74 -77 0
-537 -78 -81 -84 0
-537 -85 -92 -95 0
-537 -86 -96 -99 0
-537 -88 -100 -104 0
-537 -89 -101 -105 0
-538 -8 -12 -13 0
-538 -21 -25 -26 0
-538 -33 -37 -38 0
-538 -44 -48 -49 0
-538 -54 -58 -59 0
-538 -63 -67 -68 0
-538 -71 -75 -76 0
-538 -78 -82 -83 0
-538 -85 -93 -94 0
-538 -86 -97 -98 0
-538 -87 -100 -101 0
-538 -90 -104 -105 0
-539 -8 -12 -14 0
-539 -21 -25 -27 0
-539 -33 -37 -39 0
-539 -44 -48 -50 0
-539 -54 -58 -60 0
-539 -63 -67 -69 0
-539 -71 -75 -77 0
-539 -78 -82 -84 0
-539 -85 -93 -95 0
-539 -86 -97 -99 0
-539 -87 -100 -102 0
-539 -89 -103 -105 0
-540 -8 -13 -14 0
-540 -21 -26 -27 0
-540 -33 -38 -39 0
-540 -44 -49 -50 0
-540 -54 -59 -60 0
-540 -63 -68 -69 0
-540 -71 -76 -77 0
-540 -78 -83 -84 0
-540 -85 -94 -95 0
-540 -86 -98 -99 0
-540 -87 -101 -102 0
-540 -88 -103 -104 0
-541 -9 -10 -11 0
-541 -22 -23 -24 0
-541 -34 -35 -36 0
-541 -45 -46 -47 0
-541 -55 -56 -57 0
-541 -64 -65 -66 0
-541 -72 -73 -74 0
-541 -79 -80 -81 0
-541 -85 -86 -87 0
-541 -93 -97 -100 0
-541 -94 -98 -101 0
-541 -95 -99 -102 0
-542 -9 -10 -12 0
-542 -22 -23 -25 0
-542 -34 -35 -37 0
-542 -45 -46 -48 0
-542 -55 -56 -58 0
-542 -64 -65 -67 0
-542 -72 -73 -75 0
-542 -79 -80 -82 0
-542 -85 -86 -88 0
-542 -92 -96 -100 0
-542 -94 -98 -103 0
-542 -95 -99 -104 0
-543 -9 -10 -13 0
-543 -22 -23 -26 0
-543 -34 -35 -38 0
-543 -45 -46 -49 0
-543 -55 -56 -59 0
-543 -64 -65 -68 0
-543 -72 -73 -76 0
-543 -79 -80 -83 0
-543 -85 -86 -89 0
-543 -92 -96 -101 0
-543 -93 -97 -103 0
-543 -95 -99 -105 0
-544 -9 -10 -14 0
-544 -22 -23 -27 0
-544 -34 -35 -39 0
-544 -45 -46 -50 0
-544 -55 -56 -60 0
-544 -64 -65 -69 0
-544 -72 -73 -77 0
-544 -79 -80 -84 0
-544 -85 -86 -90 0
-544 -92 -96 -102 0
-544 -93 -97 -104 0
-544 -94 -98 -105 0
-545 -9 -11 -12 0
-545 -22 -24 -25 0
-545 -34 -36 -37 0
-545 -45 -47 -48 0
-545 -55 -57 -58 0
-545 -64 -66 -67 0
-545 -72 -74 -75 0
-545 -79 -81 -82 0
-545 -85 -87 -88 0
-545 -91 -96 -97 0
-545 -94 -101 -103 0
-545 -95 -102 -104 0
-546 -9 -11 -13 0
-546 -22 -24 -26 0
-546 -34 -36 -38 0
-546 -45 -47 -49 0
-546 -55 -57 -59 0
-546 -64 -66 -68 0
-546 -72 -74 -76 0
-546 -79 -81 -83 0
-546 -85 -87 -89 0
-546 -91 -96 -98 0
-546 -93 -100 -103 0
-546 -95 -102 -105 0
-547 -9 -11 -14 0
-547 -22 -24 -27 0
-547 -34 -36 -39 0
-547 -45 -47 -50 0
-547 -55 -57 -60 0
-547 -64 -66 -69 0
-547 -72 -74 -77 0
-547 -79 -81 -84 0
-547 -85 -87 -90 0
-547 -91 -96 -99 0
-547 -93 -100 -104 0
-547 -94 -101 -105 0
-548 -9 -12 -13 0
-548 -22 -25 -26 0
-548 -34 -37 -38 0
-548 -45 -48 -49 0
-548 -55 -58 -59 0
-548 -64 -67 -68 0
-548 -72 -75 -76 0
-548 -79 -82 -83 0
-548 -85 -88 -89 0
-548 -91 -97 -98 0
-548 -92 -100 -101 0
-548 -95 -104 -105 0
-549 -9 -12 -14 0
-549 -22 -25 -27 0
-549 -34 -37 -39 0
-549 -45 -48 -50 0
-549 -55 -58 -60 0
-549 -64 -67 -69 0
-549 -72 -75 -77 0
-549 -79 -82 -84 0
-549 -85 -88 -90 0
-549 -91 -97 -99 0
-549 -92 -100 -102 0
-549 -94 -103 -105 0
-550 -9 -13 -14 0
-550 -22 -26 -27 0
-550 -34 -38 -39 0
-550 -45 -49 -50 0
-550 -55 -59 -60 0
-550 -64 -68 -69 0
-550 -72 -76 -77 0
-550 -79 -83 -84 0
-550 -85 -89 -90 0
-550 -91 -98 -99 0
-550 -92 -101 -102 0
-550 -93 -103 -104 0
-551 -10 -11 -12 0
-551 -23 -24 -25 0
-551 -35 -36 -37 0
-551 -46 -47 -48 0
-551 -56 -57 -58 0
-551 -65 -66 -67 0
-551 -73 -74 -75 0
-551 -80 -81 -82 0
-551 -86 -87 -88 0
-551 -91 -92 -93 0
-551 -98 -101 -103 0
-551 -99 -102 -104 0
-552 -10 -11 -13 0
-552 -23 -24 -26 0
-552 -35 -36 -38 0
-552 -46 -47 -49 0
-552 -56 -57 -59 0
-552 -65 -66 -68 0
-552 -73 -74 -76 0
-552 -80 -81 -83 0
-552 -86 -87 -89 0
-552 -91 -92 -94 0
-552 -97 -100 -103 0
-552 -99 -102 -105 0
-553 -10 -11 -14 0
-553 -23 -24 -27 0
-553 -35 -36 -39 0
-553 -46 -47 -50 0
-553 -56 -57 -60 0
-553 -65 -66 -69 0
-553 -73 -74 -77 0
-553 -80 -81 -84 0
-553 -86 -87 -90 0
-553 -91 -92 -95 0
-553 -97 -100 -104 0
-553 -98 -101 -105 0
-554 -10 -12 -13 0
-554 -23 -25 -26 0
-554 -35 -37 -38 0
-554 -46 -48 -49 0
-554 -56 -58 -59 0
-554 -65 -67 -68 0
-554 -73 -75 -76 0
-554 -80 -82 -83 0
-554 -86 -88 -89 0
-554 -91 -93 -94 0
-554 -96 -100 -101 0
-554 -99 -104 -105 0
-555 -10 -12 -14 0
-555 -23 -25 -27 0
-555 -35 -37 -39 0
-555 -46 -48 -50 0
-555 -56 -58 -60 0
-555 -65 -67 -69 0
-555 -73 -75 -77 0
-555 -80 -82 -84 0
-555 -86 -88 -90 0
-555 -91 -93 -95 0
-555 -96 -100 -102 0
-555 -98 -103 -105 0
-556 -10 -13 -14 0
-556 -23 -26 -27 0
-556 -35 -38 -39 0
-556 -46 -49 -50 0
-556 -56 -59 -60 0
-556 -65 -68 -69 0
-556 -73 -76 -77 0
-556 -80 -83 -84 0
-556 -86 -89 -90 0
-556 -91 -94 -95 0
-556 -96 -101 -102 0
-556 -97 -103 -104 0
-557 -11 -12 -13 0
-557 -24 -25 -26 0
-557 -36 -37 -38 0
-557 -47 -48 -49 0
-557 -57 -58 -59 0
-557 -66 -67 -68 0
-557 -74 -75 -76 0
-557 -81 -82 -83 0
-557 -87 -88 -89 0
-557 -92 -93 -94 0
-557 -96 -97 -98 0
-557 -102 -104 -105 0
-558 -11 -12 -14 0
-558 -24 -25 -27 0
-558 -36 -37 -39 0
-558 -47 -48 -50 0
-558 -57 -58 -60 0
-558 -66 -67 -69 0
-558 -74 -75 -77 0
-558 -81 -82 -84 0
-558 -87 -88 -90 0
-558 -92 -93 -95 0
-558 -96 -97 -99 0
-558 -101 -103 -105 0
-559 -11 -13 -14 0
-559 -24 -26 -27 0
-559 -36 -38 -39 0
-559 -47 -49 -50 0
-559 -57 -59 -60 0
-559 -66 -68 -69 0
-559 -74 -76 -77 0
-559 -81 -83 -84 0
-559 -87 -89 -90 0
-559 -92 -94 -95 0
-559 -96 -98 -99 0
-559 -100 -103 -104 0
-560 -12 -13 -14 0
-560 -25 -26 -27 0
-560 -37 -38 -39 0
-560 -48 -49 -50 0
-560 -58 -59 -60 0
-560 -67 -68 -69 0
-560 -75 -76 -77 0
-560 -82 -83 -84 0
-560 -88 -89 -90 0
-560 -93 -94 -95 0
-560 -97 -98 -99 0
-560 -100 -101 -102 0
-561 -3 0
-561 197 0
-562 -16 0
-562 119 0
-563 -28 0
-563 107 0
-106 561 562 563 0
-564 -4 0
-564 198 0
-565 -17 0
-565 120 0
-566 -29 0
-566 108 0
-106 564 565 566 0
-567 -5 0
-567 199 0
-568 -18 0
-568 121 0
-569 -30 0
-569 109 0
-106 567 568 569 0
-570 -6 0
-570 200 0
-571 -19 0
-571 122 0
-572 -31 0
-572 110 0
-106 570 571 572 0
-573 -7 0
-573 201 0
-574 -20 0
-574 123 0
-575 -32 0
-575 111 0
-106 573 574 575 0
-576 -8 0
-576 202 0
-577 -21 0
-577 124 0
-578 -33 0
-578 112 0
-106 576 577 578 0
-579 -9 0
-579 203 0
-580 -22 0
-580 125 0
-581 -34 0
-581 113 0
-106 579 580 581 0
-582 -10 0
-582 204 0
-583 -23 0
-583 126 0
-584 -35 0
-584 114 0
-106 582 583 584 0
-585 -11 0
-585 205 0
-586 -24 0
-586 127 0
-587 -36 0
-587 115 0
-106 585 586 587 0
-588 -12 0
-588 206 0
-589 -25 0
-589 128 0
-590 -37 0
-590 116 0
-106 588 589 590 0
-591 -13 0
-591 207 0
-592 -26 0
-592 129 0
-593 -38 0
-593 117 0
-106 591 592 593 0
-594 -14 0
-594 208 0
-595 -27 0
-595 130 0
-596 -39 0
-596 118 0
-106 594 595 596 0
-597 -2 0
-597 197 0
-598 -15 0
-598 119 0
-599 -28 0
-599 106 0
-107 597 598 599 0
-600 -4 0
-600 209 0
-601 -17 0
-601 131 0
-602 -40 0
-602 108 0
-107 600 601 602 0
-603 -5 0
-603 210 0
-604 -18 0
-604 132 0
-605 -41 0
-605 109 0
-107 603 604 605 0
-606 -6 0
-606 211 0
-607 -19 0
-607 133 0
-608 -42 0
-608 110 0
-107 606 607 608 0
-609 -7 0
-609 212 0
-610 -20 0
-610 134 0
-611 -43 0
-611 111 0
-107 609 610 611 0
-612 -8 0
-612 213 0
-613 -21 0
-613 135 0
-614 -44 0
-614 112 0
-107 612 613 614 0
-615 -9 0
-615 214 0
-616 -22 0
-616 136 0
-617 -45 0
-617 113 0
-107 615 616 617 0
-618 -10 0
-618 215 0
-619 -23 0
-619 137 0
-620 -46 0
-620 114 0
-107 618 619 620 0
-621 -11 0
-621 216 0
-622 -24 0
-622 138 0
-623 -47 0
-623 115 0
-107 621 622 623 0
-624 -12 0
-624 217 0
-625 -25 0
-625 139 0
-626 -48 0
-626 116 0
-107 624 625 626 0
-627 -13 0
-627 218 0
-628 -26 0
-628 140 0
-629 -49 0
-629 117 0
-107 627 628 629 0
-630 -14 0
-630 219 0
-631 -27 0
-631 141 0
-632 -50 0
-632 118 0
-107 630 631 632 0
-633 -2 0
-633 198 0
-634 -15 0
-634 120 0
-635 -29 0
-635 106 0
-108 633 634 635 0
-636 -3 0
-636 209 0
-637 -16 0
-637 131 0
-638 -40 0
-638 107 0
-108 636 637 638 0
-639 -5 0
-639 220 0
-640 -18 0
-640 142 0
-641 -51 0
-641 109 0
-108 639 640 641 0
-642 -6 0
-642 221 0
-643 -19 0
-643 143 0
-644 -52 0
-644 110 0
-108 642 643 644 0
-645 -7 0
-645 222 0
-646 -20 0
-646 144 0
-647 -53 0
-647 111 0
-108 645 646 647 0
-648 -8 0
-648 223 0
-649 -21 0
-649 145 0
-650 -54 0
-650 112 0
-108 648 649 650 0
-651 -9 0
-651 224 0
-652 -22 0
-652 146 0
-653 -55 0
-653 113 0
-108 651 652 653 0
-654 -10 0
-654 225 0
-655 -23 0
-655 147 0
-656 -56 0
-656 114 0
-108 654 655 656 0
-657 -11 0
-657 226 0
-658 -24 0
-658 148 0
-659 -57 0
-659 115 0
-108 657 658 659 0
-660 -12 0
-660 227 0
-661 -25 0
-661 149 0
-662 -58 0
-662 116 0
-108 660 661 662 0
-663 -13 0
-663 228 0
-664 -26 0
-664 150 0
-665 -59 0
-665 117 0
-108 663 664 665 0
-666 -14 0
-666 229 0
-667 -27 0
-667 151 0
-668 -60 0
-668 118 0
-108 666 667 668 0
-669 -2 0
-669 199 0
-670 -15 0
-670 121 0
-671 -30 0
-671 106 0
-109 669 670 671 0
-672 -3 0
-672 210 0
-673 -16 0
-673 132 0
-674 -41 0
-674 107 0
-109 672 673 674 0
-675 -4 0
-675 220 0
-676 -17 0
-676 142 0
-677 -51 0
-677 108 0
-109 675 676 677 0
-678 -6 0
-678 230 0
-679 -19 0
-679 152 0
-680 -61 0
-680 110 0
-109 678 679 680 0
-681 -7 0
-681 231 0
-682 -20 0
-682 153 0
-683 -62 0
-683 111 0
-109 681 682 683 0
-684 -8 0
-684 232 0
-685 -21 0
-685 154 0
-686 -63 0
-686 112 0
-109 684 685 686 0
-687 -9 0
-687 233 0
-688 -22 0
-688 155 0
-689 -64 0
-689 113 0
-109 687 688 689 0
-690 -10 0
-690 234 0
-691 -23 0
-691 156 0
-692 -65 0
-692 114 0
-109 690 691 692 0
-693 -11 0
-693 235 0
-694 -24 0
-694 157 0
-695 -66 0
-695 115 0
-109 693 694 695 0
-696 -12 0
-696 236 0
-697 -25 0
-697 158 0
-698 -67 0
-698 116 0
-109 696 697 698 0
-699 -13 0
-699 237 0
-700 -26 0
-700 159 0
-701 -68 0
-701 117 0
-109 699 700 701 0
-702 -14 0
-702 238 0
-703 -27 0
-703 160 0
-704 -69 0
-704 118 0
-109 702 703 704 0
-705 -2 0
-705 200 0
-706 -15 0
-706 122 0
-707 -31 0
-707 106 0
-110 705 706 707 0
-708 -3 0
-708 211 0
-709 -16 0
-709 133 0
-710 -42 0
-710 107 0
-110 708 709 710 0
-711 -4 0
-711 221 0
-712 -17 0
-712 143 0
-713 -52 0
-713 108 0
-110 711 712 713 0
-714 -5 0
-714 230 0
-715 -18 0
-715 152 0
-716 -61 0
-716 109 0
-110 714 715 716 0
-717 -7 0
-717 239 0
-718 -20 0
-718 161 0
-719 -70 0
-719 111 0
-110 717 718 719 0
-720 -8 0
-720 240 0
-721 -21 0
-721 162 0
-722 -71 0
-722 112 0
-110 720 721 722 0
-723 -9 0
-723 241 0
-724 -22 0
-724 163 0
-725 -72 0
-725 113 0
-110 723 724 725 0
-726 -10 0
-726 242 0
-727 -23 0
-727 164 0
-728 -73 0
-728 114 0
-110 726 727 728 0
-729 -11 0
-729 243 0
-730 -24 0
-730 165 0
-731 -74 0
-731 115 0
-110 729 730 731 0
-732 -12 0
-732 244 0
-733 -25 0
-733 166 0
-734 -75 0
-734 116 0
-110 732 733 734 0
-735 -13 0
-735 245 0
-736 -26 0
-736 167 0
-737 -76 0
-737 117 0
-110 735 736 737 0
-738 -14 0
-738 246 0
-739 -27 0
-739 168 0
-740 -77 0
-740 118 0
-110 738 739 740 0
-741 -2 0
-741 201 0
-742 -15 0
-742 123 0
-743 -32 0
-743 106 0
-111 741 742 743 0
-744 -3 0
-744 212 0
-745 -16 0
-745 134 0
-746 -43 0
-746 107 0
-111 744 745 746 0
-747 -4 0
-747 222 0
-748 -17 0
-748 144 0
-749 -53 0
-749 108 0
-111 747 748 749 0
-750 -5 0
-750 231 0
-751 -18 0
-751 153 0
-752 -62 0
-752 109 0
-111 750 751 752 0
-753 -6 0
-753 239 0
-754 -19 0
-754 161 0
-755 -70 0
-755 110 0
-111 753 754 755 0
-756 -8 0
-756 247 0
-757 -21 0
-757 169 0
-758 -78 0
-758 112 0
-111 756 757 758 0
-759 -9 0
-759 248 0
-760 -22 0
-760 170 0
-761 -79 0
-761 113 0
-111 759 760 761 0
-762 -10 0
-762 249 0
-763 -23 0
-763 171 0
-764 -80 0
-764 114 0
-111 762 763 764 0
-765 -11 0
-765 250 0
-766 -24 0
-766 172 0
-767 -81 0
-767 115 0
-111 765 766 767 0
-768 -12 0
-768 251 0
-769 -25 0
-769 173 0
-770 -82 0
-770 116 0
-111 768 769 770 0
-771 -13 0
-771 252 0
-772 -26 0
-772 174 0
-773 -83 0
-773 117 0
-111 771 772 773 0
-774 -14 0
-774 253 0
-775 -27 0
-775 175 0
-776 -84 0
-776 118 0
-111 774 775 776 0
-777 -2 0
-777 202 0
-778 -15 0
-778 124 0
-779 -33 0
-779 106 0
-112 777 778 779 0
-780 -3 0
-780 213 0
-781 -16 0
-781 135 0
-782 -44 0
-782 107 0
-112 780 781 782 0
-783 -4 0
-783 223 0
-784 -17 0
-784 145 0
-785 -54 0
-785 108 0
-112 783 784 785 0
-786 -5 0
-786 232 0
-787 -18 0
-787 154 0
-788 -63 0
-788 109 0
-112 786 787 788 0
-789 -6 0
-789 240 0
-790 -19 0
-790 162 0
-791 -71 0
-791 110 0
-112 789 790 791 0
-792 -7 0
-792 247 0
-793 -20 0
-793 169 0
-794 -78 0
-794 111 0
-112 792 793 794 0
-795 -9 0
-795 254 0
-796 -22 0
-796 176 0
-797 -85 0
-797 113 0
-112 795 796 797 0
-798 -10 0
-798 255 0
-799 -23 0
-799 177 0
-800 -86 0
-800 114 0
-112 798 799 800 0
-801 -11 0
-801 256 0
-802 -24 0
-802 178 0
-803 -87 0
-803 115 0
-112 801 802 803 0
-804 -12 0
-804 257 0
-805 -25 0
-805 179 0
-806 -88 0
-806 116 0
-112 804 805 806 0
-807 -13 0
-807 258 0
-808 -26 0
-808 180 0
-809 -89 0
-809 117 0
-112 807 808 809 0
-810 -14 0
-810 259 0
-811 -27 0
-811 181 0
-812 -90 0
-812 118 0
-112 810 811 812 0
-813 -2 0
-813 203 0
-814 -15 0
-814 125 0
-815 -34 0
-815 106 0
-113 813 814 815 0
-816 -3 0
-816 214 0
-817 -16 0
-817 136 0
-818 -45 0
-818 107 0
-113 816 817 818 0
-819 -4 0
-819 224 0
-820 -17 0
-820 146 0
-821 -55 0
-821 108 0
-113 819 820 821 0
-822 -5 0
-822 233 0
-823 -18 0
-823 155 0
-824 -64 0
-824 109 0
-113 822 823 824 0
-825 -6 0
-825 241 0
-826 -19 0
-826 163 0
-827 -72 0
-827 110 0
-113 825 826 827 0
-828 -7 0
-828 248 0
-829 -20 0
-829 170 0
-830 -79 0
-830 111 0
-113 828 829 830 0
-831 -8 0
-831 254 0
-832 -21 0
-832 176 0
-833 -85 0
-833 112 0
-113 831 832 833 0
-834 -10 0
-834 260 0
-835 -23 0
-835 182 0
-836 -91 0
-836 114 0
-113 834 835 836 0
-837 -11 0
-837 261 0
-838 -24 0
-838 183 0
-839 -92 0
-839 115 0
-113 837 838 839 0
-840 -12 0
-840 262 0
-841 -25 0
-841 184 0
-842 -93 0
-842 116 0
-113 840 841 842 0
-843 -13 0
-843 263 0
-844 -26 0
-844 185 0
-845 -94 0
-845 117 0
-113 843 844 845 0
-846 -14 0
-846 264 0
-847 -27 0
-847 186 0
-848 -95 0
-848 118 0
-113 846 847 848 0
-849 -2 0
-849 204 0
-850 -15 0
-850 126 0
-851 -35 0
-851 106 0
-114 849 850 851 0
-852 -3 0
-852 215 0
-853 -16 0
-853 137 0
-854 -46 0
-854 107 0
-114 852 853 854 0
-855 -4 0
-855 225 0
-856 -17 0
-856 147 0
-857 -56 0
-857 108 0
-114 855 856 857 0
-858 -5 0
-858 234 0
-859 -18 0
-859 156 0
-860 -65 0
-860 109 0
-114 858 859 860 0
-861 -6 0
-861 242 0
-862 -19 0
-862 164 0
-863 -73 0
-863 110 0
-114 861 862 863 0
-864 -7 0
-864 249 0
-865 -20 0
-865 171 0
-866 -80 0
-866 111 0
-114 864 865 866 0
-867 -8 0
-867 255 0
-868 -21 0
-868 177 0
-869 -86 0
-869 112 0
-114 867 868 869 0
-870 -9 0
-870 260 0
-871 -22 0
-871 182 0
-872 -91 0
-872 113 0
-114 870 871 872 0
-873 -11 0
-873 265 0
-874 -24 0
-874 187 0
-875 -96 0
-875 115 0
-114 873 874 875 0
-876 -12 0
-876 266 0
-877 -25 0
-877 188 0
-878 -97 0
-878 116 0
-114 876 877 878 0
-879 -13 0
-879 267 0
-880 -26 0
-880 189 0
-881 -98 0
-881 117 0
-114 879 880 881 0
-882 -14 0
-882 268 0
-883 -27 0
-883 190 0
-884 -99 0
-884 118 0
-114 882 883 884 0
-885 -2 0
-885 205 0
-886 -15 0
-886 127 0
-887 -36 0
-887 106 0
-115 885 886 887 0
-888 -3 0
-888 216 0
-889 -16 0
-889 138 0
-890 -47 0
-890 107 0
-115 888 889 890 0
-891 -4 0
-891 226 0
-892 -17 0
-892 148 0
-893 -57 0
-893 108 0
-115 891 892 893 0
-894 -5 0
-894 235 0
-895 -18 0
-895 157 0
-896 -66 0
-896 109 0
-115 894 895 896 0
-897 -6 0
-897 243 0
-898 -19 0
-898 165 0
-899 -74 0
-899 110 0
-115 897 898 899 0
-900 -7 0
-900 250 0
-901 -20 0
-901 172 0
-902 -81 0
-902 111 0
-115 900 901 902 0
-903 -8 0
-903 256 0
-904 -21 0
-904 178 0
-905 -87 0
-905 112 0
-115 903 904 905 0
-906 -9 0
-906 261 0
-907 -22 0
-907 183 0
-908 -92 0
-908 113 0
-115 906 907 908 0
-909 -10 0
-909 265 0
-910 -23 0
-910 187 0
-911 -96 0
-911 114 0
-115 909 910 911 0
-912 -12 0
-912 269 0
-913 -25 0
-913 191 0
-914 -100 0
-914 116 0
-115 912 913 914 0
-915 -13 0
-915 270 0
-916 -26 0
-916 192 0
-917 -101 0
-917 117 0
-115 915 916 917 0
-918 -14 0
-918 271 0
-919 -27 0
-919 193 0
-920 -102 0
-920 118 0
-115 918 919 920 0
-921 -2 0
-921 206 0
-922 -15 0
-922 128 0
-923 -37 0
-923 106 0
-116 921 922 923 0
-924 -3 0
-924 217 0
-925 -16 0
-925 139 0
-926 -48 0
-926 107 0
-116 924 925 926 0
-927 -4 0
-927 227 0
-928 -17 0
-928 149 0
-929 -58 0
-929 108 0
-116 927 928 929 0
-930 -5 0
-930 236 0
-931 -18 0
-931 158 0
-932 -67 0
-932 109 0
-116 930 931 932 0
-933 -6 0
-933 244 0
-934 -19 0
-934 166 0
-935 -75 0
-935 110 0
-116 933 934 935 0
-936 -7 0
-936 251 0
-937 -20 0
-937 173 0
-938 -82 0
-938 111 0
-116 936 937 938 0
-939 -8 0
-939 257 0
-940 -21 0
-940 179 0
-941 -88 0
-941 112 0
-116 939 940 941 0
-942 -9 0
-942 262 0
-943 -22 0
-943 184 0
-944 -93 0
-944 113 0
-116 942 943 944 0
-945 -10 0
-945 266 0
-946 -23 0
-946 188 0
-947 -97 0
-947 114 0
-116 945 946 947 0
-948 -11 0
-948 269 0
-949 -24 0
-949 191 0
-950 -100 0
-950 115 0
-116 948 949 950 0
-951 -13 0
-951 272 0
-952 -26 0
-952 194 0
-953 -103 0
-953 117 0
-116 951 952 953 0
-954 -14 0
-954 273 0
-955 -27 0
-955 195 0
-956 -104 0
-956 118 0
-116 954 955 956 0
-957 -2 0
-957 207 0
-958 -15 0
-958 129 0
-959 -38 0
-959 106 0
-117 957 958 959 0
-960 -3 0
-960 218 0
-961 -16 0
-961 140 0
-962 -49 0
-962 107 0
-117 960 961 962 0
-963 -4 0
-963 228 0
-964 -17 0
-964 150 0
-965 -59 0
-965 108 0
-117 963 964 965 0
-966 -5 0
-966 237 0
-967 -18 0
-967 159 0
-968 -68 0
-968 109 0
-117 966 967 968 0
-969 -6 0
-969 245 0
-970 -19 0
-970 167 0
-971 -76 0
-971 110 0
-117 969 970 971 0
-972 -7 0
-972 252 0
-973 -20 0
-973 174 0
-974 -83 0
-974 111 0
-117 972 973 974 0
-975 -8 0
-975 258 0
-976 -21 0
-976 180 0
-977 -89 0
-977 112 0
-117 975 976 977 0
-978 -9 0
-978 263 0
-979 -22 0
-979 185 0
-980 -94 0
-980 113 0
-117 978 979 980 0
-981 -10 0
-981 267 0
-982 -23 0
-982 189 0
-983 -98 0
-983 114 0
-117 981 982 983 0
-984 -11 0
-984 270 0
-985 -24 0
-985 192 0
-986 -101 0
-986 115 0
-117 984 985 986 0
-987 -12 0
-987 272 0
-988 -25 0
-988 194 0
-989 -103 0
-989 116 0
-117 987 988 989 0
-990 -14 0
-990 274 0
-991 -27 0
-991 196 0
-992 -105 0
-992 118 0
-117 990 991 992 0
-993 -2 0
-993 208 0
-994 -15 0
-994 130 0
-995 -39 0
-995 106 0
-118 993 994 995 0
-996 -3 0
-996 219 0
-997 -16 0
-997 141 0
-998 -50 0
-998 107 0
-118 996 997 998 0
-999 -4 0
-999 229 0
-1000 -17 0
-1000 151 0
-1001 -60 0
-1001 108 0
-118 999 1000 1001 0
-1002 -5 0
-1002 238 0
-1003 -18 0
-1003 160 0
-1004 -69 0
-1004 109 0
-118 1002 1003 1004 0
-1005 -6 0
-1005 246 0
-1006 -19 0
-1006 168 0
-1007 -77 0
-1007 110 0
-118 1005 1006 1007 0
-1008 -7 0
-1008 253 0
-1009 -20 0
-1009 175 0
-1010 -84 0
-1010 111 0
-118 1008 1009 1010 0
-1011 -8 0
-1011 259 0
-1012 -21 0
-1012 181 0
-1013 -90 0
-1013 112 0
-118 1011 1012 1013 0
-1014 -9 0
-1014 264 0
-1015 -22 0
-1015 186 0
-1016 -95 0
-1016 113 0
-118 1014 1015 1016 0
-1017 -10 0
-1017 268 0
-1018 -23 0
-1018 190 0
-1019 -99 0
-1019 114 0
-118 1017 1018 1019 0
-1020 -11 0
-1020 271 0
-1021 -24 0
-1021 193 0
-1022 -102 0
-1022 115 0
-118 1020 1021 1022 0
-1023 -12 0
-1023 273 0
-1024 -25 0
-1024 195 0
-1025 -104 0
-1025 116 0
-118 1023 1024 1025 0
-1026 -13 0
-1026 274 0
-1027 -26 0
-1027 196 0
-1028 -105 0
-1028 117 0
-118 1026 1027 1028 0
-1029 -1 0
-1029 197 0
-1030 -15 0
-1030 107 0
-1031 -16 0
-1031 106 0
-119 1029 1030 1031 0
-1032 -4 0
-1032 275 0
-1033 -29 0
-1033 131 0
-1034 -40 0
-1034 120 0
-119 1032 1033 1034 0
-1035 -5 0
-1035 276 0
-1036 -30 0
-1036 132 0
-1037 -41 0
-1037 121 0
-119 1035 1036 1037 0
-1038 -6 0
-1038 277 0
-1039 -31 0
-1039 133 0
-1040 -42 0
-1040 122 0
-119 1038 1039 1040 0
-1041 -7 0
-1041 278 0
-1042 -32 0
-1042 134 0
-1043 -43 0
-1043 123 0
-119 1041 1042 1043 0
-1044 -8 0
-1044 279 0
-1045 -33 0
-1045 135 0
-1046 -44 0
-1046 124 0
-119 1044 1045 1046 0
-1047 -9 0
-1047 280 0
-1048 -34 0
-1048 136 0
-1049 -45 0
-1049 125 0
-119 1047 1048 1049 0
-1050 -10 0
-1050 281 0
-1051 -35 0
-1051 137 0
-1052 -46 0
-1052 126 0
-119 1050 1051 1052 0
-1053 -11 0
-1053 282 0
-1054 -36 0
-1054 138 0
-1055 -47 0
-1055 127 0
-119 1053 1054 1055 0
-1056 -12 0
-1056 283 0
-1057 -37 0
-1057 139 0
-1058 -48 0
-1058 128 0
-119 1056 1057 1058 0
-1059 -13 0
-1059 284 0
-1060 -38 0
-1060 140 0
-1061 -49 0
-1061 129 0
-119 1059 1060 1061 0
-1062 -14 0
-1062 285 0
-1063 -39 0
-1063 141 0
-1064 -50 0
-1064 130 0
-119 1062 1063 1064 0
-1065 -1 0
-1065 198 0
-1066 -15 0
-1066 108 0
-1067 -17 0
-1067 106 0
-120 1065 1066 1067 0
-1068 -3 0
-1068 275 0
-1069 -28 0
-1069 131 0
-1070 -40 0
-1070 119 0
-120 1068 1069 1070 0
-1071 -5 0
-1071 286 0
-1072 -30 0
-1072 142 0
-1073 -51 0
-1073 121 0
-120 1071 1072 1073 0
-1074 -6 0
-1074 287 0
-1075 -31 0
-1075 143 0
-1076 -52 0
-1076 122 0
-120 1074 1075 1076 0
-1077 -7 0
-1077 288 0
-1078 -32 0
-1078 144 0
-1079 -53 0
-1079 123 0
-120 1077 1078 1079 0
-1080 -8 0
-1080 289 0
-1081 -33 0
-1081 145 0
-1082 -54 0
-1082 124 0
-120 1080 1081 1082 0
-1083 -9 0
-1083 290 0
-1084 -34 0
-1084 146 0
-1085 -55 0
-1085 125 0
-120 1083 1084 1085 0
-1086 -10 0
-1086 291 0
-1087 -35 0
-1087 147 0
-1088 -56 0
-1088 126 0
-120 1086 1087 1088 0
-1089 -11 0
-1089 292 0
-1090 -36 0
-1090 148 0
-1091 -57 0
-1091 127 0
-120 1089 1090 1091 0
-1092 -12 0
-1092 293 0
-1093 -37 0
-1093 149 0
-1094 -58 0
-1094 128 0
-120 1092 1093 1094 0
-1095 -13 0
-1095 294 0
-1096 -38 0
-1096 150 0
-1097 -59 0
-1097 129 0
-120 1095 1096 1097 0
-1098 -14 0
-1098 295 0
-1099 -39 0
-1099 151 0
-1100 -60 0
-1100 130 0
-120 1098 1099 1100 0
-1101 -1 0
-1101 199 0
-1102 -15 0
-1102 109 0
-1103 -18 0
-1103 106 0
-121 1101 1102 1103 0
-1104 -3 0
-1104 276 0
-1105 -28 0
-1105 132 0
-1106 -41 0
-1106 119 0
-121 1104 1105 1106 0
-1107 -4 0
-1107 286 0
-1108 -29 0
-1108 142 0
-1109 -51 0
-1109 120 0
-121 1107 1108 1109 0
-1110 -6 0
-1110 296 0
-1111 -31 0
-1111 152 0
-1112 -61 0
-1112 122 0
-121 1110 1111 1112 0
-1113 -7 0
-1113 297 0
-1114 -32 0
-1114 153 0
-1115 -62 0
-1115 123 0
-121 1113 1114 1115 0
-1116 -8 0
-1116 298 0
-1117 -33 0
-1117 154 0
-1118 -63 0
-1118 124 0
-121 1116 1117 1118 0
-1119 -9 0
-1119 299 0
-1120 -34 0
-1120 155 0
-1121 -64 0
-1121 125 0
-121 1119 1120 1121 0
-1122 -10 0
-1122 300 0
-1123 -35 0
-1123 156 0
-1124 -65 0
-1124 126 0
-121 1122 1123 1124 0
-1125 -11 0
-1125 301 0
-1126 -36 0
-1126 157 0
-1127 -66 0
-1127 127 0
-121 1125 1126 1127 0
-1128 -12 0
-1128 302 0
-1129 -37 0
-1129 158 0
-1130 -67 0
-1130 128 0
-121 1128 1129 1130 0
-1131 -13 0
-1131 303 0
-1132 -38 0
-1132 159 0
-1133 -68 0
-1133 129 0
-121 1131 1132 1133 0
-1134 -14 0
-1134 304 0
-1135 -39 0
-1135 160 0
-1136 -69 0
-1136 130 0
-121 1134 1135 1136 0
-1137 -1 0
-1137 200 0
-1138 -15 0
-1138 110 0
-1139 -19 0
-1139 106 0
-122 1137 1138 1139 0
-1140 -3 0
-1140 277 0
-1141 -28 0
-1141 133 0
-1142 -42 0
-1142 119 0
-122 1140 1141 1142 0
-1143 -4 0
-1143 287 0
-1144 -29 0
-1144 143 0
-1145 -52 0
-1145 120 0
-122 1143 1144 1145 0
-1146 -5 0
-1146 296 0
-1147 -30 0
-1147 152 0
-1148 -61 0
-1148 121 0
-122 1146 1147 1148 0
-1149 -7 0
-1149 305 0
-1150 -32 0
-1150 161 0
-1151 -70 0
-1151 123 0
-122 1149 1150 1151 0
-1152 -8 0
-1152 306 0
-1153 -33 0
-1153 162 0
-1154 -71 0
-1154 124 0
-122 1152 1153 1154 0
-1155 -9 0
-1155 307 0
-1156 -34 0
-1156 163 0
-1157 -72 0
-1157 125 0
-122 1155 1156 1157 0
-1158 -10 0
-1158 308 0
-1159 -35 0
-1159 164 0
-1160 -73 0
-1160 126 0
-122 1158 1159 1160 0
-1161 -11 0
-1161 309 0
-1162 -36 0
-1162 165 0
-1163 -74 0
-1163 127 0
-122 1161 1162 1163 0
-1164 -12 0
-1164 310 0
-1165 -37 0
-1165 166 0
-1166 -75 0
-1166 128 0
-122 1164 1165 1166 0
-1167 -13 0
-1167 311 0
-1168 -38 0
-1168 167 0
-1169 -76 0
-1169 129 0
-122 1167 1168 1169 0
-1170 -14 0
-1170 312 0
-1171 -39 0
-1171 168 0
-1172 -77 0
-1172 130 0
-122 1170 1171 1172 0
-1173 -1 0
-1173 201 0
-1174 -15 0
-1174 111 0
-1175 -20 0
-1175 106 0
-123 1173 1174 1175 0
-1176 -3 0
-1176 278 0
-1177 -28 0
-1177 134 0
-1178 -43 0
-1178 119 0
-123 1176 1177 1178 0
-1179 -4 0
-1179 288 0
-1180 -29 0
-1180 144 0
-1181 -53 0
-1181 120 0
-123 1179 1180 1181 0
-1182 -5 0
-1182 297 0
-1183 -30 0
-1183 153 0
-1184 -62 0
-1184 121 0
-123 1182 1183 1184 0
-1185 -6 0
-1185 305 0
-1186 -31 0
-1186 161 0
-1187 -70 0
-1187 122 0
-123 1185 1186 1187 0
-1188 -8 0
-1188 313 0
-1189 -33 0
-1189 169 0
-1190 -78 0
-1190 124 0
-123 1188 1189 1190 0
-1191 -9 0
-1191 314 0
-1192 -34 0
-1192 170 0
-1193 -79 0
-1193 125 0
-123 1191 1192 1193 0
-1194 -10 0
-1194 315 0
-1195 -35 0
-1195 171 0
-1196 -80 0
-1196 126 0
-123 1194 1195 1196 0
-1197 -11 0
-1197 316 0
-1198 -36 0
-1198 172 0
-1199 -81 0
-1199 127 0
-123 1197 1198 1199 0
-1200 -12 0
-1200 317 0
-1201 -37 0
-1201 173 0
-1202 -82 0
-1202 128 0
-123 1200 1201 1202 0
-1203 -13 0
-1203 318 0
-1204 -38 0
-1204 174 0
-1205 -83 0
-1205 129 0
-123 1203 1204 1205 0
-1206 -14 0
-1206 319 0
-1207 -39 0
-1207 175 0
-1208 -84 0
-1208 130 0
-123 1206 1207 1208 0
-1209 -1 0
-1209 202 0
-1210 -15 0
-1210 112 0
-1211 -21 0
-1211 106 0
-124 1209 1210 1211 0
-1212 -3 0
-1212 279 0
-1213 -28 0
-1213 135 0
-1214 -44 0
-1214 119 0
-124 1212 1213 1214 0
-1215 -4 0
-1215 289 0
-1216 -29 0
-1216 145 0
-1217 -54 0
-1217 120 0
-124 1215 1216 1217 0
-1218 -5 0
-1218 298 0
-1219 -30 0
-1219 154 0
-1220 -63 0
-1220 121 0
-124 1218 1219 1220 0
-1221 -6 0
-1221 306 0
-1222 -31 0
-1222 162 0
-1223 -71 0
-1223 122 0
-124 1221 1222 1223 0
-1224 -7 0
-1224 313 0
-1225 -32 0
-1225 169 0
-1226 -78 0
-1226 123 0
-124 1224 1225 1226 0
-1227 -9 0
-1227 320 0
-1228 -34 0
-1228 176 0
-1229 -85 0
-1229 125 0
-124 1227 1228 1229 0
-1230 -10 0
-1230 321 0
-1231 -35 0
-1231 177 0
-1232 -86 0
-1232 126 0
-124 1230 1231 1232 0
-1233 -11 0
-1233 322 0
-1234 -36 0
-1234 178 0
-1235 -87 0
-1235 127 0
-124 1233 1234 1235 0
-1236 -12 0
-1236 323 0
-1237 -37 0
-1237 179 0
-1238 -88 0
-1238 128 0
-124 1236 1237 1238 0
-1239 -13 0
-1239 324 0
-1240 -38 0
-1240 180 0
-1241 -89 0
-1241 129 0
-124 1239 1240 1241 0
-1242 -14 0
-1242 325 0
-1243 -39 0
-1243 181 0
-1244 -90 0
-1244 130 0
-124 1242 1243 1244 0
-1245 -1 0
-1245 203 0
-1246 -15 0
-1246 113 0
-1247 -22 0
-1247 106 0
-125 1245 1246 1247 0
-1248 -3 0
-1248 280 0
-1249 -28 0
-1249 136 0
-1250 -45 0
-1250 119 0
-125 1248 1249 1250 0
-1251 -4 0
-1251 290 0
-1252 -29 0
-1252 146 0
-1253 -55 0
-1253 120 0
-125 1251 1252 1253 0
-1254 -5 0
-1254 299 0
-1255 -30 0
-1255 155 0
-1256 -64 0
-1256 121 0
-125 1254 1255 1256 0
-1257 -6 0
-1257 307 0
-1258 -31 0
-1258 163 0
-1259 -72 0
-1259 122 0
-125 1257 1258 1259 0
-1260 -7 0
-1260 314 0
-1261 -32 0
-1261 170 0
-1262 -79 0
-1262 123 0
-125 1260 1261 1262 0
-1263 -8 0
-1263 320 0
-1264 -33 0
-1264 176 0
-1265 -85 0
-1265 124 0
-125 1263 1264 1265 0
-1266 -10 0
-1266 326 0
-1267 -35 0
-1267 182 0
-1268 -91 0
-1268 126 0
-125 1266 1267 1268 0
-1269 -11 0
-1269 327 0
-1270 -36 0
-1270 183 0
-1271 -92 0
-1271 127 0
-125 1269 1270 1271 0
-1272 -12 0
-1272 328 0
-1273 -37 0
-1273 184 0
-1274 -93 0
-1274 128 0
-125 1272 1273 1274 0
-1275 -13 0
-1275 329 0
-1276 -38 0
-1276 185 0
-1277 -94 0
-1277 129 0
-125 1275 1276 1277 0
-1278 -14 0
-1278 330 0
-1279 -39 0
-1279 186 0
-1280 -95 0
-1280 130 0
-125 1278 1279 1280 0
-1281 -1 0
-1281 204 0
-1282 -15 0
-1282 114 0
-1283 -23 0
-1283 106 0
-126 1281 1282 1283 0
-1284 -3 0
-1284 281 0
-1285 -28 0
-1285 137 0
-1286 -46 0
-1286 119 0
-126 1284 1285 1286 0
-1287 -4 0
-1287 291 0
-1288 -29 0
-1288 147 0
-1289 -56 0
-1289 120 0
-126 1287 1288 1289 0
-1290 -5 0
-1290 300 0
-1291 -30 0
-1291 156 0
-1292 -65 0
-1292 121 0
-126 1290 1291 1292 0
-1293 -6 0
-1293 308 0
-1294 -31 0
-1294 164 0
-1295 -73 0
-1295 122 0
-126 1293 1294 1295 0
-1296 -7 0
-1296 315 0
-1297 -32 0
-1297 171 0
-1298 -80 0
-1298 123 0
-126 1296 1297 1298 0
-1299 -8 0
-1299 321 0
-1300 -33 0
-1300 177 0
-1301 -86 0
-1301 124 0
-126 1299 1300 1301 0
-1302 -9 0
-1302 326 0
-1303 -34 0
-1303 182 0
-1304 -91 0
-1304 125 0
-126 1302 1303 1304 0
-1305 -11 0
-1305 331 0
-1306 -36 0
-1306 187 0
-1307 -96 0
-1307 127 0
-126 1305 1306 1307 0
-1308 -12 0
-1308 332 0
-1309 -37 0
-1309 188 0
-1310 -97 0
-1310 128 0
-126 1308 1309 1310 0
-1311 -13 0
-1311 333 0
-1312 -38 0
-1312 189 0
-1313 -98 0
-1313 129 0
-126 1311 1312 1313 0
-1314 -14 0
-1314 334 0
-1315 -39 0
-1315 190 0
-1316 -99 0
-1316 130 0
-126 1314 1315 1316 0
-1317 -1 0
-1317 205 0
-1318 -15 0
-1318 115 0
-1319 -24 0
-1319 106 0
-127 1317 1318 1319 0
-1320 -3 0
-1320 282 0
-1321 -28 0
-1321 138 0
-1322 -47 0
-1322 119 0
-127 1320 1321 1322 0
-1323 -4 0
-1323 292 0
-1324 -29 0
-1324 148 0
-1325 -57 0
-1325 120 0
-127 1323 1324 1325 0
-1326 -5 0
-1326 301 0
-1327 -30 0
-1327 157 0
-1328 -66 0
-1328 121 0
-127 1326 1327 1328 0
-1329 -6 0
-1329 309 0
-1330 -31 0
-1330 165 0
-1331 -74 0
-1331 122 0
-127 1329 1330 1331 0
-1332 -7 0
-1332 316 0
-1333 -32 0
-1333 172 0
-1334 -81 0
-1334 123 0
-127 1332 1333 1334 0
-1335 -8 0
-1335 322 0
-1336 -33 0
-1336 178 0
-1337 -87 0
-1337 124 0
-127 1335 1336 1337 0
-1338 -9 0
-1338 327 0
-1339 -34 0
-1339 183 0
-1340 -92 0
-1340 125 0
-127 1338 1339 1340 0
-1341 -10 0
-1341 331 0
-1342 -35 0
-1342 187 0
-1343 -96 0
-1343 126 0
-127 1341 1342 1343 0
-1344 -12 0
-1344 335 0
-1345 -37 0
-1345 191 0
-1346 -100 0
-1346 128 0
-127 1344 1345 1346 0
-1347 -13 0
-1347 336 0
-1348 -38 0
-1348 192 0
-1349 -101 0
-1349 129 0
-127 1347 1348 1349 0
-1350 -14 0
-1350 337 0
-1351 -39 0
-1351 193 0
-1352 -102 0
-1352 130 0
-127 1350 1351 1352 0
-1353 -1 0
-1353 206 0
-1354 -15 0
-1354 116 0
-1355 -25 0
-1355 106 0
-128 1353 1354 1355 0
-1356 -3 0
-1356 283 0
-1357 -28 0
-1357 139 0
-1358 -48 0
-1358 119 0
-128 1356 1357 1358 0
-1359 -4 0
-1359 293 0
-1360 -29 0
-1360 149 0
-1361 -58 0
-1361 120 0
-128 1359 1360 1361 0
-1362 -5 0
-1362 302 0
-1363 -30 0
-1363 158 0
-1364 -67 0
-1364 121 0
-128 1362 1363 1364 0
-1365 -6 0
-1365 310 0
-1366 -31 0
-1366 166 0
-1367 -75 0
-1367 122 0
-128 1365 1366 1367 0
-1368 -7 0
-1368 317 0
-1369 -32 0
-1369 173 0
-1370 -82 0
-1370 123 0
-128 1368 1369 1370 0
-1371 -8 0
-1371 323 0
-1372 -33 0
-1372 179 0
-1373 -88 0
-1373 124 0
-128 1371 1372 1373 0
-1374 -9 0
-1374 328 0
-1375 -34 0
-1375 184 0
-1376 -93 0
-1376 125 0
-128 1374 1375 1376 0
-1377 -10 0
-1377 332 0
-1378 -35 0
-1378 188 0
-1379 -97 0
-1379 126 0
-128 1377 1378 1379 0
-1380 -11 0
-1380 335 0
-1381 -36 0
-1381 191 0
-1382 -100 0
-1382 127 0
-128 1380 1381 1382 0
-1383 -13 0
-1383 338 0
-1384 -38 0
-1384 194 0
-1385 -103 0
-1385 129 0
-128 1383 1384 1385 0
-1386 -14 0
-1386 339 0
-1387 -39 0
-1387 195 0
-1388 -104 0
-1388 130 0
-128 1386 1387 1388 0
-1389 -1 0
-1389 207 0
-1390 -15 0
-1390 117 0
-1391 -26 0
-1391 106 0
-129 1389 1390 1391 0
-1392 -3 0
-1392 284 0
-1393 -28 0
-1393 140 0
-1394 -49 0
-1394 119 0
-129 1392 1393 1394 0
-1395 -4 0
-1395 294 0
-1396 -29 0
-1396 150 0
-1397 -59 0
-1397 120 0
-129 1395 1396 1397 0
-1398 -5 0
-1398 303 0
-1399 -30 0
-1399 159 0
-1400 -68 0
-1400 121 0
-129 1398 1399 1400 0
-1401 -6 0
-1401 311 0
-1402 -31 0
-1402 167 0
-1403 -76 0
-1403 122 0
-129 1401 1402 1403 0
-1404 -7 0
-1404 318 0
-1405 -32 0
-1405 174 0
-1406 -83 0
-1406 123 0
-129 1404 1405 1406 0
-1407 -8 0
-1407 324 0
-1408 -33 0
-1408 180 0
-1409 -89 0
-1409 124 0
-129 1407 1408 1409 0
-1410 -9 0
-1410 329 0
-1411 -34 0
-1411 185 0
-1412 -94 0
-1412 125 0
-129 1410 1411 1412 0
-1413 -10 0
-1413 333 0
-1414 -35 0
-1414 189 0
-1415 -98 0
-1415 126 0
-129 1413 1414 1415 0
-1416 -11 0
-1416 336 0
-1417 -36 0
-1417 192 0
-1418 -101 0
-1418 127 0
-129 1416 1417 1418 0
-1419 -12 0
-1419 338 0
-1420 -37 0
-1420 194 0
-1421 -103 0
-1421 128 0
-129 1419 1420 1421 0
-1422 -14 0
-1422 340 0
-1423 -39 0
-1423 196 0
-1424 -105 0
-1424 130 0
-129 1422 1423 1424 0
-1425 -1 0
-1425 208 0
-1426 -15 0
-1426 118 0
-1427 -27 0
-1427 106 0
-130 1425 1426 1427 0
-1428 -3 0
-1428 285 0
-1429 -28 0
-1429 141 0
-1430 -50 0
-1430 119 0
-130 1428 1429 1430 0
-1431 -4 0
-1431 295 0
-1432 -29 0
-1432 151 0
-1433 -60 0
-1433 120 0
-130 1431 1432 1433 0
-1434 -5 0
-1434 304 0
-1435 -30 0
-1435 160 0
-1436 -69 0
-1436 121 0
-130 1434 1435 1436 0
-1437 -6 0
-1437 312 0
-1438 -31 0
-1438 168 0
-1439 -77 0
-1439 122 0
-130 1437 1438 1439 0
-1440 -7 0
-1440 319 0
-1441 -32 0
-1441 175 0
-1442 -84 0
-1442 123 0
-130 1440 1441 1442 0
-1443 -8 0
-1443 325 0
-1444 -33 0
-1444 181 0
-1445 -90 0
-1445 124 0
-130 1443 1444 1445 0
-1446 -9 0
-1446 330 0
-1447 -34 0
-1447 186 0
-1448 -95 0
-1448 125 0
-130 1446 1447 1448 0
-1449 -10 0
-1449 334 0
-1450 -35 0
-1450 190 0
-1451 -99 0
-1451 126 0
-130 1449 1450 1451 0
-1452 -11 0
-1452 337 0
-1453 -36 0
-1453 193 0
-1454 -102 0
-1454 127 0
-130 1452 1453 1454 0
-1455 -12 0
-1455 339 0
-1456 -37 0
-1456 195 0
-1457 -104 0
-1457 128 0
-130 1455 1456 1457 0
-1458 -13 0
-1458 340 0
-1459 -38 0
-1459 196 0
-1460 -105 0
-1460 129 0
-130 1458 1459 1460 0
-1461 -1 0
-1461 209 0
-1462 -16 0
-1462 108 0
-1463 -17 0
-1463 107 0
-131 1461 1462 1463 0
-1464 -2 0
-1464 275 0
-1465 -28 0
-1465 120 0
-1466 -29 0
-1466 119 0
-131 1464 1465 1466 0
-1467 -5 0
-1467 341 0
-1468 -41 0
-1468 142 0
-1469 -51 0
-1469 132 0
-131 1467 1468 1469 0
-1470 -6 0
-1470 342 0
-1471 -42 0
-1471 143 0
-1472 -52 0
-1472 133 0
-131 1470 1471 1472 0
-1473 -7 0
-1473 343 0
-1474 -43 0
-1474 144 0
-1475 -53 0
-1475 134 0
-131 1473 1474 1475 0
-1476 -8 0
-1476 344 0
-1477 -44 0
-1477 145 0
-1478 -54 0
-1478 135 0
-131 1476 1477 1478 0
-1479 -9 0
-1479 345 0
-1480 -45 0
-1480 146 0
-1481 -55 0
-1481 136 0
-131 1479 1480 1481 0
-1482 -10 0
-1482 346 0
-1483 -46 0
-1483 147 0
-1484 -56 0
-1484 137 0
-131 1482 1483 1484 0
-1485 -11 0
-1485 347 0
-1486 -47 0
-1486 148 0
-1487 -57 0
-1487 138 0
-131 1485 1486 1487 0
-1488 -12 0
-1488 348 0
-1489 -48 0
-1489 149 0
-1490 -58 0
-1490 139 0
-131 1488 1489 1490 0
-1491 -13 0
-1491 349 0
-1492 -49 0
-1492 150 0
-1493 -59 0
-1493 140 0
-131 1491 1492 1493 0
-1494 -14 0
-1494 350 0
-1495 -50 0
-1495 151 0
-1496 -60 0
-1496 141 0
-131 1494 1495 1496 0
-1497 -1 0
-1497 210 0
-1498 -16 0
-1498 109 0
-1499 -18 0
-1499 107 0
-132 1497 1498 1499 0
-1500 -2 0
-1500 276 0
-1501 -28 0
-1501 121 0
-1502 -30 0
-1502 119 0
-132 1500 1501 1502 0
-1503 -4 0
-1503 341 0
-1504 -40 0
-1504 142 0
-1505 -51 0
-1505 131 0
-132 1503 1504 1505 0
-1506 -6 0
-1506 351 0
-1507 -42 0
-1507 152 0
-1508 -61 0
-1508 133 0
-132 1506 1507 1508 0
-1509 -7 0
-1509 352 0
-1510 -43 0
-1510 153 0
-1511 -62 0
-1511 134 0
-132 1509 1510 1511 0
-1512 -8 0
-1512 353 0
-1513 -44 0
-1513 154 0
-1514 -63 0
-1514 135 0
-132 1512 1513 1514 0
-1515 -9 0
-1515 354 0
-1516 -45 0
-1516 155 0
-1517 -64 0
-1517 136 0
-132 1515 1516 1517 0
-1518 -10 0
-1518 355 0
-1519 -46 0
-1519 156 0
-1520 -65 0
-1520 137 0
-132 1518 1519 1520 0
-1521 -11 0
-1521 356 0
-1522 -47 0
-1522 157 0
-1523 -66 0
-1523 138 0
-132 1521 1522 1523 0
-1524 -12 0
-1524 357 0
-1525 -48 0
-1525 158 0
-1526 -67 0
-1526 139 0
-132 1524 1525 1526 0
-1527 -13 0
-1527 358 0
-1528 -49 0
-1528 159 0
-1529 -68 0
-1529 140 0
-132 1527 1528 1529 0
-1530 -14 0
-1530 359 0
-1531 -50 0
-1531 160 0
-1532 -69 0
-1532 141 0
-132 1530 1531 1532 0
-1533 -1 0
-1533 211 0
-1534 -16 0
-1534 110 0
-1535 -19 0
-1535 107 0
-133 1533 1534 1535 0
-1536 -2 0
-1536 277 0
-1537 -28 0
-1537 122 0
-1538 -31 0
-1538 119 0
-133 1536 1537 1538 0
-1539 -4 0
-1539 342 0
-1540 -40 0
-1540 143 0
-1541 -52 0
-1541 131 0
-133 1539 1540 1541 0
-1542 -5 0
-1542 351 0
-1543 -41 0
-1543 152 0
-1544 -61 0
-1544 132 0
-133 1542 1543 1544 0
-1545 -7 0
-1545 360 0
-1546 -43 0
-1546 161 0
-1547 -70 0
-1547 134 0
-133 1545 1546 1547 0
-1548 -8 0
-1548 361 0
-1549 -44 0
-1549 162 0
-1550 -71 0
-1550 135 0
-133 1548 1549 1550 0
-1551 -9 0
-1551 362 0
-1552 -45 0
-1552 163 0
-1553 -72 0
-1553 136 0
-133 1551 1552 1553 0
-1554 -10 0
-1554 363 0
-1555 -46 0
-1555 164 0
-1556 -73 0
-1556 137 0
-133 1554 1555 1556 0
-1557 -11 0
-1557 364 0
-1558 -47 0
-1558 165 0
-1559 -74 0
-1559 138 0
-133 1557 1558 1559 0
-1560 -12 0
-1560 365 0
-1561 -48 0
-1561 166 0
-1562 -75 0
-1562 139 0
-133 1560 1561 1562 0
-1563 -13 0
-1563 366 0
-1564 -49 0
-1564 167 0
-1565 -76 0
-1565 140 0
-133 1563 1564 1565 0
-1566 -14 0
-1566 367 0
-1567 -50 0
-1567 168 0
-1568 -77 0
-1568 141 0
-133 1566 1567 1568 0
-1569 -1 0
-1569 212 0
-1570 -16 0
-1570 111 0
-1571 -20 0
-1571 107 0
-134 1569 1570 1571 0
-1572 -2 0
-1572 278 0
-1573 -28 0
-1573 123 0
-1574 -32 0
-1574 119 0
-134 1572 1573 1574 0
-1575 -4 0
-1575 343 0
-1576 -40 0
-1576 144 0
-1577 -53 0
-1577 131 0
-134 1575 1576 1577 0
-1578 -5 0
-1578 352 0
-1579 -41 0
-1579 153 0
-1580 -62 0
-1580 132 0
-134 1578 1579 1580 0
-1581 -6 0
-1581 360 0
-1582 -42 0
-1582 161 0
-1583 -70 0
-1583 133 0
-134 1581 1582 1583 0
-1584 -8 0
-1584 368 0
-1585 -44 0
-1585 169 0
-1586 -78 0
-1586 135 0
-134 1584 1585 1586 0
-1587 -9 0
-1587 369 0
-1588 -45 0
-1588 170 0
-1589 -79 0
-1589 136 0
-134 1587 1588 1589 0
-1590 -10 0
-1590 370 0
-1591 -46 0
-1591 171 0
-1592 -80 0
-1592 137 0
-134 1590 1591 1592 0
-1593 -11 0
-1593 371 0
-1594 -47 0
-1594 172 0
-1595 -81 0
-1595 138 0
-134 1593 1594 1595 0
-1596 -12 0
-1596 372 0
-1597 -48 0
-1597 173 0
-1598 -82 0
-1598 139 0
-134 1596 1597 1598 0
-1599 -13 0
-1599 373 0
-1600 -49 0
-1600 174 0
-1601 -83 0
-1601 140 0
-134 1599 1600 1601 0
-1602 -14 0
-1602 374 0
-1603 -50 0
-1603 175 0
-1604 -84 0
-1604 141 0
-134 1602 1603 1604 0
-1605 -1 0
-1605 213 0
-1606 -16 0
-1606 112 0
-1607 -21 0
-1607 107 0
-135 1605 1606 1607 0
-1608 -2 0
-1608 279 0
-1609 -28 0
-1609 124 0
-1610 -33 0
-1610 119 0
-135 1608 1609 1610 0
-1611 -4 0
-1611 344 0
-1612 -40 0
-1612 145 0
-1613 -54 0
-1613 131 0
-135 1611 1612 1613 0
-1614 -5 0
-1614 353 0
-1615 -41 0
-1615 154 0
-1616 -63 0
-1616 132 0
-135 1614 1615 1616 0
-1617 -6 0
-1617 361 0
-1618 -42 0
-1618 162 0
-1619 -71 0
-1619 133 0
-135 1617 1618 1619 0
-1620 -7 0
-1620 368 0
-1621 -43 0
-1621 169 0
-1622 -78 0
-1622 134 0
-135 1620 1621 1622 0
-1623 -9 0
-1623 375 0
-1624 -45 0
-1624 176 0
-1625 -85 0
-1625 136 0
-135 1623 1624 1625 0
-1626 -10 0
-1626 376 0
-1627 -46 0
-1627 177 0
-1628 -86 0
-1628 137 0
-135 1626 1627 1628 0
-1629 -11 0
-1629 377 0
-1630 -47 0
-1630 178 0
-1631 -87 0
-1631 138 0
-135 1629 1630 1631 0
-1632 -12 0
-1632 378 0
-1633 -48 0
-1633 179 0
-1634 -88 0
-1634 139 0
-135 1632 1633 1634 0
-1635 -13 0
-1635 379 0
-1636 -49 0
-1636 180 0
-1637 -89 0
-1637 140 0
-135 1635 1636 1637 0
-1638 -14 0
-1638 380 0
-1639 -50 0
-1639 181 0
-1640 -90 0
-1640 141 0
-135 1638 1639 1640 0
-1641 -1 0
-1641 214 0
-1642 -16 0
-1642 113 0
-1643 -22 0
-1643 107 0
-136 1641 1642 1643 0
-1644 -2 0
-1644 280 0
-1645 -28 0
-1645 125 0
-1646 -34 0
-1646 119 0
-136 1644 1645 1646 0
-1647 -4 0
-1647 345 0
-1648 -40 0
-1648 146 0
-1649 -55 0
-1649 131 0
-136 1647 1648 1649 0
-1650 -5 0
-1650 354 0
-1651 -41 0
-1651 155 0
-1652 -64 0
-1652 132 0
-136 1650 1651 1652 0
-1653 -6 0
-1653 362 0
-1654 -42 0
-1654 163 0
-1655 -72 0
-1655 133 0
-136 1653 1654 1655 0
-1656 -7 0
-1656 369 0
-1657 -43 0
-1657 170 0
-1658 -79 0
-1658 134 0
-136 1656 1657 1658 0
-1659 -8 0
-1659 375 0
-1660 -44 0
-1660 176 0
-1661 -85 0
-1661 135 0
-136 1659 1660 1661 0
-1662 -10 0
-1662 381 0
-1663 -46 0
-1663 182 0
-1664 -91 0
-1664 137 0
-136 1662 1663 1664 0
-1665 -11 0
-1665 382 0
-1666 -47 0
-1666 183 0
-1667 -92 0
-1667 138 0
-136 1665 1666 1667 0
-1668 -12 0
-1668 383 0
-1669 -48 0
-1669 184 0
-1670 -93 0
-1670 139 0
-136 1668 1669 1670 0
-1671 -13 0
-1671 384 0
-1672 -49 0
-1672 185 0
-1673 -94 0
-1673 140 0
-136 1671 1672 1673 0
-1674 -14 0
-1674 385 0
-1675 -50 0
-1675 186 0
-1676 -95 0
-1676 141 0
-136 1674 1675 1676 0
-1677 -1 0
-1677 215 0
-1678 -16 0
-1678 114 0
-1679 -23 0
-1679 107 0
-137 1677 1678 1679 0
-1680 -2 0
-1680 281 0
-1681 -28 0
-1681 126 0
-1682 -35 0
-1682 119 0
-137 1680 1681 1682 0
-1683 -4 0
-1683 346 0
-1684 -40 0
-1684 147 0
-1685 -56 0
-1685 131 0
-137 1683 1684 1685 0
-1686 -5 0
-1686 355 0
-1687 -41 0
-1687 156 0
-1688 -65 0
-1688 132 0
-137 1686 1687 1688 0
-1689 -6 0
-1689 363 0
-1690 -42 0
-1690 164 0
-1691 -73 0
-1691 133 0
-137 1689 1690 1691 0
-1692 -7 0
-1692 370 0
-1693 -43 0
-1693 171 0
-1694 -80 0
-1694 134 0
-137 1692 1693 1694 0
-1695 -8 0
-1695 376 0
-1696 -44 0
-1696 177 0
-1697 -86 0
-1697 135 0
-137 1695 1696 1697 0
-1698 -9 0
-1698 381 0
-1699 -45 0
-1699 182 0
-1700 -91 0
-1700 136 0
-137 1698 1699 1700 0
-1701 -11 0
-1701 386 0
-1702 -47 0
-1702 187 0
-1703 -96 0
-1703 138 0
-137 1701 1702 1703 0
-1704 -12 0
-1704 387 0
-1705 -48 0
-1705 188 0
-1706 -97 0
-1706 139 0
-137 1704 1705 1706 0
-1707 -13 0
-1707 388 0
-1708 -49 0
-1708 189 0
-1709 -98 0
-1709 140 0
-137 1707 1708 1709 0
-1710 -14 0
-1710 389 0
-1711 -50 0
-1711 190 0
-1712 -99 0
-1712 141 0
-137 1710 1711 1712 0
-1713 -1 0
-1713 216 0
-1714 -16 0
-1714 115 0
-1715 -24 0
-1715 107 0
-138 1713 1714 1715 0
-1716 -2 0
-1716 282 0
-1717 -28 0
-1717 127 0
-1718 -36 0
-1718 119 0
-138 1716 1717 1718 0
-1719 -4 0
-1719 347 0
-1720 -40 0
-1720 148 0
-1721 -57 0
-1721 131 0
-138 1719 1720 1721 0
-1722 -5 0
-1722 356 0
-1723 -41 0
-1723 157 0
-1724 -66 0
-1724 132 0
-138 1722 1723 1724 0
-1725 -6 0
-1725 364 0
-1726 -42 0
-1726 165 0
-1727 -74 0
-1727 133 0
-138 1725 1726 1727 0
-1728 -7 0
-1728 371 0
-1729 -43 0
-1729 172 0
-1730 -81 0
-1730 134 0
-138 1728 1729 1730 0
-1731 -8 0
-1731 377 0
-1732 -44 0
-1732 178 0
-1733 -87 0
-1733 135 0
-138 1731 1732 1733 0
-1734 -9 0
-1734 382 0
-1735 -45 0
-1735 183 0
-1736 -92 0
-1736 136 0
-138 1734 1735 1736 0
-1737 -10 0
-1737 386 0
-1738 -46 0
-1738 187 0
-1739 -96 0
-1739 137 0
-138 1737 1738 1739 0
-1740 -12 0
-1740 390 0
-1741 -48 0
-1741 191 0
-1742 -100 0
-1742 139 0
-138 1740 1741 1742 0
-1743 -13 0
-1743 391 0
-1744 -49 0
-1744 192 0
-1745 -101 0
-1745 140 0
-138 1743 1744 1745 0
-1746 -14 0
-1746 392 0
-1747 -50 0
-1747 193 0
-1748 -102 0
-1748 141 0
-138 1746 1747 1748 0
-1749 -1 0
-1749 217 0
-1750 -16 0
-1750 116 0
-1751 -25 0
-1751 107 0
-139 1749 1750 1751 0
-1752 -2 0
-1752 283 0
-1753 -28 0
-1753 128 0
-1754 -37 0
-1754 119 0
-139 1752 1753 1754 0
-1755 -4 0
-1755 348 0
-1756 -40 0
-1756 149 0
-1757 -58 0
-1757 131 0
-139 1755 1756 1757 0
-1758 -5 0
-1758 357 0
-1759 -41 0
-1759 158 0
-1760 -67 0
-1760 132 0
-139 1758 1759 1760 0
-1761 -6 0
-1761 365 0
-1762 -42 0
-1762 166 0
-1763 -75 0
-1763 133 0
-139 1761 1762 1763 0
-1764 -7 0
-1764 372 0
-1765 -43 0
-1765 173 0
-1766 -82 0
-1766 134 0
-139 1764 1765 1766 0
-1767 -8 0
-1767 378 0
-1768 -44 0
-1768 179 0
-1769 -88 0
-1769 135 0
-139 1767 1768 1769 0
-1770 -9 0
-1770 383 0
-1771 -45 0
-1771 184 0
-1772 -93 0
-1772 136 0
-139 1770 1771 1772 0
-1773 -10 0
-1773 387 0
-1774 -46 0
-1774 188 0
-1775 -97 0
-1775 137 0
-139 1773 1774 1775 0
-1776 -11 0
-1776 390 0
-1777 -47 0
-1777 191 0
-1778 -100 0
-1778 138 0
-139 1776 1777 1778 0
-1779 -13 0
-1779 393 0
-1780 -49 0
-1780 194 0
-1781 -103 0
-1781 140 0
-139 1779 1780 1781 0
-1782 -14 0
-1782 394 0
-1783 -50 0
-1783 195 0
-1784 -104 0
-1784 141 0
-139 1782 1783 1784 0
-1785 -1 0
-1785 218 0
-1786 -16 0
-1786 117 0
-1787 -26 0
-1787 107 0
-140 1785 1786 1787 0
-1788 -2 0
-1788 284 0
-1789 -28 0
-1789 129 0
-1790 -38 0
-1790 119 0
-140 1788 1789 1790 0
-1791 -4 0
-1791 349 0
-1792 -40 0
-1792 150 0
-1793 -59 0
-1793 131 0
-140 1791 1792 1793 0
-1794 -5 0
-1794 358 0
-1795 -41 0
-1795 159 0
-1796 -68 0
-1796 132 0
-140 1794 1795 1796 0
-1797 -6 0
-1797 366 0
-1798 -42 0
-1798 167 0
-1799 -76 0
-1799 133 0
-140 1797 1798 1799 0
-1800 -7 0
-1800 373 0
-1801 -43 0
-1801 174 0
-1802 -83 0
-1802 134 0
-140 1800 1801 1802 0
-1803 -8 0
-1803 379 0
-1804 -44 0
-1804 180 0
-1805 -89 0
-1805 135 0
-140 1803 1804 1805 0
-1806 -9 0
-1806 384 0
-1807 -45 0
-1807 185 0
-1808 -94 0
-1808 136 0
-140 1806 1807 1808 0
-1809 -10 0
-1809 388 0
-1810 -46 0
-1810 189 0
-1811 -98 0
-1811 137 0
-140 1809 1810 1811 0
-1812 -11 0
-1812 391 0
-1813 -47 0
-1813 192 0
-1814 -101 0
-1814 138 0
-140 1812 1813 1814 0
-1815 -12 0
-1815 393 0
-1816 -48 0
-1816 194 0
-1817 -103 0
-1817 139 0
-140 1815 1816 1817 0
-1818 -14 0
-1818 395 0
-1819 -50 0
-1819 196 0
-1820 -105 0
-1820 141 0
-140 1818 1819 1820 0
-1821 -1 0
-1821 219 0
-1822 -16 0
-1822 118 0
-1823 -27 0
-1823 107 0
-141 1821 1822 1823 0
-1824 -2 0
-1824 285 0
-1825 -28 0
-1825 130 0
-1826 -39 0
-1826 119 0
-141 1824 1825 1826 0
-1827 -4 0
-1827 350 0
-1828 -40 0
-1828 151 0
-1829 -60 0
-1829 131 0
-141 1827 1828 1829 0
-1830 -5 0
-1830 359 0
-1831 -41 0
-1831 160 0
-1832 -69 0
-1832 132 0
-141 1830 1831 1832 0
-1833 -6 0
-1833 367 0
-1834 -42 0
-1834 168 0
-1835 -77 0
-1835 133 0
-141 1833 1834 1835 0
-1836 -7 0
-1836 374 0
-1837 -43 0
-1837 175 0
-1838 -84 0
-1838 134 0
-141 1836 1837 1838 0
-1839 -8 0
-1839 380 0
-1840 -44 0
-1840 181 0
-1841 -90 0
-1841 135 0
-141 1839 1840 1841 0
-1842 -9 0
-1842 385 0
-1843 -45 0
-1843 186 0
-1844 -95 0
-1844 136 0
-141 1842 1843 1844 0
-1845 -10 0
-1845 389 0
-1846 -46 0
-1846 190 0
-1847 -99 0
-1847 137 0
-141 1845 1846 1847 0
-1848 -11 0
-1848 392 0
-1849 -47 0
-1849 193 0
-1850 -102 0
-1850 138 0
-141 1848 1849 1850 0
-1851 -12 0
-1851 394 0
-1852 -48 0
-1852 195 0
-1853 -104 0
-1853 139 0
-141 1851 1852 1853 0
-1854 -13 0
-1854 395 0
-1855 -49 0
-1855 196 0
-1856 -105 0
-1856 140 0
-141 1854 1855 1856 0
-1857 -1 0
-1857 220 0
-1858 -17 0
-1858 109 0
-1859 -18 0
-1859 108 0
-142 1857 1858 1859 0
-1860 -2 0
-1860 286 0
-1861 -29 0
-1861 121 0
-1862 -30 0
-1862 120 0
-142 1860 1861 1862 0
-1863 -3 0
-1863 341 0
-1864 -40 0
-1864 132 0
-1865 -41 0
-1865 131 0
-142 1863 1864 1865 0
-1866 -6 0
-1866 396 0
-1867 -52 0
-1867 152 0
-1868 -61 0
-1868 143 0
-142 1866 1867 1868 0
-1869 -7 0
-1869 397 0
-1870 -53 0
-1870 153 0
-1871 -62 0
-1871 144 0
-142 1869 1870 1871 0
-1872 -8 0
-1872 398 0
-1873 -54 0
-1873 154 0
-1874 -63 0
-1874 145 0
-142 1872 1873 1874 0
-1875 -9 0
-1875 399 0
-1876 -55 0
-1876 155 0
-1877 -64 0
-1877 146 0
-142 1875 1876 1877 0
-1878 -10 0
-1878 400 0
-1879 -56 0
-1879 156 0
-1880 -65 0
-1880 147 0
-142 1878 1879 1880 0
-1881 -11 0
-1881 401 0
-1882 -57 0
-1882 157 0
-1883 -66 0
-1883 148 0
-142 1881 1882 1883 0
-1884 -12 0
-1884 402 0
-1885 -58 0
-1885 158 0
-1886 -67 0
-1886 149 0
-142 1884 1885 1886 0
-1887 -13 0
-1887 403 0
-1888 -59 0
-1888 159 0
-1889 -68 0
-1889 150 0
-142 1887 1888 1889 0
-1890 -14 0
-1890 404 0
-1891 -60 0
-1891 160 0
-1892 -69 0
-1892 151 0
-142 1890 1891 1892 0
-1893 -1 0
-1893 221 0
-1894 -17 0
-1894 110 0
-1895 -19 0
-1895 108 0
-143 1893 1894 1895 0
-1896 -2 0
-1896 287 0
-1897 -29 0
-1897 122 0
-1898 -31 0
-1898 120 0
-143 1896 1897 1898 0
-1899 -3 0
-1899 342 0
-1900 -40 0
-1900 133 0
-1901 -42 0
-1901 131 0
-143 1899 1900 1901 0
-1902 -5 0
-1902 396 0
-1903 -51 0
-1903 152 0
-1904 -61 0
-1904 142 0
-143 1902 1903 1904 0
-1905 -7 0
-1905 405 0
-1906 -53 0
-1906 161 0
-1907 -70 0
-1907 144 0
-143 1905 1906 1907 0
-1908 -8 0
-1908 406 0
-1909 -54 0
-1909 162 0
-1910 -71 0
-1910 145 0
-143 1908 1909 1910 0
-1911 -9 0
-1911 407 0
-1912 -55 0
-1912 163 0
-1913 -72 0
-1913 146 0
-143 1911 1912 1913 0
-1914 -10 0
-1914 408 0
-1915 -56 0
-1915 164 0
-1916 -73 0
-1916 147 0
-143 1914 1915 1916 0
-1917 -11 0
-1917 409 0
-1918 -57 0
-1918 165 0
-1919 -74 0
-1919 148 0
-143 1917 1918 1919 0
-1920 -12 0
-1920 410 0
-1921 -58 0
-1921 166 0
-1922 -75 0
-1922 149 0
-143 1920 1921 1922 0
-1923 -13 0
-1923 411 0
-1924 -59 0
-1924 167 0
-1925 -76 0
-1925 150 0
-143 1923 1924 1925 0
-1926 -14 0
-1926 412 0
-1927 -60 0
-1927 168 0
-1928 -77 0
-1928 151 0
-143 1926 1927 1928 0
-1929 -1 0
-1929 222 0
-1930 -17 0
-1930 111 0
-1931 -20 0
-1931 108 0
-144 1929 1930 1931 0
-1932 -2 0
-1932 288 0
-1933 -29 0
-1933 123 0
-1934 -32 0
-1934 120 0
-144 1932 1933 1934 0
-1935 -3 0
-1935 343 0
-1936 -40 0
-1936 134 0
-1937 -43 0
-1937 131 0
-144 1935 1936 1937 0
-1938 -5 0
-1938 397 0
-1939 -51 0
-1939 153 0
-1940 -62 0
-1940 142 0
-144 1938 1939 1940 0
-1941 -6 0
-1941 405 0
-1942 -52 0
-1942 161 0
-1943 -70 0
-1943 143 0
-144 1941 1942 1943 0
-1944 -8 0
-1944 413 0
-1945 -54 0
-1945 169 0
-1946 -78 0
-1946 145 0
-144 1944 1945 1946 0
-1947 -9 0
-1947 414 0
-1948 -55 0
-1948 170 0
-1949 -79 0
-1949 146 0
-144 1947 1948 1949 0
-1950 -10 0
-1950 415 0
-1951 -56 0
-1951 171 0
-1952 -80 0
-1952 147 0
-144 1950 1951 1952 0
-1953 -11 0
-1953 416 0
-1954 -57 0
-1954 172 0
-1955 -81 0
-1955 148 0
-144 1953 1954 1955 0
-1956 -12 0
-1956 417 0
-1957 -58 0
-1957 173 0
-1958 -82 0
-1958 149 0
-144 1956 1957 1958 0
-1959 -13 0
-1959 418 0
-1960 -59 0
-1960 174 0
-1961 -83 0
-1961 150 0
-144 1959 1960 1961 0
-1962 -14 0
-1962 419 0
-1963 -60 0
-1963 175 0
-1964 -84 0
-1964 151 0
-144 1962 1963 1964 0
-1965 -1 0
-1965 223 0
-1966 -17 0
-1966 112 0
-1967 -21 0
-1967 108 0
-145 1965 1966 1967 0
-1968 -2 0
-1968 289 0
-1969 -29 0
-1969 124 0
-1970 -33 0
-1970 120 0
-145 1968 1969 1970 0
-1971 -3 0
-1971 344 0
-1972 -40 0
-1972 135 0
-1973 -44 0
-1973 131 0
-145 1971 1972 1973 0
-1974 -5 0
-1974 398 0
-1975 -51 0
-1975 154 0
-1976 -63 0
-1976 142 0
-145 1974 1975 1976 0
-1977 -6 0
-1977 406 0
-1978 -52 0
-1978 162 0
-1979 -71 0
-1979 143 0
-145 1977 1978 1979 0
-1980 -7 0
-1980 413 0
-1981 -53 0
-1981 169 0
-1982 -78 0
-1982 144 0
-145 1980 1981 1982 0
-1983 -9 0
-1983 420 0
-1984 -55 0
-1984 176 0
-1985 -85 0
-1985 146 0
-145 1983 1984 1985 0
-1986 -10 0
-1986 421 0
-1987 -56 0
-1987 177 0
-1988 -86 0
-1988 147 0
-145 1986 1987 1988 0
-1989 -11 0
-1989 422 0
-1990 -57 0
-1990 178 0
-1991 -87 0
-1991 148 0
-145 1989 1990 1991 0
-1992 -12 0
-1992 423 0
-1993 -58 0
-1993 179 0
-1994 -88 0
-1994 149 0
-145 1992 1993 1994 0
-1995 -13 0
-1995 424 0
-1996 -59 0
-1996 180 0
-1997 -89 0
-1997 150 0
-145 1995 1996 1997 0
-1998 -14 0
-1998 425 0
-1999 -60 0
-1999 181 0
-2000 -90 0
-2000 151 0
-145 1998 1999 2000 0
-2001 -1 0
-2001 224 0
-2002 -17 0
-2002 113 0
-2003 -22 0
-2003 108 0
-146 2001 2002 2003 0
-2004 -2 0
-2004 290 0
-2005 -29 0
-2005 125 0
-2006 -34 0
-2006 120 0
-146 2004 2005 2006 0
-2007 -3 0
-2007 345 0
-2008 -40 0
-2008 136 0
-2009 -45 0
-2009 131 0
-146 2007 2008 2009 0
-2010 -5 0
-2010 399 0
-2011 -51 0
-2011 155 0
-2012 -64 0
-2012 142 0
-146 2010 2011 2012 0
-2013 -6 0
-2013 407 0
-2014 -52 0
-2014 163 0
-2015 -72 0
-2015 143 0
-146 2013 2014 2015 0
-2016 -7 0
-2016 414 0
-2017 -53 0
-2017 170 0
-2018 -79 0
-2018 144 0
-146 2016 2017 2018 0
-2019 -8 0
-2019 420 0
-2020 -54 0
-2020 176 0
-2021 -85 0
-2021 145 0
-146 2019 2020 2021 0
-2022 -10 0
-2022 426 0
-2023 -56 0
-2023 182 0
-2024 -91 0
-2024 147 0
-146 2022 2023 2024 0
-2025 -11 0
-2025 427 0
-2026 -57 0
-2026 183 0
-2027 -92 0
-2027 148 0
-146 2025 2026 2027 0
-2028 -12 0
-2028 428 0
-2029 -58 0
-2029 184 0
-2030 -93 0
-2030 149 0
-146 2028 2029 2030 0
-2031 -13 0
-2031 429 0
-2032 -59 0
-2032 185 0
-2033 -94 0
-2033 150 0
-146 2031 2032 2033 0
-2034 -14 0
-2034 430 0
-2035 -60 0
-2035 186 0
-2036 -95 0
-2036 151 0
-146 2034 2035 2036 0
-2037 -1 0
-2037 225 0
-2038 -17 0
-2038 114 0
-2039 -23 0
-2039 108 0
-147 2037 2038 2039 0
-2040 -2 0
-2040 291 0
-2041 -29 0
-2041 126 0
-2042 -35 0
-2042 120 0
-147 2040 2041 2042 0
-2043 -3 0
-2043 346 0
-2044 -40 0
-2044 137 0
-2045 -46 0
-2045 131 0
-147 2043 2044 2045 0
-2046 -5 0
-2046 400 0
-2047 -51 0
-2047 156 0
-2048 -65 0
-2048 142 0
-147 2046 2047 2048 0
-2049 -6 0
-2049 408 0
-2050 -52 0
-2050 164 0
-2051 -73 0
-2051 143 0
-147 2049 2050 2051 0
-2052 -7 0
-2052 415 0
-2053 -53 0
-2053 171 0
-2054 -80 0
-2054 144 0
-147 2052 2053 2054 0
-2055 -8 0
-2055 421 0
-2056 -54 0
-2056 177 0
-2057 -86 0
-2057 145 0
-147 2055 2056 2057 0
-2058 -9 0
-2058 426 0
-2059 -55 0
-2059 182 0
-2060 -91 0
-2060 146 0
-147 2058 2059 2060 0
-2061 -11 0
-2061 431 0
-2062 -57 0
-2062 187 0
-2063 -96 0
-2063 148 0
-147 2061 2062 2063 0
-2064 -12 0
-2064 432 0
-2065 -58 0
-2065 188 0
-2066 -97 0
-2066 149 0
-147 2064 2065 2066 0
-2067 -13 0
-2067 433 0
-2068 -59 0
-2068 189 0
-2069 -98 0
-2069 150 0
-147 2067 2068 2069 0
-2070 -14 0
-2070 434 0
-2071 -60 0
-2071 190 0
-2072 -99 0
-2072 151 0
-147 2070 2071 2072 0
-2073 -1 0
-2073 226 0
-2074 -17 0
-2074 115 0
-2075 -24 0
-2075 108 0
-148 2073 2074 2075 0
-2076 -2 0
-2076 292 0
-2077 -29 0
-2077 127 0
-2078 -36 0
-2078 120 0
-148 2076 2077 2078 0
-2079 -3 0
-2079 347 0
-2080 -40 0
-2080 138 0
-2081 -47 0
-2081 131 0
-148 2079 2080 2081 0
-2082 -5 0
-2082 401 0
-2083 -51 0
-2083 157 0
-2084 -66 0
-2084 142 0
-148 2082 2083 2084 0
-2085 -6 0
-2085 409 0
-2086 -52 0
-2086 165 0
-2087 -74 0
-2087 143 0
-148 2085 2086 2087 0
-2088 -7 0
-2088 416 0
-2089 -53 0
-2089 172 0
-2090 -81 0
-2090 144 0
-148 2088 2089 2090 0
-2091 -8 0
-2091 422 0
-2092 -54 0
-2092 178 0
-2093 -87 0
-2093 145 0
-148 2091 2092 2093 0
-2094 -9 0
-2094 427 0
-2095 -55 0
-2095 183 0
-2096 -92 0
-2096 146 0
-148 2094 2095 2096 0
-2097 -10 0
-2097 431 0
-2098 -56 0
-2098 187 0
-2099 -96 0
-2099 147 0
-148 2097 2098 2099 0
-2100 -12 0
-2100 435 0
-2101 -58 0
-2101 191 0
-2102 -100 0
-2102 149 0
-148 2100 2101 2102 0
-2103 -13 0
-2103 436 0
-2104 -59 0
-2104 192 0
-2105 -101 0
-2105 150 0
-148 2103 2104 2105 0
-2106 -14 0
-2106 437 0
-2107 -60 0
-2107 193 0
-2108 -102 0
-2108 151 0
-148 2106 2107 2108 0
-2109 -1 0
-2109 227 0
-2110 -17 0
-2110 116 0
-2111 -25 0
-2111 108 0
-149 2109 2110 2111 0
-2112 -2 0
-2112 293 0
-2113 -29 0
-2113 128 0
-2114 -37 0
-2114 120 0
-149 2112 2113 2114 0
-2115 -3 0
-2115 348 0
-2116 -40 0
-2116 139 0
-2117 -48 0
-2117 131 0
-149 2115 2116 2117 0
-2118 -5 0
-2118 402 0
-2119 -51 0
-2119 158 0
-2120 -67 0
-2120 142 0
-149 2118 2119 2120 0
-2121 -6 0
-2121 410 0
-2122 -52 0
-2122 166 0
-2123 -75 0
-2123 143 0
-149 2121 2122 2123 0
-2124 -7 0
-2124 417 0
-2125 -53 0
-2125 173 0
-2126 -82 0
-2126 144 0
-149 2124 2125 2126 0
-2127 -8 0
-2127 423 0
-2128 -54 0
-2128 179 0
-2129 -88 0
-2129 145 0
-149 2127 2128 2129 0
-2130 -9 0
-2130 428 0
-2131 -55 0
-2131 184 0
-2132 -93 0
-2132 146 0
-149 2130 2131 2132 0
-2133 -10 0
-2133 432 0
-2134 -56 0
-2134 188 0
-2135 -97 0
-2135 147 0
-149 2133 2134 2135 0
-2136 -11 0
-2136 435 0
-2137 -57 0
-2137 191 0
-2138 -100 0
-2138 148 0
-149 2136 2137 2138 0
-2139 -13 0
-2139 438 0
-2140 -59 0
-2140 194 0
-2141 -103 0
-2141 150 0
-149 2139 2140 2141 0
-2142 -14 0
-2142 439 0
-2143 -60 0
-2143 195 0
-2144 -104 0
-2144 151 0
-149 2142 2143 2144 0
-2145 -1 0
-2145 228 0
-2146 -17 0
-2146 117 0
-2147 -26 0
-2147 108 0
-150 2145 2146 2147 0
-2148 -2 0
-2148 294 0
-2149 -29 0
-2149 129 0
-2150 -38 0
-2150 120 0
-150 2148 2149 2150 0
-2151 -3 0
-2151 349 0
-2152 -40 0
-2152 140 0
-2153 -49 0
-2153 131 0
-150 2151 2152 2153 0
-2154 -5 0
-2154 403 0
-2155 -51 0
-2155 159 0
-2156 -68 0
-2156 142 0
-150 2154 2155 2156 0
-2157 -6 0
-2157 411 0
-2158 -52 0
-2158 167 0
-2159 -76 0
-2159 143 0
-150 2157 2158 2159 0
-2160 -7 0
-2160 418 0
-2161 -53 0
-2161 174 0
-2162 -83 0
-2162 144 0
-150 2160 2161 2162 0
-2163 -8 0
-2163 424 0
-2164 -54 0
-2164 180 0
-2165 -89 0
-2165 145 0
-150 2163 2164 2165 0
-2166 -9 0
-2166 429 0
-2167 -55 0
-2167 185 0
-2168 -94 0
-2168 146 0
-150 2166 2167 2168 0
-2169 -10 0
-2169 433 0
-2170 -56 0
-2170 189 0
-2171 -98 0
-2171 147 0
-150 2169 2170 2171 0
-2172 -11 0
-2172 436 0
-2173 -57 0
-2173 192 0
-2174 -101 0
-2174 148 0
-150 2172 2173 2174 0
-2175 -12 0
-2175 438 0
-2176 -58 0
-2176 194 0
-2177 -103 0
-2177 149 0
-150 2175 2176 2177 0
-2178 -14 0
-2178 440 0
-2179 -60 0
-2179 196 0
-2180 -105 0
-2180 151 0
-150 2178 2179 2180 0
-2181 -1 0
-2181 229 0
-2182 -17 0
-2182 118 0
-2183 -27 0
-2183 108 0
-151 2181 2182 2183 0
-2184 -2 0
-2184 295 0
-2185 -29 0
-2185 130 0
-2186 -39 0
-2186 120 0
-151 2184 2185 2186 0
-2187 -3 0
-2187 350 0
-2188 -40 0
-2188 141 0
-2189 -50 0
-2189 131 0
-151 2187 2188 2189 0
-2190 -5 0
-2190 404 0
-2191 -51 0
-2191 160 0
-2192 -69 0
-2192 142 0
-151 2190 2191 2192 0
-2193 -6 0
-2193 412 0
-2194 -52 0
-2194 168 0
-2195 -77 0
-2195 143 0
-151 2193 2194 2195 0
-2196 -7 0
-2196 419 0
-2197 -53 0
-2197 175 0
-2198 -84 0
-2198 144 0
-151 2196 2197 2198 0
-2199 -8 0
-2199 425 0
-2200 -54 0
-2200 181 0
-2201 -90 0
-2201 145 0
-151 2199 2200 2201 0
-2202 -9 0
-2202 430 0
-2203 -55 0
-2203 186 0
-2204 -95 0
-2204 146 0
-151 2202 2203 2204 0
-2205 -10 0
-2205 434 0
-2206 -56 0
-2206 190 0
-2207 -99 0
-2207 147 0
-151 2205 2206 2207 0
-2208 -11 0
-2208 437 0
-2209 -57 0
-2209 193 0
-2210 -102 0
-2210 148 0
-151 2208 2209 2210 0
-2211 -12 0
-2211 439 0
-2212 -58 0
-2212 195 0
-2213 -104 0
-2213 149 0
-151 2211 2212 2213 0
-2214 -13 0
-2214 440 0
-2215 -59 0
-2215 196 0
-2216 -105 0
-2216 150 0
-151 2214 2215 2216 0
-2217 -1 0
-2217 230 0
-2218 -18 0
-2218 110 0
-2219 -19 0
-2219 109 0
-152 2217 2218 2219 0
-2220 -2 0
-2220 296 0
-2221 -30 0
-2221 122 0
-2222 -31 0
-2222 121 0
-152 2220 2221 2222 0
-2223 -3 0
-2223 351 0
-2224 -41 0
-2224 133 0
-2225 -42 0
-2225 132 0
-152 2223 2224 2225 0
-2226 -4 0
-2226 396 0
-2227 -51 0
-2227 143 0
-2228 -52 0
-2228 142 0
-152 2226 2227 2228 0
-2229 -7 0
-2229 441 0
-2230 -62 0
-2230 161 0
-2231 -70 0
-2231 153 0
-152 2229 2230 2231 0
-2232 -8 0
-2232 442 0
-2233 -63 0
-2233 162 0
-2234 -71 0
-2234 154 0
-152 2232 2233 2234 0
-2235 -9 0
-2235 443 0
-2236 -64 0
-2236 163 0
-2237 -72 0
-2237 155 0
-152 2235 2236 2237 0
-2238 -10 0
-2238 444 0
-2239 -65 0
-2239 164 0
-2240 -73 0
-2240 156 0
-152 2238 2239 2240 0
-2241 -11 0
-2241 445 0
-2242 -66 0
-2242 165 0
-2243 -74 0
-2243 157 0
-152 2241 2242 2243 0
-2244 -12 0
-2244 446 0
-2245 -67 0
-2245 166 0
-2246 -75 0
-2246 158 0
-152 2244 2245 2246 0
-2247 -13 0
-2247 447 0
-2248 -68 0
-2248 167 0
-2249 -76 0
-2249 159 0
-152 2247 2248 2249 0
-2250 -14 0
-2250 448 0
-2251 -69 0
-2251 168 0
-2252 -77 0
-2252 160 0
-152 2250 2251 2252 0
-2253 -1 0
-2253 231 0
-2254 -18 0
-2254 111 0
-2255 -20 0
-2255 109 0
-153 2253 2254 2255 0
-2256 -2 0
-2256 297 0
-2257 -30 0
-2257 123 0
-2258 -32 0
-2258 121 0
-153 2256 2257 2258 0
-2259 -3 0
-2259 352 0
-2260 -41 0
-2260 134 0
-2261 -43 0
-2261 132 0
-153 2259 2260 2261 0
-2262 -4 0
-2262 397 0
-2263 -51 0
-2263 144 0
-2264 -53 0
-2264 142 0
-153 2262 2263 2264 0
-2265 -6 0
-2265 441 0
-2266 -61 0
-2266 161 0
-2267 -70 0
-2267 152 0
-153 2265 2266 2267 0
-2268 -8 0
-2268 449 0
-2269 -63 0
-2269 169 0
-2270 -78 0
-2270 154 0
-153 2268 2269 2270 0
-2271 -9 0
-2271 450 0
-2272 -64 0
-2272 170 0
-2273 -79 0
-2273 155 0
-153 2271 2272 2273 0
-2274 -10 0
-2274 451 0
-2275 -65 0
-2275 171 0
-2276 -80 0
-2276 156 0
-153 2274 2275 2276 0
-2277 -11 0
-2277 452 0
-2278 -66 0
-2278 172 0
-2279 -81 0
-2279 157 0
-153 2277 2278 2279 0
-2280 -12 0
-2280 453 0
-2281 -67 0
-2281 173 0
-2282 -82 0
-2282 158 0
-153 2280 2281 2282 0
-2283 -13 0
-2283 454 0
-2284 -68 0
-2284 174 0
-2285 -83 0
-2285 159 0
-153 2283 2284 2285 0
-2286 -14 0
-2286 455 0
-2287 -69 0
-2287 175 0
-2288 -84 0
-2288 160 0
-153 2286 2287 2288 0
-2289 -1 0
-2289 232 0
-2290 -18 0
-2290 112 0
-2291 -21 0
-2291 109 0
-154 2289 2290 2291 0
-2292 -2 0
-2292 298 0
-2293 -30 0
-2293 124 0
-2294 -33 0
-2294 121 0
-154 2292 2293 2294 0
-2295 -3 0
-2295 353 0
-2296 -41 0
-2296 135 0
-2297 -44 0
-2297 132 0
-154 2295 2296 2297 0
-2298 -4 0
-2298 398 0
-2299 -51 0
-2299 145 0
-2300 -54 0
-2300 142 0
-154 2298 2299 2300 0
-2301 -6 0
-2301 442 0
-2302 -61 0
-2302 162 0
-2303 -71 0
-2303 152 0
-154 2301 2302 2303 0
-2304 -7 0
-2304 449 0
-2305 -62 0
-2305 169 0
-2306 -78 0
-2306 153 0
-154 2304 2305 2306 0
-2307 -9 0
-2307 456 0
-2308 -64 0
-2308 176 0
-2309 -85 0
-2309 155 0
-154 2307 2308 2309 0
-2310 -10 0
-2310 457 0
-2311 -65 0
-2311 177 0
-2312 -86 0
-2312 156 0
-154 2310 2311 2312 0
-2313 -11 0
-2313 458 0
-2314 -66 0
-2314 178 0
-2315 -87 0
-2315 157 0
-154 2313 2314 2315 0
-2316 -12 0
-2316 459 0
-2317 -67 0
-2317 179 0
-2318 -88 0
-2318 158 0
-154 2316 2317 2318 0
-2319 -13 0
-2319 460 0
-2320 -68 0
-2320 180 0
-2321 -89 0
-2321 159 0
-154 2319 2320 2321 0
-2322 -14 0
-2322 461 0
-2323 -69 0
-2323 181 0
-2324 -90 0
-2324 160 0
-154 2322 2323 2324 0
-2325 -1 0
-2325 233 0
-2326 -18 0
-2326 113 0
-2327 -22 0
-2327 109 0
-155 2325 2326 2327 0
-2328 -2 0
-2328 299 0
-2329 -30 0
-2329 125 0
-2330 -34 0
-2330 121 0
-155 2328 2329 2330 0
-2331 -3 0
-2331 354 0
-2332 -41 0
-2332 136 0
-2333 -45 0
-2333 132 0
-155 2331 2332 2333 0
-2334 -4 0
-2334 399 0
-2335 -51 0
-2335 146 0
-2336 -55 0
-2336 142 0
-155 2334 2335 2336 0
-2337 -6 0
-2337 443 0
-2338 -61 0
-2338 163 0
-2339 -72 0
-2339 152 0
-155 2337 2338 2339 0
-2340 -7 0
-2340 450 0
-2341 -62 0
-2341 170 0
-2342 -79 0
-2342 153 0
-155 2340 2341 2342 0
-2343 -8 0
-2343 456 0
-2344 -63 0
-2344 176 0
-2345 -85 0
-2345 154 0
-155 2343 2344 2345 0
-2346 -10 0
-2346 462 0
-2347 -65 0
-2347 182 0
-2348 -91 0
-2348 156 0
-155 2346 2347 2348 0
-2349 -11 0
-2349 463 0
-2350 -66 0
-2350 183 0
-2351 -92 0
-2351 157 0
-155 2349 2350 2351 0
-2352 -12 0
-2352 464 0
-2353 -67 0
-2353 184 0
-2354 -93 0
-2354 158 0
-155 2352 2353 2354 0
-2355 -13 0
-2355 465 0
-2356 -68 0
-2356 185 0
-2357 -94 0
-2357 159 0
-155 2355 2356 2357 0
-2358 -14 0
-2358 466 0
-2359 -69 0
-2359 186 0
-2360 -95 0
-2360 160 0
-155 2358 2359 2360 0
-2361 -1 0
-2361 234 0
-2362 -18 0
-2362 114 0
-2363 -23 0
-2363 109 0
-156 2361 2362 2363 0
-2364 -2 0
-2364 300 0
-2365 -30 0
-2365 126 0
-2366 -35 0
-2366 121 0
-156 2364 2365 2366 0
-2367 -3 0
-2367 355 0
-2368 -41 0
-2368 137 0
-2369 -46 0
-2369 132 0
-156 2367 2368 2369 0
-2370 -4 0
-2370 400 0
-2371 -51 0
-2371 147 0
-2372 -56 0
-2372 142 0
-156 2370 2371 2372 0
-2373 -6 0
-2373 444 0
-2374 -61 0
-2374 164 0
-2375 -73 0
-2375 152 0
-156 2373 2374 2375 0
-2376 -7 0
-2376 451 0
-2377 -62 0
-2377 171 0
-2378 -80 0
-2378 153 0
-156 2376 2377 2378 0
-2379 -8 0
-2379 457 0
-2380 -63 0
-2380 177 0
-2381 -86 0
-2381 154 0
-156 2379 2380 2381 0
-2382 -9 0
-2382 462 0
-2383 -64 0
-2383 182 0
-2384 -91 0
-2384 155 0
-156 2382 2383 2384 0
-2385 -11 0
-2385 467 0
-2386 -66 0
-2386 187 0
-2387 -96 0
-2387 157 0
-156 2385 2386 2387 0
-2388 -12 0
-2388 468 0
-2389 -67 0
-2389 188 0
-2390 -97 0
-2390 158 0
-156 2388 2389 2390 0
-2391 -13 0
-2391 469 0
-2392 -68 0
-2392 189 0
-2393 -98 0
-2393 159 0
-156 2391 2392 2393 0
-2394 -14 0
-2394 470 0
-2395 -69 0
-2395 190 0
-2396 -99 0
-2396 160 0
-156 2394 2395 2396 0
-2397 -1 0
-2397 235 0
-2398 -18 0
-2398 115 0
-2399 -24 0
-2399 109 0
-157 2397 2398 2399 0
-2400 -2 0
-2400 301 0
-2401 -30 0
-2401 127 0
-2402 -36 0
-2402 121 0
-157 2400 2401 2402 0
-2403 -3 0
-2403 356 0
-2404 -41 0
-2404 138 0
-2405 -47 0
-2405 132 0
-157 2403 2404 2405 0
-2406 -4 0
-2406 401 0
-2407 -51 0
-2407 148 0
-2408 -57 0
-2408 142 0
-157 2406 2407 2408 0
-2409 -6 0
-2409 445 0
-2410 -61 0
-2410 165 0
-2411 -74 0
-2411 152 0
-157 2409 2410 2411 0
-2412 -7 0
-2412 452 0
-2413 -62 0
-2413 172 0
-2414 -81 0
-2414 153 0
-157 2412 2413 2414 0
-2415 -8 0
-2415 458 0
-2416 -63 0
-2416 178 0
-2417 -87 0
-2417 154 0
-157 2415 2416 2417 0
-2418 -9 0
-2418 463 0
-2419 -64 0
-2419 183 0
-2420 -92 0
-2420 155 0
-157 2418 2419 2420 0
-2421 -10 0
-2421 467 0
-2422 -65 0
-2422 187 0
-2423 -96 0
-2423 156 0
-157 2421 2422 2423 0
-2424 -12 0
-2424 471 0
-2425 -67 0
-2425 191 0
-2426 -100 0
-2426 158 0
-157 2424 2425 2426 0
-2427 -13 0
-2427 472 0
-2428 -68 0
-2428 192 0
-2429 -101 0
-2429 159 0
-157 2427 2428 2429 0
-2430 -14 0
-2430 473 0
-2431 -69 0
-2431 193 0
-2432 -102 0
-2432 160 0
-157 2430 2431 2432 0
-2433 -1 0
-2433 236 0
-2434 -18 0
-2434 116 0
-2435 -25 0
-2435 109 0
-158 2433 2434 2435 0
-2436 -2 0
-2436 302 0
-2437 -30 0
-2437 128 0
-2438 -37 0
-2438 121 0
-158 2436 2437 2438 0
-2439 -3 0
-2439 357 0
-2440 -41 0
-2440 139 0
-2441 -48 0
-2441 132 0
-158 2439 2440 2441 0
-2442 -4 0
-2442 402 0
-2443 -51 0
-2443 149 0
-2444 -58 0
-2444 142 0
-158 2442 2443 2444 0
-2445 -6 0
-2445 446 0
-2446 -61 0
-2446 166 0
-2447 -75 0
-2447 152 0
-158 2445 2446 2447 0
-2448 -7 0
-2448 453 0
-2449 -62 0
-2449 173 0
-2450 -82 0
-2450 153 0
-158 2448 2449 2450 0
-2451 -8 0
-2451 459 0
-2452 -63 0
-2452 179 0
-2453 -88 0
-2453 154 0
-158 2451 2452 2453 0
-2454 -9 0
-2454 464 0
-2455 -64 0
-2455 184 0
-2456 -93 0
-2456 155 0
-158 2454 2455 2456 0
-2457 -10 0
-2457 468 0
-2458 -65 0
-2458 188 0
-2459 -97 0
-2459 156 0
-158 2457 2458 2459 0
-2460 -11 0
-2460 471 0
-2461 -66 0
-2461 191 0
-2462 -100 0
-2462 157 0
-158 2460 2461 2462 0
-2463 -13 0
-2463 474 0
-2464 -68 0
-2464 194 0
-2465 -103 0
-2465 159 0
-158 2463 2464 2465 0
-2466 -14 0
-2466 475 0
-2467 -69 0
-2467 195 0
-2468 -104 0
-2468 160 0
-158 2466 2467 2468 0
-2469 -1 0
-2469 237 0
-2470 -18 0
-2470 117 0
-2471 -26 0
-2471 109 0
-159 2469 2470 2471 0
-2472 -2 0
-2472 303 0
-2473 -30 0
-2473 129 0
-2474 -38 0
-2474 121 0
-159 2472 2473 2474 0
-2475 -3 0
-2475 358 0
-2476 -41 0
-2476 140 0
-2477 -49 0
-2477 132 0
-159 2475 2476 2477 0
-2478 -4 0
-2478 403 0
-2479 -51 0
-2479 150 0
-2480 -59 0
-2480 142 0
-159 2478 2479 2480 0
-2481 -6 0
-2481 447 0
-2482 -61 0
-2482 167 0
-2483 -76 0
-2483 152 0
-159 2481 2482 2483 0
-2484 -7 0
-2484 454 0
-2485 -62 0
-2485 174 0
-2486 -83 0
-2486 153 0
-159 2484 2485 2486 0
-2487 -8 0
-2487 460 0
-2488 -63 0
-2488 180 0
-2489 -89 0
-2489 154 0
-159 2487 2488 2489 0
-2490 -9 0
-2490 465 0
-2491 -64 0
-2491 185 0
-2492 -94 0
-2492 155 0
-159 2490 2491 2492 0
-2493 -10 0
-2493 469 0
-2494 -65 0
-2494 189 0
-2495 -98 0
-2495 156 0
-159 2493 2494 2495 0
-2496 -11 0
-2496 472 0
-2497 -66 0
-2497 192 0
-2498 -101 0
-2498 157 0
-159 2496 2497 2498 0
-2499 -12 0
-2499 474 0
-2500 -67 0
-2500 194 0
-2501 -103 0
-2501 158 0
-159 2499 2500 2501 0
-2502 -14 0
-2502 476 0
-2503 -69 0
-2503 196 0
-2504 -105 0
-2504 160 0
-159 2502 2503 2504 0
-2505 -1 0
-2505 238 0
-2506 -18 0
-2506 118 0
-2507 -27 0
-2507 109 0
-160 2505 2506 2507 0
-2508 -2 0
-2508 304 0
-2509 -30 0
-2509 130 0
-2510 -39 0
-2510 121 0
-160 2508 2509 2510 0
-2511 -3 0
-2511 359 0
-2512 -41 0
-2512 141 0
-2513 -50 0
-2513 132 0
-160 2511 2512 2513 0
-2514 -4 0
-2514 404 0
-2515 -51 0
-2515 151 0
-2516 -60 0
-2516 142 0
-160 2514 2515 2516 0
-2517 -6 0
-2517 448 0
-2518 -61 0
-2518 168 0
-2519 -77 0
-2519 152 0
-160 2517 2518 2519 0
-2520 -7 0
-2520 455 0
-2521 -62 0
-2521 175 0
-2522 -84 0
-2522 153 0
-160 2520 2521 2522 0
-2523 -8 0
-2523 461 0
-2524 -63 0
-2524 181 0
-2525 -90 0
-2525 154 0
-160 2523 2524 2525 0
-2526 -9 0
-2526 466 0
-2527 -64 0
-2527 186 0
-2528 -95 0
-2528 155 0
-160 2526 2527 2528 0
-2529 -10 0
-2529 470 0
-2530 -65 0
-2530 190 0
-2531 -99 0
-2531 156 0
-160 2529 2530 2531 0
-2532 -11 0
-2532 473 0
-2533 -66 0
-2533 193 0
-2534 -102 0
-2534 157 0
-160 2532 2533 2534 0
-2535 -12 0
-2535 475 0
-2536 -67 0
-2536 195 0
-2537 -104 0
-2537 158 0
-160 2535 2536 2537 0
-2538 -13 0
-2538 476 0
-2539 -68 0
-2539 196 0
-2540 -105 0
-2540 159 0
-160 2538 2539 2540 0
-2541 -1 0
-2541 239 0
-2542 -19 0
-2542 111 0
-2543 -20 0
-2543 110 0
-161 2541 2542 2543 0
-2544 -2 0
-2544 305 0
-2545 -31 0
-2545 123 0
-2546 -32 0
-2546 122 0
-161 2544 2545 2546 0
-2547 -3 0
-2547 360 0
-2548 -42 0
-2548 134 0
-2549 -43 0
-2549 133 0
-161 2547 2548 2549 0
-2550 -4 0
-2550 405 0
-2551 -52 0
-2551 144 0
-2552 -53 0
-2552 143 0
-161 2550 2551 2552 0
-2553 -5 0
-2553 441 0
-2554 -61 0
-2554 153 0
-2555 -62 0
-2555 152 0
-161 2553 2554 2555 0
-2556 -8 0
-2556 477 0
-2557 -71 0
-2557 169 0
-2558 -78 0
-2558 162 0
-161 2556 2557 2558 0
-2559 -9 0
-2559 478 0
-2560 -72 0
-2560 170 0
-2561 -79 0
-2561 163 0
-161 2559 2560 2561 0
-2562 -10 0
-2562 479 0
-2563 -73 0
-2563 171 0
-2564 -80 0
-2564 164 0
-161 2562 2563 2564 0
-2565 -11 0
-2565 480 0
-2566 -74 0
-2566 172 0
-2567 -81 0
-2567 165 0
-161 2565 2566 2567 0
-2568 -12 0
-2568 481 0
-2569 -75 0
-2569 173 0
-2570 -82 0
-2570 166 0
-161 2568 2569 2570 0
-2571 -13 0
-2571 482 0
-2572 -76 0
-2572 174 0
-2573 -83 0
-2573 167 0
-161 2571 2572 2573 0
-2574 -14 0
-2574 483 0
-2575 -77 0
-2575 175 0
-2576 -84 0
-2576 168 0
-161 2574 2575 2576 0
-2577 -1 0
-2577 240 0
-2578 -19 0
-2578 112 0
-2579 -21 0
-2579 110 0
-162 2577 2578 2579 0
-2580 -2 0
-2580 306 0
-2581 -31 0
-2581 124 0
-2582 -33 0
-2582 122 0
-162 2580 2581 2582 0
-2583 -3 0
-2583 361 0
-2584 -42 0
-2584 135 0
-2585 -44 0
-2585 133 0
-162 2583 2584 2585 0
-2586 -4 0
-2586 406 0
-2587 -52 0
-2587 145 0
-2588 -54 0
-2588 143 0
-162 2586 2587 2588 0
-2589 -5 0
-2589 442 0
-2590 -61 0
-2590 154 0
-2591 -63 0
-2591 152 0
-162 2589 2590 2591 0
-2592 -7 0
-2592 477 0
-2593 -70 0
-2593 169 0
-2594 -78 0
-2594 161 0
-162 2592 2593 2594 0
-2595 -9 0
-2595 484 0
-2596 -72 0
-2596 176 0
-2597 -85 0
-2597 163 0
-162 2595 2596 2597 0
-2598 -10 0
-2598 485 0
-2599 -73 0
-2599 177 0
-2600 -86 0
-2600 164 0
-162 2598 2599 2600 0
-2601 -11 0
-2601 486 0
-2602 -74 0
-2602 178 0
-2603 -87 0
-2603 165 0
-162 2601 2602 2603 0
-2604 -12 0
-2604 487 0
-2605 -75 0
-2605 179 0
-2606 -88 0
-2606 166 0
-162 2604 2605 2606 0
-2607 -13 0
-2607 488 0
-2608 -76 0
-2608 180 0
-2609 -89 0
-2609 167 0
-162 2607 2608 2609 0
-2610 -14 0
-2610 489 0
-2611 -77 0
-2611 181 0
-2612 -90 0
-2612 168 0
-162 2610 2611 2612 0
-2613 -1 0
-2613 241 0
-2614 -19 0
-2614 113 0
-2615 -22 0
-2615 110 0
-163 2613 2614 2615 0
-2616 -2 0
-2616 307 0
-2617 -31 0
-2617 125 0
-2618 -34 0
-2618 122 0
-163 2616 2617 2618 0
-2619 -3 0
-2619 362 0
-2620 -42 0
-2620 136 0
-2621 -45 0
-2621 133 0
-163 2619 2620 2621 0
-2622 -4 0
-2622 407 0
-2623 -52 0
-2623 146 0
-2624 -55 0
-2624 143 0
-163 2622 2623 2624 0
-2625 -5 0
-2625 443 0
-2626 -61 0
-2626 155 0
-2627 -64 0
-2627 152 0
-163 2625 2626 2627 0
-2628 -7 0
-2628 478 0
-2629 -70 0
-2629 170 0
-2630 -79 0
-2630 161 0
-163 2628 2629 2630 0
-2631 -8 0
-2631 484 0
-2632 -71 0
-2632 176 0
-2633 -85 0
-2633 162 0
-163 2631 2632 2633 0
-2634 -10 0
-2634 490 0
-2635 -73 0
-2635 182 0
-2636 -91 0
-2636 164 0
-163 2634 2635 2636 0
-2637 -11 0
-2637 491 0
-2638 -74 0
-2638 183 0
-2639 -92 0
-2639 165 0
-163 2637 2638 2639 0
-2640 -12 0
-2640 492 0
-2641 -75 0
-2641 184 0
-2642 -93 0
-2642 166 0
-163 2640 2641 2642 0
-2643 -13 0
-2643 493 0
-2644 -76 0
-2644 185 0
-2645 -94 0
-2645 167 0
-163 2643 2644 2645 0
-2646 -14 0
-2646 494 0
-2647 -77 0
-2647 186 0
-2648 -95 0
-2648 168 0
-163 2646 2647 2648 0
-2649 -1 0
-2649 242 0
-2650 -19 0
-2650 114 0
-2651 -23 0
-2651 110 0
-164 2649 2650 2651 0
-2652 -2 0
-2652 308 0
-2653 -31 0
-2653 126 0
-2654 -35 0
-2654 122 0
-164 2652 2653 2654 0
-2655 -3 0
-2655 363 0
-2656 -42 0
-2656 137 0
-2657 -46 0
-2657 133 0
-164 2655 2656 2657 0
-2658 -4 0
-2658 408 0
-2659 -52 0
-2659 147 0
-2660 -56 0
-2660 143 0
-164 2658 2659 2660 0
-2661 -5 0
-2661 444 0
-2662 -61 0
-2662 156 0
-2663 -65 0
-2663 152 0
-164 2661 2662 2663 0
-2664 -7 0
-2664 479 0
-2665 -70 0
-2665 171 0
-2666 -80 0
-2666 161 0
-164 2664 2665 2666 0
-2667 -8 0
-2667 485 0
-2668 -71 0
-2668 177 0
-2669 -86 0
-2669 162 0
-164 2667 2668 2669 0
-2670 -9 0
-2670 490 0
-2671 -72 0
-2671 182 0
-2672 -91 0
-2672 163 0
-164 2670 2671 2672 0
-2673 -11 0
-2673 495 0
-2674 -74 0
-2674 187 0
-2675 -96 0
-2675 165 0
-164 2673 2674 2675 0
-2676 -12 0
-2676 496 0
-2677 -75 0
-2677 188 0
-2678 -97 0
-2678 166 0
-164 2676 2677 2678 0
-2679 -13 0
-2679 497 0
-2680 -76 0
-2680 189 0
-2681 -98 0
-2681 167 0
-164 2679 2680 2681 0
-2682 -14 0
-2682 498 0
-2683 -77 0
-2683 190 0
-2684 -99 0
-2684 168 0
-164 2682 2683 2684 0
-2685 -1 0
-2685 243 0
-2686 -19 0
-2686 115 0
-2687 -24 0
-2687 110 0
-165 2685 2686 2687 0
-2688 -2 0
-2688 309 0
-2689 -31 0
-2689 127 0
-2690 -36 0
-2690 122 0
-165 2688 2689 2690 0
-2691 -3 0
-2691 364 0
-2692 -42 0
-2692 138 0
-2693 -47 0
-2693 133 0
-165 2691 2692 2693 0
-2694 -4 0
-2694 409 0
-2695 -52 0
-2695 148 0
-2696 -57 0
-2696 143 0
-165 2694 2695 2696 0
-2697 -5 0
-2697 445 0
-2698 -61 0
-2698 157 0
-2699 -66 0
-2699 152 0
-165 2697 2698 2699 0
-2700 -7 0
-2700 480 0
-2701 -70 0
-2701 172 0
-2702 -81 0
-2702 161 0
-165 2700 2701 2702 0
-2703 -8 0
-2703 486 0
-2704 -71 0
-2704 178 0
-2705 -87 0
-2705 162 0
-165 2703 2704 2705 0
-2706 -9 0
-2706 491 0
-2707 -72 0
-2707 183 0
-2708 -92 0
-2708 163 0
-165 2706 2707 2708 0
-2709 -10 0
-2709 495 0
-2710 -73 0
-2710 187 0
-2711 -96 0
-2711 164 0
-165 2709 2710 2711 0
-2712 -12 0
-2712 499 0
-2713 -75 0
-2713 191 0
-2714 -100 0
-2714 166 0
-165 2712 2713 2714 0
-2715 -13 0
-2715 500 0
-2716 -76 0
-2716 192 0
-2717 -101 0
-2717 167 0
-165 2715 2716 2717 0
-2718 -14 0
-2718 501 0
-2719 -77 0
-2719 193 0
-2720 -102 0
-2720 168 0
-165 2718 2719 2720 0
-2721 -1 0
-2721 244 0
-2722 -19 0
-2722 116 0
-2723 -25 0
-2723 110 0
-166 2721 2722 2723 0
-2724 -2 0
-2724 310 0
-2725 -31 0
-2725 128 0
-2726 -37 0
-2726 122 0
-166 2724 2725 2726 0
-2727 -3 0
-2727 365 0
-2728 -42 0
-2728 139 0
-2729 -48 0
-2729 133 0
-166 2727 2728 2729 0
-2730 -4 0
-2730 410 0
-2731 -52 0
-2731 149 0
-2732 -58 0
-2732 143 0
-166 2730 2731 2732 0
-2733 -5 0
-2733 446 0
-2734 -61 0
-2734 158 0
-2735 -67 0
-2735 152 0
-166 2733 2734 2735 0
-2736 -7 0
-2736 481 0
-2737 -70 0
-2737 173 0
-2738 -82 0
-2738 161 0
-166 2736 2737 2738 0
-2739 -8 0
-2739 487 0
-2740 -71 0
-2740 179 0
-2741 -88 0
-2741 162 0
-166 2739 2740 2741 0
-2742 -9 0
-2742 492 0
-2743 -72 0
-2743 184 0
-2744 -93 0
-2744 163 0
-166 2742 2743 2744 0
-2745 -10 0
-2745 496 0
-2746 -73 0
-2746 188 0
-2747 -97 0
-2747 164 0
-166 2745 2746 2747 0
-2748 -11 0
-2748 499 0
-2749 -74 0
-2749 191 0
-2750 -100 0
-2750 165 0
-166 2748 2749 2750 0
-2751 -13 0
-2751 502 0
-2752 -76 0
-2752 194 0
-2753 -103 0
-2753 167 0
-166 2751 2752 2753 0
-2754 -14 0
-2754 503 0
-2755 -77 0
-2755 195 0
-2756 -104 0
-2756 168 0
-166 2754 2755 2756 0
-2757 -1 0
-2757 245 0
-2758 -19 0
-2758 117 0
-2759 -26 0
-2759 110 0
-167 2757 2758 2759 0
-2760 -2 0
-2760 311 0
-2761 -31 0
-2761 129 0
-2762 -38 0
-2762 122 0
-167 2760 2761 2762 0
-2763 -3 0
-2763 366 0
-2764 -42 0
-2764 140 0
-2765 -49 0
-2765 133 0
-167 2763 2764 2765 0
-2766 -4 0
-2766 411 0
-2767 -52 0
-2767 150 0
-2768 -59 0
-2768 143 0
-167 2766 2767 2768 0
-2769 -5 0
-2769 447 0
-2770 -61 0
-2770 159 0
-2771 -68 0
-2771 152 0
-167 2769 2770 2771 0
-2772 -7 0
-2772 482 0
-2773 -70 0
-2773 174 0
-2774 -83 0
-2774 161 0
-167 2772 2773 2774 0
-2775 -8 0
-2775 488 0
-2776 -71 0
-2776 180 0
-2777 -89 0
-2777 162 0
-167 2775 2776 2777 0
-2778 -9 0
-2778 493 0
-2779 -72 0
-2779 185 0
-2780 -94 0
-2780 163 0
-167 2778 2779 2780 0
-2781 -10 0
-2781 497 0
-2782 -73 0
-2782 189 0
-2783 -98 0
-2783 164 0
-167 2781 2782 2783 0
-2784 -11 0
-2784 500 0
-2785 -74 0
-2785 192 0
-2786 -101 0
-2786 165 0
-167 2784 2785 2786 0
-2787 -12 0
-2787 502 0
-2788 -75 0
-2788 194 0
-2789 -103 0
-2789 166 0
-167 2787 2788 2789 0
-2790 -14 0
-2790 504 0
-2791 -77 0
-2791 196 0
-2792 -105 0
-2792 168 0
-167 2790 2791 2792 0
-2793 -1 0
-2793 246 0
-2794 -19 0
-2794 118 0
-2795 -27 0
-2795 110 0
-168 2793 2794 2795 0
-2796 -2 0
-2796 312 0
-2797 -31 0
-2797 130 0
-2798 -39 0
-2798 122 0
-168 2796 2797 2798 0
-2799 -3 0
-2799 367 0
-2800 -42 0
-2800 141 0
-2801 -50 0
-2801 133 0
-168 2799 2800 2801 0
-2802 -4 0
-2802 412 0
-2803 -52 0
-2803 151 0
-2804 -60 0
-2804 143 0
-168 2802 2803 2804 0
-2805 -5 0
-2805 448 0
-2806 -61 0
-2806 160 0
-2807 -69 0
-2807 152 0
-168 2805 2806 2807 0
-2808 -7 0
-2808 483 0
-2809 -70 0
-2809 175 0
-2810 -84 0
-2810 161 0
-168 2808 2809 2810 0
-2811 -8 0
-2811 489 0
-2812 -71 0
-2812 181 0
-2813 -90 0
-2813 162 0
-168 2811 2812 2813 0
-2814 -9 0
-2814 494 0
-2815 -72 0
-2815 186 0
-2816 -95 0
-2816 163 0
-168 2814 2815 2816 0
-2817 -10 0
-2817 498 0
-2818 -73 0
-2818 190 0
-2819 -99 0
-2819 164 0
-168 2817 2818 2819 0
-2820 -11 0
-2820 501 0
-2821 -74 0
-2821 193 0
-2822 -102 0
-2822 165 0
-168 2820 2821 2822 0
-2823 -12 0
-2823 503 0
-2824 -75 0
-2824 195 0
-2825 -104 0
-2825 166 0
-168 2823 2824 2825 0
-2826 -13 0
-2826 504 0
-2827 -76 0
-2827 196 0
-2828 -105 0
-2828 167 0
-168 2826 2827 2828 0
-2829 -1 0
-2829 247 0
-2830 -20 0
-2830 112 0
-2831 -21 0
-2831 111 0
-169 2829 2830 2831 0
-2832 -2 0
-2832 313 0
-2833 -32 0
-2833 124 0
-2834 -33 0
-2834 123 0
-169 2832 2833 2834 0
-2835 -3 0
-2835 368 0
-2836 -43 0
-2836 135 0
-2837 -44 0
-2837 134 0
-169 2835 2836 2837 0
-2838 -4 0
-2838 413 0
-2839 -53 0
-2839 145 0
-2840 -54 0
-2840 144 0
-169 2838 2839 2840 0
-2841 -5 0
-2841 449 0
-2842 -62 0
-2842 154 0
-2843 -63 0
-2843 153 0
-169 2841 2842 2843 0
-2844 -6 0
-2844 477 0
-2845 -70 0
-2845 162 0
-2846 -71 0
-2846 161 0
-169 2844 2845 2846 0
-2847 -9 0
-2847 505 0
-2848 -79 0
-2848 176 0
-2849 -85 0
-2849 170 0
-169 2847 2848 2849 0
-2850 -10 0
-2850 506 0
-2851 -80 0
-2851 177 0
-2852 -86 0
-2852 171 0
-169 2850 2851 2852 0
-2853 -11 0
-2853 507 0
-2854 -81 0
-2854 178 0
-2855 -87 0
-2855 172 0
-169 2853 2854 2855 0
-2856 -12 0
-2856 508 0
-2857 -82 0
-2857 179 0
-2858 -88 0
-2858 173 0
-169 2856 2857 2858 0
-2859 -13 0
-2859 509 0
-2860 -83 0
-2860 180 0
-2861 -89 0
-2861 174 0
-169 2859 2860 2861 0
-2862 -14 0
-2862 510 0
-2863 -84 0
-2863 181 0
-2864 -90 0
-2864 175 0
-169 2862 2863 2864 0
-2865 -1 0
-2865 248 0
-2866 -20 0
-2866 113 0
-2867 -22 0
-2867 111 0
-170 2865 2866 2867 0
-2868 -2 0
-2868 314 0
-2869 -32 0
-2869 125 0
-2870 -34 0
-2870 123 0
-170 2868 2869 2870 0
-2871 -3 0
-2871 369 0
-2872 -43 0
-2872 136 0
-2873 -45 0
-2873 134 0
-170 2871 2872 2873 0
-2874 -4 0
-2874 414 0
-2875 -53 0
-2875 146 0
-2876 -55 0
-2876 144 0
-170 2874 2875 2876 0
-2877 -5 0
-2877 450 0
-2878 -62 0
-2878 155 0
-2879 -64 0
-2879 153 0
-170 2877 2878 2879 0
-2880 -6 0
-2880 478 0
-2881 -70 0
-2881 163 0
-2882 -72 0
-2882 161 0
-170 2880 2881 2882 0
-2883 -8 0
-2883 505 0
-2884 -78 0
-2884 176 0
-2885 -85 0
-2885 169 0
-170 2883 2884 2885 0
-2886 -10 0
-2886 511 0
-2887 -80 0
-2887 182 0
-2888 -91 0
-2888 171 0
-170 2886 2887 2888 0
-2889 -11 0
-2889 512 0
-2890 -81 0
-2890 183 0
-2891 -92 0
-2891 172 0
-170 2889 2890 2891 0
-2892 -12 0
-2892 513 0
-2893 -82 0
-2893 184 0
-2894 -93 0
-2894 173 0
-170 2892 2893 2894 0
-2895 -13 0
-2895 514 0
-2896 -83 0
-2896 185 0
-2897 -94 0
-2897 174 0
-170 2895 2896 2897 0
-2898 -14 0
-2898 515 0
-2899 -84 0
-2899 186 0
-2900 -95 0
-2900 175 0
-170 2898 2899 2900 0
-2901 -1 0
-2901 249 0
-2902 -20 0
-2902 114 0
-2903 -23 0
-2903 111 0
-171 2901 2902 2903 0
-2904 -2 0
-2904 315 0
-2905 -32 0
-2905 126 0
-2906 -35 0
-2906 123 0
-171 2904 2905 2906 0
-2907 -3 0
-2907 370 0
-2908 -43 0
-2908 137 0
-2909 -46 0
-2909 134 0
-171 2907 2908 2909 0
-2910 -4 0
-2910 415 0
-2911 -53 0
-2911 147 0
-2912 -56 0
-2912 144 0
-171 2910 2911 2912 0
-2913 -5 0
-2913 451 0
-2914 -62 0
-2914 156 0
-2915 -65 0
-2915 153 0
-171 2913 2914 2915 0
-2916 -6 0
-2916 479 0
-2917 -70 0
-2917 164 0
-2918 -73 0
-2918 161 0
-171 2916 2917 2918 0
-2919 -8 0
-2919 506 0
-2920 -78 0
-2920 177 0
-2921 -86 0
-2921 169 0
-171 2919 2920 2921 0
-2922 -9 0
-2922 511 0
-2923 -79 0
-2923 182 0
-2924 -91 0
-2924 170 0
-171 2922 2923 2924 0
-2925 -11 0
-2925 516 0
-2926 -81 0
-2926 187 0
-2927 -96 0
-2927 172 0
-171 2925 2926 2927 0
-2928 -12 0
-2928 517 0
-2929 -82 0
-2929 188 0
-2930 -97 0
-2930 173 0
-171 2928 2929 2930 0
-2931 -13 0
-2931 518 0
-2932 -83 0
-2932 189 0
-2933 -98 0
-2933 174 0
-171 2931 2932 2933 0
-2934 -14 0
-2934 519 0
-2935 -84 0
-2935 190 0
-2936 -99 0
-2936 175 0
-171 2934 2935 2936 0
-2937 -1 0
-2937 250 0
-2938 -20 0
-2938 115 0
-2939 -24 0
-2939 111 0
-172 2937 2938 2939 0
-2940 -2 0
-2940 316 0
-2941 -32 0
-2941 127 0
-2942 -36 0
-2942 123 0
-172 2940 2941 2942 0
-2943 -3 0
-2943 371 0
-2944 -43 0
-2944 138 0
-2945 -47 0
-2945 134 0
-172 2943 2944 2945 0
-2946 -4 0
-2946 416 0
-2947 -53 0
-2947 148 0
-2948 -57 0
-2948 144 0
-172 2946 2947 2948 0
-2949 -5 0
-2949 452 0
-2950 -62 0
-2950 157 0
-2951 -66 0
-2951 153 0
-172 2949 2950 2951 0
-2952 -6 0
-2952 480 0
-2953 -70 0
-2953 165 0
-2954 -74 0
-2954 161 0
-172 2952 2953 2954 0
-2955 -8 0
-2955 507 0
-2956 -78 0
-2956 178 0
-2957 -87 0
-2957 169 0
-172 2955 2956 2957 0
-2958 -9 0
-2958 512 0
-2959 -79 0
-2959 183 0
-2960 -92 0
-2960 170 0
-172 2958 2959 2960 0
-2961 -10 0
-2961 516 0
-2962 -80 0
-2962 187 0
-2963 -96 0
-2963 171 0
-172 2961 2962 2963 0
-2964 -12 0
-2964 520 0
-2965 -82 0
-2965 191 0
-2966 -100 0
-2966 173 0
-172 2964 2965 2966 0
-2967 -13 0
-2967 521 0
-2968 -83 0
-2968 192 0
-2969 -101 0
-2969 174 0
-172 2967 2968 2969 0
-2970 -14 0
-2970 522 0
-2971 -84 0
-2971 193 0
-2972 -102 0
-2972 175 0
-172 2970 2971 2972 0
-2973 -1 0
-2973 251 0
-2974 -20 0
-2974 116 0
-2975 -25 0
-2975 111 0
-173 2973 2974 2975 0
-2976 -2 0
-2976 317 0
-2977 -32 0
-2977 128 0
-2978 -37 0
-2978 123 0
-173 2976 2977 2978 0
-2979 -3 0
-2979 372 0
-2980 -43 0
-2980 139 0
-2981 -48 0
-2981 134 0
-173 2979 2980 2981 0
-2982 -4 0
-2982 417 0
-2983 -53 0
-2983 149 0
-2984 -58 0
-2984 144 0
-173 2982 2983 2984 0
-2985 -5 0
-2985 453 0
-2986 -62 0
-2986 158 0
-2987 -67 0
-2987 153 0
-173 2985 2986 2987 0
-2988 -6 0
-2988 481 0
-2989 -70 0
-2989 166 0
-2990 -75 0
-2990 161 0
-173 2988 2989 2990 0
-2991 -8 0
-2991 508 0
-2992 -78 0
-2992 179 0
-2993 -88 0
-2993 169 0
-173 2991 2992 2993 0
-2994 -9 0
-2994 513 0
-2995 -79 0
-2995 184 0
-2996 -93 0
-2996 170 0
-173 2994 2995 2996 0
-2997 -10 0
-2997 517 0
-2998 -80 0
-2998 188 0
-2999 -97 0
-2999 171 0
-173 2997 2998 2999 0
-3000 -11 0
-3000 520 0
-3001 -81 0
-3001 191 0
-3002 -100 0
-3002 172 0
-173 3000 3001 3002 0
-3003 -13 0
-3003 523 0
-3004 -83 0
-3004 194 0
-3005 -103 0
-3005 174 0
-173 3003 3004 3005 0
-3006 -14 0
-3006 524 0
-3007 -84 0
-3007 195 0
-3008 -104 0
-3008 175 0
-173 3006 3007 3008 0
-3009 -1 0
-3009 252 0
-3010 -20 0
-3010 117 0
-3011 -26 0
-3011 111 0
-174 3009 3010 3011 0
-3012 -2 0
-3012 318 0
-3013 -32 0
-3013 129 0
-3014 -38 0
-3014 123 0
-174 3012 3013 3014 0
-3015 -3 0
-3015 373 0
-3016 -43 0
-3016 140 0
-3017 -49 0
-3017 134 0
-174 3015 3016 3017 0
-3018 -4 0
-3018 418 0
-3019 -53 0
-3019 150 0
-3020 -59 0
-3020 144 0
-174 3018 3019 3020 0
-3021 -5 0
-3021 454 0
-3022 -62 0
-3022 159 0
-3023 -68 0
-3023 153 0
-174 3021 3022 3023 0
-3024 -6 0
-3024 482 0
-3025 -70 0
-3025 167 0
-3026 -76 0
-3026 161 0
-174 3024 3025 3026 0
-3027 -8 0
-3027 509 0
-3028 -78 0
-3028 180 0
-3029 -89 0
-3029 169 0
-174 3027 3028 3029 0
-3030 -9 0
-3030 514 0
-3031 -79 0
-3031 185 0
-3032 -94 0
-3032 170 0
-174 3030 3031 3032 0
-3033 -10 0
-3033 518 0
-3034 -80 0
-3034 189 0
-3035 -98 0
-3035 171 0
-174 3033 3034 3035 0
-3036 -11 0
-3036 521 0
-3037 -81 0
-3037 192 0
-3038 -101 0
-3038 172 0
-174 3036 3037 3038 0
-3039 -12 0
-3039 523 0
-3040 -82 0
-3040 194 0
-3041 -103 0
-3041 173 0
-174 3039 3040 3041 0
-3042 -14 0
-3042 525 0
-3043 -84 0
-3043 196 0
-3044 -105 0
-3044 175 0
-174 3042 3043 3044 0
-3045 -1 0
-3045 253 0
-3046 -20 0
-3046 118 0
-3047 -27 0
-3047 111 0
-175 3045 3046 3047 0
-3048 -2 0
-3048 319 0
-3049 -32 0
-3049 130 0
-3050 -39 0
-3050 123 0
-175 3048 3049 3050 0
-3051 -3 0
-3051 374 0
-3052 -43 0
-3052 141 0
-3053 -50 0
-3053 134 0
-175 3051 3052 3053 0
-3054 -4 0
-3054 419 0
-3055 -53 0
-3055 151 0
-3056 -60 0
-3056 144 0
-175 3054 3055 3056 0
-3057 -5 0
-3057 455 0
-3058 -62 0
-3058 160 0
-3059 -69 0
-3059 153 0
-175 3057 3058 3059 0
-3060 -6 0
-3060 483 0
-3061 -70 0
-3061 168 0
-3062 -77 0
-3062 161 0
-175 3060 3061 3062 0
-3063 -8 0
-3063 510 0
-3064 -78 0
-3064 181 0
-3065 -90 0
-3065 169 0
-175 3063 3064 3065 0
-3066 -9 0
-3066 515 0
-3067 -79 0
-3067 186 0
-3068 -95 0
-3068 170 0
-175 3066 3067 3068 0
-3069 -10 0
-3069 519 0
-3070 -80 0
-3070 190 0
-3071 -99 0
-3071 171 0
-175 3069 3070 3071 0
-3072 -11 0
-3072 522 0
-3073 -81 0
-3073 193 0
-3074 -102 0
-3074 172 0
-175 3072 3073 3074 0
-3075 -12 0
-3075 524 0
-3076 -82 0
-3076 195 0
-3077 -104 0
-3077 173 0
-175 3075 3076 3077 0
-3078 -13 0
-3078 525 0
-3079 -83 0
-3079 196 0
-3080 -105 0
-3080 174 0
-175 3078 3079 3080 0
-3081 -1 0
-3081 254 0
-3082 -21 0
-3082 113 0
-3083 -22 0
-3083 112 0
-176 3081 3082 3083 0
-3084 -2 0
-3084 320 0
-3085 -33 0
-3085 125 0
-3086 -34 0
-3086 124 0
-176 3084 3085 3086 0
-3087 -3 0
-3087 375 0
-3088 -44 0
-3088 136 0
-3089 -45 0
-3089 135 0
-176 3087 3088 3089 0
-3090 -4 0
-3090 420 0
-3091 -54 0
-3091 146 0
-3092 -55 0
-3092 145 0
-176 3090 3091 3092 0
-3093 -5 0
-3093 456 0
-3094 -63 0
-3094 155 0
-3095 -64 0
-3095 154 0
-176 3093 3094 3095 0
-3096 -6 0
-3096 484 0
-3097 -71 0
-3097 163 0
-3098 -72 0
-3098 162 0
-176 3096 3097 3098 0
-3099 -7 0
-3099 505 0
-3100 -78 0
-3100 170 0
-3101 -79 0
-3101 169 0
-176 3099 3100 3101 0
-3102 -10 0
-3102 526 0
-3103 -86 0
-3103 182 0
-3104 -91 0
-3104 177 0
-176 3102 3103 3104 0
-3105 -11 0
-3105 527 0
-3106 -87 0
-3106 183 0
-3107 -92 0
-3107 178 0
-176 3105 3106 3107 0
-3108 -12 0
-3108 528 0
-3109 -88 0
-3109 184 0
-3110 -93 0
-3110 179 0
-176 3108 3109 3110 0
-3111 -13 0
-3111 529 0
-3112 -89 0
-3112 185 0
-3113 -94 0
-3113 180 0
-176 3111 3112 3113 0
-3114 -14 0
-3114 530 0
-3115 -90 0
-3115 186 0
-3116 -95 0
-3116 181 0
-176 3114 3115 3116 0
-3117 -1 0
-3117 255 0
-3118 -21 0
-3118 114 0
-3119 -23 0
-3119 112 0
-177 3117 3118 3119 0
-3120 -2 0
-3120 321 0
-3121 -33 0
-3121 126 0
-3122 -35 0
-3122 124 0
-177 3120 3121 3122 0
-3123 -3 0
-3123 376 0
-3124 -44 0
-3124 137 0
-3125 -46 0
-3125 135 0
-177 3123 3124 3125 0
-3126 -4 0
-3126 421 0
-3127 -54 0
-3127 147 0
-3128 -56 0
-3128 145 0
-177 3126 3127 3128 0
-3129 -5 0
-3129 457 0
-3130 -63 0
-3130 156 0
-3131 -65 0
-3131 154 0
-177 3129 3130 3131 0
-3132 -6 0
-3132 485 0
-3133 -71 0
-3133 164 0
-3134 -73 0
-3134 162 0
-177 3132 3133 3134 0
-3135 -7 0
-3135 506 0
-3136 -78 0
-3136 171 0
-3137 -80 0
-3137 169 0
-177 3135 3136 3137 0
-3138 -9 0
-3138 526 0
-3139 -85 0
-3139 182 0
-3140 -91 0
-3140 176 0
-177 3138 3139 3140 0
-3141 -11 0
-3141 531 0
-3142 -87 0
-3142 187 0
-3143 -96 0
-3143 178 0
-177 3141 3142 3143 0
-3144 -12 0
-3144 532 0
-3145 -88 0
-3145 188 0
-3146 -97 0
-3146 179 0
-177 3144 3145 3146 0
-3147 -13 0
-3147 533 0
-3148 -89 0
-3148 189 0
-3149 -98 0
-3149 180 0
-177 3147 3148 3149 0
-3150 -14 0
-3150 534 0
-3151 -90 0
-3151 190 0
-3152 -99 0
-3152 181 0
-177 3150 3151 3152 0
-3153 -1 0
-3153 256 0
-3154 -21 0
-3154 115 0
-3155 -24 0
-3155 112 0
-178 3153 3154 3155 0
-3156 -2 0
-3156 322 0
-3157 -33 0
-3157 127 0
-3158 -36 0
-3158 124 0
-178 3156 3157 3158 0
-3159 -3 0
-3159 377 0
-3160 -44 0
-3160 138 0
-3161 -47 0
-3161 135 0
-178 3159 3160 3161 0
-3162 -4 0
-3162 422 0
-3163 -54 0
-3163 148 0
-3164 -57 0
-3164 145 0
-178 3162 3163 3164 0
-3165 -5 0
-3165 458 0
-3166 -63 0
-3166 157 0
-3167 -66 0
-3167 154 0
-178 3165 3166 3167 0
-3168 -6 0
-3168 486 0
-3169 -71 0
-3169 165 0
-3170 -74 0
-3170 162 0
-178 3168 3169 3170 0
-3171 -7 0
-3171 507 0
-3172 -78 0
-3172 172 0
-3173 -81 0
-3173 169 0
-178 3171 3172 3173 0
-3174 -9 0
-3174 527 0
-3175 -85 0
-3175 183 0
-3176 -92 0
-3176 176 0
-178 3174 3175 3176 0
-3177 -10 0
-3177 531 0
-3178 -86 0
-3178 187 0
-3179 -96 0
-3179 177 0
-178 3177 3178 3179 0
-3180 -12 0
-3180 535 0
-3181 -88 0
-3181 191 0
-3182 -100 0
-3182 179 0
-178 3180 3181 3182 0
-3183 -13 0
-3183 536 0
-3184 -89 0
-3184 192 0
-3185 -101 0
-3185 180 0
-178 3183 3184 3185 0
-3186 -14 0
-3186 537 0
-3187 -90 0
-3187 193 0
-3188 -102 0
-3188 181 0
-178 3186 3187 3188 0
-3189 -1 0
-3189 257 0
-3190 -21 0
-3190 116 0
-3191 -25 0
-3191 112 0
-179 3189 3190 3191 0
-3192 -2 0
-3192 323 0
-3193 -33 0
-3193 128 0
-3194 -37 0
-3194 124 0
-179 3192 3193 3194 0
-3195 -3 0
-3195 378 0
-3196 -44 0
-3196 139 0
-3197 -48 0
-3197 135 0
-179 3195 3196 3197 0
-3198 -4 0
-3198 423 0
-3199 -54 0
-3199 149 0
-3200 -58 0
-3200 145 0
-179 3198 3199 3200 0
-3201 -5 0
-3201 459 0
-3202 -63 0
-3202 158 0
-3203 -67 0
-3203 154 0
-179 3201 3202 3203 0
-3204 -6 0
-3204 487 0
-3205 -71 0
-3205 166 0
-3206 -75 0
-3206 162 0
-179 3204 3205 3206 0
-3207 -7 0
-3207 508 0
-3208 -78 0
-3208 173 0
-3209 -82 0
-3209 169 0
-179 3207 3208 3209 0
-3210 -9 0
-3210 528 0
-3211 -85 0
-3211 184 0
-3212 -93 0
-3212 176 0
-179 3210 3211 3212 0
-3213 -10 0
-3213 532 0
-3214 -86 0
-3214 188 0
-3215 -97 0
-3215 177 0
-179 3213 3214 3215 0
-3216 -11 0
-3216 535 0
-3217 -87 0
-3217 191 0
-3218 -100 0
-3218 178 0
-179 3216 3217 3218 0
-3219 -13 0
-3219 538 0
-3220 -89 0
-3220 194 0
-3221 -103 0
-3221 180 0
-179 3219 3220 3221 0
-3222 -14 0
-3222 539 0
-3223 -90 0
-3223 195 0
-3224 -104 0
-3224 181 0
-179 3222 3223 3224 0
-3225 -1 0
-3225 258 0
-3226 -21 0
-3226 117 0
-3227 -26 0
-3227 112 0
-180 3225 3226 3227 0
-3228 -2 0
-3228 324 0
-3229 -33 0
-3229 129 0
-3230 -38 0
-3230 124 0
-180 3228 3229 3230 0
-3231 -3 0
-3231 379 0
-3232 -44 0
-3232 140 0
-3233 -49 0
-3233 135 0
-180 3231 3232 3233 0
-3234 -4 0
-3234 424 0
-3235 -54 0
-3235 150 0
-3236 -59 0
-3236 145 0
-180 3234 3235 3236 0
-3237 -5 0
-3237 460 0
-3238 -63 0
-3238 159 0
-3239 -68 0
-3239 154 0
-180 3237 3238 3239 0
-3240 -6 0
-3240 488 0
-3241 -71 0
-3241 167 0
-3242 -76 0
-3242 162 0
-180 3240 3241 3242 0
-3243 -7 0
-3243 509 0
-3244 -78 0
-3244 174 0
-3245 -83 0
-3245 169 0
-180 3243 3244 3245 0
-3246 -9 0
-3246 529 0
-3247 -85 0
-3247 185 0
-3248 -94 0
-3248 176 0
-180 3246 3247 3248 0
-3249 -10 0
-3249 533 0
-3250 -86 0
-3250 189 0
-3251 -98 0
-3251 177 0
-180 3249 3250 3251 0
-3252 -11 0
-3252 536 0
-3253 -87 0
-3253 192 0
-3254 -101 0
-3254 178 0
-180 3252 3253 3254 0
-3255 -12 0
-3255 538 0
-3256 -88 0
-3256 194 0
-3257 -103 0
-3257 179 0
-180 3255 3256 3257 0
-3258 -14 0
-3258 540 0
-3259 -90 0
-3259 196 0
-3260 -105 0
-3260 181 0
-180 3258 3259 3260 0
-3261 -1 0
-3261 259 0
-3262 -21 0
-3262 118 0
-3263 -27 0
-3263 112 0
-181 3261 3262 3263 0
-3264 -2 0
-3264 325 0
-3265 -33 0
-3265 130 0
-3266 -39 0
-3266 124 0
-181 3264 3265 3266 0
-3267 -3 0
-3267 380 0
-3268 -44 0
-3268 141 0
-3269 -50 0
-3269 135 0
-181 3267 3268 3269 0
-3270 -4 0
-3270 425 0
-3271 -54 0
-3271 151 0
-3272 -60 0
-3272 145 0
-181 3270 3271 3272 0
-3273 -5 0
-3273 461 0
-3274 -63 0
-3274 160 0
-3275 -69 0
-3275 154 0
-181 3273 3274 3275 0
-3276 -6 0
-3276 489 0
-3277 -71 0
-3277 168 0
-3278 -77 0
-3278 162 0
-181 3276 3277 3278 0
-3279 -7 0
-3279 510 0
-3280 -78 0
-3280 175 0
-3281 -84 0
-3281 169 0
-181 3279 3280 3281 0
-3282 -9 0
-3282 530 0
-3283 -85 0
-3283 186 0
-3284 -95 0
-3284 176 0
-181 3282 3283 3284 0
-3285 -10 0
-3285 534 0
-3286 -86 0
-3286 190 0
-3287 -99 0
-3287 177 0
-181 3285 3286 3287 0
-3288 -11 0
-3288 537 0
-3289 -87 0
-3289 193 0
-3290 -102 0
-3290 178 0
-181 3288 3289 3290 0
-3291 -12 0
-3291 539 0
-3292 -88 0
-3292 195 0
-3293 -104 0
-3293 179 0
-181 3291 3292 3293 0
-3294 -13 0
-3294 540 0
-3295 -89 0
-3295 196 0
-3296 -105 0
-3296 180 0
-181 3294 3295 3296 0
-3297 -1 0
-3297 260 0
-3298 -22 0
-3298 114 0
-3299 -23 0
-3299 113 0
-182 3297 3298 3299 0
-3300 -2 0
-3300 326 0
-3301 -34 0
-3301 126 0
-3302 -35 0
-3302 125 0
-182 3300 3301 3302 0
-3303 -3 0
-3303 381 0
-3304 -45 0
-3304 137 0
-3305 -46 0
-3305 136 0
-182 3303 3304 3305 0
-3306 -4 0
-3306 426 0
-3307 -55 0
-3307 147 0
-3308 -56 0
-3308 146 0
-182 3306 3307 3308 0
-3309 -5 0
-3309 462 0
-3310 -64 0
-3310 156 0
-3311 -65 0
-3311 155 0
-182 3309 3310 3311 0
-3312 -6 0
-3312 490 0
-3313 -72 0
-3313 164 0
-3314 -73 0
-3314 163 0
-182 3312 3313 3314 0
-3315 -7 0
-3315 511 0
-3316 -79 0
-3316 171 0
-3317 -80 0
-3317 170 0
-182 3315 3316 3317 0
-3318 -8 0
-3318 526 0
-3319 -85 0
-3319 177 0
-3320 -86 0
-3320 176 0
-182 3318 3319 3320 0
-3321 -11 0
-3321 541 0
-3322 -92 0
-3322 187 0
-3323 -96 0
-3323 183 0
-182 3321 3322 3323 0
-3324 -12 0
-3324 542 0
-3325 -93 0
-3325 188 0
-3326 -97 0
-3326 184 0
-182 3324 3325 3326 0
-3327 -13 0
-3327 543 0
-3328 -94 0
-3328 189 0
-3329 -98 0
-3329 185 0
-182 3327 3328 3329 0
-3330 -14 0
-3330 544 0
-3331 -95 0
-3331 190 0
-3332 -99 0
-3332 186 0
-182 3330 3331 3332 0
-3333 -1 0
-3333 261 0
-3334 -22 0
-3334 115 0
-3335 -24 0
-3335 113 0
-183 3333 3334 3335 0
-3336 -2 0
-3336 327 0
-3337 -34 0
-3337 127 0
-3338 -36 0
-3338 125 0
-183 3336 3337 3338 0
-3339 -3 0
-3339 382 0
-3340 -45 0
-3340 138 0
-3341 -47 0
-3341 136 0
-183 3339 3340 3341 0
-3342 -4 0
-3342 427 0
-3343 -55 0
-3343 148 0
-3344 -57 0
-3344 146 0
-183 3342 3343 3344 0
-3345 -5 0
-3345 463 0
-3346 -64 0
-3346 157 0
-3347 -66 0
-3347 155 0
-183 3345 3346 3347 0
-3348 -6 0
-3348 491 0
-3349 -72 0
-3349 165 0
-3350 -74 0
-3350 163 0
-183 3348 3349 3350 0
-3351 -7 0
-3351 512 0
-3352 -79 0
-3352 172 0
-3353 -81 0
-3353 170 0
-183 3351 3352 3353 0
-3354 -8 0
-3354 527 0
-3355 -85 0
-3355 178 0
-3356 -87 0
-3356 176 0
-183 3354 3355 3356 0
-3357 -10 0
-3357 541 0
-3358 -91 0
-3358 187 0
-3359 -96 0
-3359 182 0
-183 3357 3358 3359 0
-3360 -12 0
-3360 545 0
-3361 -93 0
-3361 191 0
-3362 -100 0
-3362 184 0
-183 3360 3361 3362 0
-3363 -13 0
-3363 546 0
-3364 -94 0
-3364 192 0
-3365 -101 0
-3365 185 0
-183 3363 3364 3365 0
-3366 -14 0
-3366 547 0
-3367 -95 0
-3367 193 0
-3368 -102 0
-3368 186 0
-183 3366 3367 3368 0
-3369 -1 0
-3369 262 0
-3370 -22 0
-3370 116 0
-3371 -25 0
-3371 113 0
-184 3369 3370 3371 0
-3372 -2 0
-3372 328 0
-3373 -34 0
-3373 128 0
-3374 -37 0
-3374 125 0
-184 3372 3373 3374 0
-3375 -3 0
-3375 383 0
-3376 -45 0
-3376 139 0
-3377 -48 0
-3377 136 0
-184 3375 3376 3377 0
-3378 -4 0
-3378 428 0
-3379 -55 0
-3379 149 0
-3380 -58 0
-3380 146 0
-184 3378 3379 3380 0
-3381 -5 0
-3381 464 0
-3382 -64 0
-3382 158 0
-3383 -67 0
-3383 155 0
-184 3381 3382 3383 0
-3384 -6 0
-3384 492 0
-3385 -72 0
-3385 166 0
-3386 -75 0
-3386 163 0
-184 3384 3385 3386 0
-3387 -7 0
-3387 513 0
-3388 -79 0
-3388 173 0
-3389 -82 0
-3389 170 0
-184 3387 3388 3389 0
-3390 -8 0
-3390 528 0
-3391 -85 0
-3391 179 0
-3392 -88 0
-3392 176 0
-184 3390 3391 3392 0
-3393 -10 0
-3393 542 0
-3394 -91 0
-3394 188 0
-3395 -97 0
-3395 182 0
-184 3393 3394 3395 0
-3396 -11 0
-3396 545 0
-3397 -92 0
-3397 191 0
-3398 -100 0
-3398 183 0
-184 3396 3397 3398 0
-3399 -13 0
-3399 548 0
-3400 -94 0
-3400 194 0
-3401 -103 0
-3401 185 0
-184 3399 3400 3401 0
-3402 -14 0
-3402 549 0
-3403 -95 0
-3403 195 0
-3404 -104 0
-3404 186 0
-184 3402 3403 3404 0
-3405 -1 0
-3405 263 0
-3406 -22 0
-3406 117 0
-3407 -26 0
-3407 113 0
-185 3405 3406 3407 0
-3408 -2 0
-3408 329 0
-3409 -34 0
-3409 129 0
-3410 -38 0
-3410 125 0
-185 3408 3409 3410 0
-3411 -3 0
-3411 384 0
-3412 -45 0
-3412 140 0
-3413 -49 0
-3413 136 0
-185 3411 3412 3413 0
-3414 -4 0
-3414 429 0
-3415 -55 0
-3415 150 0
-3416 -59 0
-3416 146 0
-185 3414 3415 3416 0
-3417 -5 0
-3417 465 0
-3418 -64 0
-3418 159 0
-3419 -68 0
-3419 155 0
-185 3417 3418 3419 0
-3420 -6 0
-3420 493 0
-3421 -72 0
-3421 167 0
-3422 -76 0
-3422 163 0
-185 3420 3421 3422 0
-3423 -7 0
-3423 514 0
-3424 -79 0
-3424 174 0
-3425 -83 0
-3425 170 0
-185 3423 3424 3425 0
-3426 -8 0
-3426 529 0
-3427 -85 0
-3427 180 0
-3428 -89 0
-3428 176 0
-185 3426 3427 3428 0
-3429 -10 0
-3429 543 0
-3430 -91 0
-3430 189 0
-3431 -98 0
-3431 182 0
-185 3429 3430 3431 0
-3432 -11 0
-3432 546 0
-3433 -92 0
-3433 192 0
-3434 -101 0
-3434 183 0
-185 3432 3433 3434 0
-3435 -12 0
-3435 548 0
-3436 -93 0
-3436 194 0
-3437 -103 0
-3437 184 0
-185 3435 3436 3437 0
-3438 -14 0
-3438 550 0
-3439 -95 0
-3439 196 0
-3440 -105 0
-3440 186 0
-185 3438 3439 3440 0
-3441 -1 0
-3441 264 0
-3442 -22 0
-3442 118 0
-3443 -27 0
-3443 113 0
-186 3441 3442 3443 0
-3444 -2 0
-3444 330 0
-3445 -34 0
-3445 130 0
-3446 -39 0
-3446 125 0
-186 3444 3445 3446 0
-3447 -3 0
-3447 385 0
-3448 -45 0
-3448 141 0
-3449 -50 0
-3449 136 0
-186 3447 3448 3449 0
-3450 -4 0
-3450 430 0
-3451 -55 0
-3451 151 0
-3452 -60 0
-3452 146 0
-186 3450 3451 3452 0
-3453 -5 0
-3453 466 0
-3454 -64 0
-3454 160 0
-3455 -69 0
-3455 155 0
-186 3453 3454 3455 0
-3456 -6 0
-3456 494 0
-3457 -72 0
-3457 168 0
-3458 -77 0
-3458 163 0
-186 3456 3457 3458 0
-3459 -7 0
-3459 515 0
-3460 -79 0
-3460 175 0
-3461 -84 0
-3461 170 0
-186 3459 3460 3461 0
-3462 -8 0
-3462 530 0
-3463 -85 0
-3463 181 0
-3464 -90 0
-3464 176 0
-186 3462 3463 3464 0
-3465 -10 0
-3465 544 0
-3466 -91 0
-3466 190 0
-3467 -99 0
-3467 182 0
-186 3465 3466 3467 0
-3468 -11 0
-3468 547 0
-3469 -92 0
-3469 193 0
-3470 -102 0
-3470 183 0
-186 3468 3469 3470 0
-3471 -12 0
-3471 549 0
-3472 -93 0
-3472 195 0
-3473 -104 0
-3473 184 0
-186 3471 3472 3473 0
-3474 -13 0
-3474 550 0
-3475 -94 0
-3475 196 0
-3476 -105 0
-3476 185 0
-186 3474 3475 3476 0
-3477 -1 0
-3477 265 0
-3478 -23 0
-3478 115 0
-3479 -24 0
-3479 114 0
-187 3477 3478 3479 0
-3480 -2 0
-3480 331 0
-3481 -35 0
-3481 127 0
-3482 -36 0
-3482 126 0
-187 3480 3481 3482 0
-3483 -3 0
-3483 386 0
-3484 -46 0
-3484 138 0
-3485 -47 0
-3485 137 0
-187 3483 3484 3485 0
-3486 -4 0
-3486 431 0
-3487 -56 0
-3487 148 0
-3488 -57 0
-3488 147 0
-187 3486 3487 3488 0
-3489 -5 0
-3489 467 0
-3490 -65 0
-3490 157 0
-3491 -66 0
-3491 156 0
-187 3489 3490 3491 0
-3492 -6 0
-3492 495 0
-3493 -73 0
-3493 165 0
-3494 -74 0
-3494 164 0
-187 3492 3493 3494 0
-3495 -7 0
-3495 516 0
-3496 -80 0
-3496 172 0
-3497 -81 0
-3497 171 0
-187 3495 3496 3497 0
-3498 -8 0
-3498 531 0
-3499 -86 0
-3499 178 0
-3500 -87 0
-3500 177 0
-187 3498 3499 3500 0
-3501 -9 0
-3501 541 0
-3502 -91 0
-3502 183 0
-3503 -92 0
-3503 182 0
-187 3501 3502 3503 0
-3504 -12 0
-3504 551 0
-3505 -97 0
-3505 191 0
-3506 -100 0
-3506 188 0
-187 3504 3505 3506 0
-3507 -13 0
-3507 552 0
-3508 -98 0
-3508 192 0
-3509 -101 0
-3509 189 0
-187 3507 3508 3509 0
-3510 -14 0
-3510 553 0
-3511 -99 0
-3511 193 0
-3512 -102 0
-3512 190 0
-187 3510 3511 3512 0
-3513 -1 0
-3513 266 0
-3514 -23 0
-3514 116 0
-3515 -25 0
-3515 114 0
-188 3513 3514 3515 0
-3516 -2 0
-3516 332 0
-3517 -35 0
-3517 128 0
-3518 -37 0
-3518 126 0
-188 3516 3517 3518 0
-3519 -3 0
-3519 387 0
-3520 -46 0
-3520 139 0
-3521 -48 0
-3521 137 0
-188 3519 3520 3521 0
-3522 -4 0
-3522 432 0
-3523 -56 0
-3523 149 0
-3524 -58 0
-3524 147 0
-188 3522 3523 3524 0
-3525 -5 0
-3525 468 0
-3526 -65 0
-3526 158 0
-3527 -67 0
-3527 156 0
-188 3525 3526 3527 0
-3528 -6 0
-3528 496 0
-3529 -73 0
-3529 166 0
-3530 -75 0
-3530 164 0
-188 3528 3529 3530 0
-3531 -7 0
-3531 517 0
-3532 -80 0
-3532 173 0
-3533 -82 0
-3533 171 0
-188 3531 3532 3533 0
-3534 -8 0
-3534 532 0
-3535 -86 0
-3535 179 0
-3536 -88 0
-3536 177 0
-188 3534 3535 3536 0
-3537 -9 0
-3537 542 0
-3538 -91 0
-3538 184 0
-3539 -93 0
-3539 182 0
-188 3537 3538 3539 0
-3540 -11 0
-3540 551 0
-3541 -96 0
-3541 191 0
-3542 -100 0
-3542 187 0
-188 3540 3541 3542 0
-3543 -13 0
-3543 554 0
-3544 -98 0
-3544 194 0
-3545 -103 0
-3545 189 0
-188 3543 3544 3545 0
-3546 -14 0
-3546 555 0
-3547 -99 0
-3547 195 0
-3548 -104 0
-3548 190 0
-188 3546 3547 3548 0
-3549 -1 0
-3549 267 0
-3550 -23 0
-3550 117 0
-3551 -26 0
-3551 114 0
-189 3549 3550 3551 0
-3552 -2 0
-3552 333 0
-3553 -35 0
-3553 129 0
-3554 -38 0
-3554 126 0
-189 3552 3553 3554 0
-3555 -3 0
-3555 388 0
-3556 -46 0
-3556 140 0
-3557 -49 0
-3557 137 0
-189 3555 3556 3557 0
-3558 -4 0
-3558 433 0
-3559 -56 0
-3559 150 0
-3560 -59 0
-3560 147 0
-189 3558 3559 3560 0
-3561 -5 0
-3561 469 0
-3562 -65 0
-3562 159 0
-3563 -68 0
-3563 156 0
-189 3561 3562 3563 0
-3564 -6 0
-3564 497 0
-3565 -73 0
-3565 167 0
-3566 -76 0
-3566 164 0
-189 3564 3565 3566 0
-3567 -7 0
-3567 518 0
-3568 -80 0
-3568 174 0
-3569 -83 0
-3569 171 0
-189 3567 3568 3569 0
-3570 -8 0
-3570 533 0
-3571 -86 0
-3571 180 0
-3572 -89 0
-3572 177 0
-189 3570 3571 3572 0
-3573 -9 0
-3573 543 0
-3574 -91 0
-3574 185 0
-3575 -94 0
-3575 182 0
-189 3573 3574 3575 0
-3576 -11 0
-3576 552 0
-3577 -96 0
-3577 192 0
-3578 -101 0
-3578 187 0
-189 3576 3577 3578 0
-3579 -12 0
-3579 554 0
-3580 -97 0
-3580 194 0
-3581 -103 0
-3581 188 0
-189 3579 3580 3581 0
-3582 -14 0
-3582 556 0
-3583 -99 0
-3583 196 0
-3584 -105 0
-3584 190 0
-189 3582 3583 3584 0
-3585 -1 0
-3585 268 0
-3586 -23 0
-3586 118 0
-3587 -27 0
-3587 114 0
-190 3585 3586 3587 0
-3588 -2 0
-3588 334 0
-3589 -35 0
-3589 130 0
-3590 -39 0
-3590 126 0
-190 3588 3589 3590 0
-3591 -3 0
-3591 389 0
-3592 -46 0
-3592 141 0
-3593 -50 0
-3593 137 0
-190 3591 3592 3593 0
-3594 -4 0
-3594 434 0
-3595 -56 0
-3595 151 0
-3596 -60 0
-3596 147 0
-190 3594 3595 3596 0
-3597 -5 0
-3597 470 0
-3598 -65 0
-3598 160 0
-3599 -69 0
-3599 156 0
-190 3597 3598 3599 0
-3600 -6 0
-3600 498 0
-3601 -73 0
-3601 168 0
-3602 -77 0
-3602 164 0
-190 3600 3601 3602 0
-3603 -7 0
-3603 519 0
-3604 -80 0
-3604 175 0
-3605 -84 0
-3605 171 0
-190 3603 3604 3605 0
-3606 -8 0
-3606 534 0
-3607 -86 0
-3607 181 0
-3608 -90 0
-3608 177 0
-190 3606 3607 3608 0
-3609 -9 0
-3609 544 0
-3610 -91 0
-3610 186 0
-3611 -95 0
-3611 182 0
-190 3609 3610 3611 0
-3612 -11 0
-3612 553 0
-3613 -96 0
-3613 193 0
-3614 -102 0
-3614 187 0
-190 3612 3613 3614 0
-3615 -12 0
-3615 555 0
-3616 -97 0
-3616 195 0
-3617 -104 0
-3617 188 0
-190 3615 3616 3617 0
-3618 -13 0
-3618 556 0
-3619 -98 0
-3619 196 0
-3620 -105 0
-3620 189 0
-190 3618 3619 3620 0
-3621 -1 0
-3621 269 0
-3622 -24 0
-3622 116 0
-3623 -25 0
-3623 115 0
-191 3621 3622 3623 0
-3624 -2 0
-3624 335 0
-3625 -36 0
-3625 128 0
-3626 -37 0
-3626 127 0
-191 3624 3625 3626 0
-3627 -3 0
-3627 390 0
-3628 -47 0
-3628 139 0
-3629 -48 0
-3629 138 0
-191 3627 3628 3629 0
-3630 -4 0
-3630 435 0
-3631 -57 0
-3631 149 0
-3632 -58 0
-3632 148 0
-191 3630 3631 3632 0
-3633 -5 0
-3633 471 0
-3634 -66 0
-3634 158 0
-3635 -67 0
-3635 157 0
-191 3633 3634 3635 0
-3636 -6 0
-3636 499 0
-3637 -74 0
-3637 166 0
-3638 -75 0
-3638 165 0
-191 3636 3637 3638 0
-3639 -7 0
-3639 520 0
-3640 -81 0
-3640 173 0
-3641 -82 0
-3641 172 0
-191 3639 3640 3641 0
-3642 -8 0
-3642 535 0
-3643 -87 0
-3643 179 0
-3644 -88 0
-3644 178 0
-191 3642 3643 3644 0
-3645 -9 0
-3645 545 0
-3646 -92 0
-3646 184 0
-3647 -93 0
-3647 183 0
-191 3645 3646 3647 0
-3648 -10 0
-3648 551 0
-3649 -96 0
-3649 188 0
-3650 -97 0
-3650 187 0
-191 3648 3649 3650 0
-3651 -13 0
-3651 557 0
-3652 -101 0
-3652 194 0
-3653 -103 0
-3653 192 0
-191 3651 3652 3653 0
-3654 -14 0
-3654 558 0
-3655 -102 0
-3655 195 0
-3656 -104 0
-3656 193 0
-191 3654 3655 3656 0
-3657 -1 0
-3657 270 0
-3658 -24 0
-3658 117 0
-3659 -26 0
-3659 115 0
-192 3657 3658 3659 0
-3660 -2 0
-3660 336 0
-3661 -36 0
-3661 129 0
-3662 -38 0
-3662 127 0
-192 3660 3661 3662 0
-3663 -3 0
-3663 391 0
-3664 -47 0
-3664 140 0
-3665 -49 0
-3665 138 0
-192 3663 3664 3665 0
-3666 -4 0
-3666 436 0
-3667 -57 0
-3667 150 0
-3668 -59 0
-3668 148 0
-192 3666 3667 3668 0
-3669 -5 0
-3669 472 0
-3670 -66 0
-3670 159 0
-3671 -68 0
-3671 157 0
-192 3669 3670 3671 0
-3672 -6 0
-3672 500 0
-3673 -74 0
-3673 167 0
-3674 -76 0
-3674 165 0
-192 3672 3673 3674 0
-3675 -7 0
-3675 521 0
-3676 -81 0
-3676 174 0
-3677 -83 0
-3677 172 0
-192 3675 3676 3677 0
-3678 -8 0
-3678 536 0
-3679 -87 0
-3679 180 0
-3680 -89 0
-3680 178 0
-192 3678 3679 3680 0
-3681 -9 0
-3681 546 0
-3682 -92 0
-3682 185 0
-3683 -94 0
-3683 183 0
-192 3681 3682 3683 0
-3684 -10 0
-3684 552 0
-3685 -96 0
-3685 189 0
-3686 -98 0
-3686 187 0
-192 3684 3685 3686 0
-3687 -12 0
-3687 557 0
-3688 -100 0
-3688 194 0
-3689 -103 0
-3689 191 0
-192 3687 3688 3689 0
-3690 -14 0
-3690 559 0
-3691 -102 0
-3691 196 0
-3692 -105 0
-3692 193 0
-192 3690 3691 3692 0
-3693 -1 0
-3693 271 0
-3694 -24 0
-3694 118 0
-3695 -27 0
-3695 115 0
-193 3693 3694 3695 0
-3696 -2 0
-3696 337 0
-3697 -36 0
-3697 130 0
-3698 -39 0
-3698 127 0
-193 3696 3697 3698 0
-3699 -3 0
-3699 392 0
-3700 -47 0
-3700 141 0
-3701 -50 0
-3701 138 0
-193 3699 3700 3701 0
-3702 -4 0
-3702 437 0
-3703 -57 0
-3703 151 0
-3704 -60 0
-3704 148 0
-193 3702 3703 3704 0
-3705 -5 0
-3705 473 0
-3706 -66 0
-3706 160 0
-3707 -69 0
-3707 157 0
-193 3705 3706 3707 0
-3708 -6 0
-3708 501 0
-3709 -74 0
-3709 168 0
-3710 -77 0
-3710 165 0
-193 3708 3709 3710 0
-3711 -7 0
-3711 522 0
-3712 -81 0
-3712 175 0
-3713 -84 0
-3713 172 0
-193 3711 3712 3713 0
-3714 -8 0
-3714 537 0
-3715 -87 0
-3715 181 0
-3716 -90 0
-3716 178 0
-193 3714 3715 3716 0
-3717 -9 0
-3717 547 0
-3718 -92 0
-3718 186 0
-3719 -95 0
-3719 183 0
-193 3717 3718 3719 0
-3720 -10 0
-3720 553 0
-3721 -96 0
-3721 190 0
-3722 -99 0
-3722 187 0
-193 3720 3721 3722 0
-3723 -12 0
-3723 558 0
-3724 -100 0
-3724 195 0
-3725 -104 0
-3725 191 0
-193 3723 3724 3725 0
-3726 -13 0
-3726 559 0
-3727 -101 0
-3727 196 0
-3728 -105 0
-3728 192 0
-193 3726 3727 3728 0
-3729 -1 0
-3729 272 0
-3730 -25 0
-3730 117 0
-3731 -26 0
-3731 116 0
-194 3729 3730 3731 0
-3732 -2 0
-3732 338 0
-3733 -37 0
-3733 129 0
-3734 -38 0
-3734 128 0
-194 3732 3733 3734 0
-3735 -3 0
-3735 393 0
-3736 -48 0
-3736 140 0
-3737 -49 0
-3737 139 0
-194 3735 3736 3737 0
-3738 -4 0
-3738 438 0
-3739 -58 0
-3739 150 0
-3740 -59 0
-3740 149 0
-194 3738 3739 3740 0
-3741 -5 0
-3741 474 0
-3742 -67 0
-3742 159 0
-3743 -68 0
-3743 158 0
-194 3741 3742 3743 0
-3744 -6 0
-3744 502 0
-3745 -75 0
-3745 167 0
-3746 -76 0
-3746 166 0
-194 3744 3745 3746 0
-3747 -7 0
-3747 523 0
-3748 -82 0
-3748 174 0
-3749 -83 0
-3749 173 0
-194 3747 3748 3749 0
-3750 -8 0
-3750 538 0
-3751 -88 0
-3751 180 0
-3752 -89 0
-3752 179 0
-194 3750 3751 3752 0
-3753 -9 0
-3753 548 0
-3754 -93 0
-3754 185 0
-3755 -94 0
-3755 184 0
-194 3753 3754 3755 0
-3756 -10 0
-3756 554 0
-3757 -97 0
-3757 189 0
-3758 -98 0
-3758 188 0
-194 3756 3757 3758 0
-3759 -11 0
-3759 557 0
-3760 -100 0
-3760 192 0
-3761 -101 0
-3761 191 0
-194 3759 3760 3761 0
-3762 -14 0
-3762 560 0
-3763 -104 0
-3763 196 0
-3764 -105 0
-3764 195 0
-194 3762 3763 3764 0
-3765 -1 0
-3765 273 0
-3766 -25 0
-3766 118 0
-3767 -27 0
-3767 116 0
-195 3765 3766 3767 0
-3768 -2 0
-3768 339 0
-3769 -37 0
-3769 130 0
-3770 -39 0
-3770 128 0
-195 3768 3769 3770 0
-3771 -3 0
-3771 394 0
-3772 -48 0
-3772 141 0
-3773 -50 0
-3773 139 0
-195 3771 3772 3773 0
-3774 -4 0
-3774 439 0
-3775 -58 0
-3775 151 0
-3776 -60 0
-3776 149 0
-195 3774 3775 3776 0
-3777 -5 0
-3777 475 0
-3778 -67 0
-3778 160 0
-3779 -69 0
-3779 158 0
-195 3777 3778 3779 0
-3780 -6 0
-3780 503 0
-3781 -75 0
-3781 168 0
-3782 -77 0
-3782 166 0
-195 3780 3781 3782 0
-3783 -7 0
-3783 524 0
-3784 -82 0
-3784 175 0
-3785 -84 0
-3785 173 0
-195 3783 3784 3785 0
-3786 -8 0
-3786 539 0
-3787 -88 0
-3787 181 0
-3788 -90 0
-3788 179 0
-195 3786 3787 3788 0
-3789 -9 0
-3789 549 0
-3790 -93 0
-3790 186 0
-3791 -95 0
-3791 184 0
-195 3789 3790 3791 0
-3792 -10 0
-3792 555 0
-3793 -97 0
-3793 190 0
-3794 -99 0
-3794 188 0
-195 3792 3793 3794 0
-3795 -11 0
-3795 558 0
-3796 -100 0
-3796 193 0
-3797 -102 0
-3797 191 0
-195 3795 3796 3797 0
-3798 -13 0
-3798 560 0
-3799 -103 0
-3799 196 0
-3800 -105 0
-3800 194 0
-195 3798 3799 3800 0
-3801 -1 0
-3801 274 0
-3802 -26 0
-3802 118 0
-3803 -27 0
-3803 117 0
-196 3801 3802 3803 0
-3804 -2 0
-3804 340 0
-3805 -38 0
-3805 130 0
-3806 -39 0
-3806 129 0
-196 3804 3805 3806 0
-3807 -3 0
-3807 395 0
-3808 -49 0
-3808 141 0
-3809 -50 0
-3809 140 0
-196 3807 3808 3809 0
-3810 -4 0
-3810 440 0
-3811 -59 0
-3811 151 0
-3812 -60 0
-3812 150 0
-196 3810 3811 3812 0
-3813 -5 0
-3813 476 0
-3814 -68 0
-3814 160 0
-3815 -69 0
-3815 159 0
-196 3813 3814 3815 0
-3816 -6 0
-3816 504 0
-3817 -76 0
-3817 168 0
-3818 -77 0
-3818 167 0
-196 3816 3817 3818 0
-3819 -7 0
-3819 525 0
-3820 -83 0
-3820 175 0
-3821 -84 0
-3821 174 0
-196 3819 3820 3821 0
-3822 -8 0
-3822 540 0
-3823 -89 0
-3823 181 0
-3824 -90 0
-3824 180 0
-196 3822 3823 3824 0
-3825 -9 0
-3825 550 0
-3826 -94 0
-3826 186 0
-3827 -95 0
-3827 185 0
-196 3825 3826 3827 0
-3828 -10 0
-3828 556 0
-3829 -98 0
-3829 190 0
-3830 -99 0
-3830 189 0
-196 3828 3829 3830 0
-3831 -11 0
-3831 559 0
-3832 -101 0
-3832 193 0
-3833 -102 0
-3833 192 0
-196 3831 3832 3833 0
-3834 -12 0
-3834 560 0
-3835 -103 0
-3835 195 0
-3836 -104 0
-3836 194 0
-196 3834 3835 3836 0
-3837 -1 0
-3837 119 0
-3838 -2 0
-3838 107 0
-3839 -3 0
-3839 106 0
-197 3837 3838 3839 0
-3840 -17 0
-3840 275 0
-3841 -29 0
-3841 209 0
-3842 -40 0
-3842 198 0
-197 3840 3841 3842 0
-3843 -18 0
-3843 276 0
-3844 -30 0
-3844 210 0
-3845 -41 0
-3845 199 0
-197 3843 3844 3845 0
-3846 -19 0
-3846 277 0
-3847 -31 0
-3847 211 0
-3848 -42 0
-3848 200 0
-197 3846 3847 3848 0
-3849 -20 0
-3849 278 0
-3850 -32 0
-3850 212 0
-3851 -43 0
-3851 201 0
-197 3849 3850 3851 0
-3852 -21 0
-3852 279 0
-3853 -33 0
-3853 213 0
-3854 -44 0
-3854 202 0
-197 3852 3853 3854 0
-3855 -22 0
-3855 280 0
-3856 -34 0
-3856 214 0
-3857 -45 0
-3857 203 0
-197 3855 3856 3857 0
-3858 -23 0
-3858 281 0
-3859 -35 0
-3859 215 0
-3860 -46 0
-3860 204 0
-197 3858 3859 3860 0
-3861 -24 0
-3861 282 0
-3862 -36 0
-3862 216 0
-3863 -47 0
-3863 205 0
-197 3861 3862 3863 0
-3864 -25 0
-3864 283 0
-3865 -37 0
-3865 217 0
-3866 -48 0
-3866 206 0
-197 3864 3865 3866 0
-3867 -26 0
-3867 284 0
-3868 -38 0
-3868 218 0
-3869 -49 0
-3869 207 0
-197 3867 3868 3869 0
-3870 -27 0
-3870 285 0
-3871 -39 0
-3871 219 0
-3872 -50 0
-3872 208 0
-197 3870 3871 3872 0
-3873 -1 0
-3873 120 0
-3874 -2 0
-3874 108 0
-3875 -4 0
-3875 106 0
-198 3873 3874 3875 0
-3876 -16 0
-3876 275 0
-3877 -28 0
-3877 209 0
-3878 -40 0
-3878 197 0
-198 3876 3877 3878 0
-3879 -18 0
-3879 286 0
-3880 -30 0
-3880 220 0
-3881 -51 0
-3881 199 0
-198 3879 3880 3881 0
-3882 -19 0
-3882 287 0
-3883 -31 0
-3883 221 0
-3884 -52 0
-3884 200 0
-198 3882 3883 3884 0
-3885 -20 0
-3885 288 0
-3886 -32 0
-3886 222 0
-3887 -53 0
-3887 201 0
-198 3885 3886 3887 0
-3888 -21 0
-3888 289 0
-3889 -33 0
-3889 223 0
-3890 -54 0
-3890 202 0
-198 3888 3889 3890 0
-3891 -22 0
-3891 290 0
-3892 -34 0
-3892 224 0
-3893 -55 0
-3893 203 0
-198 3891 3892 3893 0
-3894 -23 0
-3894 291 0
-3895 -35 0
-3895 225 0
-3896 -56 0
-3896 204 0
-198 3894 3895 3896 0
-3897 -24 0
-3897 292 0
-3898 -36 0
-3898 226 0
-3899 -57 0
-3899 205 0
-198 3897 3898 3899 0
-3900 -25 0
-3900 293 0
-3901 -37 0
-3901 227 0
-3902 -58 0
-3902 206 0
-198 3900 3901 3902 0
-3903 -26 0
-3903 294 0
-3904 -38 0
-3904 228 0
-3905 -59 0
-3905 207 0
-198 3903 3904 3905 0
-3906 -27 0
-3906 295 0
-3907 -39 0
-3907 229 0
-3908 -60 0
-3908 208 0
-198 3906 3907 3908 0
-3909 -1 0
-3909 121 0
-3910 -2 0
-3910 109 0
-3911 -5 0
-3911 106 0
-199 3909 3910 3911 0
-3912 -16 0
-3912 276 0
-3913 -28 0
-3913 210 0
-3914 -41 0
-3914 197 0
-199 3912 3913 3914 0
-3915 -17 0
-3915 286 0
-3916 -29 0
-3916 220 0
-3917 -51 0
-3917 198 0
-199 3915 3916 3917 0
-3918 -19 0
-3918 296 0
-3919 -31 0
-3919 230 0
-3920 -61 0
-3920 200 0
-199 3918 3919 3920 0
-3921 -20 0
-3921 297 0
-3922 -32 0
-3922 231 0
-3923 -62 0
-3923 201 0
-199 3921 3922 3923 0
-3924 -21 0
-3924 298 0
-3925 -33 0
-3925 232 0
-3926 -63 0
-3926 202 0
-199 3924 3925 3926 0
-3927 -22 0
-3927 299 0
-3928 -34 0
-3928 233 0
-3929 -64 0
-3929 203 0
-199 3927 3928 3929 0
-3930 -23 0
-3930 300 0
-3931 -35 0
-3931 234 0
-3932 -65 0
-3932 204 0
-199 3930 3931 3932 0
-3933 -24 0
-3933 301 0
-3934 -36 0
-3934 235 0
-3935 -66 0
-3935 205 0
-199 3933 3934 3935 0
-3936 -25 0
-3936 302 0
-3937 -37 0
-3937 236 0
-3938 -67 0
-3938 206 0
-199 3936 3937 3938 0
-3939 -26 0
-3939 303 0
-3940 -38 0
-3940 237 0
-3941 -68 0
-3941 207 0
-199 3939 3940 3941 0
-3942 -27 0
-3942 304 0
-3943 -39 0
-3943 238 0
-3944 -69 0
-3944 208 0
-199 3942 3943 3944 0
-3945 -1 0
-3945 122 0
-3946 -2 0
-3946 110 0
-3947 -6 0
-3947 106 0
-200 3945 3946 3947 0
-3948 -16 0
-3948 277 0
-3949 -28 0
-3949 211 0
-3950 -42 0
-3950 197 0
-200 3948 3949 3950 0
-3951 -17 0
-3951 287 0
-3952 -29 0
-3952 221 0
-3953 -52 0
-3953 198 0
-200 3951 3952 3953 0
-3954 -18 0
-3954 296 0
-3955 -30 0
-3955 230 0
-3956 -61 0
-3956 199 0
-200 3954 3955 3956 0
-3957 -20 0
-3957 305 0
-3958 -32 0
-3958 239 0
-3959 -70 0
-3959 201 0
-200 3957 3958 3959 0
-3960 -21 0
-3960 306 0
-3961 -33 0
-3961 240 0
-3962 -71 0
-3962 202 0
-200 3960 3961 3962 0
-3963 -22 0
-3963 307 0
-3964 -34 0
-3964 241 0
-3965 -72 0
-3965 203 0
-200 3963 3964 3965 0
-3966 -23 0
-3966 308 0
-3967 -35 0
-3967 242 0
-3968 -73 0
-3968 204 0
-200 3966 3967 3968 0
-3969 -24 0
-3969 309 0
-3970 -36 0
-3970 243 0
-3971 -74 0
-3971 205 0
-200 3969 3970 3971 0
-3972 -25 0
-3972 310 0
-3973 -37 0
-3973 244 0
-3974 -75 0
-3974 206 0
-200 3972 3973 3974 0
-3975 -26 0
-3975 311 0
-3976 -38 0
-3976 245 0
-3977 -76 0
-3977 207 0
-200 3975 3976 3977 0
-3978 -27 0
-3978 312 0
-3979 -39 0
-3979 246 0
-3980 -77 0
-3980 208 0
-200 3978 3979 3980 0
-3981 -1 0
-3981 123 0
-3982 -2 0
-3982 111 0
-3983 -7 0
-3983 106 0
-201 3981 3982 3983 0
-3984 -16 0
-3984 278 0
-3985 -28 0
-3985 212 0
-3986 -43 0
-3986 197 0
-201 3984 3985 3986 0
-3987 -17 0
-3987 288 0
-3988 -29 0
-3988 222 0
-3989 -53 0
-3989 198 0
-201 3987 3988 3989 0
-3990 -18 0
-3990 297 0
-3991 -30 0
-3991 231 0
-3992 -62 0
-3992 199 0
-201 3990 3991 3992 0
-3993 -19 0
-3993 305 0
-3994 -31 0
-3994 239 0
-3995 -70 0
-3995 200 0
-201 3993 3994 3995 0
-3996 -21 0
-3996 313 0
-3997 -33 0
-3997 247 0
-3998 -78 0
-3998 202 0
-201 3996 3997 3998 0
-3999 -22 0
-3999 314 0
-4000 -34 0
-4000 248 0
-4001 -79 0
-4001 203 0
-201 3999 4000 4001 0
-4002 -23 0
-4002 315 0
-4003 -35 0
-4003 249 0
-4004 -80 0
-4004 204 0
-201 4002 4003 4004 0
-4005 -24 0
-4005 316 0
-4006 -36 0
-4006 250 0
-4007 -81 0
-4007 205 0
-201 4005 4006 4007 0
-4008 -25 0
-4008 317 0
-4009 -37 0
-4009 251 0
-4010 -82 0
-4010 206 0
-201 4008 4009 4010 0
-4011 -26 0
-4011 318 0
-4012 -38 0
-4012 252 0
-4013 -83 0
-4013 207 0
-201 4011 4012 4013 0
-4014 -27 0
-4014 319 0
-4015 -39 0
-4015 253 0
-4016 -84 0
-4016 208 0
-201 4014 4015 4016 0
-4017 -1 0
-4017 124 0
-4018 -2 0
-4018 112 0
-4019 -8 0
-4019 106 0
-202 4017 4018 4019 0
-4020 -16 0
-4020 279 0
-4021 -28 0
-4021 213 0
-4022 -44 0
-4022 197 0
-202 4020 4021 4022 0
-4023 -17 0
-4023 289 0
-4024 -29 0
-4024 223 0
-4025 -54 0
-4025 198 0
-202 4023 4024 4025 0
-4026 -18 0
-4026 298 0
-4027 -30 0
-4027 232 0
-4028 -63 0
-4028 199 0
-202 4026 4027 4028 0
-4029 -19 0
-4029 306 0
-4030 -31 0
-4030 240 0
-4031 -71 0
-4031 200 0
-202 4029 4030 4031 0
-4032 -20 0
-4032 313 0
-4033 -32 0
-4033 247 0
-4034 -78 0
-4034 201 0
-202 4032 4033 4034 0
-4035 -22 0
-4035 320 0
-4036 -34 0
-4036 254 0
-4037 -85 0
-4037 203 0
-202 4035 4036 4037 0
-4038 -23 0
-4038 321 0
-4039 -35 0
-4039 255 0
-4040 -86 0
-4040 204 0
-202 4038 4039 4040 0
-4041 -24 0
-4041 322 0
-4042 -36 0
-4042 256 0
-4043 -87 0
-4043 205 0
-202 4041 4042 4043 0
-4044 -25 0
-4044 323 0
-4045 -37 0
-4045 257 0
-4046 -88 0
-4046 206 0
-202 4044 4045 4046 0
-4047 -26 0
-4047 324 0
-4048 -38 0
-4048 258 0
-4049 -89 0
-4049 207 0
-202 4047 4048 4049 0
-4050 -27 0
-4050 325 0
-4051 -39 0
-4051 259 0
-4052 -90 0
-4052 208 0
-202 4050 4051 4052 0
-4053 -1 0
-4053 125 0
-4054 -2 0
-4054 113 0
-4055 -9 0
-4055 106 0
-203 4053 4054 4055 0
-4056 -16 0
-4056 280 0
-4057 -28 0
-4057 214 0
-4058 -45 0
-4058 197 0
-203 4056 4057 4058 0
-4059 -17 0
-4059 290 0
-4060 -29 0
-4060 224 0
-4061 -55 0
-4061 198 0
-203 4059 4060 4061 0
-4062 -18 0
-4062 299 0
-4063 -30 0
-4063 233 0
-4064 -64 0
-4064 199 0
-203 4062 4063 4064 0
-4065 -19 0
-4065 307 0
-4066 -31 0
-4066 241 0
-4067 -72 0
-4067 200 0
-203 4065 4066 4067 0
-4068 -20 0
-4068 314 0
-4069 -32 0
-4069 248 0
-4070 -79 0
-4070 201 0
-203 4068 4069 4070 0
-4071 -21 0
-4071 320 0
-4072 -33 0
-4072 254 0
-4073 -85 0
-4073 202 0
-203 4071 4072 4073 0
-4074 -23 0
-4074 326 0
-4075 -35 0
-4075 260 0
-4076 -91 0
-4076 204 0
-203 4074 4075 4076 0
-4077 -24 0
-4077 327 0
-4078 -36 0
-4078 261 0
-4079 -92 0
-4079 205 0
-203 4077 4078 4079 0
-4080 -25 0
-4080 328 0
-4081 -37 0
-4081 262 0
-4082 -93 0
-4082 206 0
-203 4080 4081 4082 0
-4083 -26 0
-4083 329 0
-4084 -38 0
-4084 263 0
-4085 -94 0
-4085 207 0
-203 4083 4084 4085 0
-4086 -27 0
-4086 330 0
-4087 -39 0
-4087 264 0
-4088 -95 0
-4088 208 0
-203 4086 4087 4088 0
-4089 -1 0
-4089 126 0
-4090 -2 0
-4090 114 0
-4091 -10 0
-4091 106 0
-204 4089 4090 4091 0
-4092 -16 0
-4092 281 0
-4093 -28 0
-4093 215 0
-4094 -46 0
-4094 197 0
-204 4092 4093 4094 0
-4095 -17 0
-4095 291 0
-4096 -29 0
-4096 225 0
-4097 -56 0
-4097 198 0
-204 4095 4096 4097 0
-4098 -18 0
-4098 300 0
-4099 -30 0
-4099 234 0
-4100 -65 0
-4100 199 0
-204 4098 4099 4100 0
-4101 -19 0
-4101 308 0
-4102 -31 0
-4102 242 0
-4103 -73 0
-4103 200 0
-204 4101 4102 4103 0
-4104 -20 0
-4104 315 0
-4105 -32 0
-4105 249 0
-4106 -80 0
-4106 201 0
-204 4104 4105 4106 0
-4107 -21 0
-4107 321 0
-4108 -33 0
-4108 255 0
-4109 -86 0
-4109 202 0
-204 4107 4108 4109 0
-4110 -22 0
-4110 326 0
-4111 -34 0
-4111 260 0
-4112 -91 0
-4112 203 0
-204 4110 4111 4112 0
-4113 -24 0
-4113 331 0
-4114 -36 0
-4114 265 0
-4115 -96 0
-4115 205 0
-204 4113 4114 4115 0
-4116 -25 0
-4116 332 0
-4117 -37 0
-4117 266 0
-4118 -97 0
-4118 206 0
-204 4116 4117 4118 0
-4119 -26 0
-4119 333 0
-4120 -38 0
-4120 267 0
-4121 -98 0
-4121 207 0
-204 4119 4120 4121 0
-4122 -27 0
-4122 334 0
-4123 -39 0
-4123 268 0
-4124 -99 0
-4124 208 0
-204 4122 4123 4124 0
-4125 -1 0
-4125 127 0
-4126 -2 0
-4126 115 0
-4127 -11 0
-4127 106 0
-205 4125 4126 4127 0
-4128 -16 0
-4128 282 0
-4129 -28 0
-4129 216 0
-4130 -47 0
-4130 197 0
-205 4128 4129 4130 0
-4131 -17 0
-4131 292 0
-4132 -29 0
-4132 226 0
-4133 -57 0
-4133 198 0
-205 4131 4132 4133 0
-4134 -18 0
-4134 301 0
-4135 -30 0
-4135 235 0
-4136 -66 0
-4136 199 0
-205 4134 4135 4136 0
-4137 -19 0
-4137 309 0
-4138 -31 0
-4138 243 0
-4139 -74 0
-4139 200 0
-205 4137 4138 4139 0
-4140 -20 0
-4140 316 0
-4141 -32 0
-4141 250 0
-4142 -81 0
-4142 201 0
-205 4140 4141 4142 0
-4143 -21 0
-4143 322 0
-4144 -33 0
-4144 256 0
-4145 -87 0
-4145 202 0
-205 4143 4144 4145 0
-4146 -22 0
-4146 327 0
-4147 -34 0
-4147 261 0
-4148 -92 0
-4148 203 0
-205 4146 4147 4148 0
-4149 -23 0
-4149 331 0
-4150 -35 0
-4150 265 0
-4151 -96 0
-4151 204 0
-205 4149 4150 4151 0
-4152 -25 0
-4152 335 0
-4153 -37 0
-4153 269 0
-4154 -100 0
-4154 206 0
-205 4152 4153 4154 0
-4155 -26 0
-4155 336 0
-4156 -38 0
-4156 270 0
-4157 -101 0
-4157 207 0
-205 4155 4156 4157 0
-4158 -27 0
-4158 337 0
-4159 -39 0
-4159 271 0
-4160 -102 0
-4160 208 0
-205 4158 4159 4160 0
-4161 -1 0
-4161 128 0
-4162 -2 0
-4162 116 0
-4163 -12 0
-4163 106 0
-206 4161 4162 4163 0
-4164 -16 0
-4164 283 0
-4165 -28 0
-4165 217 0
-4166 -48 0
-4166 197 0
-206 4164 4165 4166 0
-4167 -17 0
-4167 293 0
-4168 -29 0
-4168 227 0
-4169 -58 0
-4169 198 0
-206 4167 4168 4169 0
-4170 -18 0
-4170 302 0
-4171 -30 0
-4171 236 0
-4172 -67 0
-4172 199 0
-206 4170 4171 4172 0
-4173 -19 0
-4173 310 0
-4174 -31 0
-4174 244 0
-4175 -75 0
-4175 200 0
-206 4173 4174 4175 0
-4176 -20 0
-4176 317 0
-4177 -32 0
-4177 251 0
-4178 -82 0
-4178 201 0
-206 4176 4177 4178 0
-4179 -21 0
-4179 323 0
-4180 -33 0
-4180 257 0
-4181 -88 0
-4181 202 0
-206 4179 4180 4181 0
-4182 -22 0
-4182 328 0
-4183 -34 0
-4183 262 0
-4184 -93 0
-4184 203 0
-206 4182 4183 4184 0
-4185 -23 0
-4185 332 0
-4186 -35 0
-4186 266 0
-4187 -97 0
-4187 204 0
-206 4185 4186 4187 0
-4188 -24 0
-4188 335 0
-4189 -36 0
-4189 269 0
-4190 -100 0
-4190 205 0
-206 4188 4189 4190 0
-4191 -26 0
-4191 338 0
-4192 -38 0
-4192 272 0
-4193 -103 0
-4193 207 0
-206 4191 4192 4193 0
-4194 -27 0
-4194 339 0
-4195 -39 0
-4195 273 0
-4196 -104 0
-4196 208 0
-206 4194 4195 4196 0
-4197 -1 0
-4197 129 0
-4198 -2 0
-4198 117 0
-4199 -13 0
-4199 106 0
-207 4197 4198 4199 0
-4200 -16 0
-4200 284 0
-4201 -28 0
-4201 218 0
-4202 -49 0
-4202 197 0
-207 4200 4201 4202 0
-4203 -17 0
-4203 294 0
-4204 -29 0
-4204 228 0
-4205 -59 0
-4205 198 0
-207 4203 4204 4205 0
-4206 -18 0
-4206 303 0
-4207 -30 0
-4207 237 0
-4208 -68 0
-4208 199 0
-207 4206 4207 4208 0
-4209 -19 0
-4209 311 0
-4210 -31 0
-4210 245 0
-4211 -76 0
-4211 200 0
-207 4209 4210 4211 0
-4212 -20 0
-4212 318 0
-4213 -32 0
-4213 252 0
-4214 -83 0
-4214 201 0
-207 4212 4213 4214 0
-4215 -21 0
-4215 324 0
-4216 -33 0
-4216 258 0
-4217 -89 0
-4217 202 0
-207 4215 4216 4217 0
-4218 -22 0
-4218 329 0
-4219 -34 0
-4219 263 0
-4220 -94 0
-4220 203 0
-207 4218 4219 4220 0
-4221 -23 0
-4221 333 0
-4222 -35 0
-4222 267 0
-4223 -98 0
-4223 204 0
-207 4221 4222 4223 0
-4224 -24 0
-4224 336 0
-4225 -36 0
-4225 270 0
-4226 -101 0
-4226 205 0
-207 4224 4225 4226 0
-4227 -25 0
-4227 338 0
-4228 -37 0
-4228 272 0
-4229 -103 0
-4229 206 0
-207 4227 4228 4229 0
-4230 -27 0
-4230 340 0
-4231 -39 0
-4231 274 0
-4232 -105 0
-4232 208 0
-207 4230 4231 4232 0
-4233 -1 0
-4233 130 0
-4234 -2 0
-4234 118 0
-4235 -14 0
-4235 106 0
-208 4233 4234 4235 0
-4236 -16 0
-4236 285 0
-4237 -28 0
-4237 219 0
-4238 -50 0
-4238 197 0
-208 4236 4237 4238 0
-4239 -17 0
-4239 295 0
-4240 -29 0
-4240 229 0
-4241 -60 0
-4241 198 0
-208 4239 4240 4241 0
-4242 -18 0
-4242 304 0
-4243 -30 0
-4243 238 0
-4244 -69 0
-4244 199 0
-208 4242 4243 4244 0
-4245 -19 0
-4245 312 0
-4246 -31 0
-4246 246 0
-4247 -77 0
-4247 200 0
-208 4245 4246 4247 0
-4248 -20 0
-4248 319 0
-4249 -32 0
-4249 253 0
-4250 -84 0
-4250 201 0
-208 4248 4249 4250 0
-4251 -21 0
-4251 325 0
-4252 -33 0
-4252 259 0
-4253 -90 0
-4253 202 0
-208 4251 4252 4253 0
-4254 -22 0
-4254 330 0
-4255 -34 0
-4255 264 0
-4256 -95 0
-4256 203 0
-208 4254 4255 4256 0
-4257 -23 0
-4257 334 0
-4258 -35 0
-4258 268 0
-4259 -99 0
-4259 204 0
-208 4257 4258 4259 0
-4260 -24 0
-4260 337 0
-4261 -36 0
-4261 271 0
-4262 -102 0
-4262 205 0
-208 4260 4261 4262 0
-4263 -25 0
-4263 339 0
-4264 -37 0
-4264 273 0
-4265 -104 0
-4265 206 0
-208 4263 4264 4265 0
-4266 -26 0
-4266 340 0
-4267 -38 0
-4267 274 0
-4268 -105 0
-4268 207 0
-208 4266 4267 4268 0
-4269 -1 0
-4269 131 0
-4270 -3 0
-4270 108 0
-4271 -4 0
-4271 107 0
-209 4269 4270 4271 0
-4272 -15 0
-4272 275 0
-4273 -28 0
-4273 198 0
-4274 -29 0
-4274 197 0
-209 4272 4273 4274 0
-4275 -18 0
-4275 341 0
-4276 -41 0
-4276 220 0
-4277 -51 0
-4277 210 0
-209 4275 4276 4277 0
-4278 -19 0
-4278 342 0
-4279 -42 0
-4279 221 0
-4280 -52 0
-4280 211 0
-209 4278 4279 4280 0
-4281 -20 0
-4281 343 0
-4282 -43 0
-4282 222 0
-4283 -53 0
-4283 212 0
-209 4281 4282 4283 0
-4284 -21 0
-4284 344 0
-4285 -44 0
-4285 223 0
-4286 -54 0
-4286 213 0
-209 4284 4285 4286 0
-4287 -22 0
-4287 345 0
-4288 -45 0
-4288 224 0
-4289 -55 0
-4289 214 0
-209 4287 4288 4289 0
-4290 -23 0
-4290 346 0
-4291 -46 0
-4291 225 0
-4292 -56 0
-4292 215 0
-209 4290 4291 4292 0
-4293 -24 0
-4293 347 0
-4294 -47 0
-4294 226 0
-4295 -57 0
-4295 216 0
-209 4293 4294 4295 0
-4296 -25 0
-4296 348 0
-4297 -48 0
-4297 227 0
-4298 -58 0
-4298 217 0
-209 4296 4297 4298 0
-4299 -26 0
-4299 349 0
-4300 -49 0
-4300 228 0
-4301 -59 0
-4301 218 0
-209 4299 4300 4301 0
-4302 -27 0
-4302 350 0
-4303 -50 0
-4303 229 0
-4304 -60 0
-4304 219 0
-209 4302 4303 4304 0
-4305 -1 0
-4305 132 0
-4306 -3 0
-4306 109 0
-4307 -5 0
-4307 107 0
-210 4305 4306 4307 0
-4308 -15 0
-4308 276 0
-4309 -28 0
-4309 199 0
-4310 -30 0
-4310 197 0
-210 4308 4309 4310 0
-4311 -17 0
-4311 341 0
-4312 -40 0
-4312 220 0
-4313 -51 0
-4313 209 0
-210 4311 4312 4313 0
-4314 -19 0
-4314 351 0
-4315 -42 0
-4315 230 0
-4316 -61 0
-4316 211 0
-210 4314 4315 4316 0
-4317 -20 0
-4317 352 0
-4318 -43 0
-4318 231 0
-4319 -62 0
-4319 212 0
-210 4317 4318 4319 0
-4320 -21 0
-4320 353 0
-4321 -44 0
-4321 232 0
-4322 -63 0
-4322 213 0
-210 4320 4321 4322 0
-4323 -22 0
-4323 354 0
-4324 -45 0
-4324 233 0
-4325 -64 0
-4325 214 0
-210 4323 4324 4325 0
-4326 -23 0
-4326 355 0
-4327 -46 0
-4327 234 0
-4328 -65 0
-4328 215 0
-210 4326 4327 4328 0
-4329 -24 0
-4329 356 0
-4330 -47 0
-4330 235 0
-4331 -66 0
-4331 216 0
-210 4329 4330 4331 0
-4332 -25 0
-4332 357 0
-4333 -48 0
-4333 236 0
-4334 -67 0
-4334 217 0
-210 4332 4333 4334 0
-4335 -26 0
-4335 358 0
-4336 -49 0
-4336 237 0
-4337 -68 0
-4337 218 0
-210 4335 4336 4337 0
-4338 -27 0
-4338 359 0
-4339 -50 0
-4339 238 0
-4340 -69 0
-4340 219 0
-210 4338 4339 4340 0
-4341 -1 0
-4341 133 0
-4342 -3 0
-4342 110 0
-4343 -6 0
-4343 107 0
-211 4341 4342 4343 0
-4344 -15 0
-4344 277 0
-4345 -28 0
-4345 200 0
-4346 -31 0
-4346 197 0
-211 4344 4345 4346 0
-4347 -17 0
-4347 342 0
-4348 -40 0
-4348 221 0
-4349 -52 0
-4349 209 0
-211 4347 4348 4349 0
-4350 -18 0
-4350 351 0
-4351 -41 0
-4351 230 0
-4352 -61 0
-4352 210 0
-211 4350 4351 4352 0
-4353 -20 0
-4353 360 0
-4354 -43 0
-4354 239 0
-4355 -70 0
-4355 212 0
-211 4353 4354 4355 0
-4356 -21 0
-4356 361 0
-4357 -44 0
-4357 240 0
-4358 -71 0
-4358 213 0
-211 4356 4357 4358 0
-4359 -22 0
-4359 362 0
-4360 -45 0
-4360 241 0
-4361 -72 0
-4361 214 0
-211 4359 4360 4361 0
-4362 -23 0
-4362 363 0
-4363 -46 0
-4363 242 0
-4364 -73 0
-4364 215 0
-211 4362 4363 4364 0
-4365 -24 0
-4365 364 0
-4366 -47 0
-4366 243 0
-4367 -74 0
-4367 216 0
-211 4365 4366 4367 0
-4368 -25 0
-4368 365 0
-4369 -48 0
-4369 244 0
-4370 -75 0
-4370 217 0
-211 4368 4369 4370 0
-4371 -26 0
-4371 366 0
-4372 -49 0
-4372 245 0
-4373 -76 0
-4373 218 0
-211 4371 4372 4373 0
-4374 -27 0
-4374 367 0
-4375 -50 0
-4375 246 0
-4376 -77 0
-4376 219 0
-211 4374 4375 4376 0
-4377 -1 0
-4377 134 0
-4378 -3 0
-4378 111 0
-4379 -7 0
-4379 107 0
-212 4377 4378 4379 0
-4380 -15 0
-4380 278 0
-4381 -28 0
-4381 201 0
-4382 -32 0
-4382 197 0
-212 4380 4381 4382 0
-4383 -17 0
-4383 343 0
-4384 -40 0
-4384 222 0
-4385 -53 0
-4385 209 0
-212 4383 4384 4385 0
-4386 -18 0
-4386 352 0
-4387 -41 0
-4387 231 0
-4388 -62 0
-4388 210 0
-212 4386 4387 4388 0
-4389 -19 0
-4389 360 0
-4390 -42 0
-4390 239 0
-4391 -70 0
-4391 211 0
-212 4389 4390 4391 0
-4392 -21 0
-4392 368 0
-4393 -44 0
-4393 247 0
-4394 -78 0
-4394 213 0
-212 4392 4393 4394 0
-4395 -22 0
-4395 369 0
-4396 -45 0
-4396 248 0
-4397 -79 0
-4397 214 0
-212 4395 4396 4397 0
-4398 -23 0
-4398 370 0
-4399 -46 0
-4399 249 0
-4400 -80 0
-4400 215 0
-212 4398 4399 4400 0
-4401 -24 0
-4401 371 0
-4402 -47 0
-4402 250 0
-4403 -81 0
-4403 216 0
-212 4401 4402 4403 0
-4404 -25 0
-4404 372 0
-4405 -48 0
-4405 251 0
-4406 -82 0
-4406 217 0
-212 4404 4405 4406 0
-4407 -26 0
-4407 373 0
-4408 -49 0
-4408 252 0
-4409 -83 0
-4409 218 0
-212 4407 4408 4409 0
-4410 -27 0
-4410 374 0
-4411 -50 0
-4411 253 0
-4412 -84 0
-4412 219 0
-212 4410 4411 4412 0
-4413 -1 0
-4413 135 0
-4414 -3 0
-4414 112 0
-4415 -8 0
-4415 107 0
-213 4413 4414 4415 0
-4416 -15 0
-4416 279 0
-4417 -28 0
-4417 202 0
-4418 -33 0
-4418 197 0
-213 4416 4417 4418 0
-4419 -17 0
-4419 344 0
-4420 -40 0
-4420 223 0
-4421 -54 0
-4421 209 0
-213 4419 4420 4421 0
-4422 -18 0
-4422 353 0
-4423 -41 0
-4423 232 0
-4424 -63 0
-4424 210 0
-213 4422 4423 4424 0
-4425 -19 0
-4425 361 0
-4426 -42 0
-4426 240 0
-4427 -71 0
-4427 211 0
-213 4425 4426 4427 0
-4428 -20 0
-4428 368 0
-4429 -43 0
-4429 247 0
-4430 -78 0
-4430 212 0
-213 4428 4429 4430 0
-4431 -22 0
-4431 375 0
-4432 -45 0
-4432 254 0
-4433 -85 0
-4433 214 0
-213 4431 4432 4433 0
-4434 -23 0
-4434 376 0
-4435 -46 0
-4435 255 0
-4436 -86 0
-4436 215 0
-213 4434 4435 4436 0
-4437 -24 0
-4437 377 0
-4438 -47 0
-4438 256 0
-4439 -87 0
-4439 216 0
-213 4437 4438 4439 0
-4440 -25 0
-4440 378 0
-4441 -48 0
-4441 257 0
-4442 -88 0
-4442 217 0
-213 4440 4441 4442 0
-4443 -26 0
-4443 379 0
-4444 -49 0
-4444 258 0
-4445 -89 0
-4445 218 0
-213 4443 4444 4445 0
-4446 -27 0
-4446 380 0
-4447 -50 0
-4447 259 0
-4448 -90 0
-4448 219 0
-213 4446 4447 4448 0
-4449 -1 0
-4449 136 0
-4450 -3 0
-4450 113 0
-4451 -9 0
-4451 107 0
-214 4449 4450 4451 0
-4452 -15 0
-4452 280 0
-4453 -28 0
-4453 203 0
-4454 -34 0
-4454 197 0
-214 4452 4453 4454 0
-4455 -17 0
-4455 345 0
-4456 -40 0
-4456 224 0
-4457 -55 0
-4457 209 0
-214 4455 4456 4457 0
-4458 -18 0
-4458 354 0
-4459 -41 0
-4459 233 0
-4460 -64 0
-4460 210 0
-214 4458 4459 4460 0
-4461 -19 0
-4461 362 0
-4462 -42 0
-4462 241 0
-4463 -72 0
-4463 211 0
-214 4461 4462 4463 0
-4464 -20 0
-4464 369 0
-4465 -43 0
-4465 248 0
-4466 -79 0
-4466 212 0
-214 4464 4465 4466 0
-4467 -21 0
-4467 375 0
-4468 -44 0
-4468 254 0
-4469 -85 0
-4469 213 0
-214 4467 4468 4469 0
-4470 -23 0
-4470 381 0
-4471 -46 0
-4471 260 0
-4472 -91 0
-4472 215 0
-214 4470 4471 4472 0
-4473 -24 0
-4473 382 0
-4474 -47 0
-4474 261 0
-4475 -92 0
-4475 216 0
-214 4473 4474 4475 0
-4476 -25 0
-4476 383 0
-4477 -48 0
-4477 262 0
-4478 -93 0
-4478 217 0
-214 4476 4477 4478 0
-4479 -26 0
-4479 384 0
-4480 -49 0
-4480 263 0
-4481 -94 0
-4481 218 0
-214 4479 4480 4481 0
-4482 -27 0
-4482 385 0
-4483 -50 0
-4483 264 0
-4484 -95 0
-4484 219 0
-214 4482 4483 4484 0
-4485 -1 0
-4485 137 0
-4486 -3 0
-4486 114 0
-4487 -10 0
-4487 107 0
-215 4485 4486 4487 0
-4488 -15 0
-4488 281 0
-4489 -28 0
-4489 204 0
-4490 -35 0
-4490 197 0
-215 4488 4489 4490 0
-4491 -17 0
-4491 346 0
-4492 -40 0
-4492 225 0
-4493 -56 0
-4493 209 0
-215 4491 4492 4493 0
-4494 -18 0
-4494 355 0
-4495 -41 0
-4495 234 0
-4496 -65 0
-4496 210 0
-215 4494 4495 4496 0
-4497 -19 0
-4497 363 0
-4498 -42 0
-4498 242 0
-4499 -73 0
-4499 211 0
-215 4497 4498 4499 0
-4500 -20 0
-4500 370 0
-4501 -43 0
-4501 249 0
-4502 -80 0
-4502 212 0
-215 4500 4501 4502 0
-4503 -21 0
-4503 376 0
-4504 -44 0
-4504 255 0
-4505 -86 0
-4505 213 0
-215 4503 4504 4505 0
-4506 -22 0
-4506 381 0
-4507 -45 0
-4507 260 0
-4508 -91 0
-4508 214 0
-215 4506 4507 4508 0
-4509 -24 0
-4509 386 0
-4510 -47 0
-4510 265 0
-4511 -96 0
-4511 216 0
-215 4509 4510 4511 0
-4512 -25 0
-4512 387 0
-4513 -48 0
-4513 266 0
-4514 -97 0
-4514 217 0
-215 4512 4513 4514 0
-4515 -26 0
-4515 388 0
-4516 -49 0
-4516 267 0
-4517 -98 0
-4517 218 0
-215 4515 4516 4517 0
-4518 -27 0
-4518 389 0
-4519 -50 0
-4519 268 0
-4520 -99 0
-4520 219 0
-215 4518 4519 4520 0
-4521 -1 0
-4521 138 0
-4522 -3 0
-4522 115 0
-4523 -11 0
-4523 107 0
-216 4521 4522 4523 0
-4524 -15 0
-4524 282 0
-4525 -28 0
-4525 205 0
-4526 -36 0
-4526 197 0
-216 4524 4525 4526 0
-4527 -17 0
-4527 347 0
-4528 -40 0
-4528 226 0
-4529 -57 0
-4529 209 0
-216 4527 4528 4529 0
-4530 -18 0
-4530 356 0
-4531 -41 0
-4531 235 0
-4532 -66 0
-4532 210 0
-216 4530 4531 4532 0
-4533 -19 0
-4533 364 0
-4534 -42 0
-4534 243 0
-4535 -74 0
-4535 211 0
-216 4533 4534 4535 0
-4536 -20 0
-4536 371 0
-4537 -43 0
-4537 250 0
-4538 -81 0
-4538 212 0
-216 4536 4537 4538 0
-4539 -21 0
-4539 377 0
-4540 -44 0
-4540 256 0
-4541 -87 0
-4541 213 0
-216 4539 4540 4541 0
-4542 -22 0
-4542 382 0
-4543 -45 0
-4543 261 0
-4544 -92 0
-4544 214 0
-216 4542 4543 4544 0
-4545 -23 0
-4545 386 0
-4546 -46 0
-4546 265 0
-4547 -96 0
-4547 215 0
-216 4545 4546 4547 0
-4548 -25 0
-4548 390 0
-4549 -48 0
-4549 269 0
-4550 -100 0
-4550 217 0
-216 4548 4549 4550 0
-4551 -26 0
-4551 391 0
-4552 -49 0
-4552 270 0
-4553 -101 0
-4553 218 0
-216 4551 4552 4553 0
-4554 -27 0
-4554 392 0
-4555 -50 0
-4555 271 0
-4556 -102 0
-4556 219 0
-216 4554 4555 4556 0
-4557 -1 0
-4557 139 0
-4558 -3 0
-4558 116 0
-4559 -12 0
-4559 107 0
-217 4557 4558 4559 0
-4560 -15 0
-4560 283 0
-4561 -28 0
-4561 206 0
-4562 -37 0
-4562 197 0
-217 4560 4561 4562 0
-4563 -17 0
-4563 348 0
-4564 -40 0
-4564 227 0
-4565 -58 0
-4565 209 0
-217 4563 4564 4565 0
-4566 -18 0
-4566 357 0
-4567 -41 0
-4567 236 0
-4568 -67 0
-4568 210 0
-217 4566 4567 4568 0
-4569 -19 0
-4569 365 0
-4570 -42 0
-4570 244 0
-4571 -75 0
-4571 211 0
-217 4569 4570 4571 0
-4572 -20 0
-4572 372 0
-4573 -43 0
-4573 251 0
-4574 -82 0
-4574 212 0
-217 4572 4573 4574 0
-4575 -21 0
-4575 378 0
-4576 -44 0
-4576 257 0
-4577 -88 0
-4577 213 0
-217 4575 4576 4577 0
-4578 -22 0
-4578 383 0
-4579 -45 0
-4579 262 0
-4580 -93 0
-4580 214 0
-217 4578 4579 4580 0
-4581 -23 0
-4581 387 0
-4582 -46 0
-4582 266 0
-4583 -97 0
-4583 215 0
-217 4581 4582 4583 0
-4584 -24 0
-4584 390 0
-4585 -47 0
-4585 269 0
-4586 -100 0
-4586 216 0
-217 4584 4585 4586 0
-4587 -26 0
-4587 393 0
-4588 -49 0
-4588 272 0
-4589 -103 0
-4589 218 0
-217 4587 4588 4589 0
-4590 -27 0
-4590 394 0
-4591 -50 0
-4591 273 0
-4592 -104 0
-4592 219 0
-217 4590 4591 4592 0
-4593 -1 0
-4593 140 0
-4594 -3 0
-4594 117 0
-4595 -13 0
-4595 107 0
-218 4593 4594 4595 0
-4596 -15 0
-4596 284 0
-4597 -28 0
-4597 207 0
-4598 -38 0
-4598 197 0
-218 4596 4597 4598 0
-4599 -17 0
-4599 349 0
-4600 -40 0
-4600 228 0
-4601 -59 0
-4601 209 0
-218 4599 4600 4601 0
-4602 -18 0
-4602 358 0
-4603 -41 0
-4603 237 0
-4604 -68 0
-4604 210 0
-218 4602 4603 4604 0
-4605 -19 0
-4605 366 0
-4606 -42 0
-4606 245 0
-4607 -76 0
-4607 211 0
-218 4605 4606 4607 0
-4608 -20 0
-4608 373 0
-4609 -43 0
-4609 252 0
-4610 -83 0
-4610 212 0
-218 4608 4609 4610 0
-4611 -21 0
-4611 379 0
-4612 -44 0
-4612 258 0
-4613 -89 0
-4613 213 0
-218 4611 4612 4613 0
-4614 -22 0
-4614 384 0
-4615 -45 0
-4615 263 0
-4616 -94 0
-4616 214 0
-218 4614 4615 4616 0
-4617 -23 0
-4617 388 0
-4618 -46 0
-4618 267 0
-4619 -98 0
-4619 215 0
-218 4617 4618 4619 0
-4620 -24 0
-4620 391 0
-4621 -47 0
-4621 270 0
-4622 -101 0
-4622 216 0
-218 4620 4621 4622 0
-4623 -25 0
-4623 393 0
-4624 -48 0
-4624 272 0
-4625 -103 0
-4625 217 0
-218 4623 4624 4625 0
-4626 -27 0
-4626 395 0
-4627 -50 0
-4627 274 0
-4628 -105 0
-4628 219 0
-218 4626 4627 4628 0
-4629 -1 0
-4629 141 0
-4630 -3 0
-4630 118 0
-4631 -14 0
-4631 107 0
-219 4629 4630 4631 0
-4632 -15 0
-4632 285 0
-4633 -28 0
-4633 208 0
-4634 -39 0
-4634 197 0
-219 4632 4633 4634 0
-4635 -17 0
-4635 350 0
-4636 -40 0
-4636 229 0
-4637 -60 0
-4637 209 0
-219 4635 4636 4637 0
-4638 -18 0
-4638 359 0
-4639 -41 0
-4639 238 0
-4640 -69 0
-4640 210 0
-219 4638 4639 4640 0
-4641 -19 0
-4641 367 0
-4642 -42 0
-4642 246 0
-4643 -77 0
-4643 211 0
-219 4641 4642 4643 0
-4644 -20 0
-4644 374 0
-4645 -43 0
-4645 253 0
-4646 -84 0
-4646 212 0
-219 4644 4645 4646 0
-4647 -21 0
-4647 380 0
-4648 -44 0
-4648 259 0
-4649 -90 0
-4649 213 0
-219 4647 4648 4649 0
-4650 -22 0
-4650 385 0
-4651 -45 0
-4651 264 0
-4652 -95 0
-4652 214 0
-219 4650 4651 4652 0
-4653 -23 0
-4653 389 0
-4654 -46 0
-4654 268 0
-4655 -99 0
-4655 215 0
-219 4653 4654 4655 0
-4656 -24 0
-4656 392 0
-4657 -47 0
-4657 271 0
-4658 -102 0
-4658 216 0
-219 4656 4657 4658 0
-4659 -25 0
-4659 394 0
-4660 -48 0
-4660 273 0
-4661 -104 0
-4661 217 0
-219 4659 4660 4661 0
-4662 -26 0
-4662 395 0
-4663 -49 0
-4663 274 0
-4664 -105 0
-4664 218 0
-219 4662 4663 4664 0
-4665 -1 0
-4665 142 0
-4666 -4 0
-4666 109 0
-4667 -5 0
-4667 108 0
-220 4665 4666 4667 0
-4668 -15 0
-4668 286 0
-4669 -29 0
-4669 199 0
-4670 -30 0
-4670 198 0
-220 4668 4669 4670 0
-4671 -16 0
-4671 341 0
-4672 -40 0
-4672 210 0
-4673 -41 0
-4673 209 0
-220 4671 4672 4673 0
-4674 -19 0
-4674 396 0
-4675 -52 0
-4675 230 0
-4676 -61 0
-4676 221 0
-220 4674 4675 4676 0
-4677 -20 0
-4677 397 0
-4678 -53 0
-4678 231 0
-4679 -62 0
-4679 222 0
-220 4677 4678 4679 0
-4680 -21 0
-4680 398 0
-4681 -54 0
-4681 232 0
-4682 -63 0
-4682 223 0
-220 4680 4681 4682 0
-4683 -22 0
-4683 399 0
-4684 -55 0
-4684 233 0
-4685 -64 0
-4685 224 0
-220 4683 4684 4685 0
-4686 -23 0
-4686 400 0
-4687 -56 0
-4687 234 0
-4688 -65 0
-4688 225 0
-220 4686 4687 4688 0
-4689 -24 0
-4689 401 0
-4690 -57 0
-4690 235 0
-4691 -66 0
-4691 226 0
-220 4689 4690 4691 0
-4692 -25 0
-4692 402 0
-4693 -58 0
-4693 236 0
-4694 -67 0
-4694 227 0
-220 4692 4693 4694 0
-4695 -26 0
-4695 403 0
-4696 -59 0
-4696 237 0
-4697 -68 0
-4697 228 0
-220 4695 4696 4697 0
-4698 -27 0
-4698 404 0
-4699 -60 0
-4699 238 0
-4700 -69 0
-4700 229 0
-220 4698 4699 4700 0
-4701 -1 0
-4701 143 0
-4702 -4 0
-4702 110 0
-4703 -6 0
-4703 108 0
-221 4701 4702 4703 0
-4704 -15 0
-4704 287 0
-4705 -29 0
-4705 200 0
-4706 -31 0
-4706 198 0
-221 4704 4705 4706 0
-4707 -16 0
-4707 342 0
-4708 -40 0
-4708 211 0
-4709 -42 0
-4709 209 0
-221 4707 4708 4709 0
-4710 -18 0
-4710 396 0
-4711 -51 0
-4711 230 0
-4712 -61 0
-4712 220 0
-221 4710 4711 4712 0
-4713 -20 0
-4713 405 0
-4714 -53 0
-4714 239 0
-4715 -70 0
-4715 222 0
-221 4713 4714 4715 0
-4716 -21 0
-4716 406 0
-4717 -54 0
-4717 240 0
-4718 -71 0
-4718 223 0
-221 4716 4717 4718 0
-4719 -22 0
-4719 407 0
-4720 -55 0
-4720 241 0
-4721 -72 0
-4721 224 0
-221 4719 4720 4721 0
-4722 -23 0
-4722 408 0
-4723 -56 0
-4723 242 0
-4724 -73 0
-4724 225 0
-221 4722 4723 4724 0
-4725 -24 0
-4725 409 0
-4726 -57 0
-4726 243 0
-4727 -74 0
-4727 226 0
-221 4725 4726 4727 0
-4728 -25 0
-4728 410 0
-4729 -58 0
-4729 244 0
-4730 -75 0
-4730 227 0
-221 4728 4729 4730 0
-4731 -26 0
-4731 411 0
-4732 -59 0
-4732 245 0
-4733 -76 0
-4733 228 0
-221 4731 4732 4733 0
-4734 -27 0
-4734 412 0
-4735 -60 0
-4735 246 0
-4736 -77 0
-4736 229 0
-221 4734 4735 4736 0
-4737 -1 0
-4737 144 0
-4738 -4 0
-4738 111 0
-4739 -7 0
-4739 108 0
-222 4737 4738 4739 0
-4740 -15 0
-4740 288 0
-4741 -29 0
-4741 201 0
-4742 -32 0
-4742 198 0
-222 4740 4741 4742 0
-4743 -16 0
-4743 343 0
-4744 -40 0
-4744 212 0
-4745 -43 0
-4745 209 0
-222 4743 4744 4745 0
-4746 -18 0
-4746 397 0
-4747 -51 0
-4747 231 0
-4748 -62 0
-4748 220 0
-222 4746 4747 4748 0
-4749 -19 0
-4749 405 0
-4750 -52 0
-4750 239 0
-4751 -70 0
-4751 221 0
-222 4749 4750 4751 0
-4752 -21 0
-4752 413 0
-4753 -54 0
-4753 247 0
-4754 -78 0
-4754 223 0
-222 4752 4753 4754 0
-4755 -22 0
-4755 414 0
-4756 -55 0
-4756 248 0
-4757 -79 0
-4757 224 0
-222 4755 4756 4757 0
-4758 -23 0
-4758 415 0
-4759 -56 0
-4759 249 0
-4760 -80 0
-4760 225 0
-222 4758 4759 4760 0
-4761 -24 0
-4761 416 0
-4762 -57 0
-4762 250 0
-4763 -81 0
-4763 226 0
-222 4761 4762 4763 0
-4764 -25 0
-4764 417 0
-4765 -58 0
-4765 251 0
-4766 -82 0
-4766 227 0
-222 4764 4765 4766 0
-4767 -26 0
-4767 418 0
-4768 -59 0
-4768 252 0
-4769 -83 0
-4769 228 0
-222 4767 4768 4769 0
-4770 -27 0
-4770 419 0
-4771 -60 0
-4771 253 0
-4772 -84 0
-4772 229 0
-222 4770 4771 4772 0
-4773 -1 0
-4773 145 0
-4774 -4 0
-4774 112 0
-4775 -8 0
-4775 108 0
-223 4773 4774 4775 0
-4776 -15 0
-4776 289 0
-4777 -29 0
-4777 202 0
-4778 -33 0
-4778 198 0
-223 4776 4777 4778 0
-4779 -16 0
-4779 344 0
-4780 -40 0
-4780 213 0
-4781 -44 0
-4781 209 0
-223 4779 4780 4781 0
-4782 -18 0
-4782 398 0
-4783 -51 0
-4783 232 0
-4784 -63 0
-4784 220 0
-223 4782 4783 4784 0
-4785 -19 0
-4785 406 0
-4786 -52 0
-4786 240 0
-4787 -71 0
-4787 221 0
-223 4785 4786 4787 0
-4788 -20 0
-4788 413 0
-4789 -53 0
-4789 247 0
-4790 -78 0
-4790 222 0
-223 4788 4789 4790 0
-4791 -22 0
-4791 420 0
-4792 -55 0
-4792 254 0
-4793 -85 0
-4793 224 0
-223 4791 4792 4793 0
-4794 -23 0
-4794 421 0
-4795 -56 0
-4795 255 0
-4796 -86 0
-4796 225 0
-223 4794 4795 4796 0
-4797 -24 0
-4797 422 0
-4798 -57 0
-4798 256 0
-4799 -87 0
-4799 226 0
-223 4797 4798 4799 0
-4800 -25 0
-4800 423 0
-4801 -58 0
-4801 257 0
-4802 -88 0
-4802 227 0
-223 4800 4801 4802 0
-4803 -26 0
-4803 424 0
-4804 -59 0
-4804 258 0
-4805 -89 0
-4805 228 0
-223 4803 4804 4805 0
-4806 -27 0
-4806 425 0
-4807 -60 0
-4807 259 0
-4808 -90 0
-4808 229 0
-223 4806 4807 4808 0
-4809 -1 0
-4809 146 0
-4810 -4 0
-4810 113 0
-4811 -9 0
-4811 108 0
-224 4809 4810 4811 0
-4812 -15 0
-4812 290 0
-4813 -29 0
-4813 203 0
-4814 -34 0
-4814 198 0
-224 4812 4813 4814 0
-4815 -16 0
-4815 345 0
-4816 -40 0
-4816 214 0
-4817 -45 0
-4817 209 0
-224 4815 4816 4817 0
-4818 -18 0
-4818 399 0
-4819 -51 0
-4819 233 0
-4820 -64 0
-4820 220 0
-224 4818 4819 4820 0
-4821 -19 0
-4821 407 0
-4822 -52 0
-4822 241 0
-4823 -72 0
-4823 221 0
-224 4821 4822 4823 0
-4824 -20 0
-4824 414 0
-4825 -53 0
-4825 248 0
-4826 -79 0
-4826 222 0
-224 4824 4825 4826 0
-4827 -21 0
-4827 420 0
-4828 -54 0
-4828 254 0
-4829 -85 0
-4829 223 0
-224 4827 4828 4829 0
-4830 -23 0
-4830 426 0
-4831 -56 0
-4831 260 0
-4832 -91 0
-4832 225 0
-224 4830 4831 4832 0
-4833 -24 0
-4833 427 0
-4834 -57 0
-4834 261 0
-4835 -92 0
-4835 226 0
-224 4833 4834 4835 0
-4836 -25 0
-4836 428 0
-4837 -58 0
-4837 262 0
-4838 -93 0
-4838 227 0
-224 4836 4837 4838 0
-4839 -26 0
-4839 429 0
-4840 -59 0
-4840 263 0
-4841 -94 0
-4841 228 0
-224 4839 4840 4841 0
-4842 -27 0
-4842 430 0
-4843 -60 0
-4843 264 0
-4844 -95 0
-4844 229 0
-224 4842 4843 4844 0
-4845 -1 0
-4845 147 0
-4846 -4 0
-4846 114 0
-4847 -10 0
-4847 108 0
-225 4845 4846 4847 0
-4848 -15 0
-4848 291 0
-4849 -29 0
-4849 204 0
-4850 -35 0
-4850 198 0
-225 4848 4849 4850 0
-4851 -16 0
-4851 346 0
-4852 -40 0
-4852 215 0
-4853 -46 0
-4853 209 0
-225 4851 4852 4853 0
-4854 -18 0
-4854 400 0
-4855 -51 0
-4855 234 0
-4856 -65 0
-4856 220 0
-225 4854 4855 4856 0
-4857 -19 0
-4857 408 0
-4858 -52 0
-4858 242 0
-4859 -73 0
-4859 221 0
-225 4857 4858 4859 0
-4860 -20 0
-4860 415 0
-4861 -53 0
-4861 249 0
-4862 -80 0
-4862 222 0
-225 4860 4861 4862 0
-4863 -21 0
-4863 421 0
-4864 -54 0
-4864 255 0
-4865 -86 0
-4865 223 0
-225 4863 4864 4865 0
-4866 -22 0
-4866 426 0
-4867 -55 0
-4867 260 0
-4868 -91 0
-4868 224 0
-225 4866 4867 4868 0
-4869 -24 0
-4869 431 0
-4870 -57 0
-4870 265 0
-4871 -96 0
-4871 226 0
-225 4869 4870 4871 0
-4872 -25 0
-4872 432 0
-4873 -58 0
-4873 266 0
-4874 -97 0
-4874 227 0
-225 4872 4873 4874 0
-4875 -26 0
-4875 433 0
-4876 -59 0
-4876 267 0
-4877 -98 0
-4877 228 0
-225 4875 4876 4877 0
-4878 -27 0
-4878 434 0
-4879 -60 0
-4879 268 0
-4880 -99 0
-4880 229 0
-225 4878 4879 4880 0
-4881 -1 0
-4881 148 0
-4882 -4 0
-4882 115 0
-4883 -11 0
-4883 108 0
-226 4881 4882 4883 0
-4884 -15 0
-4884 292 0
-4885 -29 0
-4885 205 0
-4886 -36 0
-4886 198 0
-226 4884 4885 4886 0
-4887 -16 0
-4887 347 0
-4888 -40 0
-4888 216 0
-4889 -47 0
-4889 209 0
-226 4887 4888 4889 0
-4890 -18 0
-4890 401 0
-4891 -51 0
-4891 235 0
-4892 -66 0
-4892 220 0
-226 4890 4891 4892 0
-4893 -19 0
-4893 409 0
-4894 -52 0
-4894 243 0
-4895 -74 0
-4895 221 0
-226 4893 4894 4895 0
-4896 -20 0
-4896 416 0
-4897 -53 0
-4897 250 0
-4898 -81 0
-4898 222 0
-226 4896 4897 4898 0
-4899 -21 0
-4899 422 0
-4900 -54 0
-4900 256 0
-4901 -87 0
-4901 223 0
-226 4899 4900 4901 0
-4902 -22 0
-4902 427 0
-4903 -55 0
-4903 261 0
-4904 -92 0
-4904 224 0
-226 4902 4903 4904 0
-4905 -23 0
-4905 431 0
-4906 -56 0
-4906 265 0
-4907 -96 0
-4907 225 0
-226 4905 4906 4907 0
-4908 -25 0
-4908 435 0
-4909 -58 0
-4909 269 0
-4910 -100 0
-4910 227 0
-226 4908 4909 4910 0
-4911 -26 0
-4911 436 0
-4912 -59 0
-4912 270 0
-4913 -101 0
-4913 228 0
-226 4911 4912 4913 0
-4914 -27 0
-4914 437 0
-4915 -60 0
-4915 271 0
-4916 -102 0
-4916 229 0
-226 4914 4915 4916 0
-4917 -1 0
-4917 149 0
-4918 -4 0
-4918 116 0
-4919 -12 0
-4919 108 0
-227 4917 4918 4919 0
-4920 -15 0
-4920 293 0
-4921 -29 0
-4921 206 0
-4922 -37 0
-4922 198 0
-227 4920 4921 4922 0
-4923 -16 0
-4923 348 0
-4924 -40 0
-4924 217 0
-4925 -48 0
-4925 209 0
-227 4923 4924 4925 0
-4926 -18 0
-4926 402 0
-4927 -51 0
-4927 236 0
-4928 -67 0
-4928 220 0
-227 4926 4927 4928 0
-4929 -19 0
-4929 410 0
-4930 -52 0
-4930 244 0
-4931 -75 0
-4931 221 0
-227 4929 4930 4931 0
-4932 -20 0
-4932 417 0
-4933 -53 0
-4933 251 0
-4934 -82 0
-4934 222 0
-227 4932 4933 4934 0
-4935 -21 0
-4935 423 0
-4936 -54 0
-4936 257 0
-4937 -88 0
-4937 223 0
-227 4935 4936 4937 0
-4938 -22 0
-4938 428 0
-4939 -55 0
-4939 262 0
-4940 -93 0
-4940 224 0
-227 4938 4939 4940 0
-4941 -23 0
-4941 432 0
-4942 -56 0
-4942 266 0
-4943 -97 0
-4943 225 0
-227 4941 4942 4943 0
-4944 -24 0
-4944 435 0
-4945 -57 0
-4945 269 0
-4946 -100 0
-4946 226 0
-227 4944 4945 4946 0
-4947 -26 0
-4947 438 0
-4948 -59 0
-4948 272 0
-4949 -103 0
-4949 228 0
-227 4947 4948 4949 0
-4950 -27 0
-4950 439 0
-4951 -60 0
-4951 273 0
-4952 -104 0
-4952 229 0
-227 4950 4951 4952 0
-4953 -1 0
-4953 150 0
-4954 -4 0
-4954 117 0
-4955 -13 0
-4955 108 0
-228 4953 4954 4955 0
-4956 -15 0
-4956 294 0
-4957 -29 0
-4957 207 0
-4958 -38 0
-4958 198 0
-228 4956 4957 4958 0
-4959 -16 0
-4959 349 0
-4960 -40 0
-4960 218 0
-4961 -49 0
-4961 209 0
-228 4959 4960 4961 0
-4962 -18 0
-4962 403 0
-4963 -51 0
-4963 237 0
-4964 -68 0
-4964 220 0
-228 4962 4963 4964 0
-4965 -19 0
-4965 411 0
-4966 -52 0
-4966 245 0
-4967 -76 0
-4967 221 0
-228 4965 4966 4967 0
-4968 -20 0
-4968 418 0
-4969 -53 0
-4969 252 0
-4970 -83 0
-4970 222 0
-228 4968 4969 4970 0
-4971 -21 0
-4971 424 0
-4972 -54 0
-4972 258 0
-4973 -89 0
-4973 223 0
-228 4971 4972 4973 0
-4974 -22 0
-4974 429 0
-4975 -55 0
-4975 263 0
-4976 -94 0
-4976 224 0
-228 4974 4975 4976 0
-4977 -23 0
-4977 433 0
-4978 -56 0
-4978 267 0
-4979 -98 0
-4979 225 0
-228 4977 4978 4979 0
-4980 -24 0
-4980 436 0
-4981 -57 0
-4981 270 0
-4982 -101 0
-4982 226 0
-228 4980 4981 4982 0
-4983 -25 0
-4983 438 0
-4984 -58 0
-4984 272 0
-4985 -103 0
-4985 227 0
-228 4983 4984 4985 0
-4986 -27 0
-4986 440 0
-4987 -60 0
-4987 274 0
-4988 -105 0
-4988 229 0
-228 4986 4987 4988 0
-4989 -1 0
-4989 151 0
-4990 -4 0
-4990 118 0
-4991 -14 0
-4991 108 0
-229 4989 4990 4991 0
-4992 -15 0
-4992 295 0
-4993 -29 0
-4993 208 0
-4994 -39 0
-4994 198 0
-229 4992 4993 4994 0
-4995 -16 0
-4995 350 0
-4996 -40 0
-4996 219 0
-4997 -50 0
-4997 209 0
-229 4995 4996 4997 0
-4998 -18 0
-4998 404 0
-4999 -51 0
-4999 238 0
-5000 -69 0
-5000 220 0
-229 4998 4999 5000 0
-5001 -19 0
-5001 412 0
-5002 -52 0
-5002 246 0
-5003 -77 0
-5003 221 0
-229 5001 5002 5003 0
-5004 -20 0
-5004 419 0
-5005 -53 0
-5005 253 0
-5006 -84 0
-5006 222 0
-229 5004 5005 5006 0
-5007 -21 0
-5007 425 0
-5008 -54 0
-5008 259 0
-5009 -90 0
-5009 223 0
-229 5007 5008 5009 0
-5010 -22 0
-5010 430 0
-5011 -55 0
-5011 264 0
-5012 -95 0
-5012 224 0
-229 5010 5011 5012 0
-5013 -23 0
-5013 434 0
-5014 -56 0
-5014 268 0
-5015 -99 0
-5015 225 0
-229 5013 5014 5015 0
-5016 -24 0
-5016 437 0
-5017 -57 0
-5017 271 0
-5018 -102 0
-5018 226 0
-229 5016 5017 5018 0
-5019 -25 0
-5019 439 0
-5020 -58 0
-5020 273 0
-5021 -104 0
-5021 227 0
-229 5019 5020 5021 0
-5022 -26 0
-5022 440 0
-5023 -59 0
-5023 274 0
-5024 -105 0
-5024 228 0
-229 5022 5023 5024 0
-5025 -1 0
-5025 152 0
-5026 -5 0
-5026 110 0
-5027 -6 0
-5027 109 0
-230 5025 5026 5027 0
-5028 -15 0
-5028 296 0
-5029 -30 0
-5029 200 0
-5030 -31 0
-5030 199 0
-230 5028 5029 5030 0
-5031 -16 0
-5031 351 0
-5032 -41 0
-5032 211 0
-5033 -42 0
-5033 210 0
-230 5031 5032 5033 0
-5034 -17 0
-5034 396 0
-5035 -51 0
-5035 221 0
-5036 -52 0
-5036 220 0
-230 5034 5035 5036 0
-5037 -20 0
-5037 441 0
-5038 -62 0
-5038 239 0
-5039 -70 0
-5039 231 0
-230 5037 5038 5039 0
-5040 -21 0
-5040 442 0
-5041 -63 0
-5041 240 0
-5042 -71 0
-5042 232 0
-230 5040 5041 5042 0
-5043 -22 0
-5043 443 0
-5044 -64 0
-5044 241 0
-5045 -72 0
-5045 233 0
-230 5043 5044 5045 0
-5046 -23 0
-5046 444 0
-5047 -65 0
-5047 242 0
-5048 -73 0
-5048 234 0
-230 5046 5047 5048 0
-5049 -24 0
-5049 445 0
-5050 -66 0
-5050 243 0
-5051 -74 0
-5051 235 0
-230 5049 5050 5051 0
-5052 -25 0
-5052 446 0
-5053 -67 0
-5053 244 0
-5054 -75 0
-5054 236 0
-230 5052 5053 5054 0
-5055 -26 0
-5055 447 0
-5056 -68 0
-5056 245 0
-5057 -76 0
-5057 237 0
-230 5055 5056 5057 0
-5058 -27 0
-5058 448 0
-5059 -69 0
-5059 246 0
-5060 -77 0
-5060 238 0
-230 5058 5059 5060 0
-5061 -1 0
-5061 153 0
-5062 -5 0
-5062 111 0
-5063 -7 0
-5063 109 0
-231 5061 5062 5063 0
-5064 -15 0
-5064 297 0
-5065 -30 0
-5065 201 0
-5066 -32 0
-5066 199 0
-231 5064 5065 5066 0
-5067 -16 0
-5067 352 0
-5068 -41 0
-5068 212 0
-5069 -43 0
-5069 210 0
-231 5067 5068 5069 0
-5070 -17 0
-5070 397 0
-5071 -51 0
-5071 222 0
-5072 -53 0
-5072 220 0
-231 5070 5071 5072 0
-5073 -19 0
-5073 441 0
-5074 -61 0
-5074 239 0
-5075 -70 0
-5075 230 0
-231 5073 5074 5075 0
-5076 -21 0
-5076 449 0
-5077 -63 0
-5077 247 0
-5078 -78 0
-5078 232 0
-231 5076 5077 5078 0
-5079 -22 0
-5079 450 0
-5080 -64 0
-5080 248 0
-5081 -79 0
-5081 233 0
-231 5079 5080 5081 0
-5082 -23 0
-5082 451 0
-5083 -65 0
-5083 249 0
-5084 -80 0
-5084 234 0
-231 5082 5083 5084 0
-5085 -24 0
-5085 452 0
-5086 -66 0
-5086 250 0
-5087 -81 0
-5087 235 0
-231 5085 5086 5087 0
-5088 -25 0
-5088 453 0
-5089 -67 0
-5089 251 0
-5090 -82 0
-5090 236 0
-231 5088 5089 5090 0
-5091 -26 0
-5091 454 0
-5092 -68 0
-5092 252 0
-5093 -83 0
-5093 237 0
-231 5091 5092 5093 0
-5094 -27 0
-5094 455 0
-5095 -69 0
-5095 253 0
-5096 -84 0
-5096 238 0
-231 5094 5095 5096 0
-5097 -1 0
-5097 154 0
-5098 -5 0
-5098 112 0
-5099 -8 0
-5099 109 0
-232 5097 5098 5099 0
-5100 -15 0
-5100 298 0
-5101 -30 0
-5101 202 0
-5102 -33 0
-5102 199 0
-232 5100 5101 5102 0
-5103 -16 0
-5103 353 0
-5104 -41 0
-5104 213 0
-5105 -44 0
-5105 210 0
-232 5103 5104 5105 0
-5106 -17 0
-5106 398 0
-5107 -51 0
-5107 223 0
-5108 -54 0
-5108 220 0
-232 5106 5107 5108 0
-5109 -19 0
-5109 442 0
-5110 -61 0
-5110 240 0
-5111 -71 0
-5111 230 0
-232 5109 5110 5111 0
-5112 -20 0
-5112 449 0
-5113 -62 0
-5113 247 0
-5114 -78 0
-5114 231 0
-232 5112 5113 5114 0
-5115 -22 0
-5115 456 0
-5116 -64 0
-5116 254 0
-5117 -85 0
-5117 233 0
-232 5115 5116 5117 0
-5118 -23 0
-5118 457 0
-5119 -65 0
-5119 255 0
-5120 -86 0
-5120 234 0
-232 5118 5119 5120 0
-5121 -24 0
-5121 458 0
-5122 -66 0
-5122 256 0
-5123 -87 0
-5123 235 0
-232 5121 5122 5123 0
-5124 -25 0
-5124 459 0
-5125 -67 0
-5125 257 0
-5126 -88 0
-5126 236 0
-232 5124 5125 5126 0
-5127 -26 0
-5127 460 0
-5128 -68 0
-5128 258 0
-5129 -89 0
-5129 237 0
-232 5127 5128 5129 0
-5130 -27 0
-5130 461 0
-5131 -69 0
-5131 259 0
-5132 -90 0
-5132 238 0
-232 5130 5131 5132 0
-5133 -1 0
-5133 155 0
-5134 -5 0
-5134 113 0
-5135 -9 0
-5135 109 0
-233 5133 5134 5135 0
-5136 -15 0
-5136 299 0
-5137 -30 0
-5137 203 0
-5138 -34 0
-5138 199 0
-233 5136 5137 5138 0
-5139 -16 0
-5139 354 0
-5140 -41 0
-5140 214 0
-5141 -45 0
-5141 210 0
-233 5139 5140 5141 0
-5142 -17 0
-5142 399 0
-5143 -51 0
-5143 224 0
-5144 -55 0
-5144 220 0
-233 5142 5143 5144 0
-5145 -19 0
-5145 443 0
-5146 -61 0
-5146 241 0
-5147 -72 0
-5147 230 0
-233 5145 5146 5147 0
-5148 -20 0
-5148 450 0
-5149 -62 0
-5149 248 0
-5150 -79 0
-5150 231 0
-233 5148 5149 5150 0
-5151 -21 0
-5151 456 0
-5152 -63 0
-5152 254 0
-5153 -85 0
-5153 232 0
-233 5151 5152 5153 0
-5154 -23 0
-5154 462 0
-5155 -65 0
-5155 260 0
-5156 -91 0
-5156 234 0
-233 5154 5155 5156 0
-5157 -24 0
-5157 463 0
-5158 -66 0
-5158 261 0
-5159 -92 0
-5159 235 0
-233 5157 5158 5159 0
-5160 -25 0
-5160 464 0
-5161 -67 0
-5161 262 0
-5162 -93 0
-5162 236 0
-233 5160 5161 5162 0
-5163 -26 0
-5163 465 0
-5164 -68 0
-5164 263 0
-5165 -94 0
-5165 237 0
-233 5163 5164 5165 0
-5166 -27 0
-5166 466 0
-5167 -69 0
-5167 264 0
-5168 -95 0
-5168 238 0
-233 5166 5167 5168 0
-5169 -1 0
-5169 156 0
-5170 -5 0
-5170 114 0
-5171 -10 0
-5171 109 0
-234 5169 5170 5171 0
-5172 -15 0
-5172 300 0
-5173 -30 0
-5173 204 0
-5174 -35 0
-5174 199 0
-234 5172 5173 5174 0
-5175 -16 0
-5175 355 0
-5176 -41 0
-5176 215 0
-5177 -46 0
-5177 210 0
-234 5175 5176 5177 0
-5178 -17 0
-5178 400 0
-5179 -51 0
-5179 225 0
-5180 -56 0
-5180 220 0
-234 5178 5179 5180 0
-5181 -19 0
-5181 444 0
-5182 -61 0
-5182 242 0
-5183 -73 0
-5183 230 0
-234 5181 5182 5183 0
-5184 -20 0
-5184 451 0
-5185 -62 0
-5185 249 0
-5186 -80 0
-5186 231 0
-234 5184 5185 5186 0
-5187 -21 0
-5187 457 0
-5188 -63 0
-5188 255 0
-5189 -86 0
-5189 232 0
-234 5187 5188 5189 0
-5190 -22 0
-5190 462 0
-5191 -64 0
-5191 260 0
-5192 -91 0
-5192 233 0
-234 5190 5191 5192 0
-5193 -24 0
-5193 467 0
-5194 -66 0
-5194 265 0
-5195 -96 0
-5195 235 0
-234 5193 5194 5195 0
-5196 -25 0
-5196 468 0
-5197 -67 0
-5197 266 0
-5198 -97 0
-5198 236 0
-234 5196 5197 5198 0
-5199 -26 0
-5199 469 0
-5200 -68 0
-5200 267 0
-5201 -98 0
-5201 237 0
-234 5199 5200 5201 0
-5202 -27 0
-5202 470 0
-5203 -69 0
-5203 268 0
-5204 -99 0
-5204 238 0
-234 5202 5203 5204 0
-5205 -1 0
-5205 157 0
-5206 -5 0
-5206 115 0
-5207 -11 0
-5207 109 0
-235 5205 5206 5207 0
-5208 -15 0
-5208 301 0
-5209 -30 0
-5209 205 0
-5210 -36 0
-5210 199 0
-235 5208 5209 5210 0
-5211 -16 0
-5211 356 0
-5212 -41 0
-5212 216 0
-5213 -47 0
-5213 210 0
-235 5211 5212 5213 0
-5214 -17 0
-5214 401 0
-5215 -51 0
-5215 226 0
-5216 -57 0
-5216 220 0
-235 5214 5215 5216 0
-5217 -19 0
-5217 445 0
-5218 -61 0
-5218 243 0
-5219 -74 0
-5219 230 0
-235 5217 5218 5219 0
-5220 -20 0
-5220 452 0
-5221 -62 0
-5221 250 0
-5222 -81 0
-5222 231 0
-235 5220 5221 5222 0
-5223 -21 0
-5223 458 0
-5224 -63 0
-5224 256 0
-5225 -87 0
-5225 232 0
-235 5223 5224 5225 0
-5226 -22 0
-5226 463 0
-5227 -64 0
-5227 261 0
-5228 -92 0
-5228 233 0
-235 5226 5227 5228 0
-5229 -23 0
-5229 467 0
-5230 -65 0
-5230 265 0
-5231 -96 0
-5231 234 0
-235 5229 5230 5231 0
-5232 -25 0
-5232 471 0
-5233 -67 0
-5233 269 0
-5234 -100 0
-5234 236 0
-235 5232 5233 5234 0
-5235 -26 0
-5235 472 0
-5236 -68 0
-5236 270 0
-5237 -101 0
-5237 237 0
-235 5235 5236 5237 0
-5238 -27 0
-5238 473 0
-5239 -69 0
-5239 271 0
-5240 -102 0
-5240 238 0
-235 5238 5239 5240 0
-5241 -1 0
-5241 158 0
-5242 -5 0
-5242 116 0
-5243 -12 0
-5243 109 0
-236 5241 5242 5243 0
-5244 -15 0
-5244 302 0
-5245 -30 0
-5245 206 0
-5246 -37 0
-5246 199 0
-236 5244 5245 5246 0
-5247 -16 0
-5247 357 0
-5248 -41 0
-5248 217 0
-5249 -48 0
-5249 210 0
-236 5247 5248 5249 0
-5250 -17 0
-5250 402 0
-5251 -51 0
-5251 227 0
-5252 -58 0
-5252 220 0
-236 5250 5251 5252 0
-5253 -19 0
-5253 446 0
-5254 -61 0
-5254 244 0
-5255 -75 0
-5255 230 0
-236 5253 5254 5255 0
-5256 -20 0
-5256 453 0
-5257 -62 0
-5257 251 0
-5258 -82 0
-5258 231 0
-236 5256 5257 5258 0
-5259 -21 0
-5259 459 0
-5260 -63 0
-5260 257 0
-5261 -88 0
-5261 232 0
-236 5259 5260 5261 0
-5262 -22 0
-5262 464 0
-5263 -64 0
-5263 262 0
-5264 -93 0
-5264 233 0
-236 5262 5263 5264 0
-5265 -23 0
-5265 468 0
-5266 -65 0
-5266 266 0
-5267 -97 0
-5267 234 0
-236 5265 5266 5267 0
-5268 -24 0
-5268 471 0
-5269 -66 0
-5269 269 0
-5270 -100 0
-5270 235 0
-236 5268 5269 5270 0
-5271 -26 0
-5271 474 0
-5272 -68 0
-5272 272 0
-5273 -103 0
-5273 237 0
-236 5271 5272 5273 0
-5274 -27 0
-5274 475 0
-5275 -69 0
-5275 273 0
-5276 -104 0
-5276 238 0
-236 5274 5275 5276 0
-5277 -1 0
-5277 159 0
-5278 -5 0
-5278 117 0
-5279 -13 0
-5279 109 0
-237 5277 5278 5279 0
-5280 -15 0
-5280 303 0
-5281 -30 0
-5281 207 0
-5282 -38 0
-5282 199 0
-237 5280 5281 5282 0
-5283 -16 0
-5283 358 0
-5284 -41 0
-5284 218 0
-5285 -49 0
-5285 210 0
-237 5283 5284 5285 0
-5286 -17 0
-5286 403 0
-5287 -51 0
-5287 228 0
-5288 -59 0
-5288 220 0
-237 5286 5287 5288 0
-5289 -19 0
-5289 447 0
-5290 -61 0
-5290 245 0
-5291 -76 0
-5291 230 0
-237 5289 5290 5291 0
-5292 -20 0
-5292 454 0
-5293 -62 0
-5293 252 0
-5294 -83 0
-5294 231 0
-237 5292 5293 5294 0
-5295 -21 0
-5295 460 0
-5296 -63 0
-5296 258 0
-5297 -89 0
-5297 232 0
-237 5295 5296 5297 0
-5298 -22 0
-5298 465 0
-5299 -64 0
-5299 263 0
-5300 -94 0
-5300 233 0
-237 5298 5299 5300 0
-5301 -23 0
-5301 469 0
-5302 -65 0
-5302 267 0
-5303 -98 0
-5303 234 0
-237 5301 5302 5303 0
-5304 -24 0
-5304 472 0
-5305 -66 0
-5305 270 0
-5306 -101 0
-5306 235 0
-237 5304 5305 5306 0
-5307 -25 0
-5307 474 0
-5308 -67 0
-5308 272 0
-5309 -103 0
-5309 236 0
-237 5307 5308 5309 0
-5310 -27 0
-5310 476 0
-5311 -69 0
-5311 274 0
-5312 -105 0
-5312 238 0
-237 5310 5311 5312 0
-5313 -1 0
-5313 160 0
-5314 -5 0
-5314 118 0
-5315 -14 0
-5315 109 0
-238 5313 5314 5315 0
-5316 -15 0
-5316 304 0
-5317 -30 0
-5317 208 0
-5318 -39 0
-5318 199 0
-238 5316 5317 5318 0
-5319 -16 0
-5319 359 0
-5320 -41 0
-5320 219 0
-5321 -50 0
-5321 210 0
-238 5319 5320 5321 0
-5322 -17 0
-5322 404 0
-5323 -51 0
-5323 229 0
-5324 -60 0
-5324 220 0
-238 5322 5323 5324 0
-5325 -19 0
-5325 448 0
-5326 -61 0
-5326 246 0
-5327 -77 0
-5327 230 0
-238 5325 5326 5327 0
-5328 -20 0
-5328 455 0
-5329 -62 0
-5329 253 0
-5330 -84 0
-5330 231 0
-238 5328 5329 5330 0
-5331 -21 0
-5331 461 0
-5332 -63 0
-5332 259 0
-5333 -90 0
-5333 232 0
-238 5331 5332 5333 0
-5334 -22 0
-5334 466 0
-5335 -64 0
-5335 264 0
-5336 -95 0
-5336 233 0
-238 5334 5335 5336 0
-5337 -23 0
-5337 470 0
-5338 -65 0
-5338 268 0
-5339 -99 0
-5339 234 0
-238 5337 5338 5339 0
-5340 -24 0
-5340 473 0
-5341 -66 0
-5341 271 0
-5342 -102 0
-5342 235 0
-238 5340 5341 5342 0
-5343 -25 0
-5343 475 0
-5344 -67 0
-5344 273 0
-5345 -104 0
-5345 236 0
-238 5343 5344 5345 0
-5346 -26 0
-5346 476 0
-5347 -68 0
-5347 274 0
-5348 -105 0
-5348 237 0
-238 5346 5347 5348 0
-5349 -1 0
-5349 161 0
-5350 -6 0
-5350 111 0
-5351 -7 0
-5351 110 0
-239 5349 5350 5351 0
-5352 -15 0
-5352 305 0
-5353 -31 0
-5353 201 0
-5354 -32 0
-5354 200 0
-239 5352 5353 5354 0
-5355 -16 0
-5355 360 0
-5356 -42 0
-5356 212 0
-5357 -43 0
-5357 211 0
-239 5355 5356 5357 0
-5358 -17 0
-5358 405 0
-5359 -52 0
-5359 222 0
-5360 -53 0
-5360 221 0
-239 5358 5359 5360 0
-5361 -18 0
-5361 441 0
-5362 -61 0
-5362 231 0
-5363 -62 0
-5363 230 0
-239 5361 5362 5363 0
-5364 -21 0
-5364 477 0
-5365 -71 0
-5365 247 0
-5366 -78 0
-5366 240 0
-239 5364 5365 5366 0
-5367 -22 0
-5367 478 0
-5368 -72 0
-5368 248 0
-5369 -79 0
-5369 241 0
-239 5367 5368 5369 0
-5370 -23 0
-5370 479 0
-5371 -73 0
-5371 249 0
-5372 -80 0
-5372 242 0
-239 5370 5371 5372 0
-5373 -24 0
-5373 480 0
-5374 -74 0
-5374 250 0
-5375 -81 0
-5375 243 0
-239 5373 5374 5375 0
-5376 -25 0
-5376 481 0
-5377 -75 0
-5377 251 0
-5378 -82 0
-5378 244 0
-239 5376 5377 5378 0
-5379 -26 0
-5379 482 0
-5380 -76 0
-5380 252 0
-5381 -83 0
-5381 245 0
-239 5379 5380 5381 0
-5382 -27 0
-5382 483 0
-5383 -77 0
-5383 253 0
-5384 -84 0
-5384 246 0
-239 5382 5383 5384 0
-5385 -1 0
-5385 162 0
-5386 -6 0
-5386 112 0
-5387 -8 0
-5387 110 0
-240 5385 5386 5387 0
-5388 -15 0
-5388 306 0
-5389 -31 0
-5389 202 0
-5390 -33 0
-5390 200 0
-240 5388 5389 5390 0
-5391 -16 0
-5391 361 0
-5392 -42 0
-5392 213 0
-5393 -44 0
-5393 211 0
-240 5391 5392 5393 0
-5394 -17 0
-5394 406 0
-5395 -52 0
-5395 223 0
-5396 -54 0
-5396 221 0
-240 5394 5395 5396 0
-5397 -18 0
-5397 442 0
-5398 -61 0
-5398 232 0
-5399 -63 0
-5399 230 0
-240 5397 5398 5399 0
-5400 -20 0
-5400 477 0
-5401 -70 0
-5401 247 0
-5402 -78 0
-5402 239 0
-240 5400 5401 5402 0
-5403 -22 0
-5403 484 0
-5404 -72 0
-5404 254 0
-5405 -85 0
-5405 241 0
-240 5403 5404 5405 0
-5406 -23 0
-5406 485 0
-5407 -73 0
-5407 255 0
-5408 -86 0
-5408 242 0
-240 5406 5407 5408 0
-5409 -24 0
-5409 486 0
-5410 -74 0
-5410 256 0
-5411 -87 0
-5411 243 0
-240 5409 5410 5411 0
-5412 -25 0
-5412 487 0
-5413 -75 0
-5413 257 0
-5414 -88 0
-5414 244 0
-240 5412 5413 5414 0
-5415 -26 0
-5415 488 0
-5416 -76 0
-5416 258 0
-5417 -89 0
-5417 245 0
-240 5415 5416 5417 0
-5418 -27 0
-5418 489 0
-5419 -77 0
-5419 259 0
-5420 -90 0
-5420 246 0
-240 5418 5419 5420 0
-5421 -1 0
-5421 163 0
-5422 -6 0
-5422 113 0
-5423 -9 0
-5423 110 0
-241 5421 5422 5423 0
-5424 -15 0
-5424 307 0
-5425 -31 0
-5425 203 0
-5426 -34 0
-5426 200 0
-241 5424 5425 5426 0
-5427 -16 0
-5427 362 0
-5428 -42 0
-5428 214 0
-5429 -45 0
-5429 211 0
-241 5427 5428 5429 0
-5430 -17 0
-5430 407 0
-5431 -52 0
-5431 224 0
-5432 -55 0
-5432 221 0
-241 5430 5431 5432 0
-5433 -18 0
-5433 443 0
-5434 -61 0
-5434 233 0
-5435 -64 0
-5435 230 0
-241 5433 5434 5435 0
-5436 -20 0
-5436 478 0
-5437 -70 0
-5437 248 0
-5438 -79 0
-5438 239 0
-241 5436 5437 5438 0
-5439 -21 0
-5439 484 0
-5440 -71 0
-5440 254 0
-5441 -85 0
-5441 240 0
-241 5439 5440 5441 0
-5442 -23 0
-5442 490 0
-5443 -73 0
-5443 260 0
-5444 -91 0
-5444 242 0
-241 5442 5443 5444 0
-5445 -24 0
-5445 491 0
-5446 -74 0
-5446 261 0
-5447 -92 0
-5447 243 0
-241 5445 5446 5447 0
-5448 -25 0
-5448 492 0
-5449 -75 0
-5449 262 0
-5450 -93 0
-5450 244 0
-241 5448 5449 5450 0
-5451 -26 0
-5451 493 0
-5452 -76 0
-5452 263 0
-5453 -94 0
-5453 245 0
-241 5451 5452 5453 0
-5454 -27 0
-5454 494 0
-5455 -77 0
-5455 264 0
-5456 -95 0
-5456 246 0
-241 5454 5455 5456 0
-5457 -1 0
-5457 164 0
-5458 -6 0
-5458 114 0
-5459 -10 0
-5459 110 0
-242 5457 5458 5459 0
-5460 -15 0
-5460 308 0
-5461 -31 0
-5461 204 0
-5462 -35 0
-5462 200 0
-242 5460 5461 5462 0
-5463 -16 0
-5463 363 0
-5464 -42 0
-5464 215 0
-5465 -46 0
-5465 211 0
-242 5463 5464 5465 0
-5466 -17 0
-5466 408 0
-5467 -52 0
-5467 225 0
-5468 -56 0
-5468 221 0
-242 5466 5467 5468 0
-5469 -18 0
-5469 444 0
-5470 -61 0
-5470 234 0
-5471 -65 0
-5471 230 0
-242 5469 5470 5471 0
-5472 -20 0
-5472 479 0
-5473 -70 0
-5473 249 0
-5474 -80 0
-5474 239 0
-242 5472 5473 5474 0
-5475 -21 0
-5475 485 0
-5476 -71 0
-5476 255 0
-5477 -86 0
-5477 240 0
-242 5475 5476 5477 0
-5478 -22 0
-5478 490 0
-5479 -72 0
-5479 260 0
-5480 -91 0
-5480 241 0
-242 5478 5479 5480 0
-5481 -24 0
-5481 495 0
-5482 -74 0
-5482 265 0
-5483 -96 0
-5483 243 0
-242 5481 5482 5483 0
-5484 -25 0
-5484 496 0
-5485 -75 0
-5485 266 0
-5486 -97 0
-5486 244 0
-242 5484 5485 5486 0
-5487 -26 0
-5487 497 0
-5488 -76 0
-5488 267 0
-5489 -98 0
-5489 245 0
-242 5487 5488 5489 0
-5490 -27 0
-5490 498 0
-5491 -77 0
-5491 268 0
-5492 -99 0
-5492 246 0
-242 5490 5491 5492 0
-5493 -1 0
-5493 165 0
-5494 -6 0
-5494 115 0
-5495 -11 0
-5495 110 0
-243 5493 5494 5495 0
-5496 -15 0
-5496 309 0
-5497 -31 0
-5497 205 0
-5498 -36 0
-5498 200 0
-243 5496 5497 5498 0
-5499 -16 0
-5499 364 0
-5500 -42 0
-5500 216 0
-5501 -47 0
-5501 211 0
-243 5499 5500 5501 0
-5502 -17 0
-5502 409 0
-5503 -52 0
-5503 226 0
-5504 -57 0
-5504 221 0
-243 5502 5503 5504 0
-5505 -18 0
-5505 445 0
-5506 -61 0
-5506 235 0
-5507 -66 0
-5507 230 0
-243 5505 5506 5507 0
-5508 -20 0
-5508 480 0
-5509 -70 0
-5509 250 0
-5510 -81 0
-5510 239 0
-243 5508 5509 5510 0
-5511 -21 0
-5511 486 0
-5512 -71 0
-5512 256 0
-5513 -87 0
-5513 240 0
-243 5511 5512 5513 0
-5514 -22 0
-5514 491 0
-5515 -72 0
-5515 261 0
-5516 -92 0
-5516 241 0
-243 5514 5515 5516 0
-5517 -23 0
-5517 495 0
-5518 -73 0
-5518 265 0
-5519 -96 0
-5519 242 0
-243 5517 5518 5519 0
-5520 -25 0
-5520 499 0
-5521 -75 0
-5521 269 0
-5522 -100 0
-5522 244 0
-243 5520 5521 5522 0
-5523 -26 0
-5523 500 0
-5524 -76 0
-5524 270 0
-5525 -101 0
-5525 245 0
-243 5523 5524 5525 0
-5526 -27 0
-5526 501 0
-5527 -77 0
-5527 271 0
-5528 -102 0
-5528 246 0
-243 5526 5527 5528 0
-5529 -1 0
-5529 166 0
-5530 -6 0
-5530 116 0
-5531 -12 0
-5531 110 0
-244 5529 5530 5531 0
-5532 -15 0
-5532 310 0
-5533 -31 0
-5533 206 0
-5534 -37 0
-5534 200 0
-244 5532 5533 5534 0
-5535 -16 0
-5535 365 0
-5536 -42 0
-5536 217 0
-5537 -48 0
-5537 211 0
-244 5535 5536 5537 0
-5538 -17 0
-5538 410 0
-5539 -52 0
-5539 227 0
-5540 -58 0
-5540 221 0
-244 5538 5539 5540 0
-5541 -18 0
-5541 446 0
-5542 -61 0
-5542 236 0
-5543 -67 0
-5543 230 0
-244 5541 5542 5543 0
-5544 -20 0
-5544 481 0
-5545 -70 0
-5545 251 0
-5546 -82 0
-5546 239 0
-244 5544 5545 5546 0
-5547 -21 0
-5547 487 0
-5548 -71 0
-5548 257 0
-5549 -88 0
-5549 240 0
-244 5547 5548 5549 0
-5550 -22 0
-5550 492 0
-5551 -72 0
-5551 262 0
-5552 -93 0
-5552 241 0
-244 5550 5551 5552 0
-5553 -23 0
-5553 496 0
-5554 -73 0
-5554 266 0
-5555 -97 0
-5555 242 0
-244 5553 5554 5555 0
-5556 -24 0
-5556 499 0
-5557 -74 0
-5557 269 0
-5558 -100 0
-5558 243 0
-244 5556 5557 5558 0
-5559 -26 0
-5559 502 0
-5560 -76 0
-5560 272 0
-5561 -103 0
-5561 245 0
-244 5559 5560 5561 0
-5562 -27 0
-5562 503 0
-5563 -77 0
-5563 273 0
-5564 -104 0
-5564 246 0
-244 5562 5563 5564 0
-5565 -1 0
-5565 167 0
-5566 -6 0
-5566 117 0
-5567 -13 0
-5567 110 0
-245 5565 5566 5567 0
-5568 -15 0
-5568 311 0
-5569 -31 0
-5569 207 0
-5570 -38 0
-5570 200 0
-245 5568 5569 5570 0
-5571 -16 0
-5571 366 0
-5572 -42 0
-5572 218 0
-5573 -49 0
-5573 211 0
-245 5571 5572 5573 0
-5574 -17 0
-5574 411 0
-5575 -52 0
-5575 228 0
-5576 -59 0
-5576 221 0
-245 5574 5575 5576 0
-5577 -18 0
-5577 447 0
-5578 -61 0
-5578 237 0
-5579 -68 0
-5579 230 0
-245 5577 5578 5579 0
-5580 -20 0
-5580 482 0
-5581 -70 0
-5581 252 0
-5582 -83 0
-5582 239 0
-245 5580 5581 5582 0
-5583 -21 0
-5583 488 0
-5584 -71 0
-5584 258 0
-5585 -89 0
-5585 240 0
-245 5583 5584 5585 0
-5586 -22 0
-5586 493 0
-5587 -72 0
-5587 263 0
-5588 -94 0
-5588 241 0
-245 5586 5587 5588 0
-5589 -23 0
-5589 497 0
-5590 -73 0
-5590 267 0
-5591 -98 0
-5591 242 0
-245 5589 5590 5591 0
-5592 -24 0
-5592 500 0
-5593 -74 0
-5593 270 0
-5594 -101 0
-5594 243 0
-245 5592 5593 5594 0
-5595 -25 0
-5595 502 0
-5596 -75 0
-5596 272 0
-5597 -103 0
-5597 244 0
-245 5595 5596 5597 0
-5598 -27 0
-5598 504 0
-5599 -77 0
-5599 274 0
-5600 -105 0
-5600 246 0
-245 5598 5599 5600 0
-5601 -1 0
-5601 168 0
-5602 -6 0
-5602 118 0
-5603 -14 0
-5603 110 0
-246 5601 5602 5603 0
-5604 -15 0
-5604 312 0
-5605 -31 0
-5605 208 0
-5606 -39 0
-5606 200 0
-246 5604 5605 5606 0
-5607 -16 0
-5607 367 0
-5608 -42 0
-5608 219 0
-5609 -50 0
-5609 211 0
-246 5607 5608 5609 0
-5610 -17 0
-5610 412 0
-5611 -52 0
-5611 229 0
-5612 -60 0
-5612 221 0
-246 5610 5611 5612 0
-5613 -18 0
-5613 448 0
-5614 -61 0
-5614 238 0
-5615 -69 0
-5615 230 0
-246 5613 5614 5615 0
-5616 -20 0
-5616 483 0
-5617 -70 0
-5617 253 0
-5618 -84 0
-5618 239 0
-246 5616 5617 5618 0
-5619 -21 0
-5619 489 0
-5620 -71 0
-5620 259 0
-5621 -90 0
-5621 240 0
-246 5619 5620 5621 0
-5622 -22 0
-5622 494 0
-5623 -72 0
-5623 264 0
-5624 -95 0
-5624 241 0
-246 5622 5623 5624 0
-5625 -23 0
-5625 498 0
-5626 -73 0
-5626 268 0
-5627 -99 0
-5627 242 0
-246 5625 5626 5627 0
-5628 -24 0
-5628 501 0
-5629 -74 0
-5629 271 0
-5630 -102 0
-5630 243 0
-246 5628 5629 5630 0
-5631 -25 0
-5631 503 0
-5632 -75 0
-5632 273 0
-5633 -104 0
-5633 244 0
-246 5631 5632 5633 0
-5634 -26 0
-5634 504 0
-5635 -76 0
-5635 274 0
-5636 -105 0
-5636 245 0
-246 5634 5635 5636 0
-5637 -1 0
-5637 169 0
-5638 -7 0
-5638 112 0
-5639 -8 0
-5639 111 0
-247 5637 5638 5639 0
-5640 -15 0
-5640 313 0
-5641 -32 0
-5641 202 0
-5642 -33 0
-5642 201 0
-247 5640 5641 5642 0
-5643 -16 0
-5643 368 0
-5644 -43 0
-5644 213 0
-5645 -44 0
-5645 212 0
-247 5643 5644 5645 0
-5646 -17 0
-5646 413 0
-5647 -53 0
-5647 223 0
-5648 -54 0
-5648 222 0
-247 5646 5647 5648 0
-5649 -18 0
-5649 449 0
-5650 -62 0
-5650 232 0
-5651 -63 0
-5651 231 0
-247 5649 5650 5651 0
-5652 -19 0
-5652 477 0
-5653 -70 0
-5653 240 0
-5654 -71 0
-5654 239 0
-247 5652 5653 5654 0
-5655 -22 0
-5655 505 0
-5656 -79 0
-5656 254 0
-5657 -85 0
-5657 248 0
-247 5655 5656 5657 0
-5658 -23 0
-5658 506 0
-5659 -80 0
-5659 255 0
-5660 -86 0
-5660 249 0
-247 5658 5659 5660 0
-5661 -24 0
-5661 507 0
-5662 -81 0
-5662 256 0
-5663 -87 0
-5663 250 0
-247 5661 5662 5663 0
-5664 -25 0
-5664 508 0
-5665 -82 0
-5665 257 0
-5666 -88 0
-5666 251 0
-247 5664 5665 5666 0
-5667 -26 0
-5667 509 0
-5668 -83 0
-5668 258 0
-5669 -89 0
-5669 252 0
-247 5667 5668 5669 0
-5670 -27 0
-5670 510 0
-5671 -84 0
-5671 259 0
-5672 -90 0
-5672 253 0
-247 5670 5671 5672 0
-5673 -1 0
-5673 170 0
-5674 -7 0
-5674 113 0
-5675 -9 0
-5675 111 0
-248 5673 5674 5675 0
-5676 -15 0
-5676 314 0
-5677 -32 0
-5677 203 0
-5678 -34 0
-5678 201 0
-248 5676 5677 5678 0
-5679 -16 0
-5679 369 0
-5680 -43 0
-5680 214 0
-5681 -45 0
-5681 212 0
-248 5679 5680 5681 0
-5682 -17 0
-5682 414 0
-5683 -53 0
-5683 224 0
-5684 -55 0
-5684 222 0
-248 5682 5683 5684 0
-5685 -18 0
-5685 450 0
-5686 -62 0
-5686 233 0
-5687 -64 0
-5687 231 0
-248 5685 5686 5687 0
-5688 -19 0
-5688 478 0
-5689 -70 0
-5689 241 0
-5690 -72 0
-5690 239 0
-248 5688 5689 5690 0
-5691 -21 0
-5691 505 0
-5692 -78 0
-5692 254 0
-5693 -85 0
-5693 247 0
-248 5691 5692 5693 0
-5694 -23 0
-5694 511 0
-5695 -80 0
-5695 260 0
-5696 -91 0
-5696 249 0
-248 5694 5695 5696 0
-5697 -24 0
-5697 512 0
-5698 -81 0
-5698 261 0
-5699 -92 0
-5699 250 0
-248 5697 5698 5699 0
-5700 -25 0
-5700 513 0
-5701 -82 0
-5701 262 0
-5702 -93 0
-5702 251 0
-248 5700 5701 5702 0
-5703 -26 0
-5703 514 0
-5704 -83 0
-5704 263 0
-5705 -94 0
-5705 252 0
-248 5703 5704 5705 0
-5706 -27 0
-5706 515 0
-5707 -84 0
-5707 264 0
-5708 -95 0
-5708 253 0
-248 5706 5707 5708 0
-5709 -1 0
-5709 171 0
-5710 -7 0
-5710 114 0
-5711 -10 0
-5711 111 0
-249 5709 5710 5711 0
-5712 -15 0
-5712 315 0
-5713 -32 0
-5713 204 0
-5714 -35 0
-5714 201 0
-249 5712 5713 5714 0
-5715 -16 0
-5715 370 0
-5716 -43 0
-5716 215 0
-5717 -46 0
-5717 212 0
-249 5715 5716 5717 0
-5718 -17 0
-5718 415 0
-5719 -53 0
-5719 225 0
-5720 -56 0
-5720 222 0
-249 5718 5719 5720 0
-5721 -18 0
-5721 451 0
-5722 -62 0
-5722 234 0
-5723 -65 0
-5723 231 0
-249 5721 5722 5723 0
-5724 -19 0
-5724 479 0
-5725 -70 0
-5725 242 0
-5726 -73 0
-5726 239 0
-249 5724 5725 5726 0
-5727 -21 0
-5727 506 0
-5728 -78 0
-5728 255 0
-5729 -86 0
-5729 247 0
-249 5727 5728 5729 0
-5730 -22 0
-5730 511 0
-5731 -79 0
-5731 260 0
-5732 -91 0
-5732 248 0
-249 5730 5731 5732 0
-5733 -24 0
-5733 516 0
-5734 -81 0
-5734 265 0
-5735 -96 0
-5735 250 0
-249 5733 5734 5735 0
-5736 -25 0
-5736 517 0
-5737 -82 0
-5737 266 0
-5738 -97 0
-5738 251 0
-249 5736 5737 5738 0
-5739 -26 0
-5739 518 0
-5740 -83 0
-5740 267 0
-5741 -98 0
-5741 252 0
-249 5739 5740 5741 0
-5742 -27 0
-5742 519 0
-5743 -84 0
-5743 268 0
-5744 -99 0
-5744 253 0
-249 5742 5743 5744 0
-5745 -1 0
-5745 172 0
-5746 -7 0
-5746 115 0
-5747 -11 0
-5747 111 0
-250 5745 5746 5747 0
-5748 -15 0
-5748 316 0
-5749 -32 0
-5749 205 0
-5750 -36 0
-5750 201 0
-250 5748 5749 5750 0
-5751 -16 0
-5751 371 0
-5752 -43 0
-5752 216 0
-5753 -47 0
-5753 212 0
-250 5751 5752 5753 0
-5754 -17 0
-5754 416 0
-5755 -53 0
-5755 226 0
-5756 -57 0
-5756 222 0
-250 5754 5755 5756 0
-5757 -18 0
-5757 452 0
-5758 -62 0
-5758 235 0
-5759 -66 0
-5759 231 0
-250 5757 5758 5759 0
-5760 -19 0
-5760 480 0
-5761 -70 0
-5761 243 0
-5762 -74 0
-5762 239 0
-250 5760 5761 5762 0
-5763 -21 0
-5763 507 0
-5764 -78 0
-5764 256 0
-5765 -87 0
-5765 247 0
-250 5763 5764 5765 0
-5766 -22 0
-5766 512 0
-5767 -79 0
-5767 261 0
-5768 -92 0
-5768 248 0
-250 5766 5767 5768 0
-5769 -23 0
-5769 516 0
-5770 -80 0
-5770 265 0
-5771 -96 0
-5771 249 0
-250 5769 5770 5771 0
-5772 -25 0
-5772 520 0
-5773 -82 0
-5773 269 0
-5774 -100 0
-5774 251 0
-250 5772 5773 5774 0
-5775 -26 0
-5775 521 0
-5776 -83 0
-5776 270 0
-5777 -101 0
-5777 252 0
-250 5775 5776 5777 0
-5778 -27 0
-5778 522 0
-5779 -84 0
-5779 271 0
-5780 -102 0
-5780 253 0
-250 5778 5779 5780 0
-5781 -1 0
-5781 173 0
-5782 -7 0
-5782 116 0
-5783 -12 0
-5783 111 0
-251 5781 5782 5783 0
-5784 -15 0
-5784 317 0
-5785 -32 0
-5785 206 0
-5786 -37 0
-5786 201 0
-251 5784 5785 5786 0
-5787 -16 0
-5787 372 0
-5788 -43 0
-5788 217 0
-5789 -48 0
-5789 212 0
-251 5787 5788 5789 0
-5790 -17 0
-5790 417 0
-5791 -53 0
-5791 227 0
-5792 -58 0
-5792 222 0
-251 5790 5791 5792 0
-5793 -18 0
-5793 453 0
-5794 -62 0
-5794 236 0
-5795 -67 0
-5795 231 0
-251 5793 5794 5795 0
-5796 -19 0
-5796 481 0
-5797 -70 0
-5797 244 0
-5798 -75 0
-5798 239 0
-251 5796 5797 5798 0
-5799 -21 0
-5799 508 0
-5800 -78 0
-5800 257 0
-5801 -88 0
-5801 247 0
-251 5799 5800 5801 0
-5802 -22 0
-5802 513 0
-5803 -79 0
-5803 262 0
-5804 -93 0
-5804 248 0
-251 5802 5803 5804 0
-5805 -23 0
-5805 517 0
-5806 -80 0
-5806 266 0
-5807 -97 0
-5807 249 0
-251 5805 5806 5807 0
-5808 -24 0
-5808 520 0
-5809 -81 0
-5809 269 0
-5810 -100 0
-5810 250 0
-251 5808 5809 5810 0
-5811 -26 0
-5811 523 0
-5812 -83 0
-5812 272 0
-5813 -103 0
-5813 252 0
-251 5811 5812 5813 0
-5814 -27 0
-5814 524 0
-5815 -84 0
-5815 273 0
-5816 -104 0
-5816 253 0
-251 5814 5815 5816 0
-5817 -1 0
-5817 174 0
-5818 -7 0
-5818 117 0
-5819 -13 0
-5819 111 0
-252 5817 5818 5819 0
-5820 -15 0
-5820 318 0
-5821 -32 0
-5821 207 0
-5822 -38 0
-5822 201 0
-252 5820 5821 5822 0
-5823 -16 0
-5823 373 0
-5824 -43 0
-5824 218 0
-5825 -49 0
-5825 212 0
-252 5823 5824 5825 0
-5826 -17 0
-5826 418 0
-5827 -53 0
-5827 228 0
-5828 -59 0
-5828 222 0
-252 5826 5827 5828 0
-5829 -18 0
-5829 454 0
-5830 -62 0
-5830 237 0
-5831 -68 0
-5831 231 0
-252 5829 5830 5831 0
-5832 -19 0
-5832 482 0
-5833 -70 0
-5833 245 0
-5834 -76 0
-5834 239 0
-252 5832 5833 5834 0
-5835 -21 0
-5835 509 0
-5836 -78 0
-5836 258 0
-5837 -89 0
-5837 247 0
-252 5835 5836 5837 0
-5838 -22 0
-5838 514 0
-5839 -79 0
-5839 263 0
-5840 -94 0
-5840 248 0
-252 5838 5839 5840 0
-5841 -23 0
-5841 518 0
-5842 -80 0
-5842 267 0
-5843 -98 0
-5843 249 0
-252 5841 5842 5843 0
-5844 -24 0
-5844 521 0
-5845 -81 0
-5845 270 0
-5846 -101 0
-5846 250 0
-252 5844 5845 5846 0
-5847 -25 0
-5847 523 0
-5848 -82 0
-5848 272 0
-5849 -103 0
-5849 251 0
-252 5847 5848 5849 0
-5850 -27 0
-5850 525 0
-5851 -84 0
-5851 274 0
-5852 -105 0
-5852 253 0
-252 5850 5851 5852 0
-5853 -1 0
-5853 175 0
-5854 -7 0
-5854 118 0
-5855 -14 0
-5855 111 0
-253 5853 5854 5855 0
-5856 -15 0
-5856 319 0
-5857 -32 0
-5857 208 0
-5858 -39 0
-5858 201 0
-253 5856 5857 5858 0
-5859 -16 0
-5859 374 0
-5860 -43 0
-5860 219 0
-5861 -50 0
-5861 212 0
-253 5859 5860 5861 0
-5862 -17 0
-5862 419 0
-5863 -53 0
-5863 229 0
-5864 -60 0
-5864 222 0
-253 5862 5863 5864 0
-5865 -18 0
-5865 455 0
-5866 -62 0
-5866 238 0
-5867 -69 0
-5867 231 0
-253 5865 5866 5867 0
-5868 -19 0
-5868 483 0
-5869 -70 0
-5869 246 0
-5870 -77 0
-5870 239 0
-253 5868 5869 5870 0
-5871 -21 0
-5871 510 0
-5872 -78 0
-5872 259 0
-5873 -90 0
-5873 247 0
-253 5871 5872 5873 0
-5874 -22 0
-5874 515 0
-5875 -79 0
-5875 264 0
-5876 -95 0
-5876 248 0
-253 5874 5875 5876 0
-5877 -23 0
-5877 519 0
-5878 -80 0
-5878 268 0
-5879 -99 0
-5879 249 0
-253 5877 5878 5879 0
-5880 -24 0
-5880 522 0
-5881 -81 0
-5881 271 0
-5882 -102 0
-5882 250 0
-253 5880 5881 5882 0
-5883 -25 0
-5883 524 0
-5884 -82 0
-5884 273 0
-5885 -104 0
-5885 251 0
-253 5883 5884 5885 0
-5886 -26 0
-5886 525 0
-5887 -83 0
-5887 274 0
-5888 -105 0
-5888 252 0
-253 5886 5887 5888 0
-5889 -1 0
-5889 176 0
-5890 -8 0
-5890 113 0
-5891 -9 0
-5891 112 0
-254 5889 5890 5891 0
-5892 -15 0
-5892 320 0
-5893 -33 0
-5893 203 0
-5894 -34 0
-5894 202 0
-254 5892 5893 5894 0
-5895 -16 0
-5895 375 0
-5896 -44 0
-5896 214 0
-5897 -45 0
-5897 213 0
-254 5895 5896 5897 0
-5898 -17 0
-5898 420 0
-5899 -54 0
-5899 224 0
-5900 -55 0
-5900 223 0
-254 5898 5899 5900 0
-5901 -18 0
-5901 456 0
-5902 -63 0
-5902 233 0
-5903 -64 0
-5903 232 0
-254 5901 5902 5903 0
-5904 -19 0
-5904 484 0
-5905 -71 0
-5905 241 0
-5906 -72 0
-5906 240 0
-254 5904 5905 5906 0
-5907 -20 0
-5907 505 0
-5908 -78 0
-5908 248 0
-5909 -79 0
-5909 247 0
-254 5907 5908 5909 0
-5910 -23 0
-5910 526 0
-5911 -86 0
-5911 260 0
-5912 -91 0
-5912 255 0
-254 5910 5911 5912 0
-5913 -24 0
-5913 527 0
-5914 -87 0
-5914 261 0
-5915 -92 0
-5915 256 0
-254 5913 5914 5915 0
-5916 -25 0
-5916 528 0
-5917 -88 0
-5917 262 0
-5918 -93 0
-5918 257 0
-254 5916 5917 5918 0
-5919 -26 0
-5919 529 0
-5920 -89 0
-5920 263 0
-5921 -94 0
-5921 258 0
-254 5919 5920 5921 0
-5922 -27 0
-5922 530 0
-5923 -90 0
-5923 264 0
-5924 -95 0
-5924 259 0
-254 5922 5923 5924 0
-5925 -1 0
-5925 177 0
-5926 -8 0
-5926 114 0
-5927 -10 0
-5927 112 0
-255 5925 5926 5927 0
-5928 -15 0
-5928 321 0
-5929 -33 0
-5929 204 0
-5930 -35 0
-5930 202 0
-255 5928 5929 5930 0
-5931 -16 0
-5931 376 0
-5932 -44 0
-5932 215 0
-5933 -46 0
-5933 213 0
-255 5931 5932 5933 0
-5934 -17 0
-5934 421 0
-5935 -54 0
-5935 225 0
-5936 -56 0
-5936 223 0
-255 5934 5935 5936 0
-5937 -18 0
-5937 457 0
-5938 -63 0
-5938 234 0
-5939 -65 0
-5939 232 0
-255 5937 5938 5939 0
-5940 -19 0
-5940 485 0
-5941 -71 0
-5941 242 0
-5942 -73 0
-5942 240 0
-255 5940 5941 5942 0
-5943 -20 0
-5943 506 0
-5944 -78 0
-5944 249 0
-5945 -80 0
-5945 247 0
-255 5943 5944 5945 0
-5946 -22 0
-5946 526 0
-5947 -85 0
-5947 260 0
-5948 -91 0
-5948 254 0
-255 5946 5947 5948 0
-5949 -24 0
-5949 531 0
-5950 -87 0
-5950 265 0
-5951 -96 0
-5951 256 0
-255 5949 5950 5951 0
-5952 -25 0
-5952 532 0
-5953 -88 0
-5953 266 0
-5954 -97 0
-5954 257 0
-255 5952 5953 5954 0
-5955 -26 0
-5955 533 0
-5956 -89 0
-5956 267 0
-5957 -98 0
-5957 258 0
-255 5955 5956 5957 0
-5958 -27 0
-5958 534 0
-5959 -90 0
-5959 268 0
-5960 -99 0
-5960 259 0
-255 5958 5959 5960 0
-5961 -1 0
-5961 178 0
-5962 -8 0
-5962 115 0
-5963 -11 0
-5963 112 0
-256 5961 5962 5963 0
-5964 -15 0
-5964 322 0
-5965 -33 0
-5965 205 0
-5966 -36 0
-5966 202 0
-256 5964 5965 5966 0
-5967 -16 0
-5967 377 0
-5968 -44 0
-5968 216 0
-5969 -47 0
-5969 213 0
-256 5967 5968 5969 0
-5970 -17 0
-5970 422 0
-5971 -54 0
-5971 226 0
-5972 -57 0
-5972 223 0
-256 5970 5971 5972 0
-5973 -18 0
-5973 458 0
-5974 -63 0
-5974 235 0
-5975 -66 0
-5975 232 0
-256 5973 5974 5975 0
-5976 -19 0
-5976 486 0
-5977 -71 0
-5977 243 0
-5978 -74 0
-5978 240 0
-256 5976 5977 5978 0
-5979 -20 0
-5979 507 0
-5980 -78 0
-5980 250 0
-5981 -81 0
-5981 247 0
-256 5979 5980 5981 0
-5982 -22 0
-5982 527 0
-5983 -85 0
-5983 261 0
-5984 -92 0
-5984 254 0
-256 5982 5983 5984 0
-5985 -23 0
-5985 531 0
-5986 -86 0
-5986 265 0
-5987 -96 0
-5987 255 0
-256 5985 5986 5987 0
-5988 -25 0
-5988 535 0
-5989 -88 0
-5989 269 0
-5990 -100 0
-5990 257 0
-256 5988 5989 5990 0
-5991 -26 0
-5991 536 0
-5992 -89 0
-5992 270 0
-5993 -101 0
-5993 258 0
-256 5991 5992 5993 0
-5994 -27 0
-5994 537 0
-5995 -90 0
-5995 271 0
-5996 -102 0
-5996 259 0
-256 5994 5995 5996 0
-5997 -1 0
-5997 179 0
-5998 -8 0
-5998 116 0
-5999 -12 0
-5999 112 0
-257 5997 5998 5999 0
-6000 -15 0
-6000 323 0
-6001 -33 0
-6001 206 0
-6002 -37 0
-6002 202 0
-257 6000 6001 6002 0
-6003 -16 0
-6003 378 0
-6004 -44 0
-6004 217 0
-6005 -48 0
-6005 213 0
-257 6003 6004 6005 0
-6006 -17 0
-6006 423 0
-6007 -54 0
-6007 227 0
-6008 -58 0
-6008 223 0
-257 6006 6007 6008 0
-6009 -18 0
-6009 459 0
-6010 -63 0
-6010 236 0
-6011 -67 0
-6011 232 0
-257 6009 6010 6011 0
-6012 -19 0
-6012 487 0
-6013 -71 0
-6013 244 0
-6014 -75 0
-6014 240 0
-257 6012 6013 6014 0
-6015 -20 0
-6015 508 0
-6016 -78 0
-6016 251 0
-6017 -82 0
-6017 247 0
-257 6015 6016 6017 0
-6018 -22 0
-6018 528 0
-6019 -85 0
-6019 262 0
-6020 -93 0
-6020 254 0
-257 6018 6019 6020 0
-6021 -23 0
-6021 532 0
-6022 -86 0
-6022 266 0
-6023 -97 0
-6023 255 0
-257 6021 6022 6023 0
-6024 -24 0
-6024 535 0
-6025 -87 0
-6025 269 0
-6026 -100 0
-6026 256 0
-257 6024 6025 6026 0
-6027 -26 0
-6027 538 0
-6028 -89 0
-6028 272 0
-6029 -103 0
-6029 258 0
-257 6027 6028 6029 0
-6030 -27 0
-6030 539 0
-6031 -90 0
-6031 273 0
-6032 -104 0
-6032 259 0
-257 6030 6031 6032 0
-6033 -1 0
-6033 180 0
-6034 -8 0
-6034 117 0
-6035 -13 0
-6035 112 0
-258 6033 6034 6035 0
-6036 -15 0
-6036 324 0
-6037 -33 0
-6037 207 0
-6038 -38 0
-6038 202 0
-258 6036 6037 6038 0
-6039 -16 0
-6039 379 0
-6040 -44 0
-6040 218 0
-6041 -49 0
-6041 213 0
-258 6039 6040 6041 0
-6042 -17 0
-6042 424 0
-6043 -54 0
-6043 228 0
-6044 -59 0
-6044 223 0
-258 6042 6043 6044 0
-6045 -18 0
-6045 460 0
-6046 -63 0
-6046 237 0
-6047 -68 0
-6047 232 0
-258 6045 6046 6047 0
-6048 -19 0
-6048 488 0
-6049 -71 0
-6049 245 0
-6050 -76 0
-6050 240 0
-258 6048 6049 6050 0
-6051 -20 0
-6051 509 0
-6052 -78 0
-6052 252 0
-6053 -83 0
-6053 247 0
-258 6051 6052 6053 0
-6054 -22 0
-6054 529 0
-6055 -85 0
-6055 263 0
-6056 -94 0
-6056 254 0
-258 6054 6055 6056 0
-6057 -23 0
-6057 533 0
-6058 -86 0
-6058 267 0
-6059 -98 0
-6059 255 0
-258 6057 6058 6059 0
-6060 -24 0
-6060 536 0
-6061 -87 0
-6061 270 0
-6062 -101 0
-6062 256 0
-258 6060 6061 6062 0
-6063 -25 0
-6063 538 0
-6064 -88 0
-6064 272 0
-6065 -103 0
-6065 257 0
-258 6063 6064 6065 0
-6066 -27 0
-6066 540 0
-6067 -90 0
-6067 274 0
-6068 -105 0
-6068 259 0
-258 6066 6067 6068 0
-6069 -1 0
-6069 181 0
-6070 -8 0
-6070 118 0
-6071 -14 0
-6071 112 0
-259 6069 6070 6071 0
-6072 -15 0
-6072 325 0
-6073 -33 0
-6073 208 0
-6074 -39 0
-6074 202 0
-259 6072 6073 6074 0
-6075 -16 0
-6075 380 0
-6076 -44 0
-6076 219 0
-6077 -50 0
-6077 213 0
-259 6075 6076 6077 0
-6078 -17 0
-6078 425 0
-6079 -54 0
-6079 229 0
-6080 -60 0
-6080 223 0
-259 6078 6079 6080 0
-6081 -18 0
-6081 461 0
-6082 -63 0
-6082 238 0
-6083 -69 0
-6083 232 0
-259 6081 6082 6083 0
-6084 -19 0
-6084 489 0
-6085 -71 0
-6085 246 0
-6086 -77 0
-6086 240 0
-259 6084 6085 6086 0
-6087 -20 0
-6087 510 0
-6088 -78 0
-6088 253 0
-6089 -84 0
-6089 247 0
-259 6087 6088 6089 0
-6090 -22 0
-6090 530 0
-6091 -85 0
-6091 264 0
-6092 -95 0
-6092 254 0
-259 6090 6091 6092 0
-6093 -23 0
-6093 534 0
-6094 -86 0
-6094 268 0
-6095 -99 0
-6095 255 0
-259 6093 6094 6095 0
-6096 -24 0
-6096 537 0
-6097 -87 0
-6097 271 0
-6098 -102 0
-6098 256 0
-259 6096 6097 6098 0
-6099 -25 0
-6099 539 0
-6100 -88 0
-6100 273 0
-6101 -104 0
-6101 257 0
-259 6099 6100 6101 0
-6102 -26 0
-6102 540 0
-6103 -89 0
-6103 274 0
-6104 -105 0
-6104 258 0
-259 6102 6103 6104 0
-6105 -1 0
-6105 182 0
-6106 -9 0
-6106 114 0
-6107 -10 0
-6107 113 0
-260 6105 6106 6107 0
-6108 -15 0
-6108 326 0
-6109 -34 0
-6109 204 0
-6110 -35 0
-6110 203 0
-260 6108 6109 6110 0
-6111 -16 0
-6111 381 0
-6112 -45 0
-6112 215 0
-6113 -46 0
-6113 214 0
-260 6111 6112 6113 0
-6114 -17 0
-6114 426 0
-6115 -55 0
-6115 225 0
-6116 -56 0
-6116 224 0
-260 6114 6115 6116 0
-6117 -18 0
-6117 462 0
-6118 -64 0
-6118 234 0
-6119 -65 0
-6119 233 0
-260 6117 6118 6119 0
-6120 -19 0
-6120 490 0
-6121 -72 0
-6121 242 0
-6122 -73 0
-6122 241 0
-260 6120 6121 6122 0
-6123 -20 0
-6123 511 0
-6124 -79 0
-6124 249 0
-6125 -80 0
-6125 248 0
-260 6123 6124 6125 0
-6126 -21 0
-6126 526 0
-6127 -85 0
-6127 255 0
-6128 -86 0
-6128 254 0
-260 6126 6127 6128 0
-6129 -24 0
-6129 541 0
-6130 -92 0
-6130 265 0
-6131 -96 0
-6131 261 0
-260 6129 6130 6131 0
-6132 -25 0
-6132 542 0
-6133 -93 0
-6133 266 0
-6134 -97 0
-6134 262 0
-260 6132 6133 6134 0
-6135 -26 0
-6135 543 0
-6136 -94 0
-6136 267 0
-6137 -98 0
-6137 263 0
-260 6135 6136 6137 0
-6138 -27 0
-6138 544 0
-6139 -95 0
-6139 268 0
-6140 -99 0
-6140 264 0
-260 6138 6139 6140 0
-6141 -1 0
-6141 183 0
-6142 -9 0
-6142 115 0
-6143 -11 0
-6143 113 0
-261 6141 6142 6143 0
-6144 -15 0
-6144 327 0
-6145 -34 0
-6145 205 0
-6146 -36 0
-6146 203 0
-261 6144 6145 6146 0
-6147 -16 0
-6147 382 0
-6148 -45 0
-6148 216 0
-6149 -47 0
-6149 214 0
-261 6147 6148 6149 0
-6150 -17 0
-6150 427 0
-6151 -55 0
-6151 226 0
-6152 -57 0
-6152 224 0
-261 6150 6151 6152 0
-6153 -18 0
-6153 463 0
-6154 -64 0
-6154 235 0
-6155 -66 0
-6155 233 0
-261 6153 6154 6155 0
-6156 -19 0
-6156 491 0
-6157 -72 0
-6157 243 0
-6158 -74 0
-6158 241 0
-261 6156 6157 6158 0
-6159 -20 0
-6159 512 0
-6160 -79 0
-6160 250 0
-6161 -81 0
-6161 248 0
-261 6159 6160 6161 0
-6162 -21 0
-6162 527 0
-6163 -85 0
-6163 256 0
-6164 -87 0
-6164 254 0
-261 6162 6163 6164 0
-6165 -23 0
-6165 541 0
-6166 -91 0
-6166 265 0
-6167 -96 0
-6167 260 0
-261 6165 6166 6167 0
-6168 -25 0
-6168 545 0
-6169 -93 0
-6169 269 0
-6170 -100 0
-6170 262 0
-261 6168 6169 6170 0
-6171 -26 0
-6171 546 0
-6172 -94 0
-6172 270 0
-6173 -101 0
-6173 263 0
-261 6171 6172 6173 0
-6174 -27 0
-6174 547 0
-6175 -95 0
-6175 271 0
-6176 -102 0
-6176 264 0
-261 6174 6175 6176 0
-6177 -1 0
-6177 184 0
-6178 -9 0
-6178 116 0
-6179 -12 0
-6179 113 0
-262 6177 6178 6179 0
-6180 -15 0
-6180 328 0
-6181 -34 0
-6181 206 0
-6182 -37 0
-6182 203 0
-262 6180 6181 6182 0
-6183 -16 0
-6183 383 0
-6184 -45 0
-6184 217 0
-6185 -48 0
-6185 214 0
-262 6183 6184 6185 0
-6186 -17 0
-6186 428 0
-6187 -55 0
-6187 227 0
-6188 -58 0
-6188 224 0
-262 6186 6187 6188 0
-6189 -18 0
-6189 464 0
-6190 -64 0
-6190 236 0
-6191 -67 0
-6191 233 0
-262 6189 6190 6191 0
-6192 -19 0
-6192 492 0
-6193 -72 0
-6193 244 0
-6194 -75 0
-6194 241 0
-262 6192 6193 6194 0
-6195 -20 0
-6195 513 0
-6196 -79 0
-6196 251 0
-6197 -82 0
-6197 248 0
-262 6195 6196 6197 0
-6198 -21 0
-6198 528 0
-6199 -85 0
-6199 257 0
-6200 -88 0
-6200 254 0
-262 6198 6199 6200 0
-6201 -23 0
-6201 542 0
-6202 -91 0
-6202 266 0
-6203 -97 0
-6203 260 0
-262 6201 6202 6203 0
-6204 -24 0
-6204 545 0
-6205 -92 0
-6205 269 0
-6206 -100 0
-6206 261 0
-262 6204 6205 6206 0
-6207 -26 0
-6207 548 0
-6208 -94 0
-6208 272 0
-6209 -103 0
-6209 263 0
-262 6207 6208 6209 0
-6210 -27 0
-6210 549 0
-6211 -95 0
-6211 273 0
-6212 -104 0
-6212 264 0
-262 6210 6211 6212 0
-6213 -1 0
-6213 185 0
-6214 -9 0
-6214 117 0
-6215 -13 0
-6215 113 0
-263 6213 6214 6215 0
-6216 -15 0
-6216 329 0
-6217 -34 0
-6217 207 0
-6218 -38 0
-6218 203 0
-263 6216 6217 6218 0
-6219 -16 0
-6219 384 0
-6220 -45 0
-6220 218 0
-6221 -49 0
-6221 214 0
-263 6219 6220 6221 0
-6222 -17 0
-6222 429 0
-6223 -55 0
-6223 228 0
-6224 -59 0
-6224 224 0
-263 6222 6223 6224 0
-6225 -18 0
-6225 465 0
-6226 -64 0
-6226 237 0
-6227 -68 0
-6227 233 0
-263 6225 6226 6227 0
-6228 -19 0
-6228 493 0
-6229 -72 0
-6229 245 0
-6230 -76 0
-6230 241 0
-263 6228 6229 6230 0
-6231 -20 0
-6231 514 0
-6232 -79 0
-6232 252 0
-6233 -83 0
-6233 248 0
-263 6231 6232 6233 0
-6234 -21 0
-6234 529 0
-6235 -85 0
-6235 258 0
-6236 -89 0
-6236 254 0
-263 6234 6235 6236 0
-6237 -23 0
-6237 543 0
-6238 -91 0
-6238 267 0
-6239 -98 0
-6239 260 0
-263 6237 6238 6239 0
-6240 -24 0
-6240 546 0
-6241 -92 0
-6241 270 0
-6242 -101 0
-6242 261 0
-263 6240 6241 6242 0
-6243 -25 0
-6243 548 0
-6244 -93 0
-6244 272 0
-6245 -103 0
-6245 262 0
-263 6243 6244 6245 0
-6246 -27 0
-6246 550 0
-6247 -95 0
-6247 274 0
-6248 -105 0
-6248 264 0
-263 6246 6247 6248 0
-6249 -1 0
-6249 186 0
-6250 -9 0
-6250 118 0
-6251 -14 0
-6251 113 0
-264 6249 6250 6251 0
-6252 -15 0
-6252 330 0
-6253 -34 0
-6253 208 0
-6254 -39 0
-6254 203 0
-264 6252 6253 6254 0
-6255 -16 0
-6255 385 0
-6256 -45 0
-6256 219 0
-6257 -50 0
-6257 214 0
-264 6255 6256 6257 0
-6258 -17 0
-6258 430 0
-6259 -55 0
-6259 229 0
-6260 -60 0
-6260 224 0
-264 6258 6259 6260 0
-6261 -18 0
-6261 466 0
-6262 -64 0
-6262 238 0
-6263 -69 0
-6263 233 0
-264 6261 6262 6263 0
-6264 -19 0
-6264 494 0
-6265 -72 0
-6265 246 0
-6266 -77 0
-6266 241 0
-264 6264 6265 6266 0
-6267 -20 0
-6267 515 0
-6268 -79 0
-6268 253 0
-6269 -84 0
-6269 248 0
-264 6267 6268 6269 0
-6270 -21 0
-6270 530 0
-6271 -85 0
-6271 259 0
-6272 -90 0
-6272 254 0
-264 6270 6271 6272 0
-6273 -23 0
-6273 544 0
-6274 -91 0
-6274 268 0
-6275 -99 0
-6275 260 0
-264 6273 6274 6275 0
-6276 -24 0
-6276 547 0
-6277 -92 0
-6277 271 0
-6278 -102 0
-6278 261 0
-264 6276 6277 6278 0
-6279 -25 0
-6279 549 0
-6280 -93 0
-6280 273 0
-6281 -104 0
-6281 262 0
-264 6279 6280 6281 0
-6282 -26 0
-6282 550 0
-6283 -94 0
-6283 274 0
-6284 -105 0
-6284 263 0
-264 6282 6283 6284 0
-6285 -1 0
-6285 187 0
-6286 -10 0
-6286 115 0
-6287 -11 0
-6287 114 0
-265 6285 6286 6287 0
-6288 -15 0
-6288 331 0
-6289 -35 0
-6289 205 0
-6290 -36 0
-6290 204 0
-265 6288 6289 6290 0
-6291 -16 0
-6291 386 0
-6292 -46 0
-6292 216 0
-6293 -47 0
-6293 215 0
-265 6291 6292 6293 0
-6294 -17 0
-6294 431 0
-6295 -56 0
-6295 226 0
-6296 -57 0
-6296 225 0
-265 6294 6295 6296 0
-6297 -18 0
-6297 467 0
-6298 -65 0
-6298 235 0
-6299 -66 0
-6299 234 0
-265 6297 6298 6299 0
-6300 -19 0
-6300 495 0
-6301 -73 0
-6301 243 0
-6302 -74 0
-6302 242 0
-265 6300 6301 6302 0
-6303 -20 0
-6303 516 0
-6304 -80 0
-6304 250 0
-6305 -81 0
-6305 249 0
-265 6303 6304 6305 0
-6306 -21 0
-6306 531 0
-6307 -86 0
-6307 256 0
-6308 -87 0
-6308 255 0
-265 6306 6307 6308 0
-6309 -22 0
-6309 541 0
-6310 -91 0
-6310 261 0
-6311 -92 0
-6311 260 0
-265 6309 6310 6311 0
-6312 -25 0
-6312 551 0
-6313 -97 0
-6313 269 0
-6314 -100 0
-6314 266 0
-265 6312 6313 6314 0
-6315 -26 0
-6315 552 0
-6316 -98 0
-6316 270 0
-6317 -101 0
-6317 267 0
-265 6315 6316 6317 0
-6318 -27 0
-6318 553 0
-6319 -99 0
-6319 271 0
-6320 -102 0
-6320 268 0
-265 6318 6319 6320 0
-6321 -1 0
-6321 188 0
-6322 -10 0
-6322 116 0
-6323 -12 0
-6323 114 0
-266 6321 6322 6323 0
-6324 -15 0
-6324 332 0
-6325 -35 0
-6325 206 0
-6326 -37 0
-6326 204 0
-266 6324 6325 6326 0
-6327 -16 0
-6327 387 0
-6328 -46 0
-6328 217 0
-6329 -48 0
-6329 215 0
-266 6327 6328 6329 0
-6330 -17 0
-6330 432 0
-6331 -56 0
-6331 227 0
-6332 -58 0
-6332 225 0
-266 6330 6331 6332 0
-6333 -18 0
-6333 468 0
-6334 -65 0
-6334 236 0
-6335 -67 0
-6335 234 0
-266 6333 6334 6335 0
-6336 -19 0
-6336 496 0
-6337 -73 0
-6337 244 0
-6338 -75 0
-6338 242 0
-266 6336 6337 6338 0
-6339 -20 0
-6339 517 0
-6340 -80 0
-6340 251 0
-6341 -82 0
-6341 249 0
-266 6339 6340 6341 0
-6342 -21 0
-6342 532 0
-6343 -86 0
-6343 257 0
-6344 -88 0
-6344 255 0
-266 6342 6343 6344 0
-6345 -22 0
-6345 542 0
-6346 -91 0
-6346 262 0
-6347 -93 0
-6347 260 0
-266 6345 6346 6347 0
-6348 -24 0
-6348 551 0
-6349 -96 0
-6349 269 0
-6350 -100 0
-6350 265 0
-266 6348 6349 6350 0
-6351 -26 0
-6351 554 0
-6352 -98 0
-6352 272 0
-6353 -103 0
-6353 267 0
-266 6351 6352 6353 0
-6354 -27 0
-6354 555 0
-6355 -99 0
-6355 273 0
-6356 -104 0
-6356 268 0
-266 6354 6355 6356 0
-6357 -1 0
-6357 189 0
-6358 -10 0
-6358 117 0
-6359 -13 0
-6359 114 0
-267 6357 6358 6359 0
-6360 -15 0
-6360 333 0
-6361 -35 0
-6361 207 0
-6362 -38 0
-6362 204 0
-267 6360 6361 6362 0
-6363 -16 0
-6363 388 0
-6364 -46 0
-6364 218 0
-6365 -49 0
-6365 215 0
-267 6363 6364 6365 0
-6366 -17 0
-6366 433 0
-6367 -56 0
-6367 228 0
-6368 -59 0
-6368 225 0
-267 6366 6367 6368 0
-6369 -18 0
-6369 469 0
-6370 -65 0
-6370 237 0
-6371 -68 0
-6371 234 0
-267 6369 6370 6371 0
-6372 -19 0
-6372 497 0
-6373 -73 0
-6373 245 0
-6374 -76 0
-6374 242 0
-267 6372 6373 6374 0
-6375 -20 0
-6375 518 0
-6376 -80 0
-6376 252 0
-6377 -83 0
-6377 249 0
-267 6375 6376 6377 0
-6378 -21 0
-6378 533 0
-6379 -86 0
-6379 258 0
-6380 -89 0
-6380 255 0
-267 6378 6379 6380 0
-6381 -22 0
-6381 543 0
-6382 -91 0
-6382 263 0
-6383 -94 0
-6383 260 0
-267 6381 6382 6383 0
-6384 -24 0
-6384 552 0
-6385 -96 0
-6385 270 0
-6386 -101 0
-6386 265 0
-267 6384 6385 6386 0
-6387 -25 0
-6387 554 0
-6388 -97 0
-6388 272 0
-6389 -103 0
-6389 266 0
-267 6387 6388 6389 0
-6390 -27 0
-6390 556 0
-6391 -99 0
-6391 274 0
-6392 -105 0
-6392 268 0
-267 6390 6391 6392 0
-6393 -1 0
-6393 190 0
-6394 -10 0
-6394 118 0
-6395 -14 0
-6395 114 0
-268 6393 6394 6395 0
-6396 -15 0
-6396 334 0
-6397 -35 0
-6397 208 0
-6398 -39 0
-6398 204 0
-268 6396 6397 6398 0
-6399 -16 0
-6399 389 0
-6400 -46 0
-6400 219 0
-6401 -50 0
-6401 215 0
-268 6399 6400 6401 0
-6402 -17 0
-6402 434 0
-6403 -56 0
-6403 229 0
-6404 -60 0
-6404 225 0
-268 6402 6403 6404 0
-6405 -18 0
-6405 470 0
-6406 -65 0
-6406 238 0
-6407 -69 0
-6407 234 0
-268 6405 6406 6407 0
-6408 -19 0
-6408 498 0
-6409 -73 0
-6409 246 0
-6410 -77 0
-6410 242 0
-268 6408 6409 6410 0
-6411 -20 0
-6411 519 0
-6412 -80 0
-6412 253 0
-6413 -84 0
-6413 249 0
-268 6411 6412 6413 0
-6414 -21 0
-6414 534 0
-6415 -86 0
-6415 259 0
-6416 -90 0
-6416 255 0
-268 6414 6415 6416 0
-6417 -22 0
-6417 544 0
-6418 -91 0
-6418 264 0
-6419 -95 0
-6419 260 0
-268 6417 6418 6419 0
-6420 -24 0
-6420 553 0
-6421 -96 0
-6421 271 0
-6422 -102 0
-6422 265 0
-268 6420 6421 6422 0
-6423 -25 0
-6423 555 0
-6424 -97 0
-6424 273 0
-6425 -104 0
-6425 266 0
-268 6423 6424 6425 0
-6426 -26 0
-6426 556 0
-6427 -98 0
-6427 274 0
-6428 -105 0
-6428 267 0
-268 6426 6427 6428 0
-6429 -1 0
-6429 191 0
-6430 -11 0
-6430 116 0
-6431 -12 0
-6431 115 0
-269 6429 6430 6431 0
-6432 -15 0
-6432 335 0
-6433 -36 0
-6433 206 0
-6434 -37 0
-6434 205 0
-269 6432 6433 6434 0
-6435 -16 0
-6435 390 0
-6436 -47 0
-6436 217 0
-6437 -48 0
-6437 216 0
-269 6435 6436 6437 0
-6438 -17 0
-6438 435 0
-6439 -57 0
-6439 227 0
-6440 -58 0
-6440 226 0
-269 6438 6439 6440 0
-6441 -18 0
-6441 471 0
-6442 -66 0
-6442 236 0
-6443 -67 0
-6443 235 0
-269 6441 6442 6443 0
-6444 -19 0
-6444 499 0
-6445 -74 0
-6445 244 0
-6446 -75 0
-6446 243 0
-269 6444 6445 6446 0
-6447 -20 0
-6447 520 0
-6448 -81 0
-6448 251 0
-6449 -82 0
-6449 250 0
-269 6447 6448 6449 0
-6450 -21 0
-6450 535 0
-6451 -87 0
-6451 257 0
-6452 -88 0
-6452 256 0
-269 6450 6451 6452 0
-6453 -22 0
-6453 545 0
-6454 -92 0
-6454 262 0
-6455 -93 0
-6455 261 0
-269 6453 6454 6455 0
-6456 -23 0
-6456 551 0
-6457 -96 0
-6457 266 0
-6458 -97 0
-6458 265 0
-269 6456 6457 6458 0
-6459 -26 0
-6459 557 0
-6460 -101 0
-6460 272 0
-6461 -103 0
-6461 270 0
-269 6459 6460 6461 0
-6462 -27 0
-6462 558 0
-6463 -102 0
-6463 273 0
-6464 -104 0
-6464 271 0
-269 6462 6463 6464 0
-6465 -1 0
-6465 192 0
-6466 -11 0
-6466 117 0
-6467 -13 0
-6467 115 0
-270 6465 6466 6467 0
-6468 -15 0
-6468 336 0
-6469 -36 0
-6469 207 0
-6470 -38 0
-6470 205 0
-270 6468 6469 6470 0
-6471 -16 0
-6471 391 0
-6472 -47 0
-6472 218 0
-6473 -49 0
-6473 216 0
-270 6471 6472 6473 0
-6474 -17 0
-6474 436 0
-6475 -57 0
-6475 228 0
-6476 -59 0
-6476 226 0
-270 6474 6475 6476 0
-6477 -18 0
-6477 472 0
-6478 -66 0
-6478 237 0
-6479 -68 0
-6479 235 0
-270 6477 6478 6479 0
-6480 -19 0
-6480 500 0
-6481 -74 0
-6481 245 0
-6482 -76 0
-6482 243 0
-270 6480 6481 6482 0
-6483 -20 0
-6483 521 0
-6484 -81 0
-6484 252 0
-6485 -83 0
-6485 250 0
-270 6483 6484 6485 0
-6486 -21 0
-6486 536 0
-6487 -87 0
-6487 258 0
-6488 -89 0
-6488 256 0
-270 6486 6487 6488 0
-6489 -22 0
-6489 546 0
-6490 -92 0
-6490 263 0
-6491 -94 0
-6491 261 0
-270 6489 6490 6491 0
-6492 -23 0
-6492 552 0
-6493 -96 0
-6493 267 0
-6494 -98 0
-6494 265 0
-270 6492 6493 6494 0
-6495 -25 0
-6495 557 0
-6496 -100 0
-6496 272 0
-6497 -103 0
-6497 269 0
-270 6495 6496 6497 0
-6498 -27 0
-6498 559 0
-6499 -102 0
-6499 274 0
-6500 -105 0
-6500 271 0
-270 6498 6499 6500 0
-6501 -1 0
-6501 193 0
-6502 -11 0
-6502 118 0
-6503 -14 0
-6503 115 0
-271 6501 6502 6503 0
-6504 -15 0
-6504 337 0
-6505 -36 0
-6505 208 0
-6506 -39 0
-6506 205 0
-271 6504 6505 6506 0
-6507 -16 0
-6507 392 0
-6508 -47 0
-6508 219 0
-6509 -50 0
-6509 216 0
-271 6507 6508 6509 0
-6510 -17 0
-6510 437 0
-6511 -57 0
-6511 229 0
-6512 -60 0
-6512 226 0
-271 6510 6511 6512 0
-6513 -18 0
-6513 473 0
-6514 -66 0
-6514 238 0
-6515 -69 0
-6515 235 0
-271 6513 6514 6515 0
-6516 -19 0
-6516 501 0
-6517 -74 0
-6517 246 0
-6518 -77 0
-6518 243 0
-271 6516 6517 6518 0
-6519 -20 0
-6519 522 0
-6520 -81 0
-6520 253 0
-6521 -84 0
-6521 250 0
-271 6519 6520 6521 0
-6522 -21 0
-6522 537 0
-6523 -87 0
-6523 259 0
-6524 -90 0
-6524 256 0
-271 6522 6523 6524 0
-6525 -22 0
-6525 547 0
-6526 -92 0
-6526 264 0
-6527 -95 0
-6527 261 0
-271 6525 6526 6527 0
-6528 -23 0
-6528 553 0
-6529 -96 0
-6529 268 0
-6530 -99 0
-6530 265 0
-271 6528 6529 6530 0
-6531 -25 0
-6531 558 0
-6532 -100 0
-6532 273 0
-6533 -104 0
-6533 269 0
-271 6531 6532 6533 0
-6534 -26 0
-6534 559 0
-6535 -101 0
-6535 274 0
-6536 -105 0
-6536 270 0
-271 6534 6535 6536 0
-6537 -1 0
-6537 194 0
-6538 -12 0
-6538 117 0
-6539 -13 0
-6539 116 0
-272 6537 6538 6539 0
-6540 -15 0
-6540 338 0
-6541 -37 0
-6541 207 0
-6542 -38 0
-6542 206 0
-272 6540 6541 6542 0
-6543 -16 0
-6543 393 0
-6544 -48 0
-6544 218 0
-6545 -49 0
-6545 217 0
-272 6543 6544 6545 0
-6546 -17 0
-6546 438 0
-6547 -58 0
-6547 228 0
-6548 -59 0
-6548 227 0
-272 6546 6547 6548 0
-6549 -18 0
-6549 474 0
-6550 -67 0
-6550 237 0
-6551 -68 0
-6551 236 0
-272 6549 6550 6551 0
-6552 -19 0
-6552 502 0
-6553 -75 0
-6553 245 0
-6554 -76 0
-6554 244 0
-272 6552 6553 6554 0
-6555 -20 0
-6555 523 0
-6556 -82 0
-6556 252 0
-6557 -83 0
-6557 251 0
-272 6555 6556 6557 0
-6558 -21 0
-6558 538 0
-6559 -88 0
-6559 258 0
-6560 -89 0
-6560 257 0
-272 6558 6559 6560 0
-6561 -22 0
-6561 548 0
-6562 -93 0
-6562 263 0
-6563 -94 0
-6563 262 0
-272 6561 6562 6563 0
-6564 -23 0
-6564 554 0
-6565 -97 0
-6565 267 0
-6566 -98 0
-6566 266 0
-272 6564 6565 6566 0
-6567 -24 0
-6567 557 0
-6568 -100 0
-6568 270 0
-6569 -101 0
-6569 269 0
-272 6567 6568 6569 0
-6570 -27 0
-6570 560 0
-6571 -104 0
-6571 274 0
-6572 -105 0
-6572 273 0
-272 6570 6571 6572 0
-6573 -1 0
-6573 195 0
-6574 -12 0
-6574 118 0
-6575 -14 0
-6575 116 0
-273 6573 6574 6575 0
-6576 -15 0
-6576 339 0
-6577 -37 0
-6577 208 0
-6578 -39 0
-6578 206 0
-273 6576 6577 6578 0
-6579 -16 0
-6579 394 0
-6580 -48 0
-6580 219 0
-6581 -50 0
-6581 217 0
-273 6579 6580 6581 0
-6582 -17 0
-6582 439 0
-6583 -58 0
-6583 229 0
-6584 -60 0
-6584 227 0
-273 6582 6583 6584 0
-6585 -18 0
-6585 475 0
-6586 -67 0
-6586 238 0
-6587 -69 0
-6587 236 0
-273 6585 6586 6587 0
-6588 -19 0
-6588 503 0
-6589 -75 0
-6589 246 0
-6590 -77 0
-6590 244 0
-273 6588 6589 6590 0
-6591 -20 0
-6591 524 0
-6592 -82 0
-6592 253 0
-6593 -84 0
-6593 251 0
-273 6591 6592 6593 0
-6594 -21 0
-6594 539 0
-6595 -88 0
-6595 259 0
-6596 -90 0
-6596 257 0
-273 6594 6595 6596 0
-6597 -22 0
-6597 549 0
-6598 -93 0
-6598 264 0
-6599 -95 0
-6599 262 0
-273 6597 6598 6599 0
-6600 -23 0
-6600 555 0
-6601 -97 0
-6601 268 0
-6602 -99 0
-6602 266 0
-273 6600 6601 6602 0
-6603 -24 0
-6603 558 0
-6604 -100 0
-6604 271 0
-6605 -102 0
-6605 269 0
-273 6603 6604 6605 0
-6606 -26 0
-6606 560 0
-6607 -103 0
-6607 274 0
-6608 -105 0
-6608 272 0
-273 6606 6607 6608 0
-6609 -1 0
-6609 196 0
-6610 -13 0
-6610 118 0
-6611 -14 0
-6611 117 0
-274 6609 6610 6611 0
-6612 -15 0
-6612 340 0
-6613 -38 0
-6613 208 0
-6614 -39 0
-6614 207 0
-274 6612 6613 6614 0
-6615 -16 0
-6615 395 0
-6616 -49 0
-6616 219 0
-6617 -50 0
-6617 218 0
-274 6615 6616 6617 0
-6618 -17 0
-6618 440 0
-6619 -59 0
-6619 229 0
-6620 -60 0
-6620 228 0
-274 6618 6619 6620 0
-6621 -18 0
-6621 476 0
-6622 -68 0
-6622 238 0
-6623 -69 0
-6623 237 0
-274 6621 6622 6623 0
-6624 -19 0
-6624 504 0
-6625 -76 0
-6625 246 0
-6626 -77 0
-6626 245 0
-274 6624 6625 6626 0
-6627 -20 0
-6627 525 0
-6628 -83 0
-6628 253 0
-6629 -84 0
-6629 252 0
-274 6627 6628 6629 0
-6630 -21 0
-6630 540 0
-6631 -89 0
-6631 259 0
-6632 -90 0
-6632 258 0
-274 6630 6631 6632 0
-6633 -22 0
-6633 550 0
-6634 -94 0
-6634 264 0
-6635 -95 0
-6635 263 0
-274 6633 6634 6635 0
-6636 -23 0
-6636 556 0
-6637 -98 0
-6637 268 0
-6638 -99 0
-6638 267 0
-274 6636 6637 6638 0
-6639 -24 0
-6639 559 0
-6640 -101 0
-6640 271 0
-6641 -102 0
-6641 270 0
-274 6639 6640 6641 0
-6642 -25 0
-6642 560 0
-6643 -103 0
-6643 273 0
-6644 -104 0
-6644 272 0
-274 6642 6643 6644 0
-6645 -2 0
-6645 131 0
-6646 -3 0
-6646 120 0
-6647 -4 0
-6647 119 0
-275 6645 6646 6647 0
-6648 -15 0
-6648 209 0
-6649 -16 0
-6649 198 0
-6650 -17 0
-6650 197 0
-275 6648 6649 6650 0
-6651 -30 0
-6651 341 0
-6652 -41 0
-6652 286 0
-6653 -51 0
-6653 276 0
-275 6651 6652 6653 0
-6654 -31 0
-6654 342 0
-6655 -42 0
-6655 287 0
-6656 -52 0
-6656 277 0
-275 6654 6655 6656 0
-6657 -32 0
-6657 343 0
-6658 -43 0
-6658 288 0
-6659 -53 0
-6659 278 0
-275 6657 6658 6659 0
-6660 -33 0
-6660 344 0
-6661 -44 0
-6661 289 0
-6662 -54 0
-6662 279 0
-275 6660 6661 6662 0
-6663 -34 0
-6663 345 0
-6664 -45 0
-6664 290 0
-6665 -55 0
-6665 280 0
-275 6663 6664 6665 0
-6666 -35 0
-6666 346 0
-6667 -46 0
-6667 291 0
-6668 -56 0
-6668 281 0
-275 6666 6667 6668 0
-6669 -36 0
-6669 347 0
-6670 -47 0
-6670 292 0
-6671 -57 0
-6671 282 0
-275 6669 6670 6671 0
-6672 -37 0
-6672 348 0
-6673 -48 0
-6673 293 0
-6674 -58 0
-6674 283 0
-275 6672 6673 6674 0
-6675 -38 0
-6675 349 0
-6676 -49 0
-6676 294 0
-6677 -59 0
-6677 284 0
-275 6675 6676 6677 0
-6678 -39 0
-6678 350 0
-6679 -50 0
-6679 295 0
-6680 -60 0
-6680 285 0
-275 6678 6679 6680 0
-6681 -2 0
-6681 132 0
-6682 -3 0
-6682 121 0
-6683 -5 0
-6683 119 0
-276 6681 6682 6683 0
-6684 -15 0
-6684 210 0
-6685 -16 0
-6685 199 0
-6686 -18 0
-6686 197 0
-276 6684 6685 6686 0
-6687 -29 0
-6687 341 0
-6688 -40 0
-6688 286 0
-6689 -51 0
-6689 275 0
-276 6687 6688 6689 0
-6690 -31 0
-6690 351 0
-6691 -42 0
-6691 296 0
-6692 -61 0
-6692 277 0
-276 6690 6691 6692 0
-6693 -32 0
-6693 352 0
-6694 -43 0
-6694 297 0
-6695 -62 0
-6695 278 0
-276 6693 6694 6695 0
-6696 -33 0
-6696 353 0
-6697 -44 0
-6697 298 0
-6698 -63 0
-6698 279 0
-276 6696 6697 6698 0
-6699 -34 0
-6699 354 0
-6700 -45 0
-6700 299 0
-6701 -64 0
-6701 280 0
-276 6699 6700 6701 0
-6702 -35 0
-6702 355 0
-6703 -46 0
-6703 300 0
-6704 -65 0
-6704 281 0
-276 6702 6703 6704 0
-6705 -36 0
-6705 356 0
-6706 -47 0
-6706 301 0
-6707 -66 0
-6707 282 0
-276 6705 6706 6707 0
-6708 -37 0
-6708 357 0
-6709 -48 0
-6709 302 0
-6710 -67 0
-6710 283 0
-276 6708 6709 6710 0
-6711 -38 0
-6711 358 0
-6712 -49 0
-6712 303 0
-6713 -68 0
-6713 284 0
-276 6711 6712 6713 0
-6714 -39 0
-6714 359 0
-6715 -50 0
-6715 304 0
-6716 -69 0
-6716 285 0
-276 6714 6715 6716 0
-6717 -2 0
-6717 133 0
-6718 -3 0
-6718 122 0
-6719 -6 0
-6719 119 0
-277 6717 6718 6719 0
-6720 -15 0
-6720 211 0
-6721 -16 0
-6721 200 0
-6722 -19 0
-6722 197 0
-277 6720 6721 6722 0
-6723 -29 0
-6723 342 0
-6724 -40 0
-6724 287 0
-6725 -52 0
-6725 275 0
-277 6723 6724 6725 0
-6726 -30 0
-6726 351 0
-6727 -41 0
-6727 296 0
-6728 -61 0
-6728 276 0
-277 6726 6727 6728 0
-6729 -32 0
-6729 360 0
-6730 -43 0
-6730 305 0
-6731 -70 0
-6731 278 0
-277 6729 6730 6731 0
-6732 -33 0
-6732 361 0
-6733 -44 0
-6733 306 0
-6734 -71 0
-6734 279 0
-277 6732 6733 6734 0
-6735 -34 0
-6735 362 0
-6736 -45 0
-6736 307 0
-6737 -72 0
-6737 280 0
-277 6735 6736 6737 0
-6738 -35 0
-6738 363 0
-6739 -46 0
-6739 308 0
-6740 -73 0
-6740 281 0
-277 6738 6739 6740 0
-6741 -36 0
-6741 364 0
-6742 -47 0
-6742 309 0
-6743 -74 0
-6743 282 0
-277 6741 6742 6743 0
-6744 -37 0
-6744 365 0
-6745 -48 0
-6745 310 0
-6746 -75 0
-6746 283 0
-277 6744 6745 6746 0
-6747 -38 0
-6747 366 0
-6748 -49 0
-6748 311 0
-6749 -76 0
-6749 284 0
-277 6747 6748 6749 0
-6750 -39 0
-6750 367 0
-6751 -50 0
-6751 312 0
-6752 -77 0
-6752 285 0
-277 6750 6751 6752 0
-6753 -2 0
-6753 134 0
-6754 -3 0
-6754 123 0
-6755 -7 0
-6755 119 0
-278 6753 6754 6755 0
-6756 -15 0
-6756 212 0
-6757 -16 0
-6757 201 0
-6758 -20 0
-6758 197 0
-278 6756 6757 6758 0
-6759 -29 0
-6759 343 0
-6760 -40 0
-6760 288 0
-6761 -53 0
-6761 275 0
-278 6759 6760 6761 0
-6762 -30 0
-6762 352 0
-6763 -41 0
-6763 297 0
-6764 -62 0
-6764 276 0
-278 6762 6763 6764 0
-6765 -31 0
-6765 360 0
-6766 -42 0
-6766 305 0
-6767 -70 0
-6767 277 0
-278 6765 6766 6767 0
-6768 -33 0
-6768 368 0
-6769 -44 0
-6769 313 0
-6770 -78 0
-6770 279 0
-278 6768 6769 6770 0
-6771 -34 0
-6771 369 0
-6772 -45 0
-6772 314 0
-6773 -79 0
-6773 280 0
-278 6771 6772 6773 0
-6774 -35 0
-6774 370 0
-6775 -46 0
-6775 315 0
-6776 -80 0
-6776 281 0
-278 6774 6775 6776 0
-6777 -36 0
-6777 371 0
-6778 -47 0
-6778 316 0
-6779 -81 0
-6779 282 0
-278 6777 6778 6779 0
-6780 -37 0
-6780 372 0
-6781 -48 0
-6781 317 0
-6782 -82 0
-6782 283 0
-278 6780 6781 6782 0
-6783 -38 0
-6783 373 0
-6784 -49 0
-6784 318 0
-6785 -83 0
-6785 284 0
-278 6783 6784 6785 0
-6786 -39 0
-6786 374 0
-6787 -50 0
-6787 319 0
-6788 -84 0
-6788 285 0
-278 6786 6787 6788 0
-6789 -2 0
-6789 135 0
-6790 -3 0
-6790 124 0
-6791 -8 0
-6791 119 0
-279 6789 6790 6791 0
-6792 -15 0
-6792 213 0
-6793 -16 0
-6793 202 0
-6794 -21 0
-6794 197 0
-279 6792 6793 6794 0
-6795 -29 0
-6795 344 0
-6796 -40 0
-6796 289 0
-6797 -54 0
-6797 275 0
-279 6795 6796 6797 0
-6798 -30 0
-6798 353 0
-6799 -41 0
-6799 298 0
-6800 -63 0
-6800 276 0
-279 6798 6799 6800 0
-6801 -31 0
-6801 361 0
-6802 -42 0
-6802 306 0
-6803 -71 0
-6803 277 0
-279 6801 6802 6803 0
-6804 -32 0
-6804 368 0
-6805 -43 0
-6805 313 0
-6806 -78 0
-6806 278 0
-279 6804 6805 6806 0
-6807 -34 0
-6807 375 0
-6808 -45 0
-6808 320 0
-6809 -85 0
-6809 280 0
-279 6807 6808 6809 0
-6810 -35 0
-6810 376 0
-6811 -46 0
-6811 321 0
-6812 -86 0
-6812 281 0
-279 6810 6811 6812 0
-6813 -36 0
-6813 377 0
-6814 -47 0
-6814 322 0
-6815 -87 0
-6815 282 0
-279 6813 6814 6815 0
-6816 -37 0
-6816 378 0
-6817 -48 0
-6817 323 0
-6818 -88 0
-6818 283 0
-279 6816 6817 6818 0
-6819 -38 0
-6819 379 0
-6820 -49 0
-6820 324 0
-6821 -89 0
-6821 284 0
-279 6819 6820 6821 0
-6822 -39 0
-6822 380 0
-6823 -50 0
-6823 325 0
-6824 -90 0
-6824 285 0
-279 6822 6823 6824 0
-6825 -2 0
-6825 136 0
-6826 -3 0
-6826 125 0
-6827 -9 0
-6827 119 0
-280 6825 6826 6827 0
-6828 -15 0
-6828 214 0
-6829 -16 0
-6829 203 0
-6830 -22 0
-6830 197 0
-280 6828 6829 6830 0
-6831 -29 0
-6831 345 0
-6832 -40 0
-6832 290 0
-6833 -55 0
-6833 275 0
-280 6831 6832 6833 0
-6834 -30 0
-6834 354 0
-6835 -41 0
-6835 299 0
-6836 -64 0
-6836 276 0
-280 6834 6835 6836 0
-6837 -31 0
-6837 362 0
-6838 -42 0
-6838 307 0
-6839 -72 0
-6839 277 0
-280 6837 6838 6839 0
-6840 -32 0
-6840 369 0
-6841 -43 0
-6841 314 0
-6842 -79 0
-6842 278 0
-280 6840 6841 6842 0
-6843 -33 0
-6843 375 0
-6844 -44 0
-6844 320 0
-6845 -85 0
-6845 279 0
-280 6843 6844 6845 0
-6846 -35 0
-6846 381 0
-6847 -46 0
-6847 326 0
-6848 -91 0
-6848 281 0
-280 6846 6847 6848 0
-6849 -36 0
-6849 382 0
-6850 -47 0
-6850 327 0
-6851 -92 0
-6851 282 0
-280 6849 6850 6851 0
-6852 -37 0
-6852 383 0
-6853 -48 0
-6853 328 0
-6854 -93 0
-6854 283 0
-280 6852 6853 6854 0
-6855 -38 0
-6855 384 0
-6856 -49 0
-6856 329 0
-6857 -94 0
-6857 284 0
-280 6855 6856 6857 0
-6858 -39 0
-6858 385 0
-6859 -50 0
-6859 330 0
-6860 -95 0
-6860 285 0
-280 6858 6859 6860 0
-6861 -2 0
-6861 137 0
-6862 -3 0
-6862 126 0
-6863 -10 0
-6863 119 0
-281 6861 6862 6863 0
-6864 -15 0
-6864 215 0
-6865 -16 0
-6865 204 0
-6866 -23 0
-6866 197 0
-281 6864 6865 6866 0
-6867 -29 0
-6867 346 0
-6868 -40 0
-6868 291 0
-6869 -56 0
-6869 275 0
-281 6867 6868 6869 0
-6870 -30 0
-6870 355 0
-6871 -41 0
-6871 300 0
-6872 -65 0
-6872 276 0
-281 6870 6871 6872 0
-6873 -31 0
-6873 363 0
-6874 -42 0
-6874 308 0
-6875 -73 0
-6875 277 0
-281 6873 6874 6875 0
-6876 -32 0
-6876 370 0
-6877 -43 0
-6877 315 0
-6878 -80 0
-6878 278 0
-281 6876 6877 6878 0
-6879 -33 0
-6879 376 0
-6880 -44 0
-6880 321 0
-6881 -86 0
-6881 279 0
-281 6879 6880 6881 0
-6882 -34 0
-6882 381 0
-6883 -45 0
-6883 326 0
-6884 -91 0
-6884 280 0
-281 6882 6883 6884 0
-6885 -36 0
-6885 386 0
-6886 -47 0
-6886 331 0
-6887 -96 0
-6887 282 0
-281 6885 6886 6887 0
-6888 -37 0
-6888 387 0
-6889 -48 0
-6889 332 0
-6890 -97 0
-6890 283 0
-281 6888 6889 6890 0
-6891 -38 0
-6891 388 0
-6892 -49 0
-6892 333 0
-6893 -98 0
-6893 284 0
-281 6891 6892 6893 0
-6894 -39 0
-6894 389 0
-6895 -50 0
-6895 334 0
-6896 -99 0
-6896 285 0
-281 6894 6895 6896 0
-6897 -2 0
-6897 138 0
-6898 -3 0
-6898 127 0
-6899 -11 0
-6899 119 0
-282 6897 6898 6899 0
-6900 -15 0
-6900 216 0
-6901 -16 0
-6901 205 0
-6902 -24 0
-6902 197 0
-282 6900 6901 6902 0
-6903 -29 0
-6903 347 0
-6904 -40 0
-6904 292 0
-6905 -57 0
-6905 275 0
-282 6903 6904 6905 0
-6906 -30 0
-6906 356 0
-6907 -41 0
-6907 301 0
-6908 -66 0
-6908 276 0
-282 6906 6907 6908 0
-6909 -31 0
-6909 364 0
-6910 -42 0
-6910 309 0
-6911 -74 0
-6911 277 0
-282 6909 6910 6911 0
-6912 -32 0
-6912 371 0
-6913 -43 0
-6913 316 0
-6914 -81 0
-6914 278 0
-282 6912 6913 6914 0
-6915 -33 0
-6915 377 0
-6916 -44 0
-6916 322 0
-6917 -87 0
-6917 279 0
-282 6915 6916 6917 0
-6918 -34 0
-6918 382 0
-6919 -45 0
-6919 327 0
-6920 -92 0
-6920 280 0
-282 6918 6919 6920 0
-6921 -35 0
-6921 386 0
-6922 -46 0
-6922 331 0
-6923 -96 0
-6923 281 0
-282 6921 6922 6923 0
-6924 -37 0
-6924 390 0
-6925 -48 0
-6925 335 0
-6926 -100 0
-6926 283 0
-282 6924 6925 6926 0
-6927 -38 0
-6927 391 0
-6928 -49 0
-6928 336 0
-6929 -101 0
-6929 284 0
-282 6927 6928 6929 0
-6930 -39 0
-6930 392 0
-6931 -50 0
-6931 337 0
-6932 -102 0
-6932 285 0
-282 6930 6931 6932 0
-6933 -2 0
-6933 139 0
-6934 -3 0
-6934 128 0
-6935 -12 0
-6935 119 0
-283 6933 6934 6935 0
-6936 -15 0
-6936 217 0
-6937 -16 0
-6937 206 0
-6938 -25 0
-6938 197 0
-283 6936 6937 6938 0
-6939 -29 0
-6939 348 0
-6940 -40 0
-6940 293 0
-6941 -58 0
-6941 275 0
-283 6939 6940 6941 0
-6942 -30 0
-6942 357 0
-6943 -41 0
-6943 302 0
-6944 -67 0
-6944 276 0
-283 6942 6943 6944 0
-6945 -31 0
-6945 365 0
-6946 -42 0
-6946 310 0
-6947 -75 0
-6947 277 0
-283 6945 6946 6947 0
-6948 -32 0
-6948 372 0
-6949 -43 0
-6949 317 0
-6950 -82 0
-6950 278 0
-283 6948 6949 6950 0
-6951 -33 0
-6951 378 0
-6952 -44 0
-6952 323 0
-6953 -88 0
-6953 279 0
-283 6951 6952 6953 0
-6954 -34 0
-6954 383 0
-6955 -45 0
-6955 328 0
-6956 -93 0
-6956 280 0
-283 6954 6955 6956 0
-6957 -35 0
-6957 387 0
-6958 -46 0
-6958 332 0
-6959 -97 0
-6959 281 0
-283 6957 6958 6959 0
-6960 -36 0
-6960 390 0
-6961 -47 0
-6961 335 0
-6962 -100 0
-6962 282 0
-283 6960 6961 6962 0
-6963 -38 0
-6963 393 0
-6964 -49 0
-6964 338 0
-6965 -103 0
-6965 284 0
-283 6963 6964 6965 0
-6966 -39 0
-6966 394 0
-6967 -50 0
-6967 339 0
-6968 -104 0
-6968 285 0
-283 6966 6967 6968 0
-6969 -2 0
-6969 140 0
-6970 -3 0
-6970 129 0
-6971 -13 0
-6971 119 0
-284 6969 6970 6971 0
-6972 -15 0
-6972 218 0
-6973 -16 0
-6973 207 0
-6974 -26 0
-6974 197 0
-284 6972 6973 6974 0
-6975 -29 0
-6975 349 0
-6976 -40 0
-6976 294 0
-6977 -59 0
-6977 275 0
-284 6975 6976 6977 0
-6978 -30 0
-6978 358 0
-6979 -41 0
-6979 303 0
-6980 -68 0
-6980 276 0
-284 6978 6979 6980 0
-6981 -31 0
-6981 366 0
-6982 -42 0
-6982 311 0
-6983 -76 0
-6983 277 0
-284 6981 6982 6983 0
-6984 -32 0
-6984 373 0
-6985 -43 0
-6985 318 0
-6986 -83 0
-6986 278 0
-284 6984 6985 6986 0
-6987 -33 0
-6987 379 0
-6988 -44 0
-6988 324 0
-6989 -89 0
-6989 279 0
-284 6987 6988 6989 0
-6990 -34 0
-6990 384 0
-6991 -45 0
-6991 329 0
-6992 -94 0
-6992 280 0
-284 6990 6991 6992 0
-6993 -35 0
-6993 388 0
-6994 -46 0
-6994 333 0
-6995 -98 0
-6995 281 0
-284 6993 6994 6995 0
-6996 -36 0
-6996 391 0
-6997 -47 0
-6997 336 0
-6998 -101 0
-6998 282 0
-284 6996 6997 6998 0
-6999 -37 0
-6999 393 0
-7000 -48 0
-7000 338 0
-7001 -103 0
-7001 283 0
-284 6999 7000 7001 0
-7002 -39 0
-7002 395 0
-7003 -50 0
-7003 340 0
-7004 -105 0
-7004 285 0
-284 7002 7003 7004 0
-7005 -2 0
-7005 141 0
-7006 -3 0
-7006 130 0
-7007 -14 0
-7007 119 0
-285 7005 7006 7007 0
-7008 -15 0
-7008 219 0
-7009 -16 0
-7009 208 0
-7010 -27 0
-7010 197 0
-285 7008 7009 7010 0
-7011 -29 0
-7011 350 0
-7012 -40 0
-7012 295 0
-7013 -60 0
-7013 275 0
-285 7011 7012 7013 0
-7014 -30 0
-7014 359 0
-7015 -41 0
-7015 304 0
-7016 -69 0
-7016 276 0
-285 7014 7015 7016 0
-7017 -31 0
-7017 367 0
-7018 -42 0
-7018 312 0
-7019 -77 0
-7019 277 0
-285 7017 7018 7019 0
-7020 -32 0
-7020 374 0
-7021 -43 0
-7021 319 0
-7022 -84 0
-7022 278 0
-285 7020 7021 7022 0
-7023 -33 0
-7023 380 0
-7024 -44 0
-7024 325 0
-7025 -90 0
-7025 279 0
-285 7023 7024 7025 0
-7026 -34 0
-7026 385 0
-7027 -45 0
-7027 330 0
-7028 -95 0
-7028 280 0
-285 7026 7027 7028 0
-7029 -35 0
-7029 389 0
-7030 -46 0
-7030 334 0
-7031 -99 0
-7031 281 0
-285 7029 7030 7031 0
-7032 -36 0
-7032 392 0
-7033 -47 0
-7033 337 0
-7034 -102 0
-7034 282 0
-285 7032 7033 7034 0
-7035 -37 0
-7035 394 0
-7036 -48 0
-7036 339 0
-7037 -104 0
-7037 283 0
-285 7035 7036 7037 0
-7038 -38 0
-7038 395 0
-7039 -49 0
-7039 340 0
-7040 -105 0
-7040 284 0
-285 7038 7039 7040 0
-7041 -2 0
-7041 142 0
-7042 -4 0
-7042 121 0
-7043 -5 0
-7043 120 0
-286 7041 7042 7043 0
-7044 -15 0
-7044 220 0
-7045 -17 0
-7045 199 0
-7046 -18 0
-7046 198 0
-286 7044 7045 7046 0
-7047 -28 0
-7047 341 0
-7048 -40 0
-7048 276 0
-7049 -41 0
-7049 275 0
-286 7047 7048 7049 0
-7050 -31 0
-7050 396 0
-7051 -52 0
-7051 296 0
-7052 -61 0
-7052 287 0
-286 7050 7051 7052 0
-7053 -32 0
-7053 397 0
-7054 -53 0
-7054 297 0
-7055 -62 0
-7055 288 0
-286 7053 7054 7055 0
-7056 -33 0
-7056 398 0
-7057 -54 0
-7057 298 0
-7058 -63 0
-7058 289 0
-286 7056 7057 7058 0
-7059 -34 0
-7059 399 0
-7060 -55 0
-7060 299 0
-7061 -64 0
-7061 290 0
-286 7059 7060 7061 0
-7062 -35 0
-7062 400 0
-7063 -56 0
-7063 300 0
-7064 -65 0
-7064 291 0
-286 7062 7063 7064 0
-7065 -36 0
-7065 401 0
-7066 -57 0
-7066 301 0
-7067 -66 0
-7067 292 0
-286 7065 7066 7067 0
-7068 -37 0
-7068 402 0
-7069 -58 0
-7069 302 0
-7070 -67 0
-7070 293 0
-286 7068 7069 7070 0
-7071 -38 0
-7071 403 0
-7072 -59 0
-7072 303 0
-7073 -68 0
-7073 294 0
-286 7071 7072 7073 0
-7074 -39 0
-7074 404 0
-7075 -60 0
-7075 304 0
-7076 -69 0
-7076 295 0
-286 7074 7075 7076 0
-7077 -2 0
-7077 143 0
-7078 -4 0
-7078 122 0
-7079 -6 0
-7079 120 0
-287 7077 7078 7079 0
-7080 -15 0
-7080 221 0
-7081 -17 0
-7081 200 0
-7082 -19 0
-7082 198 0
-287 7080 7081 7082 0
-7083 -28 0
-7083 342 0
-7084 -40 0
-7084 277 0
-7085 -42 0
-7085 275 0
-287 7083 7084 7085 0
-7086 -30 0
-7086 396 0
-7087 -51 0
-7087 296 0
-7088 -61 0
-7088 286 0
-287 7086 7087 7088 0
-7089 -32 0
-7089 405 0
-7090 -53 0
-7090 305 0
-7091 -70 0
-7091 288 0
-287 7089 7090 7091 0
-7092 -33 0
-7092 406 0
-7093 -54 0
-7093 306 0
-7094 -71 0
-7094 289 0
-287 7092 7093 7094 0
-7095 -34 0
-7095 407 0
-7096 -55 0
-7096 307 0
-7097 -72 0
-7097 290 0
-287 7095 7096 7097 0
-7098 -35 0
-7098 408 0
-7099 -56 0
-7099 308 0
-7100 -73 0
-7100 291 0
-287 7098 7099 7100 0
-7101 -36 0
-7101 409 0
-7102 -57 0
-7102 309 0
-7103 -74 0
-7103 292 0
-287 7101 7102 7103 0
-7104 -37 0
-7104 410 0
-7105 -58 0
-7105 310 0
-7106 -75 0
-7106 293 0
-287 7104 7105 7106 0
-7107 -38 0
-7107 411 0
-7108 -59 0
-7108 311 0
-7109 -76 0
-7109 294 0
-287 7107 7108 7109 0
-7110 -39 0
-7110 412 0
-7111 -60 0
-7111 312 0
-7112 -77 0
-7112 295 0
-287 7110 7111 7112 0
-7113 -2 0
-7113 144 0
-7114 -4 0
-7114 123 0
-7115 -7 0
-7115 120 0
-288 7113 7114 7115 0
-7116 -15 0
-7116 222 0
-7117 -17 0
-7117 201 0
-7118 -20 0
-7118 198 0
-288 7116 7117 7118 0
-7119 -28 0
-7119 343 0
-7120 -40 0
-7120 278 0
-7121 -43 0
-7121 275 0
-288 7119 7120 7121 0
-7122 -30 0
-7122 397 0
-7123 -51 0
-7123 297 0
-7124 -62 0
-7124 286 0
-288 7122 7123 7124 0
-7125 -31 0
-7125 405 0
-7126 -52 0
-7126 305 0
-7127 -70 0
-7127 287 0
-288 7125 7126 7127 0
-7128 -33 0
-7128 413 0
-7129 -54 0
-7129 313 0
-7130 -78 0
-7130 289 0
-288 7128 7129 7130 0
-7131 -34 0
-7131 414 0
-7132 -55 0
-7132 314 0
-7133 -79 0
-7133 290 0
-288 7131 7132 7133 0
-7134 -35 0
-7134 415 0
-7135 -56 0
-7135 315 0
-7136 -80 0
-7136 291 0
-288 7134 7135 7136 0
-7137 -36 0
-7137 416 0
-7138 -57 0
-7138 316 0
-7139 -81 0
-7139 292 0
-288 7137 7138 7139 0
-7140 -37 0
-7140 417 0
-7141 -58 0
-7141 317 0
-7142 -82 0
-7142 293 0
-288 7140 7141 7142 0
-7143 -38 0
-7143 418 0
-7144 -59 0
-7144 318 0
-7145 -83 0
-7145 294 0
-288 7143 7144 7145 0
-7146 -39 0
-7146 419 0
-7147 -60 0
-7147 319 0
-7148 -84 0
-7148 295 0
-288 7146 7147 7148 0
-7149 -2 0
-7149 145 0
-7150 -4 0
-7150 124 0
-7151 -8 0
-7151 120 0
-289 7149 7150 7151 0
-7152 -15 0
-7152 223 0
-7153 -17 0
-7153 202 0
-7154 -21 0
-7154 198 0
-289 7152 7153 7154 0
-7155 -28 0
-7155 344 0
-7156 -40 0
-7156 279 0
-7157 -44 0
-7157 275 0
-289 7155 7156 7157 0
-7158 -30 0
-7158 398 0
-7159 -51 0
-7159 298 0
-7160 -63 0
-7160 286 0
-289 7158 7159 7160 0
-7161 -31 0
-7161 406 0
-7162 -52 0
-7162 306 0
-7163 -71 0
-7163 287 0
-289 7161 7162 7163 0
-7164 -32 0
-7164 413 0
-7165 -53 0
-7165 313 0
-7166 -78 0
-7166 288 0
-289 7164 7165 7166 0
-7167 -34 0
-7167 420 0
-7168 -55 0
-7168 320 0
-7169 -85 0
-7169 290 0
-289 7167 7168 7169 0
-7170 -35 0
-7170 421 0
-7171 -56 0
-7171 321 0
-7172 -86 0
-7172 291 0
-289 7170 7171 7172 0
-7173 -36 0
-7173 422 0
-7174 -57 0
-7174 322 0
-7175 -87 0
-7175 292 0
-289 7173 7174 7175 0
-7176 -37 0
-7176 423 0
-7177 -58 0
-7177 323 0
-7178 -88 0
-7178 293 0
-289 7176 7177 7178 0
-7179 -38 0
-7179 424 0
-7180 -59 0
-7180 324 0
-7181 -89 0
-7181 294 0
-289 7179 7180 7181 0
-7182 -39 0
-7182 425 0
-7183 -60 0
-7183 325 0
-7184 -90 0
-7184 295 0
-289 7182 7183 7184 0
-7185 -2 0
-7185 146 0
-7186 -4 0
-7186 125 0
-7187 -9 0
-7187 120 0
-290 7185 7186 7187 0
-7188 -15 0
-7188 224 0
-7189 -17 0
-7189 203 0
-7190 -22 0
-7190 198 0
-290 7188 7189 7190 0
-7191 -28 0
-7191 345 0
-7192 -40 0
-7192 280 0
-7193 -45 0
-7193 275 0
-290 7191 7192 7193 0
-7194 -30 0
-7194 399 0
-7195 -51 0
-7195 299 0
-7196 -64 0
-7196 286 0
-290 7194 7195 7196 0
-7197 -31 0
-7197 407 0
-7198 -52 0
-7198 307 0
-7199 -72 0
-7199 287 0
-290 7197 7198 7199 0
-7200 -32 0
-7200 414 0
-7201 -53 0
-7201 314 0
-7202 -79 0
-7202 288 0
-290 7200 7201 7202 0
-7203 -33 0
-7203 420 0
-7204 -54 0
-7204 320 0
-7205 -85 0
-7205 289 0
-290 7203 7204 7205 0
-7206 -35 0
-7206 426 0
-7207 -56 0
-7207 326 0
-7208 -91 0
-7208 291 0
-290 7206 7207 7208 0
-7209 -36 0
-7209 427 0
-7210 -57 0
-7210 327 0
-7211 -92 0
-7211 292 0
-290 7209 7210 7211 0
-7212 -37 0
-7212 428 0
-7213 -58 0
-7213 328 0
-7214 -93 0
-7214 293 0
-290 7212 7213 7214 0
-7215 -38 0
-7215 429 0
-7216 -59 0
-7216 329 0
-7217 -94 0
-7217 294 0
-290 7215 7216 7217 0
-7218 -39 0
-7218 430 0
-7219 -60 0
-7219 330 0
-7220 -95 0
-7220 295 0
-290 7218 7219 7220 0
-7221 -2 0
-7221 147 0
-7222 -4 0
-7222 126 0
-7223 -10 0
-7223 120 0
-291 7221 7222 7223 0
-7224 -15 0
-7224 225 0
-7225 -17 0
-7225 204 0
-7226 -23 0
-7226 198 0
-291 7224 7225 7226 0
-7227 -28 0
-7227 346 0
-7228 -40 0
-7228 281 0
-7229 -46 0
-7229 275 0
-291 7227 7228 7229 0
-7230 -30 0
-7230 400 0
-7231 -51 0
-7231 300 0
-7232 -65 0
-7232 286 0
-291 7230 7231 7232 0
-7233 -31 0
-7233 408 0
-7234 -52 0
-7234 308 0
-7235 -73 0
-7235 287 0
-291 7233 7234 7235 0
-7236 -32 0
-7236 415 0
-7237 -53 0
-7237 315 0
-7238 -80 0
-7238 288 0
-291 7236 7237 7238 0
-7239 -33 0
-7239 421 0
-7240 -54 0
-7240 321 0
-7241 -86 0
-7241 289 0
-291 7239 7240 7241 0
-7242 -34 0
-7242 426 0
-7243 -55 0
-7243 326 0
-7244 -91 0
-7244 290 0
-291 7242 7243 7244 0
-7245 -36 0
-7245 431 0
-7246 -57 0
-7246 331 0
-7247 -96 0
-7247 292 0
-291 7245 7246 7247 0
-7248 -37 0
-7248 432 0
-7249 -58 0
-7249 332 0
-7250 -97 0
-7250 293 0
-291 7248 7249 7250 0
-7251 -38 0
-7251 433 0
-7252 -59 0
-7252 333 0
-7253 -98 0
-7253 294 0
-291 7251 7252 7253 0
-7254 -39 0
-7254 434 0
-7255 -60 0
-7255 334 0
-7256 -99 0
-7256 295 0
-291 7254 7255 7256 0
-7257 -2 0
-7257 148 0
-7258 -4 0
-7258 127 0
-7259 -11 0
-7259 120 0
-292 7257 7258 7259 0
-7260 -15 0
-7260 226 0
-7261 -17 0
-7261 205 0
-7262 -24 0
-7262 198 0
-292 7260 7261 7262 0
-7263 -28 0
-7263 347 0
-7264 -40 0
-7264 282 0
-7265 -47 0
-7265 275 0
-292 7263 7264 7265 0
-7266 -30 0
-7266 401 0
-7267 -51 0
-7267 301 0
-7268 -66 0
-7268 286 0
-292 7266 7267 7268 0
-7269 -31 0
-7269 409 0
-7270 -52 0
-7270 309 0
-7271 -74 0
-7271 287 0
-292 7269 7270 7271 0
-7272 -32 0
-7272 416 0
-7273 -53 0
-7273 316 0
-7274 -81 0
-7274 288 0
-292 7272 7273 7274 0
-7275 -33 0
-7275 422 0
-7276 -54 0
-7276 322 0
-7277 -87 0
-7277 289 0
-292 7275 7276 7277 0
-7278 -34 0
-7278 427 0
-7279 -55 0
-7279 327 0
-7280 -92 0
-7280 290 0
-292 7278 7279 7280 0
-7281 -35 0
-7281 431 0
-7282 -56 0
-7282 331 0
-7283 -96 0
-7283 291 0
-292 7281 7282 7283 0
-7284 -37 0
-7284 435 0
-7285 -58 0
-7285 335 0
-7286 -100 0
-7286 293 0
-292 7284 7285 7286 0
-7287 -38 0
-7287 436 0
-7288 -59 0
-7288 336 0
-7289 -101 0
-7289 294 0
-292 7287 7288 7289 0
-7290 -39 0
-7290 437 0
-7291 -60 0
-7291 337 0
-7292 -102 0
-7292 295 0
-292 7290 7291 7292 0
-7293 -2 0
-7293 149 0
-7294 -4 0
-7294 128 0
-7295 -12 0
-7295 120 0
-293 7293 7294 7295 0
-7296 -15 0
-7296 227 0
-7297 -17 0
-7297 206 0
-7298 -25 0
-7298 198 0
-293 7296 7297 7298 0
-7299 -28 0
-7299 348 0
-7300 -40 0
-7300 283 0
-7301 -48 0
-7301 275 0
-293 7299 7300 7301 0
-7302 -30 0
-7302 402 0
-7303 -51 0
-7303 302 0
-7304 -67 0
-7304 286 0
-293 7302 7303 7304 0
-7305 -31 0
-7305 410 0
-7306 -52 0
-7306 310 0
-7307 -75 0
-7307 287 0
-293 7305 7306 7307 0
-7308 -32 0
-7308 417 0
-7309 -53 0
-7309 317 0
-7310 -82 0
-7310 288 0
-293 7308 7309 7310 0
-7311 -33 0
-7311 423 0
-7312 -54 0
-7312 323 0
-7313 -88 0
-7313 289 0
-293 7311 7312 7313 0
-7314 -34 0
-7314 428 0
-7315 -55 0
-7315 328 0
-7316 -93 0
-7316 290 0
-293 7314 7315 7316 0
-7317 -35 0
-7317 432 0
-7318 -56 0
-7318 332 0
-7319 -97 0
-7319 291 0
-293 7317 7318 7319 0
-7320 -36 0
-7320 435 0
-7321 -57 0
-7321 335 0
-7322 -100 0
-7322 292 0
-293 7320 7321 7322 0
-7323 -38 0
-7323 438 0
-7324 -59 0
-7324 338 0
-7325 -103 0
-7325 294 0
-293 7323 7324 7325 0
-7326 -39 0
-7326 439 0
-7327 -60 0
-7327 339 0
-7328 -104 0
-7328 295 0
-293 7326 7327 7328 0
-7329 -2 0
-7329 150 0
-7330 -4 0
-7330 129 0
-7331 -13 0
-7331 120 0
-294 7329 7330 7331 0
-7332 -15 0
-7332 228 0
-7333 -17 0
-7333 207 0
-7334 -26 0
-7334 198 0
-294 7332 7333 7334 0
-7335 -28 0
-7335 349 0
-7336 -40 0
-7336 284 0
-7337 -49 0
-7337 275 0
-294 7335 7336 7337 0
-7338 -30 0
-7338 403 0
-7339 -51 0
-7339 303 0
-7340 -68 0
-7340 286 0
-294 7338 7339 7340 0
-7341 -31 0
-7341 411 0
-7342 -52 0
-7342 311 0
-7343 -76 0
-7343 287 0
-294 7341 7342 7343 0
-7344 -32 0
-7344 418 0
-7345 -53 0
-7345 318 0
-7346 -83 0
-7346 288 0
-294 7344 7345 7346 0
-7347 -33 0
-7347 424 0
-7348 -54 0
-7348 324 0
-7349 -89 0
-7349 289 0
-294 7347 7348 7349 0
-7350 -34 0
-7350 429 0
-7351 -55 0
-7351 329 0
-7352 -94 0
-7352 290 0
-294 7350 7351 7352 0
-7353 -35 0
-7353 433 0
-7354 -56 0
-7354 333 0
-7355 -98 0
-7355 291 0
-294 7353 7354 7355 0
-7356 -36 0
-7356 436 0
-7357 -57 0
-7357 336 0
-7358 -101 0
-7358 292 0
-294 7356 7357 7358 0
-7359 -37 0
-7359 438 0
-7360 -58 0
-7360 338 0
-7361 -103 0
-7361 293 0
-294 7359 7360 7361 0
-7362 -39 0
-7362 440 0
-7363 -60 0
-7363 340 0
-7364 -105 0
-7364 295 0
-294 7362 7363 7364 0
-7365 -2 0
-7365 151 0
-7366 -4 0
-7366 130 0
-7367 -14 0
-7367 120 0
-295 7365 7366 7367 0
-7368 -15 0
-7368 229 0
-7369 -17 0
-7369 208 0
-7370 -27 0
-7370 198 0
-295 7368 7369 7370 0
-7371 -28 0
-7371 350 0
-7372 -40 0
-7372 285 0
-7373 -50 0
-7373 275 0
-295 7371 7372 7373 0
-7374 -30 0
-7374 404 0
-7375 -51 0
-7375 304 0
-7376 -69 0
-7376 286 0
-295 7374 7375 7376 0
-7377 -31 0
-7377 412 0
-7378 -52 0
-7378 312 0
-7379 -77 0
-7379 287 0
-295 7377 7378 7379 0
-7380 -32 0
-7380 419 0
-7381 -53 0
-7381 319 0
-7382 -84 0
-7382 288 0
-295 7380 7381 7382 0
-7383 -33 0
-7383 425 0
-7384 -54 0
-7384 325 0
-7385 -90 0
-7385 289 0
-295 7383 7384 7385 0
-7386 -34 0
-7386 430 0
-7387 -55 0
-7387 330 0
-7388 -95 0
-7388 290 0
-295 7386 7387 7388 0
-7389 -35 0
-7389 434 0
-7390 -56 0
-7390 334 0
-7391 -99 0
-7391 291 0
-295 7389 7390 7391 0
-7392 -36 0
-7392 437 0
-7393 -57 0
-7393 337 0
-7394 -102 0
-7394 292 0
-295 7392 7393 7394 0
-7395 -37 0
-7395 439 0
-7396 -58 0
-7396 339 0
-7397 -104 0
-7397 293 0
-295 7395 7396 7397 0
-7398 -38 0
-7398 440 0
-7399 -59 0
-7399 340 0
-7400 -105 0
-7400 294 0
-295 7398 7399 7400 0
-7401 -2 0
-7401 152 0
-7402 -5 0
-7402 122 0
-7403 -6 0
-7403 121 0
-296 7401 7402 7403 0
-7404 -15 0
-7404 230 0
-7405 -18 0
-7405 200 0
-7406 -19 0
-7406 199 0
-296 7404 7405 7406 0
-7407 -28 0
-7407 351 0
-7408 -41 0
-7408 277 0
-7409 -42 0
-7409 276 0
-296 7407 7408 7409 0
-7410 -29 0
-7410 396 0
-7411 -51 0
-7411 287 0
-7412 -52 0
-7412 286 0
-296 7410 7411 7412 0
-7413 -32 0
-7413 441 0
-7414 -62 0
-7414 305 0
-7415 -70 0
-7415 297 0
-296 7413 7414 7415 0
-7416 -33 0
-7416 442 0
-7417 -63 0
-7417 306 0
-7418 -71 0
-7418 298 0
-296 7416 7417 7418 0
-7419 -34 0
-7419 443 0
-7420 -64 0
-7420 307 0
-7421 -72 0
-7421 299 0
-296 7419 7420 7421 0
-7422 -35 0
-7422 444 0
-7423 -65 0
-7423 308 0
-7424 -73 0
-7424 300 0
-296 7422 7423 7424 0
-7425 -36 0
-7425 445 0
-7426 -66 0
-7426 309 0
-7427 -74 0
-7427 301 0
-296 7425 7426 7427 0
-7428 -37 0
-7428 446 0
-7429 -67 0
-7429 310 0
-7430 -75 0
-7430 302 0
-296 7428 7429 7430 0
-7431 -38 0
-7431 447 0
-7432 -68 0
-7432 311 0
-7433 -76 0
-7433 303 0
-296 7431 7432 7433 0
-7434 -39 0
-7434 448 0
-7435 -69 0
-7435 312 0
-7436 -77 0
-7436 304 0
-296 7434 7435 7436 0
-7437 -2 0
-7437 153 0
-7438 -5 0
-7438 123 0
-7439 -7 0
-7439 121 0
-297 7437 7438 7439 0
-7440 -15 0
-7440 231 0
-7441 -18 0
-7441 201 0
-7442 -20 0
-7442 199 0
-297 7440 7441 7442 0
-7443 -28 0
-7443 352 0
-7444 -41 0
-7444 278 0
-7445 -43 0
-7445 276 0
-297 7443 7444 7445 0
-7446 -29 0
-7446 397 0
-7447 -51 0
-7447 288 0
-7448 -53 0
-7448 286 0
-297 7446 7447 7448 0
-7449 -31 0
-7449 441 0
-7450 -61 0
-7450 305 0
-7451 -70 0
-7451 296 0
-297 7449 7450 7451 0
-7452 -33 0
-7452 449 0
-7453 -63 0
-7453 313 0
-7454 -78 0
-7454 298 0
-297 7452 7453 7454 0
-7455 -34 0
-7455 450 0
-7456 -64 0
-7456 314 0
-7457 -79 0
-7457 299 0
-297 7455 7456 7457 0
-7458 -35 0
-7458 451 0
-7459 -65 0
-7459 315 0
-7460 -80 0
-7460 300 0
-297 7458 7459 7460 0
-7461 -36 0
-7461 452 0
-7462 -66 0
-7462 316 0
-7463 -81 0
-7463 301 0
-297 7461 7462 7463 0
-7464 -37 0
-7464 453 0
-7465 -67 0
-7465 317 0
-7466 -82 0
-7466 302 0
-297 7464 7465 7466 0
-7467 -38 0
-7467 454 0
-7468 -68 0
-7468 318 0
-7469 -83 0
-7469 303 0
-297 7467 7468 7469 0
-7470 -39 0
-7470 455 0
-7471 -69 0
-7471 319 0
-7472 -84 0
-7472 304 0
-297 7470 7471 7472 0
-7473 -2 0
-7473 154 0
-7474 -5 0
-7474 124 0
-7475 -8 0
-7475 121 0
-298 7473 7474 7475 0
-7476 -15 0
-7476 232 0
-7477 -18 0
-7477 202 0
-7478 -21 0
-7478 199 0
-298 7476 7477 7478 0
-7479 -28 0
-7479 353 0
-7480 -41 0
-7480 279 0
-7481 -44 0
-7481 276 0
-298 7479 7480 7481 0
-7482 -29 0
-7482 398 0
-7483 -51 0
-7483 289 0
-7484 -54 0
-7484 286 0
-298 7482 7483 7484 0
-7485 -31 0
-7485 442 0
-7486 -61 0
-7486 306 0
-7487 -71 0
-7487 296 0
-298 7485 7486 7487 0
-7488 -32 0
-7488 449 0
-7489 -62 0
-7489 313 0
-7490 -78 0
-7490 297 0
-298 7488 7489 7490 0
-7491 -34 0
-7491 456 0
-7492 -64 0
-7492 320 0
-7493 -85 0
-7493 299 0
-298 7491 7492 7493 0
-7494 -35 0
-7494 457 0
-7495 -65 0
-7495 321 0
-7496 -86 0
-7496 300 0
-298 7494 7495 7496 0
-7497 -36 0
-7497 458 0
-7498 -66 0
-7498 322 0
-7499 -87 0
-7499 301 0
-298 7497 7498 7499 0
-7500 -37 0
-7500 459 0
-7501 -67 0
-7501 323 0
-7502 -88 0
-7502 302 0
-298 7500 7501 7502 0
-7503 -38 0
-7503 460 0
-7504 -68 0
-7504 324 0
-7505 -89 0
-7505 303 0
-298 7503 7504 7505 0
-7506 -39 0
-7506 461 0
-7507 -69 0
-7507 325 0
-7508 -90 0
-7508 304 0
-298 7506 7507 7508 0
-7509 -2 0
-7509 155 0
-7510 -5 0
-7510 125 0
-7511 -9 0
-7511 121 0
-299 7509 7510 7511 0
-7512 -15 0
-7512 233 0
-7513 -18 0
-7513 203 0
-7514 -22 0
-7514 199 0
-299 7512 7513 7514 0
-7515 -28 0
-7515 354 0
-7516 -41 0
-7516 280 0
-7517 -45 0
-7517 276 0
-299 7515 7516 7517 0
-7518 -29 0
-7518 399 0
-7519 -51 0
-7519 290 0
-7520 -55 0
-7520 286 0
-299 7518 7519 7520 0
-7521 -31 0
-7521 443 0
-7522 -61 0
-7522 307 0
-7523 -72 0
-7523 296 0
-299 7521 7522 7523 0
-7524 -32 0
-7524 450 0
-7525 -62 0
-7525 314 0
-7526 -79 0
-7526 297 0
-299 7524 7525 7526 0
-7527 -33 0
-7527 456 0
-7528 -63 0
-7528 320 0
-7529 -85 0
-7529 298 0
-299 7527 7528 7529 0
-7530 -35 0
-7530 462 0
-7531 -65 0
-7531 326 0
-7532 -91 0
-7532 300 0
-299 7530 7531 7532 0
-7533 -36 0
-7533 463 0
-7534 -66 0
-7534 327 0
-7535 -92 0
-7535 301 0
-299 7533 7534 7535 0
-7536 -37 0
-7536 464 0
-7537 -67 0
-7537 328 0
-7538 -93 0
-7538 302 0
-299 7536 7537 7538 0
-7539 -38 0
-7539 465 0
-7540 -68 0
-7540 329 0
-7541 -94 0
-7541 303 0
-299 7539 7540 7541 0
-7542 -39 0
-7542 466 0
-7543 -69 0
-7543 330 0
-7544 -95 0
-7544 304 0
-299 7542 7543 7544 0
-7545 -2 0
-7545 156 0
-7546 -5 0
-7546 126 0
-7547 -10 0
-7547 121 0
-300 7545 7546 7547 0
-7548 -15 0
-7548 234 0
-7549 -18 0
-7549 204 0
-7550 -23 0
-7550 199 0
-300 7548 7549 7550 0
-7551 -28 0
-7551 355 0
-7552 -41 0
-7552 281 0
-7553 -46 0
-7553 276 0
-300 7551 7552 7553 0
-7554 -29 0
-7554 400 0
-7555 -51 0
-7555 291 0
-7556 -56 0
-7556 286 0
-300 7554 7555 7556 0
-7557 -31 0
-7557 444 0
-7558 -61 0
-7558 308 0
-7559 -73 0
-7559 296 0
-300 7557 7558 7559 0
-7560 -32 0
-7560 451 0
-7561 -62 0
-7561 315 0
-7562 -80 0
-7562 297 0
-300 7560 7561 7562 0
-7563 -33 0
-7563 457 0
-7564 -63 0
-7564 321 0
-7565 -86 0
-7565 298 0
-300 7563 7564 7565 0
-7566 -34 0
-7566 462 0
-7567 -64 0
-7567 326 0
-7568 -91 0
-7568 299 0
-300 7566 7567 7568 0
-7569 -36 0
-7569 467 0
-7570 -66 0
-7570 331 0
-7571 -96 0
-7571 301 0
-300 7569 7570 7571 0
-7572 -37 0
-7572 468 0
-7573 -67 0
-7573 332 0
-7574 -97 0
-7574 302 0
-300 7572 7573 7574 0
-7575 -38 0
-7575 469 0
-7576 -68 0
-7576 333 0
-7577 -98 0
-7577 303 0
-300 7575 7576 7577 0
-7578 -39 0
-7578 470 0
-7579 -69 0
-7579 334 0
-7580 -99 0
-7580 304 0
-300 7578 7579 7580 0
-7581 -2 0
-7581 157 0
-7582 -5 0
-7582 127 0
-7583 -11 0
-7583 121 0
-301 7581 7582 7583 0
-7584 -15 0
-7584 235 0
-7585 -18 0
-7585 205 0
-7586 -24 0
-7586 199 0
-301 7584 7585 7586 0
-7587 -28 0
-7587 356 0
-7588 -41 0
-7588 282 0
-7589 -47 0
-7589 276 0
-301 7587 7588 7589 0
-7590 -29 0
-7590 401 0
-7591 -51 0
-7591 292 0
-7592 -57 0
-7592 286 0
-301 7590 7591 7592 0
-7593 -31 0
-7593 445 0
-7594 -61 0
-7594 309 0
-7595 -74 0
-7595 296 0
-301 7593 7594 7595 0
-7596 -32 0
-7596 452 0
-7597 -62 0
-7597 316 0
-7598 -81 0
-7598 297 0
-301 7596 7597 7598 0
-7599 -33 0
-7599 458 0
-7600 -63 0
-7600 322 0
-7601 -87 0
-7601 298 0
-301 7599 7600 7601 0
-7602 -34 0
-7602 463 0
-7603 -64 0
-7603 327 0
-7604 -92 0
-7604 299 0
-301 7602 7603 7604 0
-7605 -35 0
-7605 467 0
-7606 -65 0
-7606 331 0
-7607 -96 0
-7607 300 0
-301 7605 7606 7607 0
-7608 -37 0
-7608 471 0
-7609 -67 0
-7609 335 0
-7610 -100 0
-7610 302 0
-301 7608 7609 7610 0
-7611 -38 0
-7611 472 0
-7612 -68 0
-7612 336 0
-7613 -101 0
-7613 303 0
-301 7611 7612 7613 0
-7614 -39 0
-7614 473 0
-7615 -69 0
-7615 337 0
-7616 -102 0
-7616 304 0
-301 7614 7615 7616 0
-7617 -2 0
-7617 158 0
-7618 -5 0
-7618 128 0
-7619 -12 0
-7619 121 0
-302 7617 7618 7619 0
-7620 -15 0
-7620 236 0
-7621 -18 0
-7621 206 0
-7622 -25 0
-7622 199 0
-302 7620 7621 7622 0
-7623 -28 0
-7623 357 0
-7624 -41 0
-7624 283 0
-7625 -48 0
-7625 276 0
-302 7623 7624 7625 0
-7626 -29 0
-7626 402 0
-7627 -51 0
-7627 293 0
-7628 -58 0
-7628 286 0
-302 7626 7627 7628 0
-7629 -31 0
-7629 446 0
-7630 -61 0
-7630 310 0
-7631 -75 0
-7631 296 0
-302 7629 7630 7631 0
-7632 -32 0
-7632 453 0
-7633 -62 0
-7633 317 0
-7634 -82 0
-7634 297 0
-302 7632 7633 7634 0
-7635 -33 0
-7635 459 0
-7636 -63 0
-7636 323 0
-7637 -88 0
-7637 298 0
-302 7635 7636 7637 0
-7638 -34 0
-7638 464 0
-7639 -64 0
-7639 328 0
-7640 -93 0
-7640 299 0
-302 7638 7639 7640 0
-7641 -35 0
-7641 468 0
-7642 -65 0
-7642 332 0
-7643 -97 0
-7643 300 0
-302 7641 7642 7643 0
-7644 -36 0
-7644 471 0
-7645 -66 0
-7645 335 0
-7646 -100 0
-7646 301 0
-302 7644 7645 7646 0
-7647 -38 0
-7647 474 0
-7648 -68 0
-7648 338 0
-7649 -103 0
-7649 303 0
-302 7647 7648 7649 0
-7650 -39 0
-7650 475 0
-7651 -69 0
-7651 339 0
-7652 -104 0
-7652 304 0
-302 7650 7651 7652 0
-7653 -2 0
-7653 159 0
-7654 -5 0
-7654 129 0
-7655 -13 0
-7655 121 0
-303 7653 7654 7655 0
-7656 -15 0
-7656 237 0
-7657 -18 0
-7657 207 0
-7658 -26 0
-7658 199 0
-303 7656 7657 7658 0
-7659 -28 0
-7659 358 0
-7660 -41 0
-7660 284 0
-7661 -49 0
-7661 276 0
-303 7659 7660 7661 0
-7662 -29 0
-7662 403 0
-7663 -51 0
-7663 294 0
-7664 -59 0
-7664 286 0
-303 7662 7663 7664 0
-7665 -31 0
-7665 447 0
-7666 -61 0
-7666 311 0
-7667 -76 0
-7667 296 0
-303 7665 7666 7667 0
-7668 -32 0
-7668 454 0
-7669 -62 0
-7669 318 0
-7670 -83 0
-7670 297 0
-303 7668 7669 7670 0
-7671 -33 0
-7671 460 0
-7672 -63 0
-7672 324 0
-7673 -89 0
-7673 298 0
-303 7671 7672 7673 0
-7674 -34 0
-7674 465 0
-7675 -64 0
-7675 329 0
-7676 -94 0
-7676 299 0
-303 7674 7675 7676 0
-7677 -35 0
-7677 469 0
-7678 -65 0
-7678 333 0
-7679 -98 0
-7679 300 0
-303 7677 7678 7679 0
-7680 -36 0
-7680 472 0
-7681 -66 0
-7681 336 0
-7682 -101 0
-7682 301 0
-303 7680 7681 7682 0
-7683 -37 0
-7683 474 0
-7684 -67 0
-7684 338 0
-7685 -103 0
-7685 302 0
-303 7683 7684 7685 0
-7686 -39 0
-7686 476 0
-7687 -69 0
-7687 340 0
-7688 -105 0
-7688 304 0
-303 7686 7687 7688 0
-7689 -2 0
-7689 160 0
-7690 -5 0
-7690 130 0
-7691 -14 0
-7691 121 0
-304 7689 7690 7691 0
-7692 -15 0
-7692 238 0
-7693 -18 0
-7693 208 0
-7694 -27 0
-7694 199 0
-304 7692 7693 7694 0
-7695 -28 0
-7695 359 0
-7696 -41 0
-7696 285 0
-7697 -50 0
-7697 276 0
-304 7695 7696 7697 0
-7698 -29 0
-7698 404 0
-7699 -51 0
-7699 295 0
-7700 -60 0
-7700 286 0
-304 7698 7699 7700 0
-7701 -31 0
-7701 448 0
-7702 -61 0
-7702 312 0
-7703 -77 0
-7703 296 0
-304 7701 7702 7703 0
-7704 -32 0
-7704 455 0
-7705 -62 0
-7705 319 0
-7706 -84 0
-7706 297 0
-304 7704 7705 7706 0
-7707 -33 0
-7707 461 0
-7708 -63 0
-7708 325 0
-7709 -90 0
-7709 298 0
-304 7707 7708 7709 0
-7710 -34 0
-7710 466 0
-7711 -64 0
-7711 330 0
-7712 -95 0
-7712 299 0
-304 7710 7711 7712 0
-7713 -35 0
-7713 470 0
-7714 -65 0
-7714 334 0
-7715 -99 0
-7715 300 0
-304 7713 7714 7715 0
-7716 -36 0
-7716 473 0
-7717 -66 0
-7717 337 0
-7718 -102 0
-7718 301 0
-304 7716 7717 7718 0
-7719 -37 0
-7719 475 0
-7720 -67 0
-7720 339 0
-7721 -104 0
-7721 302 0
-304 7719 7720 7721 0
-7722 -38 0
-7722 476 0
-7723 -68 0
-7723 340 0
-7724 -105 0
-7724 303 0
-304 7722 7723 7724 0
-7725 -2 0
-7725 161 0
-7726 -6 0
-7726 123 0
-7727 -7 0
-7727 122 0
-305 7725 7726 7727 0
-7728 -15 0
-7728 239 0
-7729 -19 0
-7729 201 0
-7730 -20 0
-7730 200 0
-305 7728 7729 7730 0
-7731 -28 0
-7731 360 0
-7732 -42 0
-7732 278 0
-7733 -43 0
-7733 277 0
-305 7731 7732 7733 0
-7734 -29 0
-7734 405 0
-7735 -52 0
-7735 288 0
-7736 -53 0
-7736 287 0
-305 7734 7735 7736 0
-7737 -30 0
-7737 441 0
-7738 -61 0
-7738 297 0
-7739 -62 0
-7739 296 0
-305 7737 7738 7739 0
-7740 -33 0
-7740 477 0
-7741 -71 0
-7741 313 0
-7742 -78 0
-7742 306 0
-305 7740 7741 7742 0
-7743 -34 0
-7743 478 0
-7744 -72 0
-7744 314 0
-7745 -79 0
-7745 307 0
-305 7743 7744 7745 0
-7746 -35 0
-7746 479 0
-7747 -73 0
-7747 315 0
-7748 -80 0
-7748 308 0
-305 7746 7747 7748 0
-7749 -36 0
-7749 480 0
-7750 -74 0
-7750 316 0
-7751 -81 0
-7751 309 0
-305 7749 7750 7751 0
-7752 -37 0
-7752 481 0
-7753 -75 0
-7753 317 0
-7754 -82 0
-7754 310 0
-305 7752 7753 7754 0
-7755 -38 0
-7755 482 0
-7756 -76 0
-7756 318 0
-7757 -83 0
-7757 311 0
-305 7755 7756 7757 0
-7758 -39 0
-7758 483 0
-7759 -77 0
-7759 319 0
-7760 -84 0
-7760 312 0
-305 7758 7759 7760 0
-7761 -2 0
-7761 162 0
-7762 -6 0
-7762 124 0
-7763 -8 0
-7763 122 0
-306 7761 7762 7763 0
-7764 -15 0
-7764 240 0
-7765 -19 0
-7765 202 0
-7766 -21 0
-7766 200 0
-306 7764 7765 7766 0
-7767 -28 0
-7767 361 0
-7768 -42 0
-7768 279 0
-7769 -44 0
-7769 277 0
-306 7767 7768 7769 0
-7770 -29 0
-7770 406 0
-7771 -52 0
-7771 289 0
-7772 -54 0
-7772 287 0
-306 7770 7771 7772 0
-7773 -30 0
-7773 442 0
-7774 -61 0
-7774 298 0
-7775 -63 0
-7775 296 0
-306 7773 7774 7775 0
-7776 -32 0
-7776 477 0
-7777 -70 0
-7777 313 0
-7778 -78 0
-7778 305 0
-306 7776 7777 7778 0
-7779 -34 0
-7779 484 0
-7780 -72 0
-7780 320 0
-7781 -85 0
-7781 307 0
-306 7779 7780 7781 0
-7782 -35 0
-7782 485 0
-7783 -73 0
-7783 321 0
-7784 -86 0
-7784 308 0
-306 7782 7783 7784 0
-7785 -36 0
-7785 486 0
-7786 -74 0
-7786 322 0
-7787 -87 0
-7787 309 0
-306 7785 7786 7787 0
-7788 -37 0
-7788 487 0
-7789 -75 0
-7789 323 0
-7790 -88 0
-7790 310 0
-306 7788 7789 7790 0
-7791 -38 0
-7791 488 0
-7792 -76 0
-7792 324 0
-7793 -89 0
-7793 311 0
-306 7791 7792 7793 0
-7794 -39 0
-7794 489 0
-7795 -77 0
-7795 325 0
-7796 -90 0
-7796 312 0
-306 7794 7795 7796 0
-7797 -2 0
-7797 163 0
-7798 -6 0
-7798 125 0
-7799 -9 0
-7799 122 0
-307 7797 7798 7799 0
-7800 -15 0
-7800 241 0
-7801 -19 0
-7801 203 0
-7802 -22 0
-7802 200 0
-307 7800 7801 7802 0
-7803 -28 0
-7803 362 0
-7804 -42 0
-7804 280 0
-7805 -45 0
-7805 277 0
-307 7803 7804 7805 0
-7806 -29 0
-7806 407 0
-7807 -52 0
-7807 290 0
-7808 -55 0
-7808 287 0
-307 7806 7807 7808 0
-7809 -30 0
-7809 443 0
-7810 -61 0
-7810 299 0
-7811 -64 0
-7811 296 0
-307 7809 7810 7811 0
-7812 -32 0
-7812 478 0
-7813 -70 0
-7813 314 0
-7814 -79 0
-7814 305 0
-307 7812 7813 7814 0
-7815 -33 0
-7815 484 0
-7816 -71 0
-7816 320 0
-7817 -85 0
-7817 306 0
-307 7815 7816 7817 0
-7818 -35 0
-7818 490 0
-7819 -73 0
-7819 326 0
-7820 -91 0
-7820 308 0
-307 7818 7819 7820 0
-7821 -36 0
-7821 491 0
-7822 -74 0
-7822 327 0
-7823 -92 0
-7823 309 0
-307 7821 7822 7823 0
-7824 -37 0
-7824 492 0
-7825 -75 0
-7825 328 0
-7826 -93 0
-7826 310 0
-307 7824 7825 7826 0
-7827 -38 0
-7827 493 0
-7828 -76 0
-7828 329 0
-7829 -94 0
-7829 311 0
-307 7827 7828 7829 0
-7830 -39 0
-7830 494 0
-7831 -77 0
-7831 330 0
-7832 -95 0
-7832 312 0
-307 7830 7831 7832 0
-7833 -2 0
-7833 164 0
-7834 -6 0
-7834 126 0
-7835 -10 0
-7835 122 0
-308 7833 7834 7835 0
-7836 -15 0
-7836 242 0
-7837 -19 0
-7837 204 0
-7838 -23 0
-7838 200 0
-308 7836 7837 7838 0
-7839 -28 0
-7839 363 0
-7840 -42 0
-7840 281 0
-7841 -46 0
-7841 277 0
-308 7839 7840 7841 0
-7842 -29 0
-7842 408 0
-7843 -52 0
-7843 291 0
-7844 -56 0
-7844 287 0
-308 7842 7843 7844 0
-7845 -30 0
-7845 444 0
-7846 -61 0
-7846 300 0
-7847 -65 0
-7847 296 0
-308 7845 7846 7847 0
-7848 -32 0
-7848 479 0
-7849 -70 0
-7849 315 0
-7850 -80 0
-7850 305 0
-308 7848 7849 7850 0
-7851 -33 0
-7851 485 0
-7852 -71 0
-7852 321 0
-7853 -86 0
-7853 306 0
-308 7851 7852 7853 0
-7854 -34 0
-7854 490 0
-7855 -72 0
-7855 326 0
-7856 -91 0
-7856 307 0
-308 7854 7855 7856 0
-7857 -36 0
-7857 495 0
-7858 -74 0
-7858 331 0
-7859 -96 0
-7859 309 0
-308 7857 7858 7859 0
-7860 -37 0
-7860 496 0
-7861 -75 0
-7861 332 0
-7862 -97 0
-7862 310 0
-308 7860 7861 7862 0
-7863 -38 0
-7863 497 0
-7864 -76 0
-7864 333 0
-7865 -98 0
-7865 311 0
-308 7863 7864 7865 0
-7866 -39 0
-7866 498 0
-7867 -77 0
-7867 334 0
-7868 -99 0
-7868 312 0
-308 7866 7867 7868 0
-7869 -2 0
-7869 165 0
-7870 -6 0
-7870 127 0
-7871 -11 0
-7871 122 0
-309 7869 7870 7871 0
-7872 -15 0
-7872 243 0
-7873 -19 0
-7873 205 0
-7874 -24 0
-7874 200 0
-309 7872 7873 7874 0
-7875 -28 0
-7875 364 0
-7876 -42 0
-7876 282 0
-7877 -47 0
-7877 277 0
-309 7875 7876 7877 0
-7878 -29 0
-7878 409 0
-7879 -52 0
-7879 292 0
-7880 -57 0
-7880 287 0
-309 7878 7879 7880 0
-7881 -30 0
-7881 445 0
-7882 -61 0
-7882 301 0
-7883 -66 0
-7883 296 0
-309 7881 7882 7883 0
-7884 -32 0
-7884 480 0
-7885 -70 0
-7885 316 0
-7886 -81 0
-7886 305 0
-309 7884 7885 7886 0
-7887 -33 0
-7887 486 0
-7888 -71 0
-7888 322 0
-7889 -87 0
-7889 306 0
-309 7887 7888 7889 0
-7890 -34 0
-7890 491 0
-7891 -72 0
-7891 327 0
-7892 -92 0
-7892 307 0
-309 7890 7891 7892 0
-7893 -35 0
-7893 495 0
-7894 -73 0
-7894 331 0
-7895 -96 0
-7895 308 0
-309 7893 7894 7895 0
-7896 -37 0
-7896 499 0
-7897 -75 0
-7897 335 0
-7898 -100 0
-7898 310 0
-309 7896 7897 7898 0
-7899 -38 0
-7899 500 0
-7900 -76 0
-7900 336 0
-7901 -101 0
-7901 311 0
-309 7899 7900 7901 0
-7902 -39 0
-7902 501 0
-7903 -77 0
-7903 337 0
-7904 -102 0
-7904 312 0
-309 7902 7903 7904 0
-7905 -2 0
-7905 166 0
-7906 -6 0
-7906 128 0
-7907 -12 0
-7907 122 0
-310 7905 7906 7907 0
-7908 -15 0
-7908 244 0
-7909 -19 0
-7909 206 0
-7910 -25 0
-7910 200 0
-310 7908 7909 7910 0
-7911 -28 0
-7911 365 0
-7912 -42 0
-7912 283 0
-7913 -48 0
-7913 277 0
-310 7911 7912 7913 0
-7914 -29 0
-7914 410 0
-7915 -52 0
-7915 293 0
-7916 -58 0
-7916 287 0
-310 7914 7915 7916 0
-7917 -30 0
-7917 446 0
-7918 -61 0
-7918 302 0
-7919 -67 0
-7919 296 0
-310 7917 7918 7919 0
-7920 -32 0
-7920 481 0
-7921 -70 0
-7921 317 0
-7922 -82 0
-7922 305 0
-310 7920 7921 7922 0
-7923 -33 0
-7923 487 0
-7924 -71 0
-7924 323 0
-7925 -88 0
-7925 306 0
-310 7923 7924 7925 0
-7926 -34 0
-7926 492 0
-7927 -72 0
-7927 328 0
-7928 -93 0
-7928 307 0
-310 7926 7927 7928 0
-7929 -35 0
-7929 496 0
-7930 -73 0
-7930 332 0
-7931 -97 0
-7931 308 0
-310 7929 7930 7931 0
-7932 -36 0
-7932 499 0
-7933 -74 0
-7933 335 0
-7934 -100 0
-7934 309 0
-310 7932 7933 7934 0
-7935 -38 0
-7935 502 0
-7936 -76 0
-7936 338 0
-7937 -103 0
-7937 311 0
-310 7935 7936 7937 0
-7938 -39 0
-7938 503 0
-7939 -77 0
-7939 339 0
-7940 -104 0
-7940 312 0
-310 7938 7939 7940 0
-7941 -2 0
-7941 167 0
-7942 -6 0
-7942 129 0
-7943 -13 0
-7943 122 0
-311 7941 7942 7943 0
-7944 -15 0
-7944 245 0
-7945 -19 0
-7945 207 0
-7946 -26 0
-7946 200 0
-311 7944 7945 7946 0
-7947 -28 0
-7947 366 0
-7948 -42 0
-7948 284 0
-7949 -49 0
-7949 277 0
-311 7947 7948 7949 0
-7950 -29 0
-7950 411 0
-7951 -52 0
-7951 294 0
-7952 -59 0
-7952 287 0
-311 7950 7951 7952 0
-7953 -30 0
-7953 447 0
-7954 -61 0
-7954 303 0
-7955 -68 0
-7955 296 0
-311 7953 7954 7955 0
-7956 -32 0
-7956 482 0
-7957 -70 0
-7957 318 0
-7958 -83 0
-7958 305 0
-311 7956 7957 7958 0
-7959 -33 0
-7959 488 0
-7960 -71 0
-7960 324 0
-7961 -89 0
-7961 306 0
-311 7959 7960 7961 0
-7962 -34 0
-7962 493 0
-7963 -72 0
-7963 329 0
-7964 -94 0
-7964 307 0
-311 7962 7963 7964 0
-7965 -35 0
-7965 497 0
-7966 -73 0
-7966 333 0
-7967 -98 0
-7967 308 0
-311 7965 7966 7967 0
-7968 -36 0
-7968 500 0
-7969 -74 0
-7969 336 0
-7970 -101 0
-7970 309 0
-311 7968 7969 7970 0
-7971 -37 0
-7971 502 0
-7972 -75 0
-7972 338 0
-7973 -103 0
-7973 310 0
-311 7971 7972 7973 0
-7974 -39 0
-7974 504 0
-7975 -77 0
-7975 340 0
-7976 -105 0
-7976 312 0
-311 7974 7975 7976 0
-7977 -2 0
-7977 168 0
-7978 -6 0
-7978 130 0
-7979 -14 0
-7979 122 0
-312 7977 7978 7979 0
-7980 -15 0
-7980 246 0
-7981 -19 0
-7981 208 0
-7982 -27 0
-7982 200 0
-312 7980 7981 7982 0
-7983 -28 0
-7983 367 0
-7984 -42 0
-7984 285 0
-7985 -50 0
-7985 277 0
-312 7983 7984 7985 0
-7986 -29 0
-7986 412 0
-7987 -52 0
-7987 295 0
-7988 -60 0
-7988 287 0
-312 7986 7987 7988 0
-7989 -30 0
-7989 448 0
-7990 -61 0
-7990 304 0
-7991 -69 0
-7991 296 0
-312 7989 7990 7991 0
-7992 -32 0
-7992 483 0
-7993 -70 0
-7993 319 0
-7994 -84 0
-7994 305 0
-312 7992 7993 7994 0
-7995 -33 0
-7995 489 0
-7996 -71 0
-7996 325 0
-7997 -90 0
-7997 306 0
-312 7995 7996 7997 0
-7998 -34 0
-7998 494 0
-7999 -72 0
-7999 330 0
-8000 -95 0
-8000 307 0
-312 7998 7999 8000 0
-8001 -35 0
-8001 498 0
-8002 -73 0
-8002 334 0
-8003 -99 0
-8003 308 0
-312 8001 8002 8003 0
-8004 -36 0
-8004 501 0
-8005 -74 0
-8005 337 0
-8006 -102 0
-8006 309 0
-312 8004 8005 8006 0
-8007 -37 0
-8007 503 0
-8008 -75 0
-8008 339 0
-8009 -104 0
-8009 310 0
-312 8007 8008 8009 0
-8010 -38 0
-8010 504 0
-8011 -76 0
-8011 340 0
-8012 -105 0
-8012 311 0
-312 8010 8011 8012 0
-8013 -2 0
-8013 169 0
-8014 -7 0
-8014 124 0
-8015 -8 0
-8015 123 0
-313 8013 8014 8015 0
-8016 -15 0
-8016 247 0
-8017 -20 0
-8017 202 0
-8018 -21 0
-8018 201 0
-313 8016 8017 8018 0
-8019 -28 0
-8019 368 0
-8020 -43 0
-8020 279 0
-8021 -44 0
-8021 278 0
-313 8019 8020 8021 0
-8022 -29 0
-8022 413 0
-8023 -53 0
-8023 289 0
-8024 -54 0
-8024 288 0
-313 8022 8023 8024 0
-8025 -30 0
-8025 449 0
-8026 -62 0
-8026 298 0
-8027 -63 0
-8027 297 0
-313 8025 8026 8027 0
-8028 -31 0
-8028 477 0
-8029 -70 0
-8029 306 0
-8030 -71 0
-8030 305 0
-313 8028 8029 8030 0
-8031 -34 0
-8031 505 0
-8032 -79 0
-8032 320 0
-8033 -85 0
-8033 314 0
-313 8031 8032 8033 0
-8034 -35 0
-8034 506 0
-8035 -80 0
-8035 321 0
-8036 -86 0
-8036 315 0
-313 8034 8035 8036 0
-8037 -36 0
-8037 507 0
-8038 -81 0
-8038 322 0
-8039 -87 0
-8039 316 0
-313 8037 8038 8039 0
-8040 -37 0
-8040 508 0
-8041 -82 0
-8041 323 0
-8042 -88 0
-8042 317 0
-313 8040 8041 8042 0
-8043 -38 0
-8043 509 0
-8044 -83 0
-8044 324 0
-8045 -89 0
-8045 318 0
-313 8043 8044 8045 0
-8046 -39 0
-8046 510 0
-8047 -84 0
-8047 325 0
-8048 -90 0
-8048 319 0
-313 8046 8047 8048 0
-8049 -2 0
-8049 170 0
-8050 -7 0
-8050 125 0
-8051 -9 0
-8051 123 0
-314 8049 8050 8051 0
-8052 -15 0
-8052 248 0
-8053 -20 0
-8053 203 0
-8054 -22 0
-8054 201 0
-314 8052 8053 8054 0
-8055 -28 0
-8055 369 0
-8056 -43 0
-8056 280 0
-8057 -45 0
-8057 278 0
-314 8055 8056 8057 0
-8058 -29 0
-8058 414 0
-8059 -53 0
-8059 290 0
-8060 -55 0
-8060 288 0
-314 8058 8059 8060 0
-8061 -30 0
-8061 450 0
-8062 -62 0
-8062 299 0
-8063 -64 0
-8063 297 0
-314 8061 8062 8063 0
-8064 -31 0
-8064 478 0
-8065 -70 0
-8065 307 0
-8066 -72 0
-8066 305 0
-314 8064 8065 8066 0
-8067 -33 0
-8067 505 0
-8068 -78 0
-8068 320 0
-8069 -85 0
-8069 313 0
-314 8067 8068 8069 0
-8070 -35 0
-8070 511 0
-8071 -80 0
-8071 326 0
-8072 -91 0
-8072 315 0
-314 8070 8071 8072 0
-8073 -36 0
-8073 512 0
-8074 -81 0
-8074 327 0
-8075 -92 0
-8075 316 0
-314 8073 8074 8075 0
-8076 -37 0
-8076 513 0
-8077 -82 0
-8077 328 0
-8078 -93 0
-8078 317 0
-314 8076 8077 8078 0
-8079 -38 0
-8079 514 0
-8080 -83 0
-8080 329 0
-8081 -94 0
-8081 318 0
-314 8079 8080 8081 0
-8082 -39 0
-8082 515 0
-8083 -84 0
-8083 330 0
-8084 -95 0
-8084 319 0
-314 8082 8083 8084 0
-8085 -2 0
-8085 171 0
-8086 -7 0
-8086 126 0
-8087 -10 0
-8087 123 0
-315 8085 8086 8087 0
-8088 -15 0
-8088 249 0
-8089 -20 0
-8089 204 0
-8090 -23 0
-8090 201 0
-315 8088 8089 8090 0
-8091 -28 0
-8091 370 0
-8092 -43 0
-8092 281 0
-8093 -46 0
-8093 278 0
-315 8091 8092 8093 0
-8094 -29 0
-8094 415 0
-8095 -53 0
-8095 291 0
-8096 -56 0
-8096 288 0
-315 8094 8095 8096 0
-8097 -30 0
-8097 451 0
-8098 -62 0
-8098 300 0
-8099 -65 0
-8099 297 0
-315 8097 8098 8099 0
-8100 -31 0
-8100 479 0
-8101 -70 0
-8101 308 0
-8102 -73 0
-8102 305 0
-315 8100 8101 8102 0
-8103 -33 0
-8103 506 0
-8104 -78 0
-8104 321 0
-8105 -86 0
-8105 313 0
-315 8103 8104 8105 0
-8106 -34 0
-8106 511 0
-8107 -79 0
-8107 326 0
-8108 -91 0
-8108 314 0
-315 8106 8107 8108 0
-8109 -36 0
-8109 516 0
-8110 -81 0
-8110 331 0
-8111 -96 0
-8111 316 0
-315 8109 8110 8111 0
-8112 -37 0
-8112 517 0
-8113 -82 0
-8113 332 0
-8114 -97 0
-8114 317 0
-315 8112 8113 8114 0
-8115 -38 0
-8115 518 0
-8116 -83 0
-8116 333 0
-8117 -98 0
-8117 318 0
-315 8115 8116 8117 0
-8118 -39 0
-8118 519 0
-8119 -84 0
-8119 334 0
-8120 -99 0
-8120 319 0
-315 8118 8119 8120 0
-8121 -2 0
-8121 172 0
-8122 -7 0
-8122 127 0
-8123 -11 0
-8123 123 0
-316 8121 8122 8123 0
-8124 -15 0
-8124 250 0
-8125 -20 0
-8125 205 0
-8126 -24 0
-8126 201 0
-316 8124 8125 8126 0
-8127 -28 0
-8127 371 0
-8128 -43 0
-8128 282 0
-8129 -47 0
-8129 278 0
-316 8127 8128 8129 0
-8130 -29 0
-8130 416 0
-8131 -53 0
-8131 292 0
-8132 -57 0
-8132 288 0
-316 8130 8131 8132 0
-8133 -30 0
-8133 452 0
-8134 -62 0
-8134 301 0
-8135 -66 0
-8135 297 0
-316 8133 8134 8135 0
-8136 -31 0
-8136 480 0
-8137 -70 0
-8137 309 0
-8138 -74 0
-8138 305 0
-316 8136 8137 8138 0
-8139 -33 0
-8139 507 0
-8140 -78 0
-8140 322 0
-8141 -87 0
-8141 313 0
-316 8139 8140 8141 0
-8142 -34 0
-8142 512 0
-8143 -79 0
-8143 327 0
-8144 -92 0
-8144 314 0
-316 8142 8143 8144 0
-8145 -35 0
-8145 516 0
-8146 -80 0
-8146 331 0
-8147 -96 0
-8147 315 0
-316 8145 8146 8147 0
-8148 -37 0
-8148 520 0
-8149 -82 0
-8149 335 0
-8150 -100 0
-8150 317 0
-316 8148 8149 8150 0
-8151 -38 0
-8151 521 0
-8152 -83 0
-8152 336 0
-8153 -101 0
-8153 318 0
-316 8151 8152 8153 0
-8154 -39 0
-8154 522 0
-8155 -84 0
-8155 337 0
-8156 -102 0
-8156 319 0
-316 8154 8155 8156 0
-8157 -2 0
-8157 173 0
-8158 -7 0
-8158 128 0
-8159 -12 0
-8159 123 0
-317 8157 8158 8159 0
-8160 -15 0
-8160 251 0
-8161 -20 0
-8161 206 0
-8162 -25 0
-8162 201 0
-317 8160 8161 8162 0
-8163 -28 0
-8163 372 0
-8164 -43 0
-8164 283 0
-8165 -48 0
-8165 278 0
-317 8163 8164 8165 0
-8166 -29 0
-8166 417 0
-8167 -53 0
-8167 293 0
-8168 -58 0
-8168 288 0
-317 8166 8167 8168 0
-8169 -30 0
-8169 453 0
-8170 -62 0
-8170 302 0
-8171 -67 0
-8171 297 0
-317 8169 8170 8171 0
-8172 -31 0
-8172 481 0
-8173 -70 0
-8173 310 0
-8174 -75 0
-8174 305 0
-317 8172 8173 8174 0
-8175 -33 0
-8175 508 0
-8176 -78 0
-8176 323 0
-8177 -88 0
-8177 313 0
-317 8175 8176 8177 0
-8178 -34 0
-8178 513 0
-8179 -79 0
-8179 328 0
-8180 -93 0
-8180 314 0
-317 8178 8179 8180 0
-8181 -35 0
-8181 517 0
-8182 -80 0
-8182 332 0
-8183 -97 0
-8183 315 0
-317 8181 8182 8183 0
-8184 -36 0
-8184 520 0
-8185 -81 0
-8185 335 0
-8186 -100 0
-8186 316 0
-317 8184 8185 8186 0
-8187 -38 0
-8187 523 0
-8188 -83 0
-8188 338 0
-8189 -103 0
-8189 318 0
-317 8187 8188 8189 0
-8190 -39 0
-8190 524 0
-8191 -84 0
-8191 339 0
-8192 -104 0
-8192 319 0
-317 8190 8191 8192 0
-8193 -2 0
-8193 174 0
-8194 -7 0
-8194 129 0
-8195 -13 0
-8195 123 0
-318 8193 8194 8195 0
-8196 -15 0
-8196 252 0
-8197 -20 0
-8197 207 0
-8198 -26 0
-8198 201 0
-318 8196 8197 8198 0
-8199 -28 0
-8199 373 0
-8200 -43 0
-8200 284 0
-8201 -49 0
-8201 278 0
-318 8199 8200 8201 0
-8202 -29 0
-8202 418 0
-8203 -53 0
-8203 294 0
-8204 -59 0
-8204 288 0
-318 8202 8203 8204 0
-8205 -30 0
-8205 454 0
-8206 -62 0
-8206 303 0
-8207 -68 0
-8207 297 0
-318 8205 8206 8207 0
-8208 -31 0
-8208 482 0
-8209 -70 0
-8209 311 0
-8210 -76 0
-8210 305 0
-318 8208 8209 8210 0
-8211 -33 0
-8211 509 0
-8212 -78 0
-8212 324 0
-8213 -89 0
-8213 313 0
-318 8211 8212 8213 0
-8214 -34 0
-8214 514 0
-8215 -79 0
-8215 329 0
-8216 -94 0
-8216 314 0
-318 8214 8215 8216 0
-8217 -35 0
-8217 518 0
-8218 -80 0
-8218 333 0
-8219 -98 0
-8219 315 0
-318 8217 8218 8219 0
-8220 -36 0
-8220 521 0
-8221 -81 0
-8221 336 0
-8222 -101 0
-8222 316 0
-318 8220 8221 8222 0
-8223 -37 0
-8223 523 0
-8224 -82 0
-8224 338 0
-8225 -103 0
-8225 317 0
-318 8223 8224 8225 0
-8226 -39 0
-8226 525 0
-8227 -84 0
-8227 340 0
-8228 -105 0
-8228 319 0
-318 8226 8227 8228 0
-8229 -2 0
-8229 175 0
-8230 -7 0
-8230 130 0
-8231 -14 0
-8231 123 0
-319 8229 8230 8231 0
-8232 -15 0
-8232 253 0
-8233 -20 0
-8233 208 0
-8234 -27 0
-8234 201 0
-319 8232 8233 8234 0
-8235 -28 0
-8235 374 0
-8236 -43 0
-8236 285 0
-8237 -50 0
-8237 278 0
-319 8235 8236 8237 0
-8238 -29 0
-8238 419 0
-8239 -53 0
-8239 295 0
-8240 -60 0
-8240 288 0
-319 8238 8239 8240 0
-8241 -30 0
-8241 455 0
-8242 -62 0
-8242 304 0
-8243 -69 0
-8243 297 0
-319 8241 8242 8243 0
-8244 -31 0
-8244 483 0
-8245 -70 0
-8245 312 0
-8246 -77 0
-8246 305 0
-319 8244 8245 8246 0
-8247 -33 0
-8247 510 0
-8248 -78 0
-8248 325 0
-8249 -90 0
-8249 313 0
-319 8247 8248 8249 0
-8250 -34 0
-8250 515 0
-8251 -79 0
-8251 330 0
-8252 -95 0
-8252 314 0
-319 8250 8251 8252 0
-8253 -35 0
-8253 519 0
-8254 -80 0
-8254 334 0
-8255 -99 0
-8255 315 0
-319 8253 8254 8255 0
-8256 -36 0
-8256 522 0
-8257 -81 0
-8257 337 0
-8258 -102 0
-8258 316 0
-319 8256 8257 8258 0
-8259 -37 0
-8259 524 0
-8260 -82 0
-8260 339 0
-8261 -104 0
-8261 317 0
-319 8259 8260 8261 0
-8262 -38 0
-8262 525 0
-8263 -83 0
-8263 340 0
-8264 -105 0
-8264 318 0
-319 8262 8263 8264 0
-8265 -2 0
-8265 176 0
-8266 -8 0
-8266 125 0
-8267 -9 0
-8267 124 0
-320 8265 8266 8267 0
-8268 -15 0
-8268 254 0
-8269 -21 0
-8269 203 0
-8270 -22 0
-8270 202 0
-320 8268 8269 8270 0
-8271 -28 0
-8271 375 0
-8272 -44 0
-8272 280 0
-8273 -45 0
-8273 279 0
-320 8271 8272 8273 0
-8274 -29 0
-8274 420 0
-8275 -54 0
-8275 290 0
-8276 -55 0
-8276 289 0
-320 8274 8275 8276 0
-8277 -30 0
-8277 456 0
-8278 -63 0
-8278 299 0
-8279 -64 0
-8279 298 0
-320 8277 8278 8279 0
-8280 -31 0
-8280 484 0
-8281 -71 0
-8281 307 0
-8282 -72 0
-8282 306 0
-320 8280 8281 8282 0
-8283 -32 0
-8283 505 0
-8284 -78 0
-8284 314 0
-8285 -79 0
-8285 313 0
-320 8283 8284 8285 0
-8286 -35 0
-8286 526 0
-8287 -86 0
-8287 326 0
-8288 -91 0
-8288 321 0
-320 8286 8287 8288 0
-8289 -36 0
-8289 527 0
-8290 -87 0
-8290 327 0
-8291 -92 0
-8291 322 0
-320 8289 8290 8291 0
-8292 -37 0
-8292 528 0
-8293 -88 0
-8293 328 0
-8294 -93 0
-8294 323 0
-320 8292 8293 8294 0
-8295 -38 0
-8295 529 0
-8296 -89 0
-8296 329 0
-8297 -94 0
-8297 324 0
-320 8295 8296 8297 0
-8298 -39 0
-8298 530 0
-8299 -90 0
-8299 330 0
-8300 -95 0
-8300 325 0
-320 8298 8299 8300 0
-8301 -2 0
-8301 177 0
-8302 -8 0
-8302 126 0
-8303 -10 0
-8303 124 0
-321 8301 8302 8303 0
-8304 -15 0
-8304 255 0
-8305 -21 0
-8305 204 0
-8306 -23 0
-8306 202 0
-321 8304 8305 8306 0
-8307 -28 0
-8307 376 0
-8308 -44 0
-8308 281 0
-8309 -46 0
-8309 279 0
-321 8307 8308 8309 0
-8310 -29 0
-8310 421 0
-8311 -54 0
-8311 291 0
-8312 -56 0
-8312 289 0
-321 8310 8311 8312 0
-8313 -30 0
-8313 457 0
-8314 -63 0
-8314 300 0
-8315 -65 0
-8315 298 0
-321 8313 8314 8315 0
-8316 -31 0
-8316 485 0
-8317 -71 0
-8317 308 0
-8318 -73 0
-8318 306 0
-321 8316 8317 8318 0
-8319 -32 0
-8319 506 0
-8320 -78 0
-8320 315 0
-8321 -80 0
-8321 313 0
-321 8319 8320 8321 0
-8322 -34 0
-8322 526 0
-8323 -85 0
-8323 326 0
-8324 -91 0
-8324 320 0
-321 8322 8323 8324 0
-8325 -36 0
-8325 531 0
-8326 -87 0
-8326 331 0
-8327 -96 0
-8327 322 0
-321 8325 8326 8327 0
-8328 -37 0
-8328 532 0
-8329 -88 0
-8329 332 0
-8330 -97 0
-8330 323 0
-321 8328 8329 8330 0
-8331 -38 0
-8331 533 0
-8332 -89 0
-8332 333 0
-8333 -98 0
-8333 324 0
-321 8331 8332 8333 0
-8334 -39 0
-8334 534 0
-8335 -90 0
-8335 334 0
-8336 -99 0
-8336 325 0
-321 8334 8335 8336 0
-8337 -2 0
-8337 178 0
-8338 -8 0
-8338 127 0
-8339 -11 0
-8339 124 0
-322 8337 8338 8339 0
-8340 -15 0
-8340 256 0
-8341 -21 0
-8341 205 0
-8342 -24 0
-8342 202 0
-322 8340 8341 8342 0
-8343 -28 0
-8343 377 0
-8344 -44 0
-8344 282 0
-8345 -47 0
-8345 279 0
-322 8343 8344 8345 0
-8346 -29 0
-8346 422 0
-8347 -54 0
-8347 292 0
-8348 -57 0
-8348 289 0
-322 8346 8347 8348 0
-8349 -30 0
-8349 458 0
-8350 -63 0
-8350 301 0
-8351 -66 0
-8351 298 0
-322 8349 8350 8351 0
-8352 -31 0
-8352 486 0
-8353 -71 0
-8353 309 0
-8354 -74 0
-8354 306 0
-322 8352 8353 8354 0
-8355 -32 0
-8355 507 0
-8356 -78 0
-8356 316 0
-8357 -81 0
-8357 313 0
-322 8355 8356 8357 0
-8358 -34 0
-8358 527 0
-8359 -85 0
-8359 327 0
-8360 -92 0
-8360 320 0
-322 8358 8359 8360 0
-8361 -35 0
-8361 531 0
-8362 -86 0
-8362 331 0
-8363 -96 0
-8363 321 0
-322 8361 8362 8363 0
-8364 -37 0
-8364 535 0
-8365 -88 0
-8365 335 0
-8366 -100 0
-8366 323 0
-322 8364 8365 8366 0
-8367 -38 0
-8367 536 0
-8368 -89 0
-8368 336 0
-8369 -101 0
-8369 324 0
-322 8367 8368 8369 0
-8370 -39 0
-8370 537 0
-8371 -90 0
-8371 337 0
-8372 -102 0
-8372 325 0
-322 8370 8371 8372 0
-8373 -2 0
-8373 179 0
-8374 -8 0
-8374 128 0
-8375 -12 0
-8375 124 0
-323 8373 8374 8375 0
-8376 -15 0
-8376 257 0
-8377 -21 0
-8377 206 0
-8378 -25 0
-8378 202 0
-323 8376 8377 8378 0
-8379 -28 0
-8379 378 0
-8380 -44 0
-8380 283 0
-8381 -48 0
-8381 279 0
-323 8379 8380 8381 0
-8382 -29 0
-8382 423 0
-8383 -54 0
-8383 293 0
-8384 -58 0
-8384 289 0
-323 8382 8383 8384 0
-8385 -30 0
-8385 459 0
-8386 -63 0
-8386 302 0
-8387 -67 0
-8387 298 0
-323 8385 8386 8387 0
-8388 -31 0
-8388 487 0
-8389 -71 0
-8389 310 0
-8390 -75 0
-8390 306 0
-323 8388 8389 8390 0
-8391 -32 0
-8391 508 0
-8392 -78 0
-8392 317 0
-8393 -82 0
-8393 313 0
-323 8391 8392 8393 0
-8394 -34 0
-8394 528 0
-8395 -85 0
-8395 328 0
-8396 -93 0
-8396 320 0
-323 8394 8395 8396 0
-8397 -35 0
-8397 532 0
-8398 -86 0
-8398 332 0
-8399 -97 0
-8399 321 0
-323 8397 8398 8399 0
-8400 -36 0
-8400 535 0
-8401 -87 0
-8401 335 0
-8402 -100 0
-8402 322 0
-323 8400 8401 8402 0
-8403 -38 0
-8403 538 0
-8404 -89 0
-8404 338 0
-8405 -103 0
-8405 324 0
-323 8403 8404 8405 0
-8406 -39 0
-8406 539 0
-8407 -90 0
-8407 339 0
-8408 -104 0
-8408 325 0
-323 8406 8407 8408 0
-8409 -2 0
-8409 180 0
-8410 -8 0
-8410 129 0
-8411 -13 0
-8411 124 0
-324 8409 8410 8411 0
-8412 -15 0
-8412 258 0
-8413 -21 0
-8413 207 0
-8414 -26 0
-8414 202 0
-324 8412 8413 8414 0
-8415 -28 0
-8415 379 0
-8416 -44 0
-8416 284 0
-8417 -49 0
-8417 279 0
-324 8415 8416 8417 0
-8418 -29 0
-8418 424 0
-8419 -54 0
-8419 294 0
-8420 -59 0
-8420 289 0
-324 8418 8419 8420 0
-8421 -30 0
-8421 460 0
-8422 -63 0
-8422 303 0
-8423 -68 0
-8423 298 0
-324 8421 8422 8423 0
-8424 -31 0
-8424 488 0
-8425 -71 0
-8425 311 0
-8426 -76 0
-8426 306 0
-324 8424 8425 8426 0
-8427 -32 0
-8427 509 0
-8428 -78 0
-8428 318 0
-8429 -83 0
-8429 313 0
-324 8427 8428 8429 0
-8430 -34 0
-8430 529 0
-8431 -85 0
-8431 329 0
-8432 -94 0
-8432 320 0
-324 8430 8431 8432 0
-8433 -35 0
-8433 533 0
-8434 -86 0
-8434 333 0
-8435 -98 0
-8435 321 0
-324 8433 8434 8435 0
-8436 -36 0
-8436 536 0
-8437 -87 0
-8437 336 0
-8438 -101 0
-8438 322 0
-324 8436 8437 8438 0
-8439 -37 0
-8439 538 0
-8440 -88 0
-8440 338 0
-8441 -103 0
-8441 323 0
-324 8439 8440 8441 0
-8442 -39 0
-8442 540 0
-8443 -90 0
-8443 340 0
-8444 -105 0
-8444 325 0
-324 8442 8443 8444 0
-8445 -2 0
-8445 181 0
-8446 -8 0
-8446 130 0
-8447 -14 0
-8447 124 0
-325 8445 8446 8447 0
-8448 -15 0
-8448 259 0
-8449 -21 0
-8449 208 0
-8450 -27 0
-8450 202 0
-325 8448 8449 8450 0
-8451 -28 0
-8451 380 0
-8452 -44 0
-8452 285 0
-8453 -50 0
-8453 279 0
-325 8451 8452 8453 0
-8454 -29 0
-8454 425 0
-8455 -54 0
-8455 295 0
-8456 -60 0
-8456 289 0
-325 8454 8455 8456 0
-8457 -30 0
-8457 461 0
-8458 -63 0
-8458 304 0
-8459 -69 0
-8459 298 0
-325 8457 8458 8459 0
-8460 -31 0
-8460 489 0
-8461 -71 0
-8461 312 0
-8462 -77 0
-8462 306 0
-325 8460 8461 8462 0
-8463 -32 0
-8463 510 0
-8464 -78 0
-8464 319 0
-8465 -84 0
-8465 313 0
-325 8463 8464 8465 0
-8466 -34 0
-8466 530 0
-8467 -85 0
-8467 330 0
-8468 -95 0
-8468 320 0
-325 8466 8467 8468 0
-8469 -35 0
-8469 534 0
-8470 -86 0
-8470 334 0
-8471 -99 0
-8471 321 0
-325 8469 8470 8471 0
-8472 -36 0
-8472 537 0
-8473 -87 0
-8473 337 0
-8474 -102 0
-8474 322 0
-325 8472 8473 8474 0
-8475 -37 0
-8475 539 0
-8476 -88 0
-8476 339 0
-8477 -104 0
-8477 323 0
-325 8475 8476 8477 0
-8478 -38 0
-8478 540 0
-8479 -89 0
-8479 340 0
-8480 -105 0
-8480 324 0
-325 8478 8479 8480 0
-8481 -2 0
-8481 182 0
-8482 -9 0
-8482 126 0
-8483 -10 0
-8483 125 0
-326 8481 8482 8483 0
-8484 -15 0
-8484 260 0
-8485 -22 0
-8485 204 0
-8486 -23 0
-8486 203 0
-326 8484 8485 8486 0
-8487 -28 0
-8487 381 0
-8488 -45 0
-8488 281 0
-8489 -46 0
-8489 280 0
-326 8487 8488 8489 0
-8490 -29 0
-8490 426 0
-8491 -55 0
-8491 291 0
-8492 -56 0
-8492 290 0
-326 8490 8491 8492 0
-8493 -30 0
-8493 462 0
-8494 -64 0
-8494 300 0
-8495 -65 0
-8495 299 0
-326 8493 8494 8495 0
-8496 -31 0
-8496 490 0
-8497 -72 0
-8497 308 0
-8498 -73 0
-8498 307 0
-326 8496 8497 8498 0
-8499 -32 0
-8499 511 0
-8500 -79 0
-8500 315 0
-8501 -80 0
-8501 314 0
-326 8499 8500 8501 0
-8502 -33 0
-8502 526 0
-8503 -85 0
-8503 321 0
-8504 -86 0
-8504 320 0
-326 8502 8503 8504 0
-8505 -36 0
-8505 541 0
-8506 -92 0
-8506 331 0
-8507 -96 0
-8507 327 0
-326 8505 8506 8507 0
-8508 -37 0
-8508 542 0
-8509 -93 0
-8509 332 0
-8510 -97 0
-8510 328 0
-326 8508 8509 8510 0
-8511 -38 0
-8511 543 0
-8512 -94 0
-8512 333 0
-8513 -98 0
-8513 329 0
-326 8511 8512 8513 0
-8514 -39 0
-8514 544 0
-8515 -95 0
-8515 334 0
-8516 -99 0
-8516 330 0
-326 8514 8515 8516 0
-8517 -2 0
-8517 183 0
-8518 -9 0
-8518 127 0
-8519 -11 0
-8519 125 0
-327 8517 8518 8519 0
-8520 -15 0
-8520 261 0
-8521 -22 0
-8521 205 0
-8522 -24 0
-8522 203 0
-327 8520 8521 8522 0
-8523 -28 0
-8523 382 0
-8524 -45 0
-8524 282 0
-8525 -47 0
-8525 280 0
-327 8523 8524 8525 0
-8526 -29 0
-8526 427 0
-8527 -55 0
-8527 292 0
-8528 -57 0
-8528 290 0
-327 8526 8527 8528 0
-8529 -30 0
-8529 463 0
-8530 -64 0
-8530 301 0
-8531 -66 0
-8531 299 0
-327 8529 8530 8531 0
-8532 -31 0
-8532 491 0
-8533 -72 0
-8533 309 0
-8534 -74 0
-8534 307 0
-327 8532 8533 8534 0
-8535 -32 0
-8535 512 0
-8536 -79 0
-8536 316 0
-8537 -81 0
-8537 314 0
-327 8535 8536 8537 0
-8538 -33 0
-8538 527 0
-8539 -85 0
-8539 322 0
-8540 -87 0
-8540 320 0
-327 8538 8539 8540 0
-8541 -35 0
-8541 541 0
-8542 -91 0
-8542 331 0
-8543 -96 0
-8543 326 0
-327 8541 8542 8543 0
-8544 -37 0
-8544 545 0
-8545 -93 0
-8545 335 0
-8546 -100 0
-8546 328 0
-327 8544 8545 8546 0
-8547 -38 0
-8547 546 0
-8548 -94 0
-8548 336 0
-8549 -101 0
-8549 329 0
-327 8547 8548 8549 0
-8550 -39 0
-8550 547 0
-8551 -95 0
-8551 337 0
-8552 -102 0
-8552 330 0
-327 8550 8551 8552 0
-8553 -2 0
-8553 184 0
-8554 -9 0
-8554 128 0
-8555 -12 0
-8555 125 0
-328 8553 8554 8555 0
-8556 -15 0
-8556 262 0
-8557 -22 0
-8557 206 0
-8558 -25 0
-8558 203 0
-328 8556 8557 8558 0
-8559 -28 0
-8559 383 0
-8560 -45 0
-8560 283 0
-8561 -48 0
-8561 280 0
-328 8559 8560 8561 0
-8562 -29 0
-8562 428 0
-8563 -55 0
-8563 293 0
-8564 -58 0
-8564 290 0
-328 8562 8563 8564 0
-8565 -30 0
-8565 464 0
-8566 -64 0
-8566 302 0
-8567 -67 0
-8567 299 0
-328 8565 8566 8567 0
-8568 -31 0
-8568 492 0
-8569 -72 0
-8569 310 0
-8570 -75 0
-8570 307 0
-328 8568 8569 8570 0
-8571 -32 0
-8571 513 0
-8572 -79 0
-8572 317 0
-8573 -82 0
-8573 314 0
-328 8571 8572 8573 0
-8574 -33 0
-8574 528 0
-8575 -85 0
-8575 323 0
-8576 -88 0
-8576 320 0
-328 8574 8575 8576 0
-8577 -35 0
-8577 542 0
-8578 -91 0
-8578 332 0
-8579 -97 0
-8579 326 0
-328 8577 8578 8579 0
-8580 -36 0
-8580 545 0
-8581 -92 0
-8581 335 0
-8582 -100 0
-8582 327 0
-328 8580 8581 8582 0
-8583 -38 0
-8583 548 0
-8584 -94 0
-8584 338 0
-8585 -103 0
-8585 329 0
-328 8583 8584 8585 0
-8586 -39 0
-8586 549 0
-8587 -95 0
-8587 339 0
-8588 -104 0
-8588 330 0
-328 8586 8587 8588 0
-8589 -2 0
-8589 185 0
-8590 -9 0
-8590 129 0
-8591 -13 0
-8591 125 0
-329 8589 8590 8591 0
-8592 -15 0
-8592 263 0
-8593 -22 0
-8593 207 0
-8594 -26 0
-8594 203 0
-329 8592 8593 8594 0
-8595 -28 0
-8595 384 0
-8596 -45 0
-8596 284 0
-8597 -49 0
-8597 280 0
-329 8595 8596 8597 0
-8598 -29 0
-8598 429 0
-8599 -55 0
-8599 294 0
-8600 -59 0
-8600 290 0
-329 8598 8599 8600 0
-8601 -30 0
-8601 465 0
-8602 -64 0
-8602 303 0
-8603 -68 0
-8603 299 0
-329 8601 8602 8603 0
-8604 -31 0
-8604 493 0
-8605 -72 0
-8605 311 0
-8606 -76 0
-8606 307 0
-329 8604 8605 8606 0
-8607 -32 0
-8607 514 0
-8608 -79 0
-8608 318 0
-8609 -83 0
-8609 314 0
-329 8607 8608 8609 0
-8610 -33 0
-8610 529 0
-8611 -85 0
-8611 324 0
-8612 -89 0
-8612 320 0
-329 8610 8611 8612 0
-8613 -35 0
-8613 543 0
-8614 -91 0
-8614 333 0
-8615 -98 0
-8615 326 0
-329 8613 8614 8615 0
-8616 -36 0
-8616 546 0
-8617 -92 0
-8617 336 0
-8618 -101 0
-8618 327 0
-329 8616 8617 8618 0
-8619 -37 0
-8619 548 0
-8620 -93 0
-8620 338 0
-8621 -103 0
-8621 328 0
-329 8619 8620 8621 0
-8622 -39 0
-8622 550 0
-8623 -95 0
-8623 340 0
-8624 -105 0
-8624 330 0
-329 8622 8623 8624 0
-8625 -2 0
-8625 186 0
-8626 -9 0
-8626 130 0
-8627 -14 0
-8627 125 0
-330 8625 8626 8627 0
-8628 -15 0
-8628 264 0
-8629 -22 0
-8629 208 0
-8630 -27 0
-8630 203 0
-330 8628 8629 8630 0
-8631 -28 0
-8631 385 0
-8632 -45 0
-8632 285 0
-8633 -50 0
-8633 280 0
-330 8631 8632 8633 0
-8634 -29 0
-8634 430 0
-8635 -55 0
-8635 295 0
-8636 -60 0
-8636 290 0
-330 8634 8635 8636 0
-8637 -30 0
-8637 466 0
-8638 -64 0
-8638 304 0
-8639 -69 0
-8639 299 0
-330 8637 8638 8639 0
-8640 -31 0
-8640 494 0
-8641 -72 0
-8641 312 0
-8642 -77 0
-8642 307 0
-330 8640 8641 8642 0
-8643 -32 0
-8643 515 0
-8644 -79 0
-8644 319 0
-8645 -84 0
-8645 314 0
-330 8643 8644 8645 0
-8646 -33 0
-8646 530 0
-8647 -85 0
-8647 325 0
-8648 -90 0
-8648 320 0
-330 8646 8647 8648 0
-8649 -35 0
-8649 544 0
-8650 -91 0
-8650 334 0
-8651 -99 0
-8651 326 0
-330 8649 8650 8651 0
-8652 -36 0
-8652 547 0
-8653 -92 0
-8653 337 0
-8654 -102 0
-8654 327 0
-330 8652 8653 8654 0
-8655 -37 0
-8655 549 0
-8656 -93 0
-8656 339 0
-8657 -104 0
-8657 328 0
-330 8655 8656 8657 0
-8658 -38 0
-8658 550 0
-8659 -94 0
-8659 340 0
-8660 -105 0
-8660 329 0
-330 8658 8659 8660 0
-8661 -2 0
-8661 187 0
-8662 -10 0
-8662 127 0
-8663 -11 0
-8663 126 0
-331 8661 8662 8663 0
-8664 -15 0
-8664 265 0
-8665 -23 0
-8665 205 0
-8666 -24 0
-8666 204 0
-331 8664 8665 8666 0
-8667 -28 0
-8667 386 0
-8668 -46 0
-8668 282 0
-8669 -47 0
-8669 281 0
-331 8667 8668 8669 0
-8670 -29 0
-8670 431 0
-8671 -56 0
-8671 292 0
-8672 -57 0
-8672 291 0
-331 8670 8671 8672 0
-8673 -30 0
-8673 467 0
-8674 -65 0
-8674 301 0
-8675 -66 0
-8675 300 0
-331 8673 8674 8675 0
-8676 -31 0
-8676 495 0
-8677 -73 0
-8677 309 0
-8678 -74 0
-8678 308 0
-331 8676 8677 8678 0
-8679 -32 0
-8679 516 0
-8680 -80 0
-8680 316 0
-8681 -81 0
-8681 315 0
-331 8679 8680 8681 0
-8682 -33 0
-8682 531 0
-8683 -86 0
-8683 322 0
-8684 -87 0
-8684 321 0
-331 8682 8683 8684 0
-8685 -34 0
-8685 541 0
-8686 -91 0
-8686 327 0
-8687 -92 0
-8687 326 0
-331 8685 8686 8687 0
-8688 -37 0
-8688 551 0
-8689 -97 0
-8689 335 0
-8690 -100 0
-8690 332 0
-331 8688 8689 8690 0
-8691 -38 0
-8691 552 0
-8692 -98 0
-8692 336 0
-8693 -101 0
-8693 333 0
-331 8691 8692 8693 0
-8694 -39 0
-8694 553 0
-8695 -99 0
-8695 337 0
-8696 -102 0
-8696 334 0
-331 8694 8695 8696 0
-8697 -2 0
-8697 188 0
-8698 -10 0
-8698 128 0
-8699 -12 0
-8699 126 0
-332 8697 8698 8699 0
-8700 -15 0
-8700 266 0
-8701 -23 0
-8701 206 0
-8702 -25 0
-8702 204 0
-332 8700 8701 8702 0
-8703 -28 0
-8703 387 0
-8704 -46 0
-8704 283 0
-8705 -48 0
-8705 281 0
-332 8703 8704 8705 0
-8706 -29 0
-8706 432 0
-8707 -56 0
-8707 293 0
-8708 -58 0
-8708 291 0
-332 8706 8707 8708 0
-8709 -30 0
-8709 468 0
-8710 -65 0
-8710 302 0
-8711 -67 0
-8711 300 0
-332 8709 8710 8711 0
-8712 -31 0
-8712 496 0
-8713 -73 0
-8713 310 0
-8714 -75 0
-8714 308 0
-332 8712 8713 8714 0
-8715 -32 0
-8715 517 0
-8716 -80 0
-8716 317 0
-8717 -82 0
-8717 315 0
-332 8715 8716 8717 0
-8718 -33 0
-8718 532 0
-8719 -86 0
-8719 323 0
-8720 -88 0
-8720 321 0
-332 8718 8719 8720 0
-8721 -34 0
-8721 542 0
-8722 -91 0
-8722 328 0
-8723 -93 0
-8723 326 0
-332 8721 8722 8723 0
-8724 -36 0
-8724 551 0
-8725 -96 0
-8725 335 0
-8726 -100 0
-8726 331 0
-332 8724 8725 8726 0
-8727 -38 0
-8727 554 0
-8728 -98 0
-8728 338 0
-8729 -103 0
-8729 333 0
-332 8727 8728 8729 0
-8730 -39 0
-8730 555 0
-8731 -99 0
-8731 339 0
-8732 -104 0
-8732 334 0
-332 8730 8731 8732 0
-8733 -2 0
-8733 189 0
-8734 -10 0
-8734 129 0
-8735 -13 0
-8735 126 0
-333 8733 8734 8735 0
-8736 -15 0
-8736 267 0
-8737 -23 0
-8737 207 0
-8738 -26 0
-8738 204 0
-333 8736 8737 8738 0
-8739 -28 0
-8739 388 0
-8740 -46 0
-8740 284 0
-8741 -49 0
-8741 281 0
-333 8739 8740 8741 0
-8742 -29 0
-8742 433 0
-8743 -56 0
-8743 294 0
-8744 -59 0
-8744 291 0
-333 8742 8743 8744 0
-8745 -30 0
-8745 469 0
-8746 -65 0
-8746 303 0
-8747 -68 0
-8747 300 0
-333 8745 8746 8747 0
-8748 -31 0
-8748 497 0
-8749 -73 0
-8749 311 0
-8750 -76 0
-8750 308 0
-333 8748 8749 8750 0
-8751 -32 0
-8751 518 0
-8752 -80 0
-8752 318 0
-8753 -83 0
-8753 315 0
-333 8751 8752 8753 0
-8754 -33 0
-8754 533 0
-8755 -86 0
-8755 324 0
-8756 -89 0
-8756 321 0
-333 8754 8755 8756 0
-8757 -34 0
-8757 543 0
-8758 -91 0
-8758 329 0
-8759 -94 0
-8759 326 0
-333 8757 8758 8759 0
-8760 -36 0
-8760 552 0
-8761 -96 0
-8761 336 0
-8762 -101 0
-8762 331 0
-333 8760 8761 8762 0
-8763 -37 0
-8763 554 0
-8764 -97 0
-8764 338 0
-8765 -103 0
-8765 332 0
-333 8763 8764 8765 0
-8766 -39 0
-8766 556 0
-8767 -99 0
-8767 340 0
-8768 -105 0
-8768 334 0
-333 8766 8767 8768 0
-8769 -2 0
-8769 190 0
-8770 -10 0
-8770 130 0
-8771 -14 0
-8771 126 0
-334 8769 8770 8771 0
-8772 -15 0
-8772 268 0
-8773 -23 0
-8773 208 0
-8774 -27 0
-8774 204 0
-334 8772 8773 8774 0
-8775 -28 0
-8775 389 0
-8776 -46 0
-8776 285 0
-8777 -50 0
-8777 281 0
-334 8775 8776 8777 0
-8778 -29 0
-8778 434 0
-8779 -56 0
-8779 295 0
-8780 -60 0
-8780 291 0
-334 8778 8779 8780 0
-8781 -30 0
-8781 470 0
-8782 -65 0
-8782 304 0
-8783 -69 0
-8783 300 0
-334 8781 8782 8783 0
-8784 -31 0
-8784 498 0
-8785 -73 0
-8785 312 0
-8786 -77 0
-8786 308 0
-334 8784 8785 8786 0
-8787 -32 0
-8787 519 0
-8788 -80 0
-8788 319 0
-8789 -84 0
-8789 315 0
-334 8787 8788 8789 0
-8790 -33 0
-8790 534 0
-8791 -86 0
-8791 325 0
-8792 -90 0
-8792 321 0
-334 8790 8791 8792 0
-8793 -34 0
-8793 544 0
-8794 -91 0
-8794 330 0
-8795 -95 0
-8795 326 0
-334 8793 8794 8795 0
-8796 -36 0
-8796 553 0
-8797 -96 0
-8797 337 0
-8798 -102 0
-8798 331 0
-334 8796 8797 8798 0
-8799 -37 0
-8799 555 0
-8800 -97 0
-8800 339 0
-8801 -104 0
-8801 332 0
-334 8799 8800 8801 0
-8802 -38 0
-8802 556 0
-8803 -98 0
-8803 340 0
-8804 -105 0
-8804 333 0
-334 8802 8803 8804 0
-8805 -2 0
-8805 191 0
-8806 -11 0
-8806 128 0
-8807 -12 0
-8807 127 0
-335 8805 8806 8807 0
-8808 -15 0
-8808 269 0
-8809 -24 0
-8809 206 0
-8810 -25 0
-8810 205 0
-335 8808 8809 8810 0
-8811 -28 0
-8811 390 0
-8812 -47 0
-8812 283 0
-8813 -48 0
-8813 282 0
-335 8811 8812 8813 0
-8814 -29 0
-8814 435 0
-8815 -57 0
-8815 293 0
-8816 -58 0
-8816 292 0
-335 8814 8815 8816 0
-8817 -30 0
-8817 471 0
-8818 -66 0
-8818 302 0
-8819 -67 0
-8819 301 0
-335 8817 8818 8819 0
-8820 -31 0
-8820 499 0
-8821 -74 0
-8821 310 0
-8822 -75 0
-8822 309 0
-335 8820 8821 8822 0
-8823 -32 0
-8823 520 0
-8824 -81 0
-8824 317 0
-8825 -82 0
-8825 316 0
-335 8823 8824 8825 0
-8826 -33 0
-8826 535 0
-8827 -87 0
-8827 323 0
-8828 -88 0
-8828 322 0
-335 8826 8827 8828 0
-8829 -34 0
-8829 545 0
-8830 -92 0
-8830 328 0
-8831 -93 0
-8831 327 0
-335 8829 8830 8831 0
-8832 -35 0
-8832 551 0
-8833 -96 0
-8833 332 0
-8834 -97 0
-8834 331 0
-335 8832 8833 8834 0
-8835 -38 0
-8835 557 0
-8836 -101 0
-8836 338 0
-8837 -103 0
-8837 336 0
-335 8835 8836 8837 0
-8838 -39 0
-8838 558 0
-8839 -102 0
-8839 339 0
-8840 -104 0
-8840 337 0
-335 8838 8839 8840 0
-8841 -2 0
-8841 192 0
-8842 -11 0
-8842 129 0
-8843 -13 0
-8843 127 0
-336 8841 8842 8843 0
-8844 -15 0
-8844 270 0
-8845 -24 0
-8845 207 0
-8846 -26 0
-8846 205 0
-336 8844 8845 8846 0
-8847 -28 0
-8847 391 0
-8848 -47 0
-8848 284 0
-8849 -49 0
-8849 282 0
-336 8847 8848 8849 0
-8850 -29 0
-8850 436 0
-8851 -57 0
-8851 294 0
-8852 -59 0
-8852 292 0
-336 8850 8851 8852 0
-8853 -30 0
-8853 472 0
-8854 -66 0
-8854 303 0
-8855 -68 0
-8855 301 0
-336 8853 8854 8855 0
-8856 -31 0
-8856 500 0
-8857 -74 0
-8857 311 0
-8858 -76 0
-8858 309 0
-336 8856 8857 8858 0
-8859 -32 0
-8859 521 0
-8860 -81 0
-8860 318 0
-8861 -83 0
-8861 316 0
-336 8859 8860 8861 0
-8862 -33 0
-8862 536 0
-8863 -87 0
-8863 324 0
-8864 -89 0
-8864 322 0
-336 8862 8863 8864 0
-8865 -34 0
-8865 546 0
-8866 -92 0
-8866 329 0
-8867 -94 0
-8867 327 0
-336 8865 8866 8867 0
-8868 -35 0
-8868 552 0
-8869 -96 0
-8869 333 0
-8870 -98 0
-8870 331 0
-336 8868 8869 8870 0
-8871 -37 0
-8871 557 0
-8872 -100 0
-8872 338 0
-8873 -103 0
-8873 335 0
-336 8871 8872 8873 0
-8874 -39 0
-8874 559 0
-8875 -102 0
-8875 340 0
-8876 -105 0
-8876 337 0
-336 8874 8875 8876 0
-8877 -2 0
-8877 193 0
-8878 -11 0
-8878 130 0
-8879 -14 0
-8879 127 0
-337 8877 8878 8879 0
-8880 -15 0
-8880 271 0
-8881 -24 0
-8881 208 0
-8882 -27 0
-8882 205 0
-337 8880 8881 8882 0
-8883 -28 0
-8883 392 0
-8884 -47 0
-8884 285 0
-8885 -50 0
-8885 282 0
-337 8883 8884 8885 0
-8886 -29 0
-8886 437 0
-8887 -57 0
-8887 295 0
-8888 -60 0
-8888 292 0
-337 8886 8887 8888 0
-8889 -30 0
-8889 473 0
-8890 -66 0
-8890 304 0
-8891 -69 0
-8891 301 0
-337 8889 8890 8891 0
-8892 -31 0
-8892 501 0
-8893 -74 0
-8893 312 0
-8894 -77 0
-8894 309 0
-337 8892 8893 8894 0
-8895 -32 0
-8895 522 0
-8896 -81 0
-8896 319 0
-8897 -84 0
-8897 316 0
-337 8895 8896 8897 0
-8898 -33 0
-8898 537 0
-8899 -87 0
-8899 325 0
-8900 -90 0
-8900 322 0
-337 8898 8899 8900 0
-8901 -34 0
-8901 547 0
-8902 -92 0
-8902 330 0
-8903 -95 0
-8903 327 0
-337 8901 8902 8903 0
-8904 -35 0
-8904 553 0
-8905 -96 0
-8905 334 0
-8906 -99 0
-8906 331 0
-337 8904 8905 8906 0
-8907 -37 0
-8907 558 0
-8908 -100 0
-8908 339 0
-8909 -104 0
-8909 335 0
-337 8907 8908 8909 0
-8910 -38 0
-8910 559 0
-8911 -101 0
-8911 340 0
-8912 -105 0
-8912 336 0
-337 8910 8911 8912 0
-8913 -2 0
-8913 194 0
-8914 -12 0
-8914 129 0
-8915 -13 0
-8915 128 0
-338 8913 8914 8915 0
-8916 -15 0
-8916 272 0
-8917 -25 0
-8917 207 0
-8918 -26 0
-8918 206 0
-338 8916 8917 8918 0
-8919 -28 0
-8919 393 0
-8920 -48 0
-8920 284 0
-8921 -49 0
-8921 283 0
-338 8919 8920 8921 0
-8922 -29 0
-8922 438 0
-8923 -58 0
-8923 294 0
-8924 -59 0
-8924 293 0
-338 8922 8923 8924 0
-8925 -30 0
-8925 474 0
-8926 -67 0
-8926 303 0
-8927 -68 0
-8927 302 0
-338 8925 8926 8927 0
-8928 -31 0
-8928 502 0
-8929 -75 0
-8929 311 0
-8930 -76 0
-8930 310 0
-338 8928 8929 8930 0
-8931 -32 0
-8931 523 0
-8932 -82 0
-8932 318 0
-8933 -83 0
-8933 317 0
-338 8931 8932 8933 0
-8934 -33 0
-8934 538 0
-8935 -88 0
-8935 324 0
-8936 -89 0
-8936 323 0
-338 8934 8935 8936 0
-8937 -34 0
-8937 548 0
-8938 -93 0
-8938 329 0
-8939 -94 0
-8939 328 0
-338 8937 8938 8939 0
-8940 -35 0
-8940 554 0
-8941 -97 0
-8941 333 0
-8942 -98 0
-8942 332 0
-338 8940 8941 8942 0
-8943 -36 0
-8943 557 0
-8944 -100 0
-8944 336 0
-8945 -101 0
-8945 335 0
-338 8943 8944 8945 0
-8946 -39 0
-8946 560 0
-8947 -104 0
-8947 340 0
-8948 -105 0
-8948 339 0
-338 8946 8947 8948 0
-8949 -2 0
-8949 195 0
-8950 -12 0
-8950 130 0
-8951 -14 0
-8951 128 0
-339 8949 8950 8951 0
-8952 -15 0
-8952 273 0
-8953 -25 0
-8953 208 0
-8954 -27 0
-8954 206 0
-339 8952 8953 8954 0
-8955 -28 0
-8955 394 0
-8956 -48 0
-8956 285 0
-8957 -50 0
-8957 283 0
-339 8955 8956 8957 0
-8958 -29 0
-8958 439 0
-8959 -58 0
-8959 295 0
-8960 -60 0
-8960 293 0
-339 8958 8959 8960 0
-8961 -30 0
-8961 475 0
-8962 -67 0
-8962 304 0
-8963 -69 0
-8963 302 0
-339 8961 8962 8963 0
-8964 -31 0
-8964 503 0
-8965 -75 0
-8965 312 0
-8966 -77 0
-8966 310 0
-339 8964 8965 8966 0
-8967 -32 0
-8967 524 0
-8968 -82 0
-8968 319 0
-8969 -84 0
-8969 317 0
-339 8967 8968 8969 0
-8970 -33 0
-8970 539 0
-8971 -88 0
-8971 325 0
-8972 -90 0
-8972 323 0
-339 8970 8971 8972 0
-8973 -34 0
-8973 549 0
-8974 -93 0
-8974 330 0
-8975 -95 0
-8975 328 0
-339 8973 8974 8975 0
-8976 -35 0
-8976 555 0
-8977 -97 0
-8977 334 0
-8978 -99 0
-8978 332 0
-339 8976 8977 8978 0
-8979 -36 0
-8979 558 0
-8980 -100 0
-8980 337 0
-8981 -102 0
-8981 335 0
-339 8979 8980 8981 0
-8982 -38 0
-8982 560 0
-8983 -103 0
-8983 340 0
-8984 -105 0
-8984 338 0
-339 8982 8983 8984 0
-8985 -2 0
-8985 196 0
-8986 -13 0
-8986 130 0
-8987 -14 0
-8987 129 0
-340 8985 8986 8987 0
-8988 -15 0
-8988 274 0
-8989 -26 0
-8989 208 0
-8990 -27 0
-8990 207 0
-340 8988 8989 8990 0
-8991 -28 0
-8991 395 0
-8992 -49 0
-8992 285 0
-8993 -50 0
-8993 284 0
-340 8991 8992 8993 0
-8994 -29 0
-8994 440 0
-8995 -59 0
-8995 295 0
-8996 -60 0
-8996 294 0
-340 8994 8995 8996 0
-8997 -30 0
-8997 476 0
-8998 -68 0
-8998 304 0
-8999 -69 0
-8999 303 0
-340 8997 8998 8999 0
-9000 -31 0
-9000 504 0
-9001 -76 0
-9001 312 0
-9002 -77 0
-9002 311 0
-340 9000 9001 9002 0
-9003 -32 0
-9003 525 0
-9004 -83 0
-9004 319 0
-9005 -84 0
-9005 318 0
-340 9003 9004 9005 0
-9006 -33 0
-9006 540 0
-9007 -89 0
-9007 325 0
-9008 -90 0
-9008 324 0
-340 9006 9007 9008 0
-9009 -34 0
-9009 550 0
-9010 -94 0
-9010 330 0
-9011 -95 0
-9011 329 0
-340 9009 9010 9011 0
-9012 -35 0
-9012 556 0
-9013 -98 0
-9013 334 0
-9014 -99 0
-9014 333 0
-340 9012 9013 9014 0
-9015 -36 0
-9015 559 0
-9016 -101 0
-9016 337 0
-9017 -102 0
-9017 336 0
-340 9015 9016 9017 0
-9018 -37 0
-9018 560 0
-9019 -103 0
-9019 339 0
-9020 -104 0
-9020 338 0
-340 9018 9019 9020 0
-9021 -3 0
-9021 142 0
-9022 -4 0
-9022 132 0
-9023 -5 0
-9023 131 0
-341 9021 9022 9023 0
-9024 -16 0
-9024 220 0
-9025 -17 0
-9025 210 0
-9026 -18 0
-9026 209 0
-341 9024 9025 9026 0
-9027 -28 0
-9027 286 0
-9028 -29 0
-9028 276 0
-9029 -30 0
-9029 275 0
-341 9027 9028 9029 0
-9030 -42 0
-9030 396 0
-9031 -52 0
-9031 351 0
-9032 -61 0
-9032 342 0
-341 9030 9031 9032 0
-9033 -43 0
-9033 397 0
-9034 -53 0
-9034 352 0
-9035 -62 0
-9035 343 0
-341 9033 9034 9035 0
-9036 -44 0
-9036 398 0
-9037 -54 0
-9037 353 0
-9038 -63 0
-9038 344 0
-341 9036 9037 9038 0
-9039 -45 0
-9039 399 0
-9040 -55 0
-9040 354 0
-9041 -64 0
-9041 345 0
-341 9039 9040 9041 0
-9042 -46 0
-9042 400 0
-9043 -56 0
-9043 355 0
-9044 -65 0
-9044 346 0
-341 9042 9043 9044 0
-9045 -47 0
-9045 401 0
-9046 -57 0
-9046 356 0
-9047 -66 0
-9047 347 0
-341 9045 9046 9047 0
-9048 -48 0
-9048 402 0
-9049 -58 0
-9049 357 0
-9050 -67 0
-9050 348 0
-341 9048 9049 9050 0
-9051 -49 0
-9051 403 0
-9052 -59 0
-9052 358 0
-9053 -68 0
-9053 349 0
-341 9051 9052 9053 0
-9054 -50 0
-9054 404 0
-9055 -60 0
-9055 359 0
-9056 -69 0
-9056 350 0
-341 9054 9055 9056 0
-9057 -3 0
-9057 143 0
-9058 -4 0
-9058 133 0
-9059 -6 0
-9059 131 0
-342 9057 9058 9059 0
-9060 -16 0
-9060 221 0
-9061 -17 0
-9061 211 0
-9062 -19 0
-9062 209 0
-342 9060 9061 9062 0
-9063 -28 0
-9063 287 0
-9064 -29 0
-9064 277 0
-9065 -31 0
-9065 275 0
-342 9063 9064 9065 0
-9066 -41 0
-9066 396 0
-9067 -51 0
-9067 351 0
-9068 -61 0
-9068 341 0
-342 9066 9067 9068 0
-9069 -43 0
-9069 405 0
-9070 -53 0
-9070 360 0
-9071 -70 0
-9071 343 0
-342 9069 9070 9071 0
-9072 -44 0
-9072 406 0
-9073 -54 0
-9073 361 0
-9074 -71 0
-9074 344 0
-342 9072 9073 9074 0
-9075 -45 0
-9075 407 0
-9076 -55 0
-9076 362 0
-9077 -72 0
-9077 345 0
-342 9075 9076 9077 0
-9078 -46 0
-9078 408 0
-9079 -56 0
-9079 363 0
-9080 -73 0
-9080 346 0
-342 9078 9079 9080 0
-9081 -47 0
-9081 409 0
-9082 -57 0
-9082 364 0
-9083 -74 0
-9083 347 0
-342 9081 9082 9083 0
-9084 -48 0
-9084 410 0
-9085 -58 0
-9085 365 0
-9086 -75 0
-9086 348 0
-342 9084 9085 9086 0
-9087 -49 0
-9087 411 0
-9088 -59 0
-9088 366 0
-9089 -76 0
-9089 349 0
-342 9087 9088 9089 0
-9090 -50 0
-9090 412 0
-9091 -60 0
-9091 367 0
-9092 -77 0
-9092 350 0
-342 9090 9091 9092 0
-9093 -3 0
-9093 144 0
-9094 -4 0
-9094 134 0
-9095 -7 0
-9095 131 0
-343 9093 9094 9095 0
-9096 -16 0
-9096 222 0
-9097 -17 0
-9097 212 0
-9098 -20 0
-9098 209 0
-343 9096 9097 9098 0
-9099 -28 0
-9099 288 0
-9100 -29 0
-9100 278 0
-9101 -32 0
-9101 275 0
-343 9099 9100 9101 0
-9102 -41 0
-9102 397 0
-9103 -51 0
-9103 352 0
-9104 -62 0
-9104 341 0
-343 9102 9103 9104 0
-9105 -42 0
-9105 405 0
-9106 -52 0
-9106 360 0
-9107 -70 0
-9107 342 0
-343 9105 9106 9107 0
-9108 -44 0
-9108 413 0
-9109 -54 0
-9109 368 0
-9110 -78 0
-9110 344 0
-343 9108 9109 9110 0
-9111 -45 0
-9111 414 0
-9112 -55 0
-9112 369 0
-9113 -79 0
-9113 345 0
-343 9111 9112 9113 0
-9114 -46 0
-9114 415 0
-9115 -56 0
-9115 370 0
-9116 -80 0
-9116 346 0
-343 9114 9115 9116 0
-9117 -47 0
-9117 416 0
-9118 -57 0
-9118 371 0
-9119 -81 0
-9119 347 0
-343 9117 9118 9119 0
-9120 -48 0
-9120 417 0
-9121 -58 0
-9121 372 0
-9122 -82 0
-9122 348 0
-343 9120 9121 9122 0
-9123 -49 0
-9123 418 0
-9124 -59 0
-9124 373 0
-9125 -83 0
-9125 349 0
-343 9123 9124 9125 0
-9126 -50 0
-9126 419 0
-9127 -60 0
-9127 374 0
-9128 -84 0
-9128 350 0
-343 9126 9127 9128 0
-9129 -3 0
-9129 145 0
-9130 -4 0
-9130 135 0
-9131 -8 0
-9131 131 0
-344 9129 9130 9131 0
-9132 -16 0
-9132 223 0
-9133 -17 0
-9133 213 0
-9134 -21 0
-9134 209 0
-344 9132 9133 9134 0
-9135 -28 0
-9135 289 0
-9136 -29 0
-9136 279 0
-9137 -33 0
-9137 275 0
-344 9135 9136 9137 0
-9138 -41 0
-9138 398 0
-9139 -51 0
-9139 353 0
-9140 -63 0
-9140 341 0
-344 9138 9139 9140 0
-9141 -42 0
-9141 406 0
-9142 -52 0
-9142 361 0
-9143 -71 0
-9143 342 0
-344 9141 9142 9143 0
-9144 -43 0
-9144 413 0
-9145 -53 0
-9145 368 0
-9146 -78 0
-9146 343 0
-344 9144 9145 9146 0
-9147 -45 0
-9147 420 0
-9148 -55 0
-9148 375 0
-9149 -85 0
-9149 345 0
-344 9147 9148 9149 0
-9150 -46 0
-9150 421 0
-9151 -56 0
-9151 376 0
-9152 -86 0
-9152 346 0
-344 9150 9151 9152 0
-9153 -47 0
-9153 422 0
-9154 -57 0
-9154 377 0
-9155 -87 0
-9155 347 0
-344 9153 9154 9155 0
-9156 -48 0
-9156 423 0
-9157 -58 0
-9157 378 0
-9158 -88 0
-9158 348 0
-344 9156 9157 9158 0
-9159 -49 0
-9159 424 0
-9160 -59 0
-9160 379 0
-9161 -89 0
-9161 349 0
-344 9159 9160 9161 0
-9162 -50 0
-9162 425 0
-9163 -60 0
-9163 380 0
-9164 -90 0
-9164 350 0
-344 9162 9163 9164 0
-9165 -3 0
-9165 146 0
-9166 -4 0
-9166 136 0
-9167 -9 0
-9167 131 0
-345 9165 9166 9167 0
-9168 -16 0
-9168 224 0
-9169 -17 0
-9169 214 0
-9170 -22 0
-9170 209 0
-345 9168 9169 9170 0
-9171 -28 0
-9171 290 0
-9172 -29 0
-9172 280 0
-9173 -34 0
-9173 275 0
-345 9171 9172 9173 0
-9174 -41 0
-9174 399 0
-9175 -51 0
-9175 354 0
-9176 -64 0
-9176 341 0
-345 9174 9175 9176 0
-9177 -42 0
-9177 407 0
-9178 -52 0
-9178 362 0
-9179 -72 0
-9179 342 0
-345 9177 9178 9179 0
-9180 -43 0
-9180 414 0
-9181 -53 0
-9181 369 0
-9182 -79 0
-9182 343 0
-345 9180 9181 9182 0
-9183 -44 0
-9183 420 0
-9184 -54 0
-9184 375 0
-9185 -85 0
-9185 344 0
-345 9183 9184 9185 0
-9186 -46 0
-9186 426 0
-9187 -56 0
-9187 381 0
-9188 -91 0
-9188 346 0
-345 9186 9187 9188 0
-9189 -47 0
-9189 427 0
-9190 -57 0
-9190 382 0
-9191 -92 0
-9191 347 0
-345 9189 9190 9191 0
-9192 -48 0
-9192 428 0
-9193 -58 0
-9193 383 0
-9194 -93 0
-9194 348 0
-345 9192 9193 9194 0
-9195 -49 0
-9195 429 0
-9196 -59 0
-9196 384 0
-9197 -94 0
-9197 349 0
-345 9195 9196 9197 0
-9198 -50 0
-9198 430 0
-9199 -60 0
-9199 385 0
-9200 -95 0
-9200 350 0
-345 9198 9199 9200 0
-9201 -3 0
-9201 147 0
-9202 -4 0
-9202 137 0
-9203 -10 0
-9203 131 0
-346 9201 9202 9203 0
-9204 -16 0
-9204 225 0
-9205 -17 0
-9205 215 0
-9206 -23 0
-9206 209 0
-346 9204 9205 9206 0
-9207 -28 0
-9207 291 0
-9208 -29 0
-9208 281 0
-9209 -35 0
-9209 275 0
-346 9207 9208 9209 0
-9210 -41 0
-9210 400 0
-9211 -51 0
-9211 355 0
-9212 -65 0
-9212 341 0
-346 9210 9211 9212 0
-9213 -42 0
-9213 408 0
-9214 -52 0
-9214 363 0
-9215 -73 0
-9215 342 0
-346 9213 9214 9215 0
-9216 -43 0
-9216 415 0
-9217 -53 0
-9217 370 0
-9218 -80 0
-9218 343 0
-346 9216 9217 9218 0
-9219 -44 0
-9219 421 0
-9220 -54 0
-9220 376 0
-9221 -86 0
-9221 344 0
-346 9219 9220 9221 0
-9222 -45 0
-9222 426 0
-9223 -55 0
-9223 381 0
-9224 -91 0
-9224 345 0
-346 9222 9223 9224 0
-9225 -47 0
-9225 431 0
-9226 -57 0
-9226 386 0
-9227 -96 0
-9227 347 0
-346 9225 9226 9227 0
-9228 -48 0
-9228 432 0
-9229 -58 0
-9229 387 0
-9230 -97 0
-9230 348 0
-346 9228 9229 9230 0
-9231 -49 0
-9231 433 0
-9232 -59 0
-9232 388 0
-9233 -98 0
-9233 349 0
-346 9231 9232 9233 0
-9234 -50 0
-9234 434 0
-9235 -60 0
-9235 389 0
-9236 -99 0
-9236 350 0
-346 9234 9235 9236 0
-9237 -3 0
-9237 148 0
-9238 -4 0
-9238 138 0
-9239 -11 0
-9239 131 0
-347 9237 9238 9239 0
-9240 -16 0
-9240 226 0
-9241 -17 0
-9241 216 0
-9242 -24 0
-9242 209 0
-347 9240 9241 9242 0
-9243 -28 0
-9243 292 0
-9244 -29 0
-9244 282 0
-9245 -36 0
-9245 275 0
-347 9243 9244 9245 0
-9246 -41 0
-9246 401 0
-9247 -51 0
-9247 356 0
-9248 -66 0
-9248 341 0
-347 9246 9247 9248 0
-9249 -42 0
-9249 409 0
-9250 -52 0
-9250 364 0
-9251 -74 0
-9251 342 0
-347 9249 9250 9251 0
-9252 -43 0
-9252 416 0
-9253 -53 0
-9253 371 0
-9254 -81 0
-9254 343 0
-347 9252 9253 9254 0
-9255 -44 0
-9255 422 0
-9256 -54 0
-9256 377 0
-9257 -87 0
-9257 344 0
-347 9255 9256 9257 0
-9258 -45 0
-9258 427 0
-9259 -55 0
-9259 382 0
-9260 -92 0
-9260 345 0
-347 9258 9259 9260 0
-9261 -46 0
-9261 431 0
-9262 -56 0
-9262 386 0
-9263 -96 0
-9263 346 0
-347 9261 9262 9263 0
-9264 -48 0
-9264 435 0
-9265 -58 0
-9265 390 0
-9266 -100 0
-9266 348 0
-347 9264 9265 9266 0
-9267 -49 0
-9267 436 0
-9268 -59 0
-9268 391 0
-9269 -101 0
-9269 349 0
-347 9267 9268 9269 0
-9270 -50 0
-9270 437 0
-9271 -60 0
-9271 392 0
-9272 -102 0
-9272 350 0
-347 9270 9271 9272 0
-9273 -3 0
-9273 149 0
-9274 -4 0
-9274 139 0
-9275 -12 0
-9275 131 0
-348 9273 9274 9275 0
-9276 -16 0
-9276 227 0
-9277 -17 0
-9277 217 0
-9278 -25 0
-9278 209 0
-348 9276 9277 9278 0
-9279 -28 0
-9279 293 0
-9280 -29 0
-9280 283 0
-9281 -37 0
-9281 275 0
-348 9279 9280 9281 0
-9282 -41 0
-9282 402 0
-9283 -51 0
-9283 357 0
-9284 -67 0
-9284 341 0
-348 9282 9283 9284 0
-9285 -42 0
-9285 410 0
-9286 -52 0
-9286 365 0
-9287 -75 0
-9287 342 0
-348 9285 9286 9287 0
-9288 -43 0
-9288 417 0
-9289 -53 0
-9289 372 0
-9290 -82 0
-9290 343 0
-348 9288 9289 9290 0
-9291 -44 0
-9291 423 0
-9292 -54 0
-9292 378 0
-9293 -88 0
-9293 344 0
-348 9291 9292 9293 0
-9294 -45 0
-9294 428 0
-9295 -55 0
-9295 383 0
-9296 -93 0
-9296 345 0
-348 9294 9295 9296 0
-9297 -46 0
-9297 432 0
-9298 -56 0
-9298 387 0
-9299 -97 0
-9299 346 0
-348 9297 9298 9299 0
-9300 -47 0
-9300 435 0
-9301 -57 0
-9301 390 0
-9302 -100 0
-9302 347 0
-348 9300 9301 9302 0
-9303 -49 0
-9303 438 0
-9304 -59 0
-9304 393 0
-9305 -103 0
-9305 349 0
-348 9303 9304 9305 0
-9306 -50 0
-9306 439 0
-9307 -60 0
-9307 394 0
-9308 -104 0
-9308 350 0
-348 9306 9307 9308 0
-9309 -3 0
-9309 150 0
-9310 -4 0
-9310 140 0
-9311 -13 0
-9311 131 0
-349 9309 9310 9311 0
-9312 -16 0
-9312 228 0
-9313 -17 0
-9313 218 0
-9314 -26 0
-9314 209 0
-349 9312 9313 9314 0
-9315 -28 0
-9315 294 0
-9316 -29 0
-9316 284 0
-9317 -38 0
-9317 275 0
-349 9315 9316 9317 0
-9318 -41 0
-9318 403 0
-9319 -51 0
-9319 358 0
-9320 -68 0
-9320 341 0
-349 9318 9319 9320 0
-9321 -42 0
-9321 411 0
-9322 -52 0
-9322 366 0
-9323 -76 0
-9323 342 0
-349 9321 9322 9323 0
-9324 -43 0
-9324 418 0
-9325 -53 0
-9325 373 0
-9326 -83 0
-9326 343 0
-349 9324 9325 9326 0
-9327 -44 0
-9327 424 0
-9328 -54 0
-9328 379 0
-9329 -89 0
-9329 344 0
-349 9327 9328 9329 0
-9330 -45 0
-9330 429 0
-9331 -55 0
-9331 384 0
-9332 -94 0
-9332 345 0
-349 9330 9331 9332 0
-9333 -46 0
-9333 433 0
-9334 -56 0
-9334 388 0
-9335 -98 0
-9335 346 0
-349 9333 9334 9335 0
-9336 -47 0
-9336 436 0
-9337 -57 0
-9337 391 0
-9338 -101 0
-9338 347 0
-349 9336 9337 9338 0
-9339 -48 0
-9339 438 0
-9340 -58 0
-9340 393 0
-9341 -103 0
-9341 348 0
-349 9339 9340 9341 0
-9342 -50 0
-9342 440 0
-9343 -60 0
-9343 395 0
-9344 -105 0
-9344 350 0
-349 9342 9343 9344 0
-9345 -3 0
-9345 151 0
-9346 -4 0
-9346 141 0
-9347 -14 0
-9347 131 0
-350 9345 9346 9347 0
-9348 -16 0
-9348 229 0
-9349 -17 0
-9349 219 0
-9350 -27 0
-9350 209 0
-350 9348 9349 9350 0
-9351 -28 0
-9351 295 0
-9352 -29 0
-9352 285 0
-9353 -39 0
-9353 275 0
-350 9351 9352 9353 0
-9354 -41 0
-9354 404 0
-9355 -51 0
-9355 359 0
-9356 -69 0
-9356 341 0
-350 9354 9355 9356 0
-9357 -42 0
-9357 412 0
-9358 -52 0
-9358 367 0
-9359 -77 0
-9359 342 0
-350 9357 9358 9359 0
-9360 -43 0
-9360 419 0
-9361 -53 0
-9361 374 0
-9362 -84 0
-9362 343 0
-350 9360 9361 9362 0
-9363 -44 0
-9363 425 0
-9364 -54 0
-9364 380 0
-9365 -90 0
-9365 344 0
-350 9363 9364 9365 0
-9366 -45 0
-9366 430 0
-9367 -55 0
-9367 385 0
-9368 -95 0
-9368 345 0
-350 9366 9367 9368 0
-9369 -46 0
-9369 434 0
-9370 -56 0
-9370 389 0
-9371 -99 0
-9371 346 0
-350 9369 9370 9371 0
-9372 -47 0
-9372 437 0
-9373 -57 0
-9373 392 0
-9374 -102 0
-9374 347 0
-350 9372 9373 9374 0
-9375 -48 0
-9375 439 0
-9376 -58 0
-9376 394 0
-9377 -104 0
-9377 348 0
-350 9375 9376 9377 0
-9378 -49 0
-9378 440 0
-9379 -59 0
-9379 395 0
-9380 -105 0
-9380 349 0
-350 9378 9379 9380 0
-9381 -3 0
-9381 152 0
-9382 -5 0
-9382 133 0
-9383 -6 0
-9383 132 0
-351 9381 9382 9383 0
-9384 -16 0
-9384 230 0
-9385 -18 0
-9385 211 0
-9386 -19 0
-9386 210 0
-351 9384 9385 9386 0
-9387 -28 0
-9387 296 0
-9388 -30 0
-9388 277 0
-9389 -31 0
-9389 276 0
-351 9387 9388 9389 0
-9390 -40 0
-9390 396 0
-9391 -51 0
-9391 342 0
-9392 -52 0
-9392 341 0
-351 9390 9391 9392 0
-9393 -43 0
-9393 441 0
-9394 -62 0
-9394 360 0
-9395 -70 0
-9395 352 0
-351 9393 9394 9395 0
-9396 -44 0
-9396 442 0
-9397 -63 0
-9397 361 0
-9398 -71 0
-9398 353 0
-351 9396 9397 9398 0
-9399 -45 0
-9399 443 0
-9400 -64 0
-9400 362 0
-9401 -72 0
-9401 354 0
-351 9399 9400 9401 0
-9402 -46 0
-9402 444 0
-9403 -65 0
-9403 363 0
-9404 -73 0
-9404 355 0
-351 9402 9403 9404 0
-9405 -47 0
-9405 445 0
-9406 -66 0
-9406 364 0
-9407 -74 0
-9407 356 0
-351 9405 9406 9407 0
-9408 -48 0
-9408 446 0
-9409 -67 0
-9409 365 0
-9410 -75 0
-9410 357 0
-351 9408 9409 9410 0
-9411 -49 0
-9411 447 0
-9412 -68 0
-9412 366 0
-9413 -76 0
-9413 358 0
-351 9411 9412 9413 0
-9414 -50 0
-9414 448 0
-9415 -69 0
-9415 367 0
-9416 -77 0
-9416 359 0
-351 9414 9415 9416 0
-9417 -3 0
-9417 153 0
-9418 -5 0
-9418 134 0
-9419 -7 0
-9419 132 0
-352 9417 9418 9419 0
-9420 -16 0
-9420 231 0
-9421 -18 0
-9421 212 0
-9422 -20 0
-9422 210 0
-352 9420 9421 9422 0
-9423 -28 0
-9423 297 0
-9424 -30 0
-9424 278 0
-9425 -32 0
-9425 276 0
-352 9423 9424 9425 0
-9426 -40 0
-9426 397 0
-9427 -51 0
-9427 343 0
-9428 -53 0
-9428 341 0
-352 9426 9427 9428 0
-9429 -42 0
-9429 441 0
-9430 -61 0
-9430 360 0
-9431 -70 0
-9431 351 0
-352 9429 9430 9431 0
-9432 -44 0
-9432 449 0
-9433 -63 0
-9433 368 0
-9434 -78 0
-9434 353 0
-352 9432 9433 9434 0
-9435 -45 0
-9435 450 0
-9436 -64 0
-9436 369 0
-9437 -79 0
-9437 354 0
-352 9435 9436 9437 0
-9438 -46 0
-9438 451 0
-9439 -65 0
-9439 370 0
-9440 -80 0
-9440 355 0
-352 9438 9439 9440 0
-9441 -47 0
-9441 452 0
-9442 -66 0
-9442 371 0
-9443 -81 0
-9443 356 0
-352 9441 9442 9443 0
-9444 -48 0
-9444 453 0
-9445 -67 0
-9445 372 0
-9446 -82 0
-9446 357 0
-352 9444 9445 9446 0
-9447 -49 0
-9447 454 0
-9448 -68 0
-9448 373 0
-9449 -83 0
-9449 358 0
-352 9447 9448 9449 0
-9450 -50 0
-9450 455 0
-9451 -69 0
-9451 374 0
-9452 -84 0
-9452 359 0
-352 9450 9451 9452 0
-9453 -3 0
-9453 154 0
-9454 -5 0
-9454 135 0
-9455 -8 0
-9455 132 0
-353 9453 9454 9455 0
-9456 -16 0
-9456 232 0
-9457 -18 0
-9457 213 0
-9458 -21 0
-9458 210 0
-353 9456 9457 9458 0
-9459 -28 0
-9459 298 0
-9460 -30 0
-9460 279 0
-9461 -33 0
-9461 276 0
-353 9459 9460 9461 0
-9462 -40 0
-9462 398 0
-9463 -51 0
-9463 344 0
-9464 -54 0
-9464 341 0
-353 9462 9463 9464 0
-9465 -42 0
-9465 442 0
-9466 -61 0
-9466 361 0
-9467 -71 0
-9467 351 0
-353 9465 9466 9467 0
-9468 -43 0
-9468 449 0
-9469 -62 0
-9469 368 0
-9470 -78 0
-9470 352 0
-353 9468 9469 9470 0
-9471 -45 0
-9471 456 0
-9472 -64 0
-9472 375 0
-9473 -85 0
-9473 354 0
-353 9471 9472 9473 0
-9474 -46 0
-9474 457 0
-9475 -65 0
-9475 376 0
-9476 -86 0
-9476 355 0
-353 9474 9475 9476 0
-9477 -47 0
-9477 458 0
-9478 -66 0
-9478 377 0
-9479 -87 0
-9479 356 0
-353 9477 9478 9479 0
-9480 -48 0
-9480 459 0
-9481 -67 0
-9481 378 0
-9482 -88 0
-9482 357 0
-353 9480 9481 9482 0
-9483 -49 0
-9483 460 0
-9484 -68 0
-9484 379 0
-9485 -89 0
-9485 358 0
-353 9483 9484 9485 0
-9486 -50 0
-9486 461 0
-9487 -69 0
-9487 380 0
-9488 -90 0
-9488 359 0
-353 9486 9487 9488 0
-9489 -3 0
-9489 155 0
-9490 -5 0
-9490 136 0
-9491 -9 0
-9491 132 0
-354 9489 9490 9491 0
-9492 -16 0
-9492 233 0
-9493 -18 0
-9493 214 0
-9494 -22 0
-9494 210 0
-354 9492 9493 9494 0
-9495 -28 0
-9495 299 0
-9496 -30 0
-9496 280 0
-9497 -34 0
-9497 276 0
-354 9495 9496 9497 0
-9498 -40 0
-9498 399 0
-9499 -51 0
-9499 345 0
-9500 -55 0
-9500 341 0
-354 9498 9499 9500 0
-9501 -42 0
-9501 443 0
-9502 -61 0
-9502 362 0
-9503 -72 0
-9503 351 0
-354 9501 9502 9503 0
-9504 -43 0
-9504 450 0
-9505 -62 0
-9505 369 0
-9506 -79 0
-9506 352 0
-354 9504 9505 9506 0
-9507 -44 0
-9507 456 0
-9508 -63 0
-9508 375 0
-9509 -85 0
-9509 353 0
-354 9507 9508 9509 0
-9510 -46 0
-9510 462 0
-9511 -65 0
-9511 381 0
-9512 -91 0
-9512 355 0
-354 9510 9511 9512 0
-9513 -47 0
-9513 463 0
-9514 -66 0
-9514 382 0
-9515 -92 0
-9515 356 0
-354 9513 9514 9515 0
-9516 -48 0
-9516 464 0
-9517 -67 0
-9517 383 0
-9518 -93 0
-9518 357 0
-354 9516 9517 9518 0
-9519 -49 0
-9519 465 0
-9520 -68 0
-9520 384 0
-9521 -94 0
-9521 358 0
-354 9519 9520 9521 0
-9522 -50 0
-9522 466 0
-9523 -69 0
-9523 385 0
-9524 -95 0
-9524 359 0
-354 9522 9523 9524 0
-9525 -3 0
-9525 156 0
-9526 -5 0
-9526 137 0
-9527 -10 0
-9527 132 0
-355 9525 9526 9527 0
-9528 -16 0
-9528 234 0
-9529 -18 0
-9529 215 0
-9530 -23 0
-9530 210 0
-355 9528 9529 9530 0
-9531 -28 0
-9531 300 0
-9532 -30 0
-9532 281 0
-9533 -35 0
-9533 276 0
-355 9531 9532 9533 0
-9534 -40 0
-9534 400 0
-9535 -51 0
-9535 346 0
-9536 -56 0
-9536 341 0
-355 9534 9535 9536 0
-9537 -42 0
-9537 444 0
-9538 -61 0
-9538 363 0
-9539 -73 0
-9539 351 0
-355 9537 9538 9539 0
-9540 -43 0
-9540 451 0
-9541 -62 0
-9541 370 0
-9542 -80 0
-9542 352 0
-355 9540 9541 9542 0
-9543 -44 0
-9543 457 0
-9544 -63 0
-9544 376 0
-9545 -86 0
-9545 353 0
-355 9543 9544 9545 0
-9546 -45 0
-9546 462 0
-9547 -64 0
-9547 381 0
-9548 -91 0
-9548 354 0
-355 9546 9547 9548 0
-9549 -47 0
-9549 467 0
-9550 -66 0
-9550 386 0
-9551 -96 0
-9551 356 0
-355 9549 9550 9551 0
-9552 -48 0
-9552 468 0
-9553 -67 0
-9553 387 0
-9554 -97 0
-9554 357 0
-355 9552 9553 9554 0
-9555 -49 0
-9555 469 0
-9556 -68 0
-9556 388 0
-9557 -98 0
-9557 358 0
-355 9555 9556 9557 0
-9558 -50 0
-9558 470 0
-9559 -69 0
-9559 389 0
-9560 -99 0
-9560 359 0
-355 9558 9559 9560 0
-9561 -3 0
-9561 157 0
-9562 -5 0
-9562 138 0
-9563 -11 0
-9563 132 0
-356 9561 9562 9563 0
-9564 -16 0
-9564 235 0
-9565 -18 0
-9565 216 0
-9566 -24 0
-9566 210 0
-356 9564 9565 9566 0
-9567 -28 0
-9567 301 0
-9568 -30 0
-9568 282 0
-9569 -36 0
-9569 276 0
-356 9567 9568 9569 0
-9570 -40 0
-9570 401 0
-9571 -51 0
-9571 347 0
-9572 -57 0
-9572 341 0
-356 9570 9571 9572 0
-9573 -42 0
-9573 445 0
-9574 -61 0
-9574 364 0
-9575 -74 0
-9575 351 0
-356 9573 9574 9575 0
-9576 -43 0
-9576 452 0
-9577 -62 0
-9577 371 0
-9578 -81 0
-9578 352 0
-356 9576 9577 9578 0
-9579 -44 0
-9579 458 0
-9580 -63 0
-9580 377 0
-9581 -87 0
-9581 353 0
-356 9579 9580 9581 0
-9582 -45 0
-9582 463 0
-9583 -64 0
-9583 382 0
-9584 -92 0
-9584 354 0
-356 9582 9583 9584 0
-9585 -46 0
-9585 467 0
-9586 -65 0
-9586 386 0
-9587 -96 0
-9587 355 0
-356 9585 9586 9587 0
-9588 -48 0
-9588 471 0
-9589 -67 0
-9589 390 0
-9590 -100 0
-9590 357 0
-356 9588 9589 9590 0
-9591 -49 0
-9591 472 0
-9592 -68 0
-9592 391 0
-9593 -101 0
-9593 358 0
-356 9591 9592 9593 0
-9594 -50 0
-9594 473 0
-9595 -69 0
-9595 392 0
-9596 -102 0
-9596 359 0
-356 9594 9595 9596 0
-9597 -3 0
-9597 158 0
-9598 -5 0
-9598 139 0
-9599 -12 0
-9599 132 0
-357 9597 9598 9599 0
-9600 -16 0
-9600 236 0
-9601 -18 0
-9601 217 0
-9602 -25 0
-9602 210 0
-357 9600 9601 9602 0
-9603 -28 0
-9603 302 0
-9604 -30 0
-9604 283 0
-9605 -37 0
-9605 276 0
-357 9603 9604 9605 0
-9606 -40 0
-9606 402 0
-9607 -51 0
-9607 348 0
-9608 -58 0
-9608 341 0
-357 9606 9607 9608 0
-9609 -42 0
-9609 446 0
-9610 -61 0
-9610 365 0
-9611 -75 0
-9611 351 0
-357 9609 9610 9611 0
-9612 -43 0
-9612 453 0
-9613 -62 0
-9613 372 0
-9614 -82 0
-9614 352 0
-357 9612 9613 9614 0
-9615 -44 0
-9615 459 0
-9616 -63 0
-9616 378 0
-9617 -88 0
-9617 353 0
-357 9615 9616 9617 0
-9618 -45 0
-9618 464 0
-9619 -64 0
-9619 383 0
-9620 -93 0
-9620 354 0
-357 9618 9619 9620 0
-9621 -46 0
-9621 468 0
-9622 -65 0
-9622 387 0
-9623 -97 0
-9623 355 0
-357 9621 9622 9623 0
-9624 -47 0
-9624 471 0
-9625 -66 0
-9625 390 0
-9626 -100 0
-9626 356 0
-357 9624 9625 9626 0
-9627 -49 0
-9627 474 0
-9628 -68 0
-9628 393 0
-9629 -103 0
-9629 358 0
-357 9627 9628 9629 0
-9630 -50 0
-9630 475 0
-9631 -69 0
-9631 394 0
-9632 -104 0
-9632 359 0
-357 9630 9631 9632 0
-9633 -3 0
-9633 159 0
-9634 -5 0
-9634 140 0
-9635 -13 0
-9635 132 0
-358 9633 9634 9635 0
-9636 -16 0
-9636 237 0
-9637 -18 0
-9637 218 0
-9638 -26 0
-9638 210 0
-358 9636 9637 9638 0
-9639 -28 0
-9639 303 0
-9640 -30 0
-9640 284 0
-9641 -38 0
-9641 276 0
-358 9639 9640 9641 0
-9642 -40 0
-9642 403 0
-9643 -51 0
-9643 349 0
-9644 -59 0
-9644 341 0
-358 9642 9643 9644 0
-9645 -42 0
-9645 447 0
-9646 -61 0
-9646 366 0
-9647 -76 0
-9647 351 0
-358 9645 9646 9647 0
-9648 -43 0
-9648 454 0
-9649 -62 0
-9649 373 0
-9650 -83 0
-9650 352 0
-358 9648 9649 9650 0
-9651 -44 0
-9651 460 0
-9652 -63 0
-9652 379 0
-9653 -89 0
-9653 353 0
-358 9651 9652 9653 0
-9654 -45 0
-9654 465 0
-9655 -64 0
-9655 384 0
-9656 -94 0
-9656 354 0
-358 9654 9655 9656 0
-9657 -46 0
-9657 469 0
-9658 -65 0
-9658 388 0
-9659 -98 0
-9659 355 0
-358 9657 9658 9659 0
-9660 -47 0
-9660 472 0
-9661 -66 0
-9661 391 0
-9662 -101 0
-9662 356 0
-358 9660 9661 9662 0
-9663 -48 0
-9663 474 0
-9664 -67 0
-9664 393 0
-9665 -103 0
-9665 357 0
-358 9663 9664 9665 0
-9666 -50 0
-9666 476 0
-9667 -69 0
-9667 395 0
-9668 -105 0
-9668 359 0
-358 9666 9667 9668 0
-9669 -3 0
-9669 160 0
-9670 -5 0
-9670 141 0
-9671 -14 0
-9671 132 0
-359 9669 9670 9671 0
-9672 -16 0
-9672 238 0
-9673 -18 0
-9673 219 0
-9674 -27 0
-9674 210 0
-359 9672 9673 9674 0
-9675 -28 0
-9675 304 0
-9676 -30 0
-9676 285 0
-9677 -39 0
-9677 276 0
-359 9675 9676 9677 0
-9678 -40 0
-9678 404 0
-9679 -51 0
-9679 350 0
-9680 -60 0
-9680 341 0
-359 9678 9679 9680 0
-9681 -42 0
-9681 448 0
-9682 -61 0
-9682 367 0
-9683 -77 0
-9683 351 0
-359 9681 9682 9683 0
-9684 -43 0
-9684 455 0
-9685 -62 0
-9685 374 0
-9686 -84 0
-9686 352 0
-359 9684 9685 9686 0
-9687 -44 0
-9687 461 0
-9688 -63 0
-9688 380 0
-9689 -90 0
-9689 353 0
-359 9687 9688 9689 0
-9690 -45 0
-9690 466 0
-9691 -64 0
-9691 385 0
-9692 -95 0
-9692 354 0
-359 9690 9691 9692 0
-9693 -46 0
-9693 470 0
-9694 -65 0
-9694 389 0
-9695 -99 0
-9695 355 0
-359 9693 9694 9695 0
-9696 -47 0
-9696 473 0
-9697 -66 0
-9697 392 0
-9698 -102 0
-9698 356 0
-359 9696 9697 9698 0
-9699 -48 0
-9699 475 0
-9700 -67 0
-9700 394 0
-9701 -104 0
-9701 357 0
-359 9699 9700 9701 0
-9702 -49 0
-9702 476 0
-9703 -68 0
-9703 395 0
-9704 -105 0
-9704 358 0
-359 9702 9703 9704 0
-9705 -3 0
-9705 161 0
-9706 -6 0
-9706 134 0
-9707 -7 0
-9707 133 0
-360 9705 9706 9707 0
-9708 -16 0
-9708 239 0
-9709 -19 0
-9709 212 0
-9710 -20 0
-9710 211 0
-360 9708 9709 9710 0
-9711 -28 0
-9711 305 0
-9712 -31 0
-9712 278 0
-9713 -32 0
-9713 277 0
-360 9711 9712 9713 0
-9714 -40 0
-9714 405 0
-9715 -52 0
-9715 343 0
-9716 -53 0
-9716 342 0
-360 9714 9715 9716 0
-9717 -41 0
-9717 441 0
-9718 -61 0
-9718 352 0
-9719 -62 0
-9719 351 0
-360 9717 9718 9719 0
-9720 -44 0
-9720 477 0
-9721 -71 0
-9721 368 0
-9722 -78 0
-9722 361 0
-360 9720 9721 9722 0
-9723 -45 0
-9723 478 0
-9724 -72 0
-9724 369 0
-9725 -79 0
-9725 362 0
-360 9723 9724 9725 0
-9726 -46 0
-9726 479 0
-9727 -73 0
-9727 370 0
-9728 -80 0
-9728 363 0
-360 9726 9727 9728 0
-9729 -47 0
-9729 480 0
-9730 -74 0
-9730 371 0
-9731 -81 0
-9731 364 0
-360 9729 9730 9731 0
-9732 -48 0
-9732 481 0
-9733 -75 0
-9733 372 0
-9734 -82 0
-9734 365 0
-360 9732 9733 9734 0
-9735 -49 0
-9735 482 0
-9736 -76 0
-9736 373 0
-9737 -83 0
-9737 366 0
-360 9735 9736 9737 0
-9738 -50 0
-9738 483 0
-9739 -77 0
-9739 374 0
-9740 -84 0
-9740 367 0
-360 9738 9739 9740 0
-9741 -3 0
-9741 162 0
-9742 -6 0
-9742 135 0
-9743 -8 0
-9743 133 0
-361 9741 9742 9743 0
-9744 -16 0
-9744 240 0
-9745 -19 0
-9745 213 0
-9746 -21 0
-9746 211 0
-361 9744 9745 9746 0
-9747 -28 0
-9747 306 0
-9748 -31 0
-9748 279 0
-9749 -33 0
-9749 277 0
-361 9747 9748 9749 0
-9750 -40 0
-9750 406 0
-9751 -52 0
-9751 344 0
-9752 -54 0
-9752 342 0
-361 9750 9751 9752 0
-9753 -41 0
-9753 442 0
-9754 -61 0
-9754 353 0
-9755 -63 0
-9755 351 0
-361 9753 9754 9755 0
-9756 -43 0
-9756 477 0
-9757 -70 0
-9757 368 0
-9758 -78 0
-9758 360 0
-361 9756 9757 9758 0
-9759 -45 0
-9759 484 0
-9760 -72 0
-9760 375 0
-9761 -85 0
-9761 362 0
-361 9759 9760 9761 0
-9762 -46 0
-9762 485 0
-9763 -73 0
-9763 376 0
-9764 -86 0
-9764 363 0
-361 9762 9763 9764 0
-9765 -47 0
-9765 486 0
-9766 -74 0
-9766 377 0
-9767 -87 0
-9767 364 0
-361 9765 9766 9767 0
-9768 -48 0
-9768 487 0
-9769 -75 0
-9769 378 0
-9770 -88 0
-9770 365 0
-361 9768 9769 9770 0
-9771 -49 0
-9771 488 0
-9772 -76 0
-9772 379 0
-9773 -89 0
-9773 366 0
-361 9771 9772 9773 0
-9774 -50 0
-9774 489 0
-9775 -77 0
-9775 380 0
-9776 -90 0
-9776 367 0
-361 9774 9775 9776 0
-9777 -3 0
-9777 163 0
-9778 -6 0
-9778 136 0
-9779 -9 0
-9779 133 0
-362 9777 9778 9779 0
-9780 -16 0
-9780 241 0
-9781 -19 0
-9781 214 0
-9782 -22 0
-9782 211 0
-362 9780 9781 9782 0
-9783 -28 0
-9783 307 0
-9784 -31 0
-9784 280 0
-9785 -34 0
-9785 277 0
-362 9783 9784 9785 0
-9786 -40 0
-9786 407 0
-9787 -52 0
-9787 345 0
-9788 -55 0
-9788 342 0
-362 9786 9787 9788 0
-9789 -41 0
-9789 443 0
-9790 -61 0
-9790 354 0
-9791 -64 0
-9791 351 0
-362 9789 9790 9791 0
-9792 -43 0
-9792 478 0
-9793 -70 0
-9793 369 0
-9794 -79 0
-9794 360 0
-362 9792 9793 9794 0
-9795 -44 0
-9795 484 0
-9796 -71 0
-9796 375 0
-9797 -85 0
-9797 361 0
-362 9795 9796 9797 0
-9798 -46 0
-9798 490 0
-9799 -73 0
-9799 381 0
-9800 -91 0
-9800 363 0
-362 9798 9799 9800 0
-9801 -47 0
-9801 491 0
-9802 -74 0
-9802 382 0
-9803 -92 0
-9803 364 0
-362 9801 9802 9803 0
-9804 -48 0
-9804 492 0
-9805 -75 0
-9805 383 0
-9806 -93 0
-9806 365 0
-362 9804 9805 9806 0
-9807 -49 0
-9807 493 0
-9808 -76 0
-9808 384 0
-9809 -94 0
-9809 366 0
-362 9807 9808 9809 0
-9810 -50 0
-9810 494 0
-9811 -77 0
-9811 385 0
-9812 -95 0
-9812 367 0
-362 9810 9811 9812 0
-9813 -3 0
-9813 164 0
-9814 -6 0
-9814 137 0
-9815 -10 0
-9815 133 0
-363 9813 9814 9815 0
-9816 -16 0
-9816 242 0
-9817 -19 0
-9817 215 0
-9818 -23 0
-9818 211 0
-363 9816 9817 9818 0
-9819 -28 0
-9819 308 0
-9820 -31 0
-9820 281 0
-9821 -35 0
-9821 277 0
-363 9819 9820 9821 0
-9822 -40 0
-9822 408 0
-9823 -52 0
-9823 346 0
-9824 -56 0
-9824 342 0
-363 9822 9823 9824 0
-9825 -41 0
-9825 444 0
-9826 -61 0
-9826 355 0
-9827 -65 0
-9827 351 0
-363 9825 9826 9827 0
-9828 -43 0
-9828 479 0
-9829 -70 0
-9829 370 0
-9830 -80 0
-9830 360 0
-363 9828 9829 9830 0
-9831 -44 0
-9831 485 0
-9832 -71 0
-9832 376 0
-9833 -86 0
-9833 361 0
-363 9831 9832 9833 0
-9834 -45 0
-9834 490 0
-9835 -72 0
-9835 381 0
-9836 -91 0
-9836 362 0
-363 9834 9835 9836 0
-9837 -47 0
-9837 495 0
-9838 -74 0
-9838 386 0
-9839 -96 0
-9839 364 0
-363 9837 9838 9839 0
-9840 -48 0
-9840 496 0
-9841 -75 0
-9841 387 0
-9842 -97 0
-9842 365 0
-363 9840 9841 9842 0
-9843 -49 0
-9843 497 0
-9844 -76 0
-9844 388 0
-9845 -98 0
-9845 366 0
-363 9843 9844 9845 0
-9846 -50 0
-9846 498 0
-9847 -77 0
-9847 389 0
-9848 -99 0
-9848 367 0
-363 9846 9847 9848 0
-9849 -3 0
-9849 165 0
-9850 -6 0
-9850 138 0
-9851 -11 0
-9851 133 0
-364 9849 9850 9851 0
-9852 -16 0
-9852 243 0
-9853 -19 0
-9853 216 0
-9854 -24 0
-9854 211 0
-364 9852 9853 9854 0
-9855 -28 0
-9855 309 0
-9856 -31 0
-9856 282 0
-9857 -36 0
-9857 277 0
-364 9855 9856 9857 0
-9858 -40 0
-9858 409 0
-9859 -52 0
-9859 347 0
-9860 -57 0
-9860 342 0
-364 9858 9859 9860 0
-9861 -41 0
-9861 445 0
-9862 -61 0
-9862 356 0
-9863 -66 0
-9863 351 0
-364 9861 9862 9863 0
-9864 -43 0
-9864 480 0
-9865 -70 0
-9865 371 0
-9866 -81 0
-9866 360 0
-364 9864 9865 9866 0
-9867 -44 0
-9867 486 0
-9868 -71 0
-9868 377 0
-9869 -87 0
-9869 361 0
-364 9867 9868 9869 0
-9870 -45 0
-9870 491 0
-9871 -72 0
-9871 382 0
-9872 -92 0
-9872 362 0
-364 9870 9871 9872 0
-9873 -46 0
-9873 495 0
-9874 -73 0
-9874 386 0
-9875 -96 0
-9875 363 0
-364 9873 9874 9875 0
-9876 -48 0
-9876 499 0
-9877 -75 0
-9877 390 0
-9878 -100 0
-9878 365 0
-364 9876 9877 9878 0
-9879 -49 0
-9879 500 0
-9880 -76 0
-9880 391 0
-9881 -101 0
-9881 366 0
-364 9879 9880 9881 0
-9882 -50 0
-9882 501 0
-9883 -77 0
-9883 392 0
-9884 -102 0
-9884 367 0
-364 9882 9883 9884 0
-9885 -3 0
-9885 166 0
-9886 -6 0
-9886 139 0
-9887 -12 0
-9887 133 0
-365 9885 9886 9887 0
-9888 -16 0
-9888 244 0
-9889 -19 0
-9889 217 0
-9890 -25 0
-9890 211 0
-365 9888 9889 9890 0
-9891 -28 0
-9891 310 0
-9892 -31 0
-9892 283 0
-9893 -37 0
-9893 277 0
-365 9891 9892 9893 0
-9894 -40 0
-9894 410 0
-9895 -52 0
-9895 348 0
-9896 -58 0
-9896 342 0
-365 9894 9895 9896 0
-9897 -41 0
-9897 446 0
-9898 -61 0
-9898 357 0
-9899 -67 0
-9899 351 0
-365 9897 9898 9899 0
-9900 -43 0
-9900 481 0
-9901 -70 0
-9901 372 0
-9902 -82 0
-9902 360 0
-365 9900 9901 9902 0
-9903 -44 0
-9903 487 0
-9904 -71 0
-9904 378 0
-9905 -88 0
-9905 361 0
-365 9903 9904 9905 0
-9906 -45 0
-9906 492 0
-9907 -72 0
-9907 383 0
-9908 -93 0
-9908 362 0
-365 9906 9907 9908 0
-9909 -46 0
-9909 496 0
-9910 -73 0
-9910 387 0
-9911 -97 0
-9911 363 0
-365 9909 9910 9911 0
-9912 -47 0
-9912 499 0
-9913 -74 0
-9913 390 0
-9914 -100 0
-9914 364 0
-365 9912 9913 9914 0
-9915 -49 0
-9915 502 0
-9916 -76 0
-9916 393 0
-9917 -103 0
-9917 366 0
-365 9915 9916 9917 0
-9918 -50 0
-9918 503 0
-9919 -77 0
-9919 394 0
-9920 -104 0
-9920 367 0
-365 9918 9919 9920 0
-9921 -3 0
-9921 167 0
-9922 -6 0
-9922 140 0
-9923 -13 0
-9923 133 0
-366 9921 9922 9923 0
-9924 -16 0
-9924 245 0
-9925 -19 0
-9925 218 0
-9926 -26 0
-9926 211 0
-366 9924 9925 9926 0
-9927 -28 0
-9927 311 0
-9928 -31 0
-9928 284 0
-9929 -38 0
-9929 277 0
-366 9927 9928 9929 0
-9930 -40 0
-9930 411 0
-9931 -52 0
-9931 349 0
-9932 -59 0
-9932 342 0
-366 9930 9931 9932 0
-9933 -41 0
-9933 447 0
-9934 -61 0
-9934 358 0
-9935 -68 0
-9935 351 0
-366 9933 9934 9935 0
-9936 -43 0
-9936 482 0
-9937 -70 0
-9937 373 0
-9938 -83 0
-9938 360 0
-366 9936 9937 9938 0
-9939 -44 0
-9939 488 0
-9940 -71 0
-9940 379 0
-9941 -89 0
-9941 361 0
-366 9939 9940 9941 0
-9942 -45 0
-9942 493 0
-9943 -72 0
-9943 384 0
-9944 -94 0
-9944 362 0
-366 9942 9943 9944 0
-9945 -46 0
-9945 497 0
-9946 -73 0
-9946 388 0
-9947 -98 0
-9947 363 0
-366 9945 9946 9947 0
-9948 -47 0
-9948 500 0
-9949 -74 0
-9949 391 0
-9950 -101 0
-9950 364 0
-366 9948 9949 9950 0
-9951 -48 0
-9951 502 0
-9952 -75 0
-9952 393 0
-9953 -103 0
-9953 365 0
-366 9951 9952 9953 0
-9954 -50 0
-9954 504 0
-9955 -77 0
-9955 395 0
-9956 -105 0
-9956 367 0
-366 9954 9955 9956 0
-9957 -3 0
-9957 168 0
-9958 -6 0
-9958 141 0
-9959 -14 0
-9959 133 0
-367 9957 9958 9959 0
-9960 -16 0
-9960 246 0
-9961 -19 0
-9961 219 0
-9962 -27 0
-9962 211 0
-367 9960 9961 9962 0
-9963 -28 0
-9963 312 0
-9964 -31 0
-9964 285 0
-9965 -39 0
-9965 277 0
-367 9963 9964 9965 0
-9966 -40 0
-9966 412 0
-9967 -52 0
-9967 350 0
-9968 -60 0
-9968 342 0
-367 9966 9967 9968 0
-9969 -41 0
-9969 448 0
-9970 -61 0
-9970 359 0
-9971 -69 0
-9971 351 0
-367 9969 9970 9971 0
-9972 -43 0
-9972 483 0
-9973 -70 0
-9973 374 0
-9974 -84 0
-9974 360 0
-367 9972 9973 9974 0
-9975 -44 0
-9975 489 0
-9976 -71 0
-9976 380 0
-9977 -90 0
-9977 361 0
-367 9975 9976 9977 0
-9978 -45 0
-9978 494 0
-9979 -72 0
-9979 385 0
-9980 -95 0
-9980 362 0
-367 9978 9979 9980 0
-9981 -46 0
-9981 498 0
-9982 -73 0
-9982 389 0
-9983 -99 0
-9983 363 0
-367 9981 9982 9983 0
-9984 -47 0
-9984 501 0
-9985 -74 0
-9985 392 0
-9986 -102 0
-9986 364 0
-367 9984 9985 9986 0
-9987 -48 0
-9987 503 0
-9988 -75 0
-9988 394 0
-9989 -104 0
-9989 365 0
-367 9987 9988 9989 0
-9990 -49 0
-9990 504 0
-9991 -76 0
-9991 395 0
-9992 -105 0
-9992 366 0
-367 9990 9991 9992 0
-9993 -3 0
-9993 169 0
-9994 -7 0
-9994 135 0
-9995 -8 0
-9995 134 0
-368 9993 9994 9995 0
-9996 -16 0
-9996 247 0
-9997 -20 0
-9997 213 0
-9998 -21 0
-9998 212 0
-368 9996 9997 9998 0
-9999 -28 0
-9999 313 0
-10000 -32 0
-10000 279 0
-10001 -33 0
-10001 278 0
-368 9999 10000 10001 0
-10002 -40 0
-10002 413 0
-10003 -53 0
-10003 344 0
-10004 -54 0
-10004 343 0
-368 10002 10003 10004 0
-10005 -41 0
-10005 449 0
-10006 -62 0
-10006 353 0
-10007 -63 0
-10007 352 0
-368 10005 10006 10007 0
-10008 -42 0
-10008 477 0
-10009 -70 0
-10009 361 0
-10010 -71 0
-10010 360 0
-368 10008 10009 10010 0
-10011 -45 0
-10011 505 0
-10012 -79 0
-10012 375 0
-10013 -85 0
-10013 369 0
-368 10011 10012 10013 0
-10014 -46 0
-10014 506 0
-10015 -80 0
-10015 376 0
-10016 -86 0
-10016 370 0
-368 10014 10015 10016 0
-10017 -47 0
-10017 507 0
-10018 -81 0
-10018 377 0
-10019 -87 0
-10019 371 0
-368 10017 10018 10019 0
-10020 -48 0
-10020 508 0
-10021 -82 0
-10021 378 0
-10022 -88 0
-10022 372 0
-368 10020 10021 10022 0
-10023 -49 0
-10023 509 0
-10024 -83 0
-10024 379 0
-10025 -89 0
-10025 373 0
-368 10023 10024 10025 0
-10026 -50 0
-10026 510 0
-10027 -84 0
-10027 380 0
-10028 -90 0
-10028 374 0
-368 10026 10027 10028 0
-10029 -3 0
-10029 170 0
-10030 -7 0
-10030 136 0
-10031 -9 0
-10031 134 0
-369 10029 10030 10031 0
-10032 -16 0
-10032 248 0
-10033 -20 0
-10033 214 0
-10034 -22 0
-10034 212 0
-369 10032 10033 10034 0
-10035 -28 0
-10035 314 0
-10036 -32 0
-10036 280 0
-10037 -34 0
-10037 278 0
-369 10035 10036 10037 0
-10038 -40 0
-10038 414 0
-10039 -53 0
-10039 345 0
-10040 -55 0
-10040 343 0
-369 10038 10039 10040 0
-10041 -41 0
-10041 450 0
-10042 -62 0
-10042 354 0
-10043 -64 0
-10043 352 0
-369 10041 10042 10043 0
-10044 -42 0
-10044 478 0
-10045 -70 0
-10045 362 0
-10046 -72 0
-10046 360 0
-369 10044 10045 10046 0
-10047 -44 0
-10047 505 0
-10048 -78 0
-10048 375 0
-10049 -85 0
-10049 368 0
-369 10047 10048 10049 0
-10050 -46 0
-10050 511 0
-10051 -80 0
-10051 381 0
-10052 -91 0
-10052 370 0
-369 10050 10051 10052 0
-10053 -47 0
-10053 512 0
-10054 -81 0
-10054 382 0
-10055 -92 0
-10055 371 0
-369 10053 10054 10055 0
-10056 -48 0
-10056 513 0
-10057 -82 0
-10057 383 0
-10058 -93 0
-10058 372 0
-369 10056 10057 10058 0
-10059 -49 0
-10059 514 0
-10060 -83 0
-10060 384 0
-10061 -94 0
-10061 373 0
-369 10059 10060 10061 0
-10062 -50 0
-10062 515 0
-10063 -84 0
-10063 385 0
-10064 -95 0
-10064 374 0
-369 10062 10063 10064 0
-10065 -3 0
-10065 171 0
-10066 -7 0
-10066 137 0
-10067 -10 0
-10067 134 0
-370 10065 10066 10067 0
-10068 -16 0
-10068 249 0
-10069 -20 0
-10069 215 0
-10070 -23 0
-10070 212 0
-370 10068 10069 10070 0
-10071 -28 0
-10071 315 0
-10072 -32 0
-10072 281 0
-10073 -35 0
-10073 278 0
-370 10071 10072 10073 0
-10074 -40 0
-10074 415 0
-10075 -53 0
-10075 346 0
-10076 -56 0
-10076 343 0
-370 10074 10075 10076 0
-10077 -41 0
-10077 451 0
-10078 -62 0
-10078 355 0
-10079 -65 0
-10079 352 0
-370 10077 10078 10079 0
-10080 -42 0
-10080 479 0
-10081 -70 0
-10081 363 0
-10082 -73 0
-10082 360 0
-370 10080 10081 10082 0
-10083 -44 0
-10083 506 0
-10084 -78 0
-10084 376 0
-10085 -86 0
-10085 368 0
-370 10083 10084 10085 0
-10086 -45 0
-10086 511 0
-10087 -79 0
-10087 381 0
-10088 -91 0
-10088 369 0
-370 10086 10087 10088 0
-10089 -47 0
-10089 516 0
-10090 -81 0
-10090 386 0
-10091 -96 0
-10091 371 0
-370 10089 10090 10091 0
-10092 -48 0
-10092 517 0
-10093 -82 0
-10093 387 0
-10094 -97 0
-10094 372 0
-370 10092 10093 10094 0
-10095 -49 0
-10095 518 0
-10096 -83 0
-10096 388 0
-10097 -98 0
-10097 373 0
-370 10095 10096 10097 0
-10098 -50 0
-10098 519 0
-10099 -84 0
-10099 389 0
-10100 -99 0
-10100 374 0
-370 10098 10099 10100 0
-10101 -3 0
-10101 172 0
-10102 -7 0
-10102 138 0
-10103 -11 0
-10103 134 0
-371 10101 10102 10103 0
-10104 -16 0
-10104 250 0
-10105 -20 0
-10105 216 0
-10106 -24 0
-10106 212 0
-371 10104 10105 10106 0
-10107 -28 0
-10107 316 0
-10108 -32 0
-10108 282 0
-10109 -36 0
-10109 278 0
-371 10107 10108 10109 0
-10110 -40 0
-10110 416 0
-10111 -53 0
-10111 347 0
-10112 -57 0
-10112 343 0
-371 10110 10111 10112 0
-10113 -41 0
-10113 452 0
-10114 -62 0
-10114 356 0
-10115 -66 0
-10115 352 0
-371 10113 10114 10115 0
-10116 -42 0
-10116 480 0
-10117 -70 0
-10117 364 0
-10118 -74 0
-10118 360 0
-371 10116 10117 10118 0
-10119 -44 0
-10119 507 0
-10120 -78 0
-10120 377 0
-10121 -87 0
-10121 368 0
-371 10119 10120 10121 0
-10122 -45 0
-10122 512 0
-10123 -79 0
-10123 382 0
-10124 -92 0
-10124 369 0
-371 10122 10123 10124 0
-10125 -46 0
-10125 516 0
-10126 -80 0
-10126 386 0
-10127 -96 0
-10127 370 0
-371 10125 10126 10127 0
-10128 -48 0
-10128 520 0
-10129 -82 0
-10129 390 0
-10130 -100 0
-10130 372 0
-371 10128 10129 10130 0
-10131 -49 0
-10131 521 0
-10132 -83 0
-10132 391 0
-10133 -101 0
-10133 373 0
-371 10131 10132 10133 0
-10134 -50 0
-10134 522 0
-10135 -84 0
-10135 392 0
-10136 -102 0
-10136 374 0
-371 10134 10135 10136 0
-10137 -3 0
-10137 173 0
-10138 -7 0
-10138 139 0
-10139 -12 0
-10139 134 0
-372 10137 10138 10139 0
-10140 -16 0
-10140 251 0
-10141 -20 0
-10141 217 0
-10142 -25 0
-10142 212 0
-372 10140 10141 10142 0
-10143 -28 0
-10143 317 0
-10144 -32 0
-10144 283 0
-10145 -37 0
-10145 278 0
-372 10143 10144 10145 0
-10146 -40 0
-10146 417 0
-10147 -53 0
-10147 348 0
-10148 -58 0
-10148 343 0
-372 10146 10147 10148 0
-10149 -41 0
-10149 453 0
-10150 -62 0
-10150 357 0
-10151 -67 0
-10151 352 0
-372 10149 10150 10151 0
-10152 -42 0
-10152 481 0
-10153 -70 0
-10153 365 0
-10154 -75 0
-10154 360 0
-372 10152 10153 10154 0
-10155 -44 0
-10155 508 0
-10156 -78 0
-10156 378 0
-10157 -88 0
-10157 368 0
-372 10155 10156 10157 0
-10158 -45 0
-10158 513 0
-10159 -79 0
-10159 383 0
-10160 -93 0
-10160 369 0
-372 10158 10159 10160 0
-10161 -46 0
-10161 517 0
-10162 -80 0
-10162 387 0
-10163 -97 0
-10163 370 0
-372 10161 10162 10163 0
-10164 -47 0
-10164 520 0
-10165 -81 0
-10165 390 0
-10166 -100 0
-10166 371 0
-372 10164 10165 10166 0
-10167 -49 0
-10167 523 0
-10168 -83 0
-10168 393 0
-10169 -103 0
-10169 373 0
-372 10167 10168 10169 0
-10170 -50 0
-10170 524 0
-10171 -84 0
-10171 394 0
-10172 -104 0
-10172 374 0
-372 10170 10171 10172 0
-10173 -3 0
-10173 174 0
-10174 -7 0
-10174 140 0
-10175 -13 0
-10175 134 0
-373 10173 10174 10175 0
-10176 -16 0
-10176 252 0
-10177 -20 0
-10177 218 0
-10178 -26 0
-10178 212 0
-373 10176 10177 10178 0
-10179 -28 0
-10179 318 0
-10180 -32 0
-10180 284 0
-10181 -38 0
-10181 278 0
-373 10179 10180 10181 0
-10182 -40 0
-10182 418 0
-10183 -53 0
-10183 349 0
-10184 -59 0
-10184 343 0
-373 10182 10183 10184 0
-10185 -41 0
-10185 454 0
-10186 -62 0
-10186 358 0
-10187 -68 0
-10187 352 0
-373 10185 10186 10187 0
-10188 -42 0
-10188 482 0
-10189 -70 0
-10189 366 0
-10190 -76 0
-10190 360 0
-373 10188 10189 10190 0
-10191 -44 0
-10191 509 0
-10192 -78 0
-10192 379 0
-10193 -89 0
-10193 368 0
-373 10191 10192 10193 0
-10194 -45 0
-10194 514 0
-10195 -79 0
-10195 384 0
-10196 -94 0
-10196 369 0
-373 10194 10195 10196 0
-10197 -46 0
-10197 518 0
-10198 -80 0
-10198 388 0
-10199 -98 0
-10199 370 0
-373 10197 10198 10199 0
-10200 -47 0
-10200 521 0
-10201 -81 0
-10201 391 0
-10202 -101 0
-10202 371 0
-373 10200 10201 10202 0
-10203 -48 0
-10203 523 0
-10204 -82 0
-10204 393 0
-10205 -103 0
-10205 372 0
-373 10203 10204 10205 0
-10206 -50 0
-10206 525 0
-10207 -84 0
-10207 395 0
-10208 -105 0
-10208 374 0
-373 10206 10207 10208 0
-10209 -3 0
-10209 175 0
-10210 -7 0
-10210 141 0
-10211 -14 0
-10211 134 0
-374 10209 10210 10211 0
-10212 -16 0
-10212 253 0
-10213 -20 0
-10213 219 0
-10214 -27 0
-10214 212 0
-374 10212 10213 10214 0
-10215 -28 0
-10215 319 0
-10216 -32 0
-10216 285 0
-10217 -39 0
-10217 278 0
-374 10215 10216 10217 0
-10218 -40 0
-10218 419 0
-10219 -53 0
-10219 350 0
-10220 -60 0
-10220 343 0
-374 10218 10219 10220 0
-10221 -41 0
-10221 455 0
-10222 -62 0
-10222 359 0
-10223 -69 0
-10223 352 0
-374 10221 10222 10223 0
-10224 -42 0
-10224 483 0
-10225 -70 0
-10225 367 0
-10226 -77 0
-10226 360 0
-374 10224 10225 10226 0
-10227 -44 0
-10227 510 0
-10228 -78 0
-10228 380 0
-10229 -90 0
-10229 368 0
-374 10227 10228 10229 0
-10230 -45 0
-10230 515 0
-10231 -79 0
-10231 385 0
-10232 -95 0
-10232 369 0
-374 10230 10231 10232 0
-10233 -46 0
-10233 519 0
-10234 -80 0
-10234 389 0
-10235 -99 0
-10235 370 0
-374 10233 10234 10235 0
-10236 -47 0
-10236 522 0
-10237 -81 0
-10237 392 0
-10238 -102 0
-10238 371 0
-374 10236 10237 10238 0
-10239 -48 0
-10239 524 0
-10240 -82 0
-10240 394 0
-10241 -104 0
-10241 372 0
-374 10239 10240 10241 0
-10242 -49 0
-10242 525 0
-10243 -83 0
-10243 395 0
-10244 -105 0
-10244 373 0
-374 10242 10243 10244 0
-10245 -3 0
-10245 176 0
-10246 -8 0
-10246 136 0
-10247 -9 0
-10247 135 0
-375 10245 10246 10247 0
-10248 -16 0
-10248 254 0
-10249 -21 0
-10249 214 0
-10250 -22 0
-10250 213 0
-375 10248 10249 10250 0
-10251 -28 0
-10251 320 0
-10252 -33 0
-10252 280 0
-10253 -34 0
-10253 279 0
-375 10251 10252 10253 0
-10254 -40 0
-10254 420 0
-10255 -54 0
-10255 345 0
-10256 -55 0
-10256 344 0
-375 10254 10255 10256 0
-10257 -41 0
-10257 456 0
-10258 -63 0
-10258 354 0
-10259 -64 0
-10259 353 0
-375 10257 10258 10259 0
-10260 -42 0
-10260 484 0
-10261 -71 0
-10261 362 0
-10262 -72 0
-10262 361 0
-375 10260 10261 10262 0
-10263 -43 0
-10263 505 0
-10264 -78 0
-10264 369 0
-10265 -79 0
-10265 368 0
-375 10263 10264 10265 0
-10266 -46 0
-10266 526 0
-10267 -86 0
-10267 381 0
-10268 -91 0
-10268 376 0
-375 10266 10267 10268 0
-10269 -47 0
-10269 527 0
-10270 -87 0
-10270 382 0
-10271 -92 0
-10271 377 0
-375 10269 10270 10271 0
-10272 -48 0
-10272 528 0
-10273 -88 0
-10273 383 0
-10274 -93 0
-10274 378 0
-375 10272 10273 10274 0
-10275 -49 0
-10275 529 0
-10276 -89 0
-10276 384 0
-10277 -94 0
-10277 379 0
-375 10275 10276 10277 0
-10278 -50 0
-10278 530 0
-10279 -90 0
-10279 385 0
-10280 -95 0
-10280 380 0
-375 10278 10279 10280 0
-10281 -3 0
-10281 177 0
-10282 -8 0
-10282 137 0
-10283 -10 0
-10283 135 0
-376 10281 10282 10283 0
-10284 -16 0
-10284 255 0
-10285 -21 0
-10285 215 0
-10286 -23 0
-10286 213 0
-376 10284 10285 10286 0
-10287 -28 0
-10287 321 0
-10288 -33 0
-10288 281 0
-10289 -35 0
-10289 279 0
-376 10287 10288 10289 0
-10290 -40 0
-10290 421 0
-10291 -54 0
-10291 346 0
-10292 -56 0
-10292 344 0
-376 10290 10291 10292 0
-10293 -41 0
-10293 457 0
-10294 -63 0
-10294 355 0
-10295 -65 0
-10295 353 0
-376 10293 10294 10295 0
-10296 -42 0
-10296 485 0
-10297 -71 0
-10297 363 0
-10298 -73 0
-10298 361 0
-376 10296 10297 10298 0
-10299 -43 0
-10299 506 0
-10300 -78 0
-10300 370 0
-10301 -80 0
-10301 368 0
-376 10299 10300 10301 0
-10302 -45 0
-10302 526 0
-10303 -85 0
-10303 381 0
-10304 -91 0
-10304 375 0
-376 10302 10303 10304 0
-10305 -47 0
-10305 531 0
-10306 -87 0
-10306 386 0
-10307 -96 0
-10307 377 0
-376 10305 10306 10307 0
-10308 -48 0
-10308 532 0
-10309 -88 0
-10309 387 0
-10310 -97 0
-10310 378 0
-376 10308 10309 10310 0
-10311 -49 0
-10311 533 0
-10312 -89 0
-10312 388 0
-10313 -98 0
-10313 379 0
-376 10311 10312 10313 0
-10314 -50 0
-10314 534 0
-10315 -90 0
-10315 389 0
-10316 -99 0
-10316 380 0
-376 10314 10315 10316 0
-10317 -3 0
-10317 178 0
-10318 -8 0
-10318 138 0
-10319 -11 0
-10319 135 0
-377 10317 10318 10319 0
-10320 -16 0
-10320 256 0
-10321 -21 0
-10321 216 0
-10322 -24 0
-10322 213 0
-377 10320 10321 10322 0
-10323 -28 0
-10323 322 0
-10324 -33 0
-10324 282 0
-10325 -36 0
-10325 279 0
-377 10323 10324 10325 0
-10326 -40 0
-10326 422 0
-10327 -54 0
-10327 347 0
-10328 -57 0
-10328 344 0
-377 10326 10327 10328 0
-10329 -41 0
-10329 458 0
-10330 -63 0
-10330 356 0
-10331 -66 0
-10331 353 0
-377 10329 10330 10331 0
-10332 -42 0
-10332 486 0
-10333 -71 0
-10333 364 0
-10334 -74 0
-10334 361 0
-377 10332 10333 10334 0
-10335 -43 0
-10335 507 0
-10336 -78 0
-10336 371 0
-10337 -81 0
-10337 368 0
-377 10335 10336 10337 0
-10338 -45 0
-10338 527 0
-10339 -85 0
-10339 382 0
-10340 -92 0
-10340 375 0
-377 10338 10339 10340 0
-10341 -46 0
-10341 531 0
-10342 -86 0
-10342 386 0
-10343 -96 0
-10343 376 0
-377 10341 10342 10343 0
-10344 -48 0
-10344 535 0
-10345 -88 0
-10345 390 0
-10346 -100 0
-10346 378 0
-377 10344 10345 10346 0
-10347 -49 0
-10347 536 0
-10348 -89 0
-10348 391 0
-10349 -101 0
-10349 379 0
-377 10347 10348 10349 0
-10350 -50 0
-10350 537 0
-10351 -90 0
-10351 392 0
-10352 -102 0
-10352 380 0
-377 10350 10351 10352 0
-10353 -3 0
-10353 179 0
-10354 -8 0
-10354 139 0
-10355 -12 0
-10355 135 0
-378 10353 10354 10355 0
-10356 -16 0
-10356 257 0
-10357 -21 0
-10357 217 0
-10358 -25 0
-10358 213 0
-378 10356 10357 10358 0
-10359 -28 0
-10359 323 0
-10360 -33 0
-10360 283 0
-10361 -37 0
-10361 279 0
-378 10359 10360 10361 0
-10362 -40 0
-10362 423 0
-10363 -54 0
-10363 348 0
-10364 -58 0
-10364 344 0
-378 10362 10363 10364 0
-10365 -41 0
-10365 459 0
-10366 -63 0
-10366 357 0
-10367 -67 0
-10367 353 0
-378 10365 10366 10367 0
-10368 -42 0
-10368 487 0
-10369 -71 0
-10369 365 0
-10370 -75 0
-10370 361 0
-378 10368 10369 10370 0
-10371 -43 0
-10371 508 0
-10372 -78 0
-10372 372 0
-10373 -82 0
-10373 368 0
-378 10371 10372 10373 0
-10374 -45 0
-10374 528 0
-10375 -85 0
-10375 383 0
-10376 -93 0
-10376 375 0
-378 10374 10375 10376 0
-10377 -46 0
-10377 532 0
-10378 -86 0
-10378 387 0
-10379 -97 0
-10379 376 0
-378 10377 10378 10379 0
-10380 -47 0
-10380 535 0
-10381 -87 0
-10381 390 0
-10382 -100 0
-10382 377 0
-378 10380 10381 10382 0
-10383 -49 0
-10383 538 0
-10384 -89 0
-10384 393 0
-10385 -103 0
-10385 379 0
-378 10383 10384 10385 0
-10386 -50 0
-10386 539 0
-10387 -90 0
-10387 394 0
-10388 -104 0
-10388 380 0
-378 10386 10387 10388 0
-10389 -3 0
-10389 180 0
-10390 -8 0
-10390 140 0
-10391 -13 0
-10391 135 0
-379 10389 10390 10391 0
-10392 -16 0
-10392 258 0
-10393 -21 0
-10393 218 0
-10394 -26 0
-10394 213 0
-379 10392 10393 10394 0
-10395 -28 0
-10395 324 0
-10396 -33 0
-10396 284 0
-10397 -38 0
-10397 279 0
-379 10395 10396 10397 0
-10398 -40 0
-10398 424 0
-10399 -54 0
-10399 349 0
-10400 -59 0
-10400 344 0
-379 10398 10399 10400 0
-10401 -41 0
-10401 460 0
-10402 -63 0
-10402 358 0
-10403 -68 0
-10403 353 0
-379 10401 10402 10403 0
-10404 -42 0
-10404 488 0
-10405 -71 0
-10405 366 0
-10406 -76 0
-10406 361 0
-379 10404 10405 10406 0
-10407 -43 0
-10407 509 0
-10408 -78 0
-10408 373 0
-10409 -83 0
-10409 368 0
-379 10407 10408 10409 0
-10410 -45 0
-10410 529 0
-10411 -85 0
-10411 384 0
-10412 -94 0
-10412 375 0
-379 10410 10411 10412 0
-10413 -46 0
-10413 533 0
-10414 -86 0
-10414 388 0
-10415 -98 0
-10415 376 0
-379 10413 10414 10415 0
-10416 -47 0
-10416 536 0
-10417 -87 0
-10417 391 0
-10418 -101 0
-10418 377 0
-379 10416 10417 10418 0
-10419 -48 0
-10419 538 0
-10420 -88 0
-10420 393 0
-10421 -103 0
-10421 378 0
-379 10419 10420 10421 0
-10422 -50 0
-10422 540 0
-10423 -90 0
-10423 395 0
-10424 -105 0
-10424 380 0
-379 10422 10423 10424 0
-10425 -3 0
-10425 181 0
-10426 -8 0
-10426 141 0
-10427 -14 0
-10427 135 0
-380 10425 10426 10427 0
-10428 -16 0
-10428 259 0
-10429 -21 0
-10429 219 0
-10430 -27 0
-10430 213 0
-380 10428 10429 10430 0
-10431 -28 0
-10431 325 0
-10432 -33 0
-10432 285 0
-10433 -39 0
-10433 279 0
-380 10431 10432 10433 0
-10434 -40 0
-10434 425 0
-10435 -54 0
-10435 350 0
-10436 -60 0
-10436 344 0
-380 10434 10435 10436 0
-10437 -41 0
-10437 461 0
-10438 -63 0
-10438 359 0
-10439 -69 0
-10439 353 0
-380 10437 10438 10439 0
-10440 -42 0
-10440 489 0
-10441 -71 0
-10441 367 0
-10442 -77 0
-10442 361 0
-380 10440 10441 10442 0
-10443 -43 0
-10443 510 0
-10444 -78 0
-10444 374 0
-10445 -84 0
-10445 368 0
-380 10443 10444 10445 0
-10446 -45 0
-10446 530 0
-10447 -85 0
-10447 385 0
-10448 -95 0
-10448 375 0
-380 10446 10447 10448 0
-10449 -46 0
-10449 534 0
-10450 -86 0
-10450 389 0
-10451 -99 0
-10451 376 0
-380 10449 10450 10451 0
-10452 -47 0
-10452 537 0
-10453 -87 0
-10453 392 0
-10454 -102 0
-10454 377 0
-380 10452 10453 10454 0
-10455 -48 0
-10455 539 0
-10456 -88 0
-10456 394 0
-10457 -104 0
-10457 378 0
-380 10455 10456 10457 0
-10458 -49 0
-10458 540 0
-10459 -89 0
-10459 395 0
-10460 -105 0
-10460 379 0
-380 10458 10459 10460 0
-10461 -3 0
-10461 182 0
-10462 -9 0
-10462 137 0
-10463 -10 0
-10463 136 0
-381 10461 10462 10463 0
-10464 -16 0
-10464 260 0
-10465 -22 0
-10465 215 0
-10466 -23 0
-10466 214 0
-381 10464 10465 10466 0
-10467 -28 0
-10467 326 0
-10468 -34 0
-10468 281 0
-10469 -35 0
-10469 280 0
-381 10467 10468 10469 0
-10470 -40 0
-10470 426 0
-10471 -55 0
-10471 346 0
-10472 -56 0
-10472 345 0
-381 10470 10471 10472 0
-10473 -41 0
-10473 462 0
-10474 -64 0
-10474 355 0
-10475 -65 0
-10475 354 0
-381 10473 10474 10475 0
-10476 -42 0
-10476 490 0
-10477 -72 0
-10477 363 0
-10478 -73 0
-10478 362 0
-381 10476 10477 10478 0
-10479 -43 0
-10479 511 0
-10480 -79 0
-10480 370 0
-10481 -80 0
-10481 369 0
-381 10479 10480 10481 0
-10482 -44 0
-10482 526 0
-10483 -85 0
-10483 376 0
-10484 -86 0
-10484 375 0
-381 10482 10483 10484 0
-10485 -47 0
-10485 541 0
-10486 -92 0
-10486 386 0
-10487 -96 0
-10487 382 0
-381 10485 10486 10487 0
-10488 -48 0
-10488 542 0
-10489 -93 0
-10489 387 0
-10490 -97 0
-10490 383 0
-381 10488 10489 10490 0
-10491 -49 0
-10491 543 0
-10492 -94 0
-10492 388 0
-10493 -98 0
-10493 384 0
-381 10491 10492 10493 0
-10494 -50 0
-10494 544 0
-10495 -95 0
-10495 389 0
-10496 -99 0
-10496 385 0
-381 10494 10495 10496 0
-10497 -3 0
-10497 183 0
-10498 -9 0
-10498 138 0
-10499 -11 0
-10499 136 0
-382 10497 10498 10499 0
-10500 -16 0
-10500 261 0
-10501 -22 0
-10501 216 0
-10502 -24 0
-10502 214 0
-382 10500 10501 10502 0
-10503 -28 0
-10503 327 0
-10504 -34 0
-10504 282 0
-10505 -36 0
-10505 280 0
-382 10503 10504 10505 0
-10506 -40 0
-10506 427 0
-10507 -55 0
-10507 347 0
-10508 -57 0
-10508 345 0
-382 10506 10507 10508 0
-10509 -41 0
-10509 463 0
-10510 -64 0
-10510 356 0
-10511 -66 0
-10511 354 0
-382 10509 10510 10511 0
-10512 -42 0
-10512 491 0
-10513 -72 0
-10513 364 0
-10514 -74 0
-10514 362 0
-382 10512 10513 10514 0
-10515 -43 0
-10515 512 0
-10516 -79 0
-10516 371 0
-10517 -81 0
-10517 369 0
-382 10515 10516 10517 0
-10518 -44 0
-10518 527 0
-10519 -85 0
-10519 377 0
-10520 -87 0
-10520 375 0
-382 10518 10519 10520 0
-10521 -46 0
-10521 541 0
-10522 -91 0
-10522 386 0
-10523 -96 0
-10523 381 0
-382 10521 10522 10523 0
-10524 -48 0
-10524 545 0
-10525 -93 0
-10525 390 0
-10526 -100 0
-10526 383 0
-382 10524 10525 10526 0
-10527 -49 0
-10527 546 0
-10528 -94 0
-10528 391 0
-10529 -101 0
-10529 384 0
-382 10527 10528 10529 0
-10530 -50 0
-10530 547 0
-10531 -95 0
-10531 392 0
-10532 -102 0
-10532 385 0
-382 10530 10531 10532 0
-10533 -3 0
-10533 184 0
-10534 -9 0
-10534 139 0
-10535 -12 0
-10535 136 0
-383 10533 10534 10535 0
-10536 -16 0
-10536 262 0
-10537 -22 0
-10537 217 0
-10538 -25 0
-10538 214 0
-383 10536 10537 10538 0
-10539 -28 0
-10539 328 0
-10540 -34 0
-10540 283 0
-10541 -37 0
-10541 280 0
-383 10539 10540 10541 0
-10542 -40 0
-10542 428 0
-10543 -55 0
-10543 348 0
-10544 -58 0
-10544 345 0
-383 10542 10543 10544 0
-10545 -41 0
-10545 464 0
-10546 -64 0
-10546 357 0
-10547 -67 0
-10547 354 0
-383 10545 10546 10547 0
-10548 -42 0
-10548 492 0
-10549 -72 0
-10549 365 0
-10550 -75 0
-10550 362 0
-383 10548 10549 10550 0
-10551 -43 0
-10551 513 0
-10552 -79 0
-10552 372 0
-10553 -82 0
-10553 369 0
-383 10551 10552 10553 0
-10554 -44 0
-10554 528 0
-10555 -85 0
-10555 378 0
-10556 -88 0
-10556 375 0
-383 10554 10555 10556 0
-10557 -46 0
-10557 542 0
-10558 -91 0
-10558 387 0
-10559 -97 0
-10559 381 0
-383 10557 10558 10559 0
-10560 -47 0
-10560 545 0
-10561 -92 0
-10561 390 0
-10562 -100 0
-10562 382 0
-383 10560 10561 10562 0
-10563 -49 0
-10563 548 0
-10564 -94 0
-10564 393 0
-10565 -103 0
-10565 384 0
-383 10563 10564 10565 0
-10566 -50 0
-10566 549 0
-10567 -95 0
-10567 394 0
-10568 -104 0
-10568 385 0
-383 10566 10567 10568 0
-10569 -3 0
-10569 185 0
-10570 -9 0
-10570 140 0
-10571 -13 0
-10571 136 0
-384 10569 10570 10571 0
-10572 -16 0
-10572 263 0
-10573 -22 0
-10573 218 0
-10574 -26 0
-10574 214 0
-384 10572 10573 10574 0
-10575 -28 0
-10575 329 0
-10576 -34 0
-10576 284 0
-10577 -38 0
-10577 280 0
-384 10575 10576 10577 0
-10578 -40 0
-10578 429 0
-10579 -55 0
-10579 349 0
-10580 -59 0
-10580 345 0
-384 10578 10579 10580 0
-10581 -41 0
-10581 465 0
-10582 -64 0
-10582 358 0
-10583 -68 0
-10583 354 0
-384 10581 10582 10583 0
-10584 -42 0
-10584 493 0
-10585 -72 0
-10585 366 0
-10586 -76 0
-10586 362 0
-384 10584 10585 10586 0
-10587 -43 0
-10587 514 0
-10588 -79 0
-10588 373 0
-10589 -83 0
-10589 369 0
-384 10587 10588 10589 0
-10590 -44 0
-10590 529 0
-10591 -85 0
-10591 379 0
-10592 -89 0
-10592 375 0
-384 10590 10591 10592 0
-10593 -46 0
-10593 543 0
-10594 -91 0
-10594 388 0
-10595 -98 0
-10595 381 0
-384 10593 10594 10595 0
-10596 -47 0
-10596 546 0
-10597 -92 0
-10597 391 0
-10598 -101 0
-10598 382 0
-384 10596 10597 10598 0
-10599 -48 0
-10599 548 0
-10600 -93 0
-10600 393 0
-10601 -103 0
-10601 383 0
-384 10599 10600 10601 0
-10602 -50 0
-10602 550 0
-10603 -95 0
-10603 395 0
-10604 -105 0
-10604 385 0
-384 10602 10603 10604 0
-10605 -3 0
-10605 186 0
-10606 -9 0
-10606 141 0
-10607 -14 0
-10607 136 0
-385 10605 10606 10607 0
-10608 -16 0
-10608 264 0
-10609 -22 0
-10609 219 0
-10610 -27 0
-10610 214 0
-385 10608 10609 10610 0
-10611 -28 0
-10611 330 0
-10612 -34 0
-10612 285 0
-10613 -39 0
-10613 280 0
-385 10611 10612 10613 0
-10614 -40 0
-10614 430 0
-10615 -55 0
-10615 350 0
-10616 -60 0
-10616 345 0
-385 10614 10615 10616 0
-10617 -41 0
-10617 466 0
-10618 -64 0
-10618 359 0
-10619 -69 0
-10619 354 0
-385 10617 10618 10619 0
-10620 -42 0
-10620 494 0
-10621 -72 0
-10621 367 0
-10622 -77 0
-10622 362 0
-385 10620 10621 10622 0
-10623 -43 0
-10623 515 0
-10624 -79 0
-10624 374 0
-10625 -84 0
-10625 369 0
-385 10623 10624 10625 0
-10626 -44 0
-10626 530 0
-10627 -85 0
-10627 380 0
-10628 -90 0
-10628 375 0
-385 10626 10627 10628 0
-10629 -46 0
-10629 544 0
-10630 -91 0
-10630 389 0
-10631 -99 0
-10631 381 0
-385 10629 10630 10631 0
-10632 -47 0
-10632 547 0
-10633 -92 0
-10633 392 0
-10634 -102 0
-10634 382 0
-385 10632 10633 10634 0
-10635 -48 0
-10635 549 0
-10636 -93 0
-10636 394 0
-10637 -104 0
-10637 383 0
-385 10635 10636 10637 0
-10638 -49 0
-10638 550 0
-10639 -94 0
-10639 395 0
-10640 -105 0
-10640 384 0
-385 10638 10639 10640 0
-10641 -3 0
-10641 187 0
-10642 -10 0
-10642 138 0
-10643 -11 0
-10643 137 0
-386 10641 10642 10643 0
-10644 -16 0
-10644 265 0
-10645 -23 0
-10645 216 0
-10646 -24 0
-10646 215 0
-386 10644 10645 10646 0
-10647 -28 0
-10647 331 0
-10648 -35 0
-10648 282 0
-10649 -36 0
-10649 281 0
-386 10647 10648 10649 0
-10650 -40 0
-10650 431 0
-10651 -56 0
-10651 347 0
-10652 -57 0
-10652 346 0
-386 10650 10651 10652 0
-10653 -41 0
-10653 467 0
-10654 -65 0
-10654 356 0
-10655 -66 0
-10655 355 0
-386 10653 10654 10655 0
-10656 -42 0
-10656 495 0
-10657 -73 0
-10657 364 0
-10658 -74 0
-10658 363 0
-386 10656 10657 10658 0
-10659 -43 0
-10659 516 0
-10660 -80 0
-10660 371 0
-10661 -81 0
-10661 370 0
-386 10659 10660 10661 0
-10662 -44 0
-10662 531 0
-10663 -86 0
-10663 377 0
-10664 -87 0
-10664 376 0
-386 10662 10663 10664 0
-10665 -45 0
-10665 541 0
-10666 -91 0
-10666 382 0
-10667 -92 0
-10667 381 0
-386 10665 10666 10667 0
-10668 -48 0
-10668 551 0
-10669 -97 0
-10669 390 0
-10670 -100 0
-10670 387 0
-386 10668 10669 10670 0
-10671 -49 0
-10671 552 0
-10672 -98 0
-10672 391 0
-10673 -101 0
-10673 388 0
-386 10671 10672 10673 0
-10674 -50 0
-10674 553 0
-10675 -99 0
-10675 392 0
-10676 -102 0
-10676 389 0
-386 10674 10675 10676 0
-10677 -3 0
-10677 188 0
-10678 -10 0
-10678 139 0
-10679 -12 0
-10679 137 0
-387 10677 10678 10679 0
-10680 -16 0
-10680 266 0
-10681 -23 0
-10681 217 0
-10682 -25 0
-10682 215 0
-387 10680 10681 10682 0
-10683 -28 0
-10683 332 0
-10684 -35 0
-10684 283 0
-10685 -37 0
-10685 281 0
-387 10683 10684 10685 0
-10686 -40 0
-10686 432 0
-10687 -56 0
-10687 348 0
-10688 -58 0
-10688 346 0
-387 10686 10687 10688 0
-10689 -41 0
-10689 468 0
-10690 -65 0
-10690 357 0
-10691 -67 0
-10691 355 0
-387 10689 10690 10691 0
-10692 -42 0
-10692 496 0
-10693 -73 0
-10693 365 0
-10694 -75 0
-10694 363 0
-387 10692 10693 10694 0
-10695 -43 0
-10695 517 0
-10696 -80 0
-10696 372 0
-10697 -82 0
-10697 370 0
-387 10695 10696 10697 0
-10698 -44 0
-10698 532 0
-10699 -86 0
-10699 378 0
-10700 -88 0
-10700 376 0
-387 10698 10699 10700 0
-10701 -45 0
-10701 542 0
-10702 -91 0
-10702 383 0
-10703 -93 0
-10703 381 0
-387 10701 10702 10703 0
-10704 -47 0
-10704 551 0
-10705 -96 0
-10705 390 0
-10706 -100 0
-10706 386 0
-387 10704 10705 10706 0
-10707 -49 0
-10707 554 0
-10708 -98 0
-10708 393 0
-10709 -103 0
-10709 388 0
-387 10707 10708 10709 0
-10710 -50 0
-10710 555 0
-10711 -99 0
-10711 394 0
-10712 -104 0
-10712 389 0
-387 10710 10711 10712 0
-10713 -3 0
-10713 189 0
-10714 -10 0
-10714 140 0
-10715 -13 0
-10715 137 0
-388 10713 10714 10715 0
-10716 -16 0
-10716 267 0
-10717 -23 0
-10717 218 0
-10718 -26 0
-10718 215 0
-388 10716 10717 10718 0
-10719 -28 0
-10719 333 0
-10720 -35 0
-10720 284 0
-10721 -38 0
-10721 281 0
-388 10719 10720 10721 0
-10722 -40 0
-10722 433 0
-10723 -56 0
-10723 349 0
-10724 -59 0
-10724 346 0
-388 10722 10723 10724 0
-10725 -41 0
-10725 469 0
-10726 -65 0
-10726 358 0
-10727 -68 0
-10727 355 0
-388 10725 10726 10727 0
-10728 -42 0
-10728 497 0
-10729 -73 0
-10729 366 0
-10730 -76 0
-10730 363 0
-388 10728 10729 10730 0
-10731 -43 0
-10731 518 0
-10732 -80 0
-10732 373 0
-10733 -83 0
-10733 370 0
-388 10731 10732 10733 0
-10734 -44 0
-10734 533 0
-10735 -86 0
-10735 379 0
-10736 -89 0
-10736 376 0
-388 10734 10735 10736 0
-10737 -45 0
-10737 543 0
-10738 -91 0
-10738 384 0
-10739 -94 0
-10739 381 0
-388 10737 10738 10739 0
-10740 -47 0
-10740 552 0
-10741 -96 0
-10741 391 0
-10742 -101 0
-10742 386 0
-388 10740 10741 10742 0
-10743 -48 0
-10743 554 0
-10744 -97 0
-10744 393 0
-10745 -103 0
-10745 387 0
-388 10743 10744 10745 0
-10746 -50 0
-10746 556 0
-10747 -99 0
-10747 395 0
-10748 -105 0
-10748 389 0
-388 10746 10747 10748 0
-10749 -3 0
-10749 190 0
-10750 -10 0
-10750 141 0
-10751 -14 0
-10751 137 0
-389 10749 10750 10751 0
-10752 -16 0
-10752 268 0
-10753 -23 0
-10753 219 0
-10754 -27 0
-10754 215 0
-389 10752 10753 10754 0
-10755 -28 0
-10755 334 0
-10756 -35 0
-10756 285 0
-10757 -39 0
-10757 281 0
-389 10755 10756 10757 0
-10758 -40 0
-10758 434 0
-10759 -56 0
-10759 350 0
-10760 -60 0
-10760 346 0
-389 10758 10759 10760 0
-10761 -41 0
-10761 470 0
-10762 -65 0
-10762 359 0
-10763 -69 0
-10763 355 0
-389 10761 10762 10763 0
-10764 -42 0
-10764 498 0
-10765 -73 0
-10765 367 0
-10766 -77 0
-10766 363 0
-389 10764 10765 10766 0
-10767 -43 0
-10767 519 0
-10768 -80 0
-10768 374 0
-10769 -84 0
-10769 370 0
-389 10767 10768 10769 0
-10770 -44 0
-10770 534 0
-10771 -86 0
-10771 380 0
-10772 -90 0
-10772 376 0
-389 10770 10771 10772 0
-10773 -45 0
-10773 544 0
-10774 -91 0
-10774 385 0
-10775 -95 0
-10775 381 0
-389 10773 10774 10775 0
-10776 -47 0
-10776 553 0
-10777 -96 0
-10777 392 0
-10778 -102 0
-10778 386 0
-389 10776 10777 10778 0
-10779 -48 0
-10779 555 0
-10780 -97 0
-10780 394 0
-10781 -104 0
-10781 387 0
-389 10779 10780 10781 0
-10782 -49 0
-10782 556 0
-10783 -98 0
-10783 395 0
-10784 -105 0
-10784 388 0
-389 10782 10783 10784 0
-10785 -3 0
-10785 191 0
-10786 -11 0
-10786 139 0
-10787 -12 0
-10787 138 0
-390 10785 10786 10787 0
-10788 -16 0
-10788 269 0
-10789 -24 0
-10789 217 0
-10790 -25 0
-10790 216 0
-390 10788 10789 10790 0
-10791 -28 0
-10791 335 0
-10792 -36 0
-10792 283 0
-10793 -37 0
-10793 282 0
-390 10791 10792 10793 0
-10794 -40 0
-10794 435 0
-10795 -57 0
-10795 348 0
-10796 -58 0
-10796 347 0
-390 10794 10795 10796 0
-10797 -41 0
-10797 471 0
-10798 -66 0
-10798 357 0
-10799 -67 0
-10799 356 0
-390 10797 10798 10799 0
-10800 -42 0
-10800 499 0
-10801 -74 0
-10801 365 0
-10802 -75 0
-10802 364 0
-390 10800 10801 10802 0
-10803 -43 0
-10803 520 0
-10804 -81 0
-10804 372 0
-10805 -82 0
-10805 371 0
-390 10803 10804 10805 0
-10806 -44 0
-10806 535 0
-10807 -87 0
-10807 378 0
-10808 -88 0
-10808 377 0
-390 10806 10807 10808 0
-10809 -45 0
-10809 545 0
-10810 -92 0
-10810 383 0
-10811 -93 0
-10811 382 0
-390 10809 10810 10811 0
-10812 -46 0
-10812 551 0
-10813 -96 0
-10813 387 0
-10814 -97 0
-10814 386 0
-390 10812 10813 10814 0
-10815 -49 0
-10815 557 0
-10816 -101 0
-10816 393 0
-10817 -103 0
-10817 391 0
-390 10815 10816 10817 0
-10818 -50 0
-10818 558 0
-10819 -102 0
-10819 394 0
-10820 -104 0
-10820 392 0
-390 10818 10819 10820 0
-10821 -3 0
-10821 192 0
-10822 -11 0
-10822 140 0
-10823 -13 0
-10823 138 0
-391 10821 10822 10823 0
-10824 -16 0
-10824 270 0
-10825 -24 0
-10825 218 0
-10826 -26 0
-10826 216 0
-391 10824 10825 10826 0
-10827 -28 0
-10827 336 0
-10828 -36 0
-10828 284 0
-10829 -38 0
-10829 282 0
-391 10827 10828 10829 0
-10830 -40 0
-10830 436 0
-10831 -57 0
-10831 349 0
-10832 -59 0
-10832 347 0
-391 10830 10831 10832 0
-10833 -41 0
-10833 472 0
-10834 -66 0
-10834 358 0
-10835 -68 0
-10835 356 0
-391 10833 10834 10835 0
-10836 -42 0
-10836 500 0
-10837 -74 0
-10837 366 0
-10838 -76 0
-10838 364 0
-391 10836 10837 10838 0
-10839 -43 0
-10839 521 0
-10840 -81 0
-10840 373 0
-10841 -83 0
-10841 371 0
-391 10839 10840 10841 0
-10842 -44 0
-10842 536 0
-10843 -87 0
-10843 379 0
-10844 -89 0
-10844 377 0
-391 10842 10843 10844 0
-10845 -45 0
-10845 546 0
-10846 -92 0
-10846 384 0
-10847 -94 0
-10847 382 0
-391 10845 10846 10847 0
-10848 -46 0
-10848 552 0
-10849 -96 0
-10849 388 0
-10850 -98 0
-10850 386 0
-391 10848 10849 10850 0
-10851 -48 0
-10851 557 0
-10852 -100 0
-10852 393 0
-10853 -103 0
-10853 390 0
-391 10851 10852 10853 0
-10854 -50 0
-10854 559 0
-10855 -102 0
-10855 395 0
-10856 -105 0
-10856 392 0
-391 10854 10855 10856 0
-10857 -3 0
-10857 193 0
-10858 -11 0
-10858 141 0
-10859 -14 0
-10859 138 0
-392 10857 10858 10859 0
-10860 -16 0
-10860 271 0
-10861 -24 0
-10861 219 0
-10862 -27 0
-10862 216 0
-392 10860 10861 10862 0
-10863 -28 0
-10863 337 0
-10864 -36 0
-10864 285 0
-10865 -39 0
-10865 282 0
-392 10863 10864 10865 0
-10866 -40 0
-10866 437 0
-10867 -57 0
-10867 350 0
-10868 -60 0
-10868 347 0
-392 10866 10867 10868 0
-10869 -41 0
-10869 473 0
-10870 -66 0
-10870 359 0
-10871 -69 0
-10871 356 0
-392 10869 10870 10871 0
-10872 -42 0
-10872 501 0
-10873 -74 0
-10873 367 0
-10874 -77 0
-10874 364 0
-392 10872 10873 10874 0
-10875 -43 0
-10875 522 0
-10876 -81 0
-10876 374 0
-10877 -84 0
-10877 371 0
-392 10875 10876 10877 0
-10878 -44 0
-10878 537 0
-10879 -87 0
-10879 380 0
-10880 -90 0
-10880 377 0
-392 10878 10879 10880 0
-10881 -45 0
-10881 547 0
-10882 -92 0
-10882 385 0
-10883 -95 0
-10883 382 0
-392 10881 10882 10883 0
-10884 -46 0
-10884 553 0
-10885 -96 0
-10885 389 0
-10886 -99 0
-10886 386 0
-392 10884 10885 10886 0
-10887 -48 0
-10887 558 0
-10888 -100 0
-10888 394 0
-10889 -104 0
-10889 390 0
-392 10887 10888 10889 0
-10890 -49 0
-10890 559 0
-10891 -101 0
-10891 395 0
-10892 -105 0
-10892 391 0
-392 10890 10891 10892 0
-10893 -3 0
-10893 194 0
-10894 -12 0
-10894 140 0
-10895 -13 0
-10895 139 0
-393 10893 10894 10895 0
-10896 -16 0
-10896 272 0
-10897 -25 0
-10897 218 0
-10898 -26 0
-10898 217 0
-393 10896 10897 10898 0
-10899 -28 0
-10899 338 0
-10900 -37 0
-10900 284 0
-10901 -38 0
-10901 283 0
-393 10899 10900 10901 0
-10902 -40 0
-10902 438 0
-10903 -58 0
-10903 349 0
-10904 -59 0
-10904 348 0
-393 10902 10903 10904 0
-10905 -41 0
-10905 474 0
-10906 -67 0
-10906 358 0
-10907 -68 0
-10907 357 0
-393 10905 10906 10907 0
-10908 -42 0
-10908 502 0
-10909 -75 0
-10909 366 0
-10910 -76 0
-10910 365 0
-393 10908 10909 10910 0
-10911 -43 0
-10911 523 0
-10912 -82 0
-10912 373 0
-10913 -83 0
-10913 372 0
-393 10911 10912 10913 0
-10914 -44 0
-10914 538 0
-10915 -88 0
-10915 379 0
-10916 -89 0
-10916 378 0
-393 10914 10915 10916 0
-10917 -45 0
-10917 548 0
-10918 -93 0
-10918 384 0
-10919 -94 0
-10919 383 0
-393 10917 10918 10919 0
-10920 -46 0
-10920 554 0
-10921 -97 0
-10921 388 0
-10922 -98 0
-10922 387 0
-393 10920 10921 10922 0
-10923 -47 0
-10923 557 0
-10924 -100 0
-10924 391 0
-10925 -101 0
-10925 390 0
-393 10923 10924 10925 0
-10926 -50 0
-10926 560 0
-10927 -104 0
-10927 395 0
-10928 -105 0
-10928 394 0
-393 10926 10927 10928 0
-10929 -3 0
-10929 195 0
-10930 -12 0
-10930 141 0
-10931 -14 0
-10931 139 0
-394 10929 10930 10931 0
-10932 -16 0
-10932 273 0
-10933 -25 0
-10933 219 0
-10934 -27 0
-10934 217 0
-394 10932 10933 10934 0
-10935 -28 0
-10935 339 0
-10936 -37 0
-10936 285 0
-10937 -39 0
-10937 283 0
-394 10935 10936 10937 0
-10938 -40 0
-10938 439 0
-10939 -58 0
-10939 350 0
-10940 -60 0
-10940 348 0
-394 10938 10939 10940 0
-10941 -41 0
-10941 475 0
-10942 -67 0
-10942 359 0
-10943 -69 0
-10943 357 0
-394 10941 10942 10943 0
-10944 -42 0
-10944 503 0
-10945 -75 0
-10945 367 0
-10946 -77 0
-10946 365 0
-394 10944 10945 10946 0
-10947 -43 0
-10947 524 0
-10948 -82 0
-10948 374 0
-10949 -84 0
-10949 372 0
-394 10947 10948 10949 0
-10950 -44 0
-10950 539 0
-10951 -88 0
-10951 380 0
-10952 -90 0
-10952 378 0
-394 10950 10951 10952 0
-10953 -45 0
-10953 549 0
-10954 -93 0
-10954 385 0
-10955 -95 0
-10955 383 0
-394 10953 10954 10955 0
-10956 -46 0
-10956 555 0
-10957 -97 0
-10957 389 0
-10958 -99 0
-10958 387 0
-394 10956 10957 10958 0
-10959 -47 0
-10959 558 0
-10960 -100 0
-10960 392 0
-10961 -102 0
-10961 390 0
-394 10959 10960 10961 0
-10962 -49 0
-10962 560 0
-10963 -103 0
-10963 395 0
-10964 -105 0
-10964 393 0
-394 10962 10963 10964 0
-10965 -3 0
-10965 196 0
-10966 -13 0
-10966 141 0
-10967 -14 0
-10967 140 0
-395 10965 10966 10967 0
-10968 -16 0
-10968 274 0
-10969 -26 0
-10969 219 0
-10970 -27 0
-10970 218 0
-395 10968 10969 10970 0
-10971 -28 0
-10971 340 0
-10972 -38 0
-10972 285 0
-10973 -39 0
-10973 284 0
-395 10971 10972 10973 0
-10974 -40 0
-10974 440 0
-10975 -59 0
-10975 350 0
-10976 -60 0
-10976 349 0
-395 10974 10975 10976 0
-10977 -41 0
-10977 476 0
-10978 -68 0
-10978 359 0
-10979 -69 0
-10979 358 0
-395 10977 10978 10979 0
-10980 -42 0
-10980 504 0
-10981 -76 0
-10981 367 0
-10982 -77 0
-10982 366 0
-395 10980 10981 10982 0
-10983 -43 0
-10983 525 0
-10984 -83 0
-10984 374 0
-10985 -84 0
-10985 373 0
-395 10983 10984 10985 0
-10986 -44 0
-10986 540 0
-10987 -89 0
-10987 380 0
-10988 -90 0
-10988 379 0
-395 10986 10987 10988 0
-10989 -45 0
-10989 550 0
-10990 -94 0
-10990 385 0
-10991 -95 0
-10991 384 0
-395 10989 10990 10991 0
-10992 -46 0
-10992 556 0
-10993 -98 0
-10993 389 0
-10994 -99 0
-10994 388 0
-395 10992 10993 10994 0
-10995 -47 0
-10995 559 0
-10996 -101 0
-10996 392 0
-10997 -102 0
-10997 391 0
-395 10995 10996 10997 0
-10998 -48 0
-10998 560 0
-10999 -103 0
-10999 394 0
-11000 -104 0
-11000 393 0
-395 10998 10999 11000 0
-11001 -4 0
-11001 152 0
-11002 -5 0
-11002 143 0
-11003 -6 0
-11003 142 0
-396 11001 11002 11003 0
-11004 -17 0
-11004 230 0
-11005 -18 0
-11005 221 0
-11006 -19 0
-11006 220 0
-396 11004 11005 11006 0
-11007 -29 0
-11007 296 0
-11008 -30 0
-11008 287 0
-11009 -31 0
-11009 286 0
-396 11007 11008 11009 0
-11010 -40 0
-11010 351 0
-11011 -41 0
-11011 342 0
-11012 -42 0
-11012 341 0
-396 11010 11011 11012 0
-11013 -53 0
-11013 441 0
-11014 -62 0
-11014 405 0
-11015 -70 0
-11015 397 0
-396 11013 11014 11015 0
-11016 -54 0
-11016 442 0
-11017 -63 0
-11017 406 0
-11018 -71 0
-11018 398 0
-396 11016 11017 11018 0
-11019 -55 0
-11019 443 0
-11020 -64 0
-11020 407 0
-11021 -72 0
-11021 399 0
-396 11019 11020 11021 0
-11022 -56 0
-11022 444 0
-11023 -65 0
-11023 408 0
-11024 -73 0
-11024 400 0
-396 11022 11023 11024 0
-11025 -57 0
-11025 445 0
-11026 -66 0
-11026 409 0
-11027 -74 0
-11027 401 0
-396 11025 11026 11027 0
-11028 -58 0
-11028 446 0
-11029 -67 0
-11029 410 0
-11030 -75 0
-11030 402 0
-396 11028 11029 11030 0
-11031 -59 0
-11031 447 0
-11032 -68 0
-11032 411 0
-11033 -76 0
-11033 403 0
-396 11031 11032 11033 0
-11034 -60 0
-11034 448 0
-11035 -69 0
-11035 412 0
-11036 -77 0
-11036 404 0
-396 11034 11035 11036 0
-11037 -4 0
-11037 153 0
-11038 -5 0
-11038 144 0
-11039 -7 0
-11039 142 0
-397 11037 11038 11039 0
-11040 -17 0
-11040 231 0
-11041 -18 0
-11041 222 0
-11042 -20 0
-11042 220 0
-397 11040 11041 11042 0
-11043 -29 0
-11043 297 0
-11044 -30 0
-11044 288 0
-11045 -32 0
-11045 286 0
-397 11043 11044 11045 0
-11046 -40 0
-11046 352 0
-11047 -41 0
-11047 343 0
-11048 -43 0
-11048 341 0
-397 11046 11047 11048 0
-11049 -52 0
-11049 441 0
-11050 -61 0
-11050 405 0
-11051 -70 0
-11051 396 0
-397 11049 11050 11051 0
-11052 -54 0
-11052 449 0
-11053 -63 0
-11053 413 0
-11054 -78 0
-11054 398 0
-397 11052 11053 11054 0
-11055 -55 0
-11055 450 0
-11056 -64 0
-11056 414 0
-11057 -79 0
-11057 399 0
-397 11055 11056 11057 0
-11058 -56 0
-11058 451 0
-11059 -65 0
-11059 415 0
-11060 -80 0
-11060 400 0
-397 11058 11059 11060 0
-11061 -57 0
-11061 452 0
-11062 -66 0
-11062 416 0
-11063 -81 0
-11063 401 0
-397 11061 11062 11063 0
-11064 -58 0
-11064 453 0
-11065 -67 0
-11065 417 0
-11066 -82 0
-11066 402 0
-397 11064 11065 11066 0
-11067 -59 0
-11067 454 0
-11068 -68 0
-11068 418 0
-11069 -83 0
-11069 403 0
-397 11067 11068 11069 0
-11070 -60 0
-11070 455 0
-11071 -69 0
-11071 419 0
-11072 -84 0
-11072 404 0
-397 11070 11071 11072 0
-11073 -4 0
-11073 154 0
-11074 -5 0
-11074 145 0
-11075 -8 0
-11075 142 0
-398 11073 11074 11075 0
-11076 -17 0
-11076 232 0
-11077 -18 0
-11077 223 0
-11078 -21 0
-11078 220 0
-398 11076 11077 11078 0
-11079 -29 0
-11079 298 0
-11080 -30 0
-11080 289 0
-11081 -33 0
-11081 286 0
-398 11079 11080 11081 0
-11082 -40 0
-11082 353 0
-11083 -41 0
-11083 344 0
-11084 -44 0
-11084 341 0
-398 11082 11083 11084 0
-11085 -52 0
-11085 442 0
-11086 -61 0
-11086 406 0
-11087 -71 0
-11087 396 0
-398 11085 11086 11087 0
-11088 -53 0
-11088 449 0
-11089 -62 0
-11089 413 0
-11090 -78 0
-11090 397 0
-398 11088 11089 11090 0
-11091 -55 0
-11091 456 0
-11092 -64 0
-11092 420 0
-11093 -85 0
-11093 399 0
-398 11091 11092 11093 0
-11094 -56 0
-11094 457 0
-11095 -65 0
-11095 421 0
-11096 -86 0
-11096 400 0
-398 11094 11095 11096 0
-11097 -57 0
-11097 458 0
-11098 -66 0
-11098 422 0
-11099 -87 0
-11099 401 0
-398 11097 11098 11099 0
-11100 -58 0
-11100 459 0
-11101 -67 0
-11101 423 0
-11102 -88 0
-11102 402 0
-398 11100 11101 11102 0
-11103 -59 0
-11103 460 0
-11104 -68 0
-11104 424 0
-11105 -89 0
-11105 403 0
-398 11103 11104 11105 0
-11106 -60 0
-11106 461 0
-11107 -69 0
-11107 425 0
-11108 -90 0
-11108 404 0
-398 11106 11107 11108 0
-11109 -4 0
-11109 155 0
-11110 -5 0
-11110 146 0
-11111 -9 0
-11111 142 0
-399 11109 11110 11111 0
-11112 -17 0
-11112 233 0
-11113 -18 0
-11113 224 0
-11114 -22 0
-11114 220 0
-399 11112 11113 11114 0
-11115 -29 0
-11115 299 0
-11116 -30 0
-11116 290 0
-11117 -34 0
-11117 286 0
-399 11115 11116 11117 0
-11118 -40 0
-11118 354 0
-11119 -41 0
-11119 345 0
-11120 -45 0
-11120 341 0
-399 11118 11119 11120 0
-11121 -52 0
-11121 443 0
-11122 -61 0
-11122 407 0
-11123 -72 0
-11123 396 0
-399 11121 11122 11123 0
-11124 -53 0
-11124 450 0
-11125 -62 0
-11125 414 0
-11126 -79 0
-11126 397 0
-399 11124 11125 11126 0
-11127 -54 0
-11127 456 0
-11128 -63 0
-11128 420 0
-11129 -85 0
-11129 398 0
-399 11127 11128 11129 0
-11130 -56 0
-11130 462 0
-11131 -65 0
-11131 426 0
-11132 -91 0
-11132 400 0
-399 11130 11131 11132 0
-11133 -57 0
-11133 463 0
-11134 -66 0
-11134 427 0
-11135 -92 0
-11135 401 0
-399 11133 11134 11135 0
-11136 -58 0
-11136 464 0
-11137 -67 0
-11137 428 0
-11138 -93 0
-11138 402 0
-399 11136 11137 11138 0
-11139 -59 0
-11139 465 0
-11140 -68 0
-11140 429 0
-11141 -94 0
-11141 403 0
-399 11139 11140 11141 0
-11142 -60 0
-11142 466 0
-11143 -69 0
-11143 430 0
-11144 -95 0
-11144 404 0
-399 11142 11143 11144 0
-11145 -4 0
-11145 156 0
-11146 -5 0
-11146 147 0
-11147 -10 0
-11147 142 0
-400 11145 11146 11147 0
-11148 -17 0
-11148 234 0
-11149 -18 0
-11149 225 0
-11150 -23 0
-11150 220 0
-400 11148 11149 11150 0
-11151 -29 0
-11151 300 0
-11152 -30 0
-11152 291 0
-11153 -35 0
-11153 286 0
-400 11151 11152 11153 0
-11154 -40 0
-11154 355 0
-11155 -41 0
-11155 346 0
-11156 -46 0
-11156 341 0
-400 11154 11155 11156 0
-11157 -52 0
-11157 444 0
-11158 -61 0
-11158 408 0
-11159 -73 0
-11159 396 0
-400 11157 11158 11159 0
-11160 -53 0
-11160 451 0
-11161 -62 0
-11161 415 0
-11162 -80 0
-11162 397 0
-400 11160 11161 11162 0
-11163 -54 0
-11163 457 0
-11164 -63 0
-11164 421 0
-11165 -86 0
-11165 398 0
-400 11163 11164 11165 0
-11166 -55 0
-11166 462 0
-11167 -64 0
-11167 426 0
-11168 -91 0
-11168 399 0
-400 11166 11167 11168 0
-11169 -57 0
-11169 467 0
-11170 -66 0
-11170 431 0
-11171 -96 0
-11171 401 0
-400 11169 11170 11171 0
-11172 -58 0
-11172 468 0
-11173 -67 0
-11173 432 0
-11174 -97 0
-11174 402 0
-400 11172 11173 11174 0
-11175 -59 0
-11175 469 0
-11176 -68 0
-11176 433 0
-11177 -98 0
-11177 403 0
-400 11175 11176 11177 0
-11178 -60 0
-11178 470 0
-11179 -69 0
-11179 434 0
-11180 -99 0
-11180 404 0
-400 11178 11179 11180 0
-11181 -4 0
-11181 157 0
-11182 -5 0
-11182 148 0
-11183 -11 0
-11183 142 0
-401 11181 11182 11183 0
-11184 -17 0
-11184 235 0
-11185 -18 0
-11185 226 0
-11186 -24 0
-11186 220 0
-401 11184 11185 11186 0
-11187 -29 0
-11187 301 0
-11188 -30 0
-11188 292 0
-11189 -36 0
-11189 286 0
-401 11187 11188 11189 0
-11190 -40 0
-11190 356 0
-11191 -41 0
-11191 347 0
-11192 -47 0
-11192 341 0
-401 11190 11191 11192 0
-11193 -52 0
-11193 445 0
-11194 -61 0
-11194 409 0
-11195 -74 0
-11195 396 0
-401 11193 11194 11195 0
-11196 -53 0
-11196 452 0
-11197 -62 0
-11197 416 0
-11198 -81 0
-11198 397 0
-401 11196 11197 11198 0
-11199 -54 0
-11199 458 0
-11200 -63 0
-11200 422 0
-11201 -87 0
-11201 398 0
-401 11199 11200 11201 0
-11202 -55 0
-11202 463 0
-11203 -64 0
-11203 427 0
-11204 -92 0
-11204 399 0
-401 11202 11203 11204 0
-11205 -56 0
-11205 467 0
-11206 -65 0
-11206 431 0
-11207 -96 0
-11207 400 0
-401 11205 11206 11207 0
-11208 -58 0
-11208 471 0
-11209 -67 0
-11209 435 0
-11210 -100 0
-11210 402 0
-401 11208 11209 11210 0
-11211 -59 0
-11211 472 0
-11212 -68 0
-11212 436 0
-11213 -101 0
-11213 403 0
-401 11211 11212 11213 0
-11214 -60 0
-11214 473 0
-11215 -69 0
-11215 437 0
-11216 -102 0
-11216 404 0
-401 11214 11215 11216 0
-11217 -4 0
-11217 158 0
-11218 -5 0
-11218 149 0
-11219 -12 0
-11219 142 0
-402 11217 11218 11219 0
-11220 -17 0
-11220 236 0
-11221 -18 0
-11221 227 0
-11222 -25 0
-11222 220 0
-402 11220 11221 11222 0
-11223 -29 0
-11223 302 0
-11224 -30 0
-11224 293 0
-11225 -37 0
-11225 286 0
-402 11223 11224 11225 0
-11226 -40 0
-11226 357 0
-11227 -41 0
-11227 348 0
-11228 -48 0
-11228 341 0
-402 11226 11227 11228 0
-11229 -52 0
-11229 446 0
-11230 -61 0
-11230 410 0
-11231 -75 0
-11231 396 0
-402 11229 11230 11231 0
-11232 -53 0
-11232 453 0
-11233 -62 0
-11233 417 0
-11234 -82 0
-11234 397 0
-402 11232 11233 11234 0
-11235 -54 0
-11235 459 0
-11236 -63 0
-11236 423 0
-11237 -88 0
-11237 398 0
-402 11235 11236 11237 0
-11238 -55 0
-11238 464 0
-11239 -64 0
-11239 428 0
-11240 -93 0
-11240 399 0
-402 11238 11239 11240 0
-11241 -56 0
-11241 468 0
-11242 -65 0
-11242 432 0
-11243 -97 0
-11243 400 0
-402 11241 11242 11243 0
-11244 -57 0
-11244 471 0
-11245 -66 0
-11245 435 0
-11246 -100 0
-11246 401 0
-402 11244 11245 11246 0
-11247 -59 0
-11247 474 0
-11248 -68 0
-11248 438 0
-11249 -103 0
-11249 403 0
-402 11247 11248 11249 0
-11250 -60 0
-11250 475 0
-11251 -69 0
-11251 439 0
-11252 -104 0
-11252 404 0
-402 11250 11251 11252 0
-11253 -4 0
-11253 159 0
-11254 -5 0
-11254 150 0
-11255 -13 0
-11255 142 0
-403 11253 11254 11255 0
-11256 -17 0
-11256 237 0
-11257 -18 0
-11257 228 0
-11258 -26 0
-11258 220 0
-403 11256 11257 11258 0
-11259 -29 0
-11259 303 0
-11260 -30 0
-11260 294 0
-11261 -38 0
-11261 286 0
-403 11259 11260 11261 0
-11262 -40 0
-11262 358 0
-11263 -41 0
-11263 349 0
-11264 -49 0
-11264 341 0
-403 11262 11263 11264 0
-11265 -52 0
-11265 447 0
-11266 -61 0
-11266 411 0
-11267 -76 0
-11267 396 0
-403 11265 11266 11267 0
-11268 -53 0
-11268 454 0
-11269 -62 0
-11269 418 0
-11270 -83 0
-11270 397 0
-403 11268 11269 11270 0
-11271 -54 0
-11271 460 0
-11272 -63 0
-11272 424 0
-11273 -89 0
-11273 398 0
-403 11271 11272 11273 0
-11274 -55 0
-11274 465 0
-11275 -64 0
-11275 429 0
-11276 -94 0
-11276 399 0
-403 11274 11275 11276 0
-11277 -56 0
-11277 469 0
-11278 -65 0
-11278 433 0
-11279 -98 0
-11279 400 0
-403 11277 11278 11279 0
-11280 -57 0
-11280 472 0
-11281 -66 0
-11281 436 0
-11282 -101 0
-11282 401 0
-403 11280 11281 11282 0
-11283 -58 0
-11283 474 0
-11284 -67 0
-11284 438 0
-11285 -103 0
-11285 402 0
-403 11283 11284 11285 0
-11286 -60 0
-11286 476 0
-11287 -69 0
-11287 440 0
-11288 -105 0
-11288 404 0
-403 11286 11287 11288 0
-11289 -4 0
-11289 160 0
-11290 -5 0
-11290 151 0
-11291 -14 0
-11291 142 0
-404 11289 11290 11291 0
-11292 -17 0
-11292 238 0
-11293 -18 0
-11293 229 0
-11294 -27 0
-11294 220 0
-404 11292 11293 11294 0
-11295 -29 0
-11295 304 0
-11296 -30 0
-11296 295 0
-11297 -39 0
-11297 286 0
-404 11295 11296 11297 0
-11298 -40 0
-11298 359 0
-11299 -41 0
-11299 350 0
-11300 -50 0
-11300 341 0
-404 11298 11299 11300 0
-11301 -52 0
-11301 448 0
-11302 -61 0
-11302 412 0
-11303 -77 0
-11303 396 0
-404 11301 11302 11303 0
-11304 -53 0
-11304 455 0
-11305 -62 0
-11305 419 0
-11306 -84 0
-11306 397 0
-404 11304 11305 11306 0
-11307 -54 0
-11307 461 0
-11308 -63 0
-11308 425 0
-11309 -90 0
-11309 398 0
-404 11307 11308 11309 0
-11310 -55 0
-11310 466 0
-11311 -64 0
-11311 430 0
-11312 -95 0
-11312 399 0
-404 11310 11311 11312 0
-11313 -56 0
-11313 470 0
-11314 -65 0
-11314 434 0
-11315 -99 0
-11315 400 0
-404 11313 11314 11315 0
-11316 -57 0
-11316 473 0
-11317 -66 0
-11317 437 0
-11318 -102 0
-11318 401 0
-404 11316 11317 11318 0
-11319 -58 0
-11319 475 0
-11320 -67 0
-11320 439 0
-11321 -104 0
-11321 402 0
-404 11319 11320 11321 0
-11322 -59 0
-11322 476 0
-11323 -68 0
-11323 440 0
-11324 -105 0
-11324 403 0
-404 11322 11323 11324 0
-11325 -4 0
-11325 161 0
-11326 -6 0
-11326 144 0
-11327 -7 0
-11327 143 0
-405 11325 11326 11327 0
-11328 -17 0
-11328 239 0
-11329 -19 0
-11329 222 0
-11330 -20 0
-11330 221 0
-405 11328 11329 11330 0
-11331 -29 0
-11331 305 0
-11332 -31 0
-11332 288 0
-11333 -32 0
-11333 287 0
-405 11331 11332 11333 0
-11334 -40 0
-11334 360 0
-11335 -42 0
-11335 343 0
-11336 -43 0
-11336 342 0
-405 11334 11335 11336 0
-11337 -51 0
-11337 441 0
-11338 -61 0
-11338 397 0
-11339 -62 0
-11339 396 0
-405 11337 11338 11339 0
-11340 -54 0
-11340 477 0
-11341 -71 0
-11341 413 0
-11342 -78 0
-11342 406 0
-405 11340 11341 11342 0
-11343 -55 0
-11343 478 0
-11344 -72 0
-11344 414 0
-11345 -79 0
-11345 407 0
-405 11343 11344 11345 0
-11346 -56 0
-11346 479 0
-11347 -73 0
-11347 415 0
-11348 -80 0
-11348 408 0
-405 11346 11347 11348 0
-11349 -57 0
-11349 480 0
-11350 -74 0
-11350 416 0
-11351 -81 0
-11351 409 0
-405 11349 11350 11351 0
-11352 -58 0
-11352 481 0
-11353 -75 0
-11353 417 0
-11354 -82 0
-11354 410 0
-405 11352 11353 11354 0
-11355 -59 0
-11355 482 0
-11356 -76 0
-11356 418 0
-11357 -83 0
-11357 411 0
-405 11355 11356 11357 0
-11358 -60 0
-11358 483 0
-11359 -77 0
-11359 419 0
-11360 -84 0
-11360 412 0
-405 11358 11359 11360 0
-11361 -4 0
-11361 162 0
-11362 -6 0
-11362 145 0
-11363 -8 0
-11363 143 0
-406 11361 11362 11363 0
-11364 -17 0
-11364 240 0
-11365 -19 0
-11365 223 0
-11366 -21 0
-11366 221 0
-406 11364 11365 11366 0
-11367 -29 0
-11367 306 0
-11368 -31 0
-11368 289 0
-11369 -33 0
-11369 287 0
-406 11367 11368 11369 0
-11370 -40 0
-11370 361 0
-11371 -42 0
-11371 344 0
-11372 -44 0
-11372 342 0
-406 11370 11371 11372 0
-11373 -51 0
-11373 442 0
-11374 -61 0
-11374 398 0
-11375 -63 0
-11375 396 0
-406 11373 11374 11375 0
-11376 -53 0
-11376 477 0
-11377 -70 0
-11377 413 0
-11378 -78 0
-11378 405 0
-406 11376 11377 11378 0
-11379 -55 0
-11379 484 0
-11380 -72 0
-11380 420 0
-11381 -85 0
-11381 407 0
-406 11379 11380 11381 0
-11382 -56 0
-11382 485 0
-11383 -73 0
-11383 421 0
-11384 -86 0
-11384 408 0
-406 11382 11383 11384 0
-11385 -57 0
-11385 486 0
-11386 -74 0
-11386 422 0
-11387 -87 0
-11387 409 0
-406 11385 11386 11387 0
-11388 -58 0
-11388 487 0
-11389 -75 0
-11389 423 0
-11390 -88 0
-11390 410 0
-406 11388 11389 11390 0
-11391 -59 0
-11391 488 0
-11392 -76 0
-11392 424 0
-11393 -89 0
-11393 411 0
-406 11391 11392 11393 0
-11394 -60 0
-11394 489 0
-11395 -77 0
-11395 425 0
-11396 -90 0
-11396 412 0
-406 11394 11395 11396 0
-11397 -4 0
-11397 163 0
-11398 -6 0
-11398 146 0
-11399 -9 0
-11399 143 0
-407 11397 11398 11399 0
-11400 -17 0
-11400 241 0
-11401 -19 0
-11401 224 0
-11402 -22 0
-11402 221 0
-407 11400 11401 11402 0
-11403 -29 0
-11403 307 0
-11404 -31 0
-11404 290 0
-11405 -34 0
-11405 287 0
-407 11403 11404 11405 0
-11406 -40 0
-11406 362 0
-11407 -42 0
-11407 345 0
-11408 -45 0
-11408 342 0
-407 11406 11407 11408 0
-11409 -51 0
-11409 443 0
-11410 -61 0
-11410 399 0
-11411 -64 0
-11411 396 0
-407 11409 11410 11411 0
-11412 -53 0
-11412 478 0
-11413 -70 0
-11413 414 0
-11414 -79 0
-11414 405 0
-407 11412 11413 11414 0
-11415 -54 0
-11415 484 0
-11416 -71 0
-11416 420 0
-11417 -85 0
-11417 406 0
-407 11415 11416 11417 0
-11418 -56 0
-11418 490 0
-11419 -73 0
-11419 426 0
-11420 -91 0
-11420 408 0
-407 11418 11419 11420 0
-11421 -57 0
-11421 491 0
-11422 -74 0
-11422 427 0
-11423 -92 0
-11423 409 0
-407 11421 11422 11423 0
-11424 -58 0
-11424 492 0
-11425 -75 0
-11425 428 0
-11426 -93 0
-11426 410 0
-407 11424 11425 11426 0
-11427 -59 0
-11427 493 0
-11428 -76 0
-11428 429 0
-11429 -94 0
-11429 411 0
-407 11427 11428 11429 0
-11430 -60 0
-11430 494 0
-11431 -77 0
-11431 430 0
-11432 -95 0
-11432 412 0
-407 11430 11431 11432 0
-11433 -4 0
-11433 164 0
-11434 -6 0
-11434 147 0
-11435 -10 0
-11435 143 0
-408 11433 11434 11435 0
-11436 -17 0
-11436 242 0
-11437 -19 0
-11437 225 0
-11438 -23 0
-11438 221 0
-408 11436 11437 11438 0
-11439 -29 0
-11439 308 0
-11440 -31 0
-11440 291 0
-11441 -35 0
-11441 287 0
-408 11439 11440 11441 0
-11442 -40 0
-11442 363 0
-11443 -42 0
-11443 346 0
-11444 -46 0
-11444 342 0
-408 11442 11443 11444 0
-11445 -51 0
-11445 444 0
-11446 -61 0
-11446 400 0
-11447 -65 0
-11447 396 0
-408 11445 11446 11447 0
-11448 -53 0
-11448 479 0
-11449 -70 0
-11449 415 0
-11450 -80 0
-11450 405 0
-408 11448 11449 11450 0
-11451 -54 0
-11451 485 0
-11452 -71 0
-11452 421 0
-11453 -86 0
-11453 406 0
-408 11451 11452 11453 0
-11454 -55 0
-11454 490 0
-11455 -72 0
-11455 426 0
-11456 -91 0
-11456 407 0
-408 11454 11455 11456 0
-11457 -57 0
-11457 495 0
-11458 -74 0
-11458 431 0
-11459 -96 0
-11459 409 0
-408 11457 11458 11459 0
-11460 -58 0
-11460 496 0
-11461 -75 0
-11461 432 0
-11462 -97 0
-11462 410 0
-408 11460 11461 11462 0
-11463 -59 0
-11463 497 0
-11464 -76 0
-11464 433 0
-11465 -98 0
-11465 411 0
-408 11463 11464 11465 0
-11466 -60 0
-11466 498 0
-11467 -77 0
-11467 434 0
-11468 -99 0
-11468 412 0
-408 11466 11467 11468 0
-11469 -4 0
-11469 165 0
-11470 -6 0
-11470 148 0
-11471 -11 0
-11471 143 0
-409 11469 11470 11471 0
-11472 -17 0
-11472 243 0
-11473 -19 0
-11473 226 0
-11474 -24 0
-11474 221 0
-409 11472 11473 11474 0
-11475 -29 0
-11475 309 0
-11476 -31 0
-11476 292 0
-11477 -36 0
-11477 287 0
-409 11475 11476 11477 0
-11478 -40 0
-11478 364 0
-11479 -42 0
-11479 347 0
-11480 -47 0
-11480 342 0
-409 11478 11479 11480 0
-11481 -51 0
-11481 445 0
-11482 -61 0
-11482 401 0
-11483 -66 0
-11483 396 0
-409 11481 11482 11483 0
-11484 -53 0
-11484 480 0
-11485 -70 0
-11485 416 0
-11486 -81 0
-11486 405 0
-409 11484 11485 11486 0
-11487 -54 0
-11487 486 0
-11488 -71 0
-11488 422 0
-11489 -87 0
-11489 406 0
-409 11487 11488 11489 0
-11490 -55 0
-11490 491 0
-11491 -72 0
-11491 427 0
-11492 -92 0
-11492 407 0
-409 11490 11491 11492 0
-11493 -56 0
-11493 495 0
-11494 -73 0
-11494 431 0
-11495 -96 0
-11495 408 0
-409 11493 11494 11495 0
-11496 -58 0
-11496 499 0
-11497 -75 0
-11497 435 0
-11498 -100 0
-11498 410 0
-409 11496 11497 11498 0
-11499 -59 0
-11499 500 0
-11500 -76 0
-11500 436 0
-11501 -101 0
-11501 411 0
-409 11499 11500 11501 0
-11502 -60 0
-11502 501 0
-11503 -77 0
-11503 437 0
-11504 -102 0
-11504 412 0
-409 11502 11503 11504 0
-11505 -4 0
-11505 166 0
-11506 -6 0
-11506 149 0
-11507 -12 0
-11507 143 0
-410 11505 11506 11507 0
-11508 -17 0
-11508 244 0
-11509 -19 0
-11509 227 0
-11510 -25 0
-11510 221 0
-410 11508 11509 11510 0
-11511 -29 0
-11511 310 0
-11512 -31 0
-11512 293 0
-11513 -37 0
-11513 287 0
-410 11511 11512 11513 0
-11514 -40 0
-11514 365 0
-11515 -42 0
-11515 348 0
-11516 -48 0
-11516 342 0
-410 11514 11515 11516 0
-11517 -51 0
-11517 446 0
-11518 -61 0
-11518 402 0
-11519 -67 0
-11519 396 0
-410 11517 11518 11519 0
-11520 -53 0
-11520 481 0
-11521 -70 0
-11521 417 0
-11522 -82 0
-11522 405 0
-410 11520 11521 11522 0
-11523 -54 0
-11523 487 0
-11524 -71 0
-11524 423 0
-11525 -88 0
-11525 406 0
-410 11523 11524 11525 0
-11526 -55 0
-11526 492 0
-11527 -72 0
-11527 428 0
-11528 -93 0
-11528 407 0
-410 11526 11527 11528 0
-11529 -56 0
-11529 496 0
-11530 -73 0
-11530 432 0
-11531 -97 0
-11531 408 0
-410 11529 11530 11531 0
-11532 -57 0
-11532 499 0
-11533 -74 0
-11533 435 0
-11534 -100 0
-11534 409 0
-410 11532 11533 11534 0
-11535 -59 0
-11535 502 0
-11536 -76 0
-11536 438 0
-11537 -103 0
-11537 411 0
-410 11535 11536 11537 0
-11538 -60 0
-11538 503 0
-11539 -77 0
-11539 439 0
-11540 -104 0
-11540 412 0
-410 11538 11539 11540 0
-11541 -4 0
-11541 167 0
-11542 -6 0
-11542 150 0
-11543 -13 0
-11543 143 0
-411 11541 11542 11543 0
-11544 -17 0
-11544 245 0
-11545 -19 0
-11545 228 0
-11546 -26 0
-11546 221 0
-411 11544 11545 11546 0
-11547 -29 0
-11547 311 0
-11548 -31 0
-11548 294 0
-11549 -38 0
-11549 287 0
-411 11547 11548 11549 0
-11550 -40 0
-11550 366 0
-11551 -42 0
-11551 349 0
-11552 -49 0
-11552 342 0
-411 11550 11551 11552 0
-11553 -51 0
-11553 447 0
-11554 -61 0
-11554 403 0
-11555 -68 0
-11555 396 0
-411 11553 11554 11555 0
-11556 -53 0
-11556 482 0
-11557 -70 0
-11557 418 0
-11558 -83 0
-11558 405 0
-411 11556 11557 11558 0
-11559 -54 0
-11559 488 0
-11560 -71 0
-11560 424 0
-11561 -89 0
-11561 406 0
-411 11559 11560 11561 0
-11562 -55 0
-11562 493 0
-11563 -72 0
-11563 429 0
-11564 -94 0
-11564 407 0
-411 11562 11563 11564 0
-11565 -56 0
-11565 497 0
-11566 -73 0
-11566 433 0
-11567 -98 0
-11567 408 0
-411 11565 11566 11567 0
-11568 -57 0
-11568 500 0
-11569 -74 0
-11569 436 0
-11570 -101 0
-11570 409 0
-411 11568 11569 11570 0
-11571 -58 0
-11571 502 0
-11572 -75 0
-11572 438 0
-11573 -103 0
-11573 410 0
-411 11571 11572 11573 0
-11574 -60 0
-11574 504 0
-11575 -77 0
-11575 440 0
-11576 -105 0
-11576 412 0
-411 11574 11575 11576 0
-11577 -4 0
-11577 168 0
-11578 -6 0
-11578 151 0
-11579 -14 0
-11579 143 0
-412 11577 11578 11579 0
-11580 -17 0
-11580 246 0
-11581 -19 0
-11581 229 0
-11582 -27 0
-11582 221 0
-412 11580 11581 11582 0
-11583 -29 0
-11583 312 0
-11584 -31 0
-11584 295 0
-11585 -39 0
-11585 287 0
-412 11583 11584 11585 0
-11586 -40 0
-11586 367 0
-11587 -42 0
-11587 350 0
-11588 -50 0
-11588 342 0
-412 11586 11587 11588 0
-11589 -51 0
-11589 448 0
-11590 -61 0
-11590 404 0
-11591 -69 0
-11591 396 0
-412 11589 11590 11591 0
-11592 -53 0
-11592 483 0
-11593 -70 0
-11593 419 0
-11594 -84 0
-11594 405 0
-412 11592 11593 11594 0
-11595 -54 0
-11595 489 0
-11596 -71 0
-11596 425 0
-11597 -90 0
-11597 406 0
-412 11595 11596 11597 0
-11598 -55 0
-11598 494 0
-11599 -72 0
-11599 430 0
-11600 -95 0
-11600 407 0
-412 11598 11599 11600 0
-11601 -56 0
-11601 498 0
-11602 -73 0
-11602 434 0
-11603 -99 0
-11603 408 0
-412 11601 11602 11603 0
-11604 -57 0
-11604 501 0
-11605 -74 0
-11605 437 0
-11606 -102 0
-11606 409 0
-412 11604 11605 11606 0
-11607 -58 0
-11607 503 0
-11608 -75 0
-11608 439 0
-11609 -104 0
-11609 410 0
-412 11607 11608 11609 0
-11610 -59 0
-11610 504 0
-11611 -76 0
-11611 440 0
-11612 -105 0
-11612 411 0
-412 11610 11611 11612 0
-11613 -4 0
-11613 169 0
-11614 -7 0
-11614 145 0
-11615 -8 0
-11615 144 0
-413 11613 11614 11615 0
-11616 -17 0
-11616 247 0
-11617 -20 0
-11617 223 0
-11618 -21 0
-11618 222 0
-413 11616 11617 11618 0
-11619 -29 0
-11619 313 0
-11620 -32 0
-11620 289 0
-11621 -33 0
-11621 288 0
-413 11619 11620 11621 0
-11622 -40 0
-11622 368 0
-11623 -43 0
-11623 344 0
-11624 -44 0
-11624 343 0
-413 11622 11623 11624 0
-11625 -51 0
-11625 449 0
-11626 -62 0
-11626 398 0
-11627 -63 0
-11627 397 0
-413 11625 11626 11627 0
-11628 -52 0
-11628 477 0
-11629 -70 0
-11629 406 0
-11630 -71 0
-11630 405 0
-413 11628 11629 11630 0
-11631 -55 0
-11631 505 0
-11632 -79 0
-11632 420 0
-11633 -85 0
-11633 414 0
-413 11631 11632 11633 0
-11634 -56 0
-11634 506 0
-11635 -80 0
-11635 421 0
-11636 -86 0
-11636 415 0
-413 11634 11635 11636 0
-11637 -57 0
-11637 507 0
-11638 -81 0
-11638 422 0
-11639 -87 0
-11639 416 0
-413 11637 11638 11639 0
-11640 -58 0
-11640 508 0
-11641 -82 0
-11641 423 0
-11642 -88 0
-11642 417 0
-413 11640 11641 11642 0
-11643 -59 0
-11643 509 0
-11644 -83 0
-11644 424 0
-11645 -89 0
-11645 418 0
-413 11643 11644 11645 0
-11646 -60 0
-11646 510 0
-11647 -84 0
-11647 425 0
-11648 -90 0
-11648 419 0
-413 11646 11647 11648 0
-11649 -4 0
-11649 170 0
-11650 -7 0
-11650 146 0
-11651 -9 0
-11651 144 0
-414 11649 11650 11651 0
-11652 -17 0
-11652 248 0
-11653 -20 0
-11653 224 0
-11654 -22 0
-11654 222 0
-414 11652 11653 11654 0
-11655 -29 0
-11655 314 0
-11656 -32 0
-11656 290 0
-11657 -34 0
-11657 288 0
-414 11655 11656 11657 0
-11658 -40 0
-11658 369 0
-11659 -43 0
-11659 345 0
-11660 -45 0
-11660 343 0
-414 11658 11659 11660 0
-11661 -51 0
-11661 450 0
-11662 -62 0
-11662 399 0
-11663 -64 0
-11663 397 0
-414 11661 11662 11663 0
-11664 -52 0
-11664 478 0
-11665 -70 0
-11665 407 0
-11666 -72 0
-11666 405 0
-414 11664 11665 11666 0
-11667 -54 0
-11667 505 0
-11668 -78 0
-11668 420 0
-11669 -85 0
-11669 413 0
-414 11667 11668 11669 0
-11670 -56 0
-11670 511 0
-11671 -80 0
-11671 426 0
-11672 -91 0
-11672 415 0
-414 11670 11671 11672 0
-11673 -57 0
-11673 512 0
-11674 -81 0
-11674 427 0
-11675 -92 0
-11675 416 0
-414 11673 11674 11675 0
-11676 -58 0
-11676 513 0
-11677 -82 0
-11677 428 0
-11678 -93 0
-11678 417 0
-414 11676 11677 11678 0
-11679 -59 0
-11679 514 0
-11680 -83 0
-11680 429 0
-11681 -94 0
-11681 418 0
-414 11679 11680 11681 0
-11682 -60 0
-11682 515 0
-11683 -84 0
-11683 430 0
-11684 -95 0
-11684 419 0
-414 11682 11683 11684 0
-11685 -4 0
-11685 171 0
-11686 -7 0
-11686 147 0
-11687 -10 0
-11687 144 0
-415 11685 11686 11687 0
-11688 -17 0
-11688 249 0
-11689 -20 0
-11689 225 0
-11690 -23 0
-11690 222 0
-415 11688 11689 11690 0
-11691 -29 0
-11691 315 0
-11692 -32 0
-11692 291 0
-11693 -35 0
-11693 288 0
-415 11691 11692 11693 0
-11694 -40 0
-11694 370 0
-11695 -43 0
-11695 346 0
-11696 -46 0
-11696 343 0
-415 11694 11695 11696 0
-11697 -51 0
-11697 451 0
-11698 -62 0
-11698 400 0
-11699 -65 0
-11699 397 0
-415 11697 11698 11699 0
-11700 -52 0
-11700 479 0
-11701 -70 0
-11701 408 0
-11702 -73 0
-11702 405 0
-415 11700 11701 11702 0
-11703 -54 0
-11703 506 0
-11704 -78 0
-11704 421 0
-11705 -86 0
-11705 413 0
-415 11703 11704 11705 0
-11706 -55 0
-11706 511 0
-11707 -79 0
-11707 426 0
-11708 -91 0
-11708 414 0
-415 11706 11707 11708 0
-11709 -57 0
-11709 516 0
-11710 -81 0
-11710 431 0
-11711 -96 0
-11711 416 0
-415 11709 11710 11711 0
-11712 -58 0
-11712 517 0
-11713 -82 0
-11713 432 0
-11714 -97 0
-11714 417 0
-415 11712 11713 11714 0
-11715 -59 0
-11715 518 0
-11716 -83 0
-11716 433 0
-11717 -98 0
-11717 418 0
-415 11715 11716 11717 0
-11718 -60 0
-11718 519 0
-11719 -84 0
-11719 434 0
-11720 -99 0
-11720 419 0
-415 11718 11719 11720 0
-11721 -4 0
-11721 172 0
-11722 -7 0
-11722 148 0
-11723 -11 0
-11723 144 0
-416 11721 11722 11723 0
-11724 -17 0
-11724 250 0
-11725 -20 0
-11725 226 0
-11726 -24 0
-11726 222 0
-416 11724 11725 11726 0
-11727 -29 0
-11727 316 0
-11728 -32 0
-11728 292 0
-11729 -36 0
-11729 288 0
-416 11727 11728 11729 0
-11730 -40 0
-11730 371 0
-11731 -43 0
-11731 347 0
-11732 -47 0
-11732 343 0
-416 11730 11731 11732 0
-11733 -51 0
-11733 452 0
-11734 -62 0
-11734 401 0
-11735 -66 0
-11735 397 0
-416 11733 11734 11735 0
-11736 -52 0
-11736 480 0
-11737 -70 0
-11737 409 0
-11738 -74 0
-11738 405 0
-416 11736 11737 11738 0
-11739 -54 0
-11739 507 0
-11740 -78 0
-11740 422 0
-11741 -87 0
-11741 413 0
-416 11739 11740 11741 0
-11742 -55 0
-11742 512 0
-11743 -79 0
-11743 427 0
-11744 -92 0
-11744 414 0
-416 11742 11743 11744 0
-11745 -56 0
-11745 516 0
-11746 -80 0
-11746 431 0
-11747 -96 0
-11747 415 0
-416 11745 11746 11747 0
-11748 -58 0
-11748 520 0
-11749 -82 0
-11749 435 0
-11750 -100 0
-11750 417 0
-416 11748 11749 11750 0
-11751 -59 0
-11751 521 0
-11752 -83 0
-11752 436 0
-11753 -101 0
-11753 418 0
-416 11751 11752 11753 0
-11754 -60 0
-11754 522 0
-11755 -84 0
-11755 437 0
-11756 -102 0
-11756 419 0
-416 11754 11755 11756 0
-11757 -4 0
-11757 173 0
-11758 -7 0
-11758 149 0
-11759 -12 0
-11759 144 0
-417 11757 11758 11759 0
-11760 -17 0
-11760 251 0
-11761 -20 0
-11761 227 0
-11762 -25 0
-11762 222 0
-417 11760 11761 11762 0
-11763 -29 0
-11763 317 0
-11764 -32 0
-11764 293 0
-11765 -37 0
-11765 288 0
-417 11763 11764 11765 0
-11766 -40 0
-11766 372 0
-11767 -43 0
-11767 348 0
-11768 -48 0
-11768 343 0
-417 11766 11767 11768 0
-11769 -51 0
-11769 453 0
-11770 -62 0
-11770 402 0
-11771 -67 0
-11771 397 0
-417 11769 11770 11771 0
-11772 -52 0
-11772 481 0
-11773 -70 0
-11773 410 0
-11774 -75 0
-11774 405 0
-417 11772 11773 11774 0
-11775 -54 0
-11775 508 0
-11776 -78 0
-11776 423 0
-11777 -88 0
-11777 413 0
-417 11775 11776 11777 0
-11778 -55 0
-11778 513 0
-11779 -79 0
-11779 428 0
-11780 -93 0
-11780 414 0
-417 11778 11779 11780 0
-11781 -56 0
-11781 517 0
-11782 -80 0
-11782 432 0
-11783 -97 0
-11783 415 0
-417 11781 11782 11783 0
-11784 -57 0
-11784 520 0
-11785 -81 0
-11785 435 0
-11786 -100 0
-11786 416 0
-417 11784 11785 11786 0
-11787 -59 0
-11787 523 0
-11788 -83 0
-11788 438 0
-11789 -103 0
-11789 418 0
-417 11787 11788 11789 0
-11790 -60 0
-11790 524 0
-11791 -84 0
-11791 439 0
-11792 -104 0
-11792 419 0
-417 11790 11791 11792 0
-11793 -4 0
-11793 174 0
-11794 -7 0
-11794 150 0
-11795 -13 0
-11795 144 0
-418 11793 11794 11795 0
-11796 -17 0
-11796 252 0
-11797 -20 0
-11797 228 0
-11798 -26 0
-11798 222 0
-418 11796 11797 11798 0
-11799 -29 0
-11799 318 0
-11800 -32 0
-11800 294 0
-11801 -38 0
-11801 288 0
-418 11799 11800 11801 0
-11802 -40 0
-11802 373 0
-11803 -43 0
-11803 349 0
-11804 -49 0
-11804 343 0
-418 11802 11803 11804 0
-11805 -51 0
-11805 454 0
-11806 -62 0
-11806 403 0
-11807 -68 0
-11807 397 0
-418 11805 11806 11807 0
-11808 -52 0
-11808 482 0
-11809 -70 0
-11809 411 0
-11810 -76 0
-11810 405 0
-418 11808 11809 11810 0
-11811 -54 0
-11811 509 0
-11812 -78 0
-11812 424 0
-11813 -89 0
-11813 413 0
-418 11811 11812 11813 0
-11814 -55 0
-11814 514 0
-11815 -79 0
-11815 429 0
-11816 -94 0
-11816 414 0
-418 11814 11815 11816 0
-11817 -56 0
-11817 518 0
-11818 -80 0
-11818 433 0
-11819 -98 0
-11819 415 0
-418 11817 11818 11819 0
-11820 -57 0
-11820 521 0
-11821 -81 0
-11821 436 0
-11822 -101 0
-11822 416 0
-418 11820 11821 11822 0
-11823 -58 0
-11823 523 0
-11824 -82 0
-11824 438 0
-11825 -103 0
-11825 417 0
-418 11823 11824 11825 0
-11826 -60 0
-11826 525 0
-11827 -84 0
-11827 440 0
-11828 -105 0
-11828 419 0
-418 11826 11827 11828 0
-11829 -4 0
-11829 175 0
-11830 -7 0
-11830 151 0
-11831 -14 0
-11831 144 0
-419 11829 11830 11831 0
-11832 -17 0
-11832 253 0
-11833 -20 0
-11833 229 0
-11834 -27 0
-11834 222 0
-419 11832 11833 11834 0
-11835 -29 0
-11835 319 0
-11836 -32 0
-11836 295 0
-11837 -39 0
-11837 288 0
-419 11835 11836 11837 0
-11838 -40 0
-11838 374 0
-11839 -43 0
-11839 350 0
-11840 -50 0
-11840 343 0
-419 11838 11839 11840 0
-11841 -51 0
-11841 455 0
-11842 -62 0
-11842 404 0
-11843 -69 0
-11843 397 0
-419 11841 11842 11843 0
-11844 -52 0
-11844 483 0
-11845 -70 0
-11845 412 0
-11846 -77 0
-11846 405 0
-419 11844 11845 11846 0
-11847 -54 0
-11847 510 0
-11848 -78 0
-11848 425 0
-11849 -90 0
-11849 413 0
-419 11847 11848 11849 0
-11850 -55 0
-11850 515 0
-11851 -79 0
-11851 430 0
-11852 -95 0
-11852 414 0
-419 11850 11851 11852 0
-11853 -56 0
-11853 519 0
-11854 -80 0
-11854 434 0
-11855 -99 0
-11855 415 0
-419 11853 11854 11855 0
-11856 -57 0
-11856 522 0
-11857 -81 0
-11857 437 0
-11858 -102 0
-11858 416 0
-419 11856 11857 11858 0
-11859 -58 0
-11859 524 0
-11860 -82 0
-11860 439 0
-11861 -104 0
-11861 417 0
-419 11859 11860 11861 0
-11862 -59 0
-11862 525 0
-11863 -83 0
-11863 440 0
-11864 -105 0
-11864 418 0
-419 11862 11863 11864 0
-11865 -4 0
-11865 176 0
-11866 -8 0
-11866 146 0
-11867 -9 0
-11867 145 0
-420 11865 11866 11867 0
-11868 -17 0
-11868 254 0
-11869 -21 0
-11869 224 0
-11870 -22 0
-11870 223 0
-420 11868 11869 11870 0
-11871 -29 0
-11871 320 0
-11872 -33 0
-11872 290 0
-11873 -34 0
-11873 289 0
-420 11871 11872 11873 0
-11874 -40 0
-11874 375 0
-11875 -44 0
-11875 345 0
-11876 -45 0
-11876 344 0
-420 11874 11875 11876 0
-11877 -51 0
-11877 456 0
-11878 -63 0
-11878 399 0
-11879 -64 0
-11879 398 0
-420 11877 11878 11879 0
-11880 -52 0
-11880 484 0
-11881 -71 0
-11881 407 0
-11882 -72 0
-11882 406 0
-420 11880 11881 11882 0
-11883 -53 0
-11883 505 0
-11884 -78 0
-11884 414 0
-11885 -79 0
-11885 413 0
-420 11883 11884 11885 0
-11886 -56 0
-11886 526 0
-11887 -86 0
-11887 426 0
-11888 -91 0
-11888 421 0
-420 11886 11887 11888 0
-11889 -57 0
-11889 527 0
-11890 -87 0
-11890 427 0
-11891 -92 0
-11891 422 0
-420 11889 11890 11891 0
-11892 -58 0
-11892 528 0
-11893 -88 0
-11893 428 0
-11894 -93 0
-11894 423 0
-420 11892 11893 11894 0
-11895 -59 0
-11895 529 0
-11896 -89 0
-11896 429 0
-11897 -94 0
-11897 424 0
-420 11895 11896 11897 0
-11898 -60 0
-11898 530 0
-11899 -90 0
-11899 430 0
-11900 -95 0
-11900 425 0
-420 11898 11899 11900 0
-11901 -4 0
-11901 177 0
-11902 -8 0
-11902 147 0
-11903 -10 0
-11903 145 0
-421 11901 11902 11903 0
-11904 -17 0
-11904 255 0
-11905 -21 0
-11905 225 0
-11906 -23 0
-11906 223 0
-421 11904 11905 11906 0
-11907 -29 0
-11907 321 0
-11908 -33 0
-11908 291 0
-11909 -35 0
-11909 289 0
-421 11907 11908 11909 0
-11910 -40 0
-11910 376 0
-11911 -44 0
-11911 346 0
-11912 -46 0
-11912 344 0
-421 11910 11911 11912 0
-11913 -51 0
-11913 457 0
-11914 -63 0
-11914 400 0
-11915 -65 0
-11915 398 0
-421 11913 11914 11915 0
-11916 -52 0
-11916 485 0
-11917 -71 0
-11917 408 0
-11918 -73 0
-11918 406 0
-421 11916 11917 11918 0
-11919 -53 0
-11919 506 0
-11920 -78 0
-11920 415 0
-11921 -80 0
-11921 413 0
-421 11919 11920 11921 0
-11922 -55 0
-11922 526 0
-11923 -85 0
-11923 426 0
-11924 -91 0
-11924 420 0
-421 11922 11923 11924 0
-11925 -57 0
-11925 531 0
-11926 -87 0
-11926 431 0
-11927 -96 0
-11927 422 0
-421 11925 11926 11927 0
-11928 -58 0
-11928 532 0
-11929 -88 0
-11929 432 0
-11930 -97 0
-11930 423 0
-421 11928 11929 11930 0
-11931 -59 0
-11931 533 0
-11932 -89 0
-11932 433 0
-11933 -98 0
-11933 424 0
-421 11931 11932 11933 0
-11934 -60 0
-11934 534 0
-11935 -90 0
-11935 434 0
-11936 -99 0
-11936 425 0
-421 11934 11935 11936 0
-11937 -4 0
-11937 178 0
-11938 -8 0
-11938 148 0
-11939 -11 0
-11939 145 0
-422 11937 11938 11939 0
-11940 -17 0
-11940 256 0
-11941 -21 0
-11941 226 0
-11942 -24 0
-11942 223 0
-422 11940 11941 11942 0
-11943 -29 0
-11943 322 0
-11944 -33 0
-11944 292 0
-11945 -36 0
-11945 289 0
-422 11943 11944 11945 0
-11946 -40 0
-11946 377 0
-11947 -44 0
-11947 347 0
-11948 -47 0
-11948 344 0
-422 11946 11947 11948 0
-11949 -51 0
-11949 458 0
-11950 -63 0
-11950 401 0
-11951 -66 0
-11951 398 0
-422 11949 11950 11951 0
-11952 -52 0
-11952 486 0
-11953 -71 0
-11953 409 0
-11954 -74 0
-11954 406 0
-422 11952 11953 11954 0
-11955 -53 0
-11955 507 0
-11956 -78 0
-11956 416 0
-11957 -81 0
-11957 413 0
-422 11955 11956 11957 0
-11958 -55 0
-11958 527 0
-11959 -85 0
-11959 427 0
-11960 -92 0
-11960 420 0
-422 11958 11959 11960 0
-11961 -56 0
-11961 531 0
-11962 -86 0
-11962 431 0
-11963 -96 0
-11963 421 0
-422 11961 11962 11963 0
-11964 -58 0
-11964 535 0
-11965 -88 0
-11965 435 0
-11966 -100 0
-11966 423 0
-422 11964 11965 11966 0
-11967 -59 0
-11967 536 0
-11968 -89 0
-11968 436 0
-11969 -101 0
-11969 424 0
-422 11967 11968 11969 0
-11970 -60 0
-11970 537 0
-11971 -90 0
-11971 437 0
-11972 -102 0
-11972 425 0
-422 11970 11971 11972 0
-11973 -4 0
-11973 179 0
-11974 -8 0
-11974 149 0
-11975 -12 0
-11975 145 0
-423 11973 11974 11975 0
-11976 -17 0
-11976 257 0
-11977 -21 0
-11977 227 0
-11978 -25 0
-11978 223 0
-423 11976 11977 11978 0
-11979 -29 0
-11979 323 0
-11980 -33 0
-11980 293 0
-11981 -37 0
-11981 289 0
-423 11979 11980 11981 0
-11982 -40 0
-11982 378 0
-11983 -44 0
-11983 348 0
-11984 -48 0
-11984 344 0
-423 11982 11983 11984 0
-11985 -51 0
-11985 459 0
-11986 -63 0
-11986 402 0
-11987 -67 0
-11987 398 0
-423 11985 11986 11987 0
-11988 -52 0
-11988 487 0
-11989 -71 0
-11989 410 0
-11990 -75 0
-11990 406 0
-423 11988 11989 11990 0
-11991 -53 0
-11991 508 0
-11992 -78 0
-11992 417 0
-11993 -82 0
-11993 413 0
-423 11991 11992 11993 0
-11994 -55 0
-11994 528 0
-11995 -85 0
-11995 428 0
-11996 -93 0
-11996 420 0
-423 11994 11995 11996 0
-11997 -56 0
-11997 532 0
-11998 -86 0
-11998 432 0
-11999 -97 0
-11999 421 0
-423 11997 11998 11999 0
-12000 -57 0
-12000 535 0
-12001 -87 0
-12001 435 0
-12002 -100 0
-12002 422 0
-423 12000 12001 12002 0
-12003 -59 0
-12003 538 0
-12004 -89 0
-12004 438 0
-12005 -103 0
-12005 424 0
-423 12003 12004 12005 0
-12006 -60 0
-12006 539 0
-12007 -90 0
-12007 439 0
-12008 -104 0
-12008 425 0
-423 12006 12007 12008 0
-12009 -4 0
-12009 180 0
-12010 -8 0
-12010 150 0
-12011 -13 0
-12011 145 0
-424 12009 12010 12011 0
-12012 -17 0
-12012 258 0
-12013 -21 0
-12013 228 0
-12014 -26 0
-12014 223 0
-424 12012 12013 12014 0
-12015 -29 0
-12015 324 0
-12016 -33 0
-12016 294 0
-12017 -38 0
-12017 289 0
-424 12015 12016 12017 0
-12018 -40 0
-12018 379 0
-12019 -44 0
-12019 349 0
-12020 -49 0
-12020 344 0
-424 12018 12019 12020 0
-12021 -51 0
-12021 460 0
-12022 -63 0
-12022 403 0
-12023 -68 0
-12023 398 0
-424 12021 12022 12023 0
-12024 -52 0
-12024 488 0
-12025 -71 0
-12025 411 0
-12026 -76 0
-12026 406 0
-424 12024 12025 12026 0
-12027 -53 0
-12027 509 0
-12028 -78 0
-12028 418 0
-12029 -83 0
-12029 413 0
-424 12027 12028 12029 0
-12030 -55 0
-12030 529 0
-12031 -85 0
-12031 429 0
-12032 -94 0
-12032 420 0
-424 12030 12031 12032 0
-12033 -56 0
-12033 533 0
-12034 -86 0
-12034 433 0
-12035 -98 0
-12035 421 0
-424 12033 12034 12035 0
-12036 -57 0
-12036 536 0
-12037 -87 0
-12037 436 0
-12038 -101 0
-12038 422 0
-424 12036 12037 12038 0
-12039 -58 0
-12039 538 0
-12040 -88 0
-12040 438 0
-12041 -103 0
-12041 423 0
-424 12039 12040 12041 0
-12042 -60 0
-12042 540 0
-12043 -90 0
-12043 440 0
-12044 -105 0
-12044 425 0
-424 12042 12043 12044 0
-12045 -4 0
-12045 181 0
-12046 -8 0
-12046 151 0
-12047 -14 0
-12047 145 0
-425 12045 12046 12047 0
-12048 -17 0
-12048 259 0
-12049 -21 0
-12049 229 0
-12050 -27 0
-12050 223 0
-425 12048 12049 12050 0
-12051 -29 0
-12051 325 0
-12052 -33 0
-12052 295 0
-12053 -39 0
-12053 289 0
-425 12051 12052 12053 0
-12054 -40 0
-12054 380 0
-12055 -44 0
-12055 350 0
-12056 -50 0
-12056 344 0
-425 12054 12055 12056 0
-12057 -51 0
-12057 461 0
-12058 -63 0
-12058 404 0
-12059 -69 0
-12059 398 0
-425 12057 12058 12059 0
-12060 -52 0
-12060 489 0
-12061 -71 0
-12061 412 0
-12062 -77 0
-12062 406 0
-425 12060 12061 12062 0
-12063 -53 0
-12063 510 0
-12064 -78 0
-12064 419 0
-12065 -84 0
-12065 413 0
-425 12063 12064 12065 0
-12066 -55 0
-12066 530 0
-12067 -85 0
-12067 430 0
-12068 -95 0
-12068 420 0
-425 12066 12067 12068 0
-12069 -56 0
-12069 534 0
-12070 -86 0
-12070 434 0
-12071 -99 0
-12071 421 0
-425 12069 12070 12071 0
-12072 -57 0
-12072 537 0
-12073 -87 0
-12073 437 0
-12074 -102 0
-12074 422 0
-425 12072 12073 12074 0
-12075 -58 0
-12075 539 0
-12076 -88 0
-12076 439 0
-12077 -104 0
-12077 423 0
-425 12075 12076 12077 0
-12078 -59 0
-12078 540 0
-12079 -89 0
-12079 440 0
-12080 -105 0
-12080 424 0
-425 12078 12079 12080 0
-12081 -4 0
-12081 182 0
-12082 -9 0
-12082 147 0
-12083 -10 0
-12083 146 0
-426 12081 12082 12083 0
-12084 -17 0
-12084 260 0
-12085 -22 0
-12085 225 0
-12086 -23 0
-12086 224 0
-426 12084 12085 12086 0
-12087 -29 0
-12087 326 0
-12088 -34 0
-12088 291 0
-12089 -35 0
-12089 290 0
-426 12087 12088 12089 0
-12090 -40 0
-12090 381 0
-12091 -45 0
-12091 346 0
-12092 -46 0
-12092 345 0
-426 12090 12091 12092 0
-12093 -51 0
-12093 462 0
-12094 -64 0
-12094 400 0
-12095 -65 0
-12095 399 0
-426 12093 12094 12095 0
-12096 -52 0
-12096 490 0
-12097 -72 0
-12097 408 0
-12098 -73 0
-12098 407 0
-426 12096 12097 12098 0
-12099 -53 0
-12099 511 0
-12100 -79 0
-12100 415 0
-12101 -80 0
-12101 414 0
-426 12099 12100 12101 0
-12102 -54 0
-12102 526 0
-12103 -85 0
-12103 421 0
-12104 -86 0
-12104 420 0
-426 12102 12103 12104 0
-12105 -57 0
-12105 541 0
-12106 -92 0
-12106 431 0
-12107 -96 0
-12107 427 0
-426 12105 12106 12107 0
-12108 -58 0
-12108 542 0
-12109 -93 0
-12109 432 0
-12110 -97 0
-12110 428 0
-426 12108 12109 12110 0
-12111 -59 0
-12111 543 0
-12112 -94 0
-12112 433 0
-12113 -98 0
-12113 429 0
-426 12111 12112 12113 0
-12114 -60 0
-12114 544 0
-12115 -95 0
-12115 434 0
-12116 -99 0
-12116 430 0
-426 12114 12115 12116 0
-12117 -4 0
-12117 183 0
-12118 -9 0
-12118 148 0
-12119 -11 0
-12119 146 0
-427 12117 12118 12119 0
-12120 -17 0
-12120 261 0
-12121 -22 0
-12121 226 0
-12122 -24 0
-12122 224 0
-427 12120 12121 12122 0
-12123 -29 0
-12123 327 0
-12124 -34 0
-12124 292 0
-12125 -36 0
-12125 290 0
-427 12123 12124 12125 0
-12126 -40 0
-12126 382 0
-12127 -45 0
-12127 347 0
-12128 -47 0
-12128 345 0
-427 12126 12127 12128 0
-12129 -51 0
-12129 463 0
-12130 -64 0
-12130 401 0
-12131 -66 0
-12131 399 0
-427 12129 12130 12131 0
-12132 -52 0
-12132 491 0
-12133 -72 0
-12133 409 0
-12134 -74 0
-12134 407 0
-427 12132 12133 12134 0
-12135 -53 0
-12135 512 0
-12136 -79 0
-12136 416 0
-12137 -81 0
-12137 414 0
-427 12135 12136 12137 0
-12138 -54 0
-12138 527 0
-12139 -85 0
-12139 422 0
-12140 -87 0
-12140 420 0
-427 12138 12139 12140 0
-12141 -56 0
-12141 541 0
-12142 -91 0
-12142 431 0
-12143 -96 0
-12143 426 0
-427 12141 12142 12143 0
-12144 -58 0
-12144 545 0
-12145 -93 0
-12145 435 0
-12146 -100 0
-12146 428 0
-427 12144 12145 12146 0
-12147 -59 0
-12147 546 0
-12148 -94 0
-12148 436 0
-12149 -101 0
-12149 429 0
-427 12147 12148 12149 0
-12150 -60 0
-12150 547 0
-12151 -95 0
-12151 437 0
-12152 -102 0
-12152 430 0
-427 12150 12151 12152 0
-12153 -4 0
-12153 184 0
-12154 -9 0
-12154 149 0
-12155 -12 0
-12155 146 0
-428 12153 12154 12155 0
-12156 -17 0
-12156 262 0
-12157 -22 0
-12157 227 0
-12158 -25 0
-12158 224 0
-428 12156 12157 12158 0
-12159 -29 0
-12159 328 0
-12160 -34 0
-12160 293 0
-12161 -37 0
-12161 290 0
-428 12159 12160 12161 0
-12162 -40 0
-12162 383 0
-12163 -45 0
-12163 348 0
-12164 -48 0
-12164 345 0
-428 12162 12163 12164 0
-12165 -51 0
-12165 464 0
-12166 -64 0
-12166 402 0
-12167 -67 0
-12167 399 0
-428 12165 12166 12167 0
-12168 -52 0
-12168 492 0
-12169 -72 0
-12169 410 0
-12170 -75 0
-12170 407 0
-428 12168 12169 12170 0
-12171 -53 0
-12171 513 0
-12172 -79 0
-12172 417 0
-12173 -82 0
-12173 414 0
-428 12171 12172 12173 0
-12174 -54 0
-12174 528 0
-12175 -85 0
-12175 423 0
-12176 -88 0
-12176 420 0
-428 12174 12175 12176 0
-12177 -56 0
-12177 542 0
-12178 -91 0
-12178 432 0
-12179 -97 0
-12179 426 0
-428 12177 12178 12179 0
-12180 -57 0
-12180 545 0
-12181 -92 0
-12181 435 0
-12182 -100 0
-12182 427 0
-428 12180 12181 12182 0
-12183 -59 0
-12183 548 0
-12184 -94 0
-12184 438 0
-12185 -103 0
-12185 429 0
-428 12183 12184 12185 0
-12186 -60 0
-12186 549 0
-12187 -95 0
-12187 439 0
-12188 -104 0
-12188 430 0
-428 12186 12187 12188 0
-12189 -4 0
-12189 185 0
-12190 -9 0
-12190 150 0
-12191 -13 0
-12191 146 0
-429 12189 12190 12191 0
-12192 -17 0
-12192 263 0
-12193 -22 0
-12193 228 0
-12194 -26 0
-12194 224 0
-429 12192 12193 12194 0
-12195 -29 0
-12195 329 0
-12196 -34 0
-12196 294 0
-12197 -38 0
-12197 290 0
-429 12195 12196 12197 0
-12198 -40 0
-12198 384 0
-12199 -45 0
-12199 349 0
-12200 -49 0
-12200 345 0
-429 12198 12199 12200 0
-12201 -51 0
-12201 465 0
-12202 -64 0
-12202 403 0
-12203 -68 0
-12203 399 0
-429 12201 12202 12203 0
-12204 -52 0
-12204 493 0
-12205 -72 0
-12205 411 0
-12206 -76 0
-12206 407 0
-429 12204 12205 12206 0
-12207 -53 0
-12207 514 0
-12208 -79 0
-12208 418 0
-12209 -83 0
-12209 414 0
-429 12207 12208 12209 0
-12210 -54 0
-12210 529 0
-12211 -85 0
-12211 424 0
-12212 -89 0
-12212 420 0
-429 12210 12211 12212 0
-12213 -56 0
-12213 543 0
-12214 -91 0
-12214 433 0
-12215 -98 0
-12215 426 0
-429 12213 12214 12215 0
-12216 -57 0
-12216 546 0
-12217 -92 0
-12217 436 0
-12218 -101 0
-12218 427 0
-429 12216 12217 12218 0
-12219 -58 0
-12219 548 0
-12220 -93 0
-12220 438 0
-12221 -103 0
-12221 428 0
-429 12219 12220 12221 0
-12222 -60 0
-12222 550 0
-12223 -95 0
-12223 440 0
-12224 -105 0
-12224 430 0
-429 12222 12223 12224 0
-12225 -4 0
-12225 186 0
-12226 -9 0
-12226 151 0
-12227 -14 0
-12227 146 0
-430 12225 12226 12227 0
-12228 -17 0
-12228 264 0
-12229 -22 0
-12229 229 0
-12230 -27 0
-12230 224 0
-430 12228 12229 12230 0
-12231 -29 0
-12231 330 0
-12232 -34 0
-12232 295 0
-12233 -39 0
-12233 290 0
-430 12231 12232 12233 0
-12234 -40 0
-12234 385 0
-12235 -45 0
-12235 350 0
-12236 -50 0
-12236 345 0
-430 12234 12235 12236 0
-12237 -51 0
-12237 466 0
-12238 -64 0
-12238 404 0
-12239 -69 0
-12239 399 0
-430 12237 12238 12239 0
-12240 -52 0
-12240 494 0
-12241 -72 0
-12241 412 0
-12242 -77 0
-12242 407 0
-430 12240 12241 12242 0
-12243 -53 0
-12243 515 0
-12244 -79 0
-12244 419 0
-12245 -84 0
-12245 414 0
-430 12243 12244 12245 0
-12246 -54 0
-12246 530 0
-12247 -85 0
-12247 425 0
-12248 -90 0
-12248 420 0
-430 12246 12247 12248 0
-12249 -56 0
-12249 544 0
-12250 -91 0
-12250 434 0
-12251 -99 0
-12251 426 0
-430 12249 12250 12251 0
-12252 -57 0
-12252 547 0
-12253 -92 0
-12253 437 0
-12254 -102 0
-12254 427 0
-430 12252 12253 12254 0
-12255 -58 0
-12255 549 0
-12256 -93 0
-12256 439 0
-12257 -104 0
-12257 428 0
-430 12255 12256 12257 0
-12258 -59 0
-12258 550 0
-12259 -94 0
-12259 440 0
-12260 -105 0
-12260 429 0
-430 12258 12259 12260 0
-12261 -4 0
-12261 187 0
-12262 -10 0
-12262 148 0
-12263 -11 0
-12263 147 0
-431 12261 12262 12263 0
-12264 -17 0
-12264 265 0
-12265 -23 0
-12265 226 0
-12266 -24 0
-12266 225 0
-431 12264 12265 12266 0
-12267 -29 0
-12267 331 0
-12268 -35 0
-12268 292 0
-12269 -36 0
-12269 291 0
-431 12267 12268 12269 0
-12270 -40 0
-12270 386 0
-12271 -46 0
-12271 347 0
-12272 -47 0
-12272 346 0
-431 12270 12271 12272 0
-12273 -51 0
-12273 467 0
-12274 -65 0
-12274 401 0
-12275 -66 0
-12275 400 0
-431 12273 12274 12275 0
-12276 -52 0
-12276 495 0
-12277 -73 0
-12277 409 0
-12278 -74 0
-12278 408 0
-431 12276 12277 12278 0
-12279 -53 0
-12279 516 0
-12280 -80 0
-12280 416 0
-12281 -81 0
-12281 415 0
-431 12279 12280 12281 0
-12282 -54 0
-12282 531 0
-12283 -86 0
-12283 422 0
-12284 -87 0
-12284 421 0
-431 12282 12283 12284 0
-12285 -55 0
-12285 541 0
-12286 -91 0
-12286 427 0
-12287 -92 0
-12287 426 0
-431 12285 12286 12287 0
-12288 -58 0
-12288 551 0
-12289 -97 0
-12289 435 0
-12290 -100 0
-12290 432 0
-431 12288 12289 12290 0
-12291 -59 0
-12291 552 0
-12292 -98 0
-12292 436 0
-12293 -101 0
-12293 433 0
-431 12291 12292 12293 0
-12294 -60 0
-12294 553 0
-12295 -99 0
-12295 437 0
-12296 -102 0
-12296 434 0
-431 12294 12295 12296 0
-12297 -4 0
-12297 188 0
-12298 -10 0
-12298 149 0
-12299 -12 0
-12299 147 0
-432 12297 12298 12299 0
-12300 -17 0
-12300 266 0
-12301 -23 0
-12301 227 0
-12302 -25 0
-12302 225 0
-432 12300 12301 12302 0
-12303 -29 0
-12303 332 0
-12304 -35 0
-12304 293 0
-12305 -37 0
-12305 291 0
-432 12303 12304 12305 0
-12306 -40 0
-12306 387 0
-12307 -46 0
-12307 348 0
-12308 -48 0
-12308 346 0
-432 12306 12307 12308 0
-12309 -51 0
-12309 468 0
-12310 -65 0
-12310 402 0
-12311 -67 0
-12311 400 0
-432 12309 12310 12311 0
-12312 -52 0
-12312 496 0
-12313 -73 0
-12313 410 0
-12314 -75 0
-12314 408 0
-432 12312 12313 12314 0
-12315 -53 0
-12315 517 0
-12316 -80 0
-12316 417 0
-12317 -82 0
-12317 415 0
-432 12315 12316 12317 0
-12318 -54 0
-12318 532 0
-12319 -86 0
-12319 423 0
-12320 -88 0
-12320 421 0
-432 12318 12319 12320 0
-12321 -55 0
-12321 542 0
-12322 -91 0
-12322 428 0
-12323 -93 0
-12323 426 0
-432 12321 12322 12323 0
-12324 -57 0
-12324 551 0
-12325 -96 0
-12325 435 0
-12326 -100 0
-12326 431 0
-432 12324 12325 12326 0
-12327 -59 0
-12327 554 0
-12328 -98 0
-12328 438 0
-12329 -103 0
-12329 433 0
-432 12327 12328 12329 0
-12330 -60 0
-12330 555 0
-12331 -99 0
-12331 439 0
-12332 -104 0
-12332 434 0
-432 12330 12331 12332 0
-12333 -4 0
-12333 189 0
-12334 -10 0
-12334 150 0
-12335 -13 0
-12335 147 0
-433 12333 12334 12335 0
-12336 -17 0
-12336 267 0
-12337 -23 0
-12337 228 0
-12338 -26 0
-12338 225 0
-433 12336 12337 12338 0
-12339 -29 0
-12339 333 0
-12340 -35 0
-12340 294 0
-12341 -38 0
-12341 291 0
-433 12339 12340 12341 0
-12342 -40 0
-12342 388 0
-12343 -46 0
-12343 349 0
-12344 -49 0
-12344 346 0
-433 12342 12343 12344 0
-12345 -51 0
-12345 469 0
-12346 -65 0
-12346 403 0
-12347 -68 0
-12347 400 0
-433 12345 12346 12347 0
-12348 -52 0
-12348 497 0
-12349 -73 0
-12349 411 0
-12350 -76 0
-12350 408 0
-433 12348 12349 12350 0
-12351 -53 0
-12351 518 0
-12352 -80 0
-12352 418 0
-12353 -83 0
-12353 415 0
-433 12351 12352 12353 0
-12354 -54 0
-12354 533 0
-12355 -86 0
-12355 424 0
-12356 -89 0
-12356 421 0
-433 12354 12355 12356 0
-12357 -55 0
-12357 543 0
-12358 -91 0
-12358 429 0
-12359 -94 0
-12359 426 0
-433 12357 12358 12359 0
-12360 -57 0
-12360 552 0
-12361 -96 0
-12361 436 0
-12362 -101 0
-12362 431 0
-433 12360 12361 12362 0
-12363 -58 0
-12363 554 0
-12364 -97 0
-12364 438 0
-12365 -103 0
-12365 432 0
-433 12363 12364 12365 0
-12366 -60 0
-12366 556 0
-12367 -99 0
-12367 440 0
-12368 -105 0
-12368 434 0
-433 12366 12367 12368 0
-12369 -4 0
-12369 190 0
-12370 -10 0
-12370 151 0
-12371 -14 0
-12371 147 0
-434 12369 12370 12371 0
-12372 -17 0
-12372 268 0
-12373 -23 0
-12373 229 0
-12374 -27 0
-12374 225 0
-434 12372 12373 12374 0
-12375 -29 0
-12375 334 0
-12376 -35 0
-12376 295 0
-12377 -39 0
-12377 291 0
-434 12375 12376 12377 0
-12378 -40 0
-12378 389 0
-12379 -46 0
-12379 350 0
-12380 -50 0
-12380 346 0
-434 12378 12379 12380 0
-12381 -51 0
-12381 470 0
-12382 -65 0
-12382 404 0
-12383 -69 0
-12383 400 0
-434 12381 12382 12383 0
-12384 -52 0
-12384 498 0
-12385 -73 0
-12385 412 0
-12386 -77 0
-12386 408 0
-434 12384 12385 12386 0
-12387 -53 0
-12387 519 0
-12388 -80 0
-12388 419 0
-12389 -84 0
-12389 415 0
-434 12387 12388 12389 0
-12390 -54 0
-12390 534 0
-12391 -86 0
-12391 425 0
-12392 -90 0
-12392 421 0
-434 12390 12391 12392 0
-12393 -55 0
-12393 544 0
-12394 -91 0
-12394 430 0
-12395 -95 0
-12395 426 0
-434 12393 12394 12395 0
-12396 -57 0
-12396 553 0
-12397 -96 0
-12397 437 0
-12398 -102 0
-12398 431 0
-434 12396 12397 12398 0
-12399 -58 0
-12399 555 0
-12400 -97 0
-12400 439 0
-12401 -104 0
-12401 432 0
-434 12399 12400 12401 0
-12402 -59 0
-12402 556 0
-12403 -98 0
-12403 440 0
-12404 -105 0
-12404 433 0
-434 12402 12403 12404 0
-12405 -4 0
-12405 191 0
-12406 -11 0
-12406 149 0
-12407 -12 0
-12407 148 0
-435 12405 12406 12407 0
-12408 -17 0
-12408 269 0
-12409 -24 0
-12409 227 0
-12410 -25 0
-12410 226 0
-435 12408 12409 12410 0
-12411 -29 0
-12411 335 0
-12412 -36 0
-12412 293 0
-12413 -37 0
-12413 292 0
-435 12411 12412 12413 0
-12414 -40 0
-12414 390 0
-12415 -47 0
-12415 348 0
-12416 -48 0
-12416 347 0
-435 12414 12415 12416 0
-12417 -51 0
-12417 471 0
-12418 -66 0
-12418 402 0
-12419 -67 0
-12419 401 0
-435 12417 12418 12419 0
-12420 -52 0
-12420 499 0
-12421 -74 0
-12421 410 0
-12422 -75 0
-12422 409 0
-435 12420 12421 12422 0
-12423 -53 0
-12423 520 0
-12424 -81 0
-12424 417 0
-12425 -82 0
-12425 416 0
-435 12423 12424 12425 0
-12426 -54 0
-12426 535 0
-12427 -87 0
-12427 423 0
-12428 -88 0
-12428 422 0
-435 12426 12427 12428 0
-12429 -55 0
-12429 545 0
-12430 -92 0
-12430 428 0
-12431 -93 0
-12431 427 0
-435 12429 12430 12431 0
-12432 -56 0
-12432 551 0
-12433 -96 0
-12433 432 0
-12434 -97 0
-12434 431 0
-435 12432 12433 12434 0
-12435 -59 0
-12435 557 0
-12436 -101 0
-12436 438 0
-12437 -103 0
-12437 436 0
-435 12435 12436 12437 0
-12438 -60 0
-12438 558 0
-12439 -102 0
-12439 439 0
-12440 -104 0
-12440 437 0
-435 12438 12439 12440 0
-12441 -4 0
-12441 192 0
-12442 -11 0
-12442 150 0
-12443 -13 0
-12443 148 0
-436 12441 12442 12443 0
-12444 -17 0
-12444 270 0
-12445 -24 0
-12445 228 0
-12446 -26 0
-12446 226 0
-436 12444 12445 12446 0
-12447 -29 0
-12447 336 0
-12448 -36 0
-12448 294 0
-12449 -38 0
-12449 292 0
-436 12447 12448 12449 0
-12450 -40 0
-12450 391 0
-12451 -47 0
-12451 349 0
-12452 -49 0
-12452 347 0
-436 12450 12451 12452 0
-12453 -51 0
-12453 472 0
-12454 -66 0
-12454 403 0
-12455 -68 0
-12455 401 0
-436 12453 12454 12455 0
-12456 -52 0
-12456 500 0
-12457 -74 0
-12457 411 0
-12458 -76 0
-12458 409 0
-436 12456 12457 12458 0
-12459 -53 0
-12459 521 0
-12460 -81 0
-12460 418 0
-12461 -83 0
-12461 416 0
-436 12459 12460 12461 0
-12462 -54 0
-12462 536 0
-12463 -87 0
-12463 424 0
-12464 -89 0
-12464 422 0
-436 12462 12463 12464 0
-12465 -55 0
-12465 546 0
-12466 -92 0
-12466 429 0
-12467 -94 0
-12467 427 0
-436 12465 12466 12467 0
-12468 -56 0
-12468 552 0
-12469 -96 0
-12469 433 0
-12470 -98 0
-12470 431 0
-436 12468 12469 12470 0
-12471 -58 0
-12471 557 0
-12472 -100 0
-12472 438 0
-12473 -103 0
-12473 435 0
-436 12471 12472 12473 0
-12474 -60 0
-12474 559 0
-12475 -102 0
-12475 440 0
-12476 -105 0
-12476 437 0
-436 12474 12475 12476 0
-12477 -4 0
-12477 193 0
-12478 -11 0
-12478 151 0
-12479 -14 0
-12479 148 0
-437 12477 12478 12479 0
-12480 -17 0
-12480 271 0
-12481 -24 0
-12481 229 0
-12482 -27 0
-12482 226 0
-437 12480 12481 12482 0
-12483 -29 0
-12483 337 0
-12484 -36 0
-12484 295 0
-12485 -39 0
-12485 292 0
-437 12483 12484 12485 0
-12486 -40 0
-12486 392 0
-12487 -47 0
-12487 350 0
-12488 -50 0
-12488 347 0
-437 12486 12487 12488 0
-12489 -51 0
-12489 473 0
-12490 -66 0
-12490 404 0
-12491 -69 0
-12491 401 0
-437 12489 12490 12491 0
-12492 -52 0
-12492 501 0
-12493 -74 0
-12493 412 0
-12494 -77 0
-12494 409 0
-437 12492 12493 12494 0
-12495 -53 0
-12495 522 0
-12496 -81 0
-12496 419 0
-12497 -84 0
-12497 416 0
-437 12495 12496 12497 0
-12498 -54 0
-12498 537 0
-12499 -87 0
-12499 425 0
-12500 -90 0
-12500 422 0
-437 12498 12499 12500 0
-12501 -55 0
-12501 547 0
-12502 -92 0
-12502 430 0
-12503 -95 0
-12503 427 0
-437 12501 12502 12503 0
-12504 -56 0
-12504 553 0
-12505 -96 0
-12505 434 0
-12506 -99 0
-12506 431 0
-437 12504 12505 12506 0
-12507 -58 0
-12507 558 0
-12508 -100 0
-12508 439 0
-12509 -104 0
-12509 435 0
-437 12507 12508 12509 0
-12510 -59 0
-12510 559 0
-12511 -101 0
-12511 440 0
-12512 -105 0
-12512 436 0
-437 12510 12511 12512 0
-12513 -4 0
-12513 194 0
-12514 -12 0
-12514 150 0
-12515 -13 0
-12515 149 0
-438 12513 12514 12515 0
-12516 -17 0
-12516 272 0
-12517 -25 0
-12517 228 0
-12518 -26 0
-12518 227 0
-438 12516 12517 12518 0
-12519 -29 0
-12519 338 0
-12520 -37 0
-12520 294 0
-12521 -38 0
-12521 293 0
-438 12519 12520 12521 0
-12522 -40 0
-12522 393 0
-12523 -48 0
-12523 349 0
-12524 -49 0
-12524 348 0
-438 12522 12523 12524 0
-12525 -51 0
-12525 474 0
-12526 -67 0
-12526 403 0
-12527 -68 0
-12527 402 0
-438 12525 12526 12527 0
-12528 -52 0
-12528 502 0
-12529 -75 0
-12529 411 0
-12530 -76 0
-12530 410 0
-438 12528 12529 12530 0
-12531 -53 0
-12531 523 0
-12532 -82 0
-12532 418 0
-12533 -83 0
-12533 417 0
-438 12531 12532 12533 0
-12534 -54 0
-12534 538 0
-12535 -88 0
-12535 424 0
-12536 -89 0
-12536 423 0
-438 12534 12535 12536 0
-12537 -55 0
-12537 548 0
-12538 -93 0
-12538 429 0
-12539 -94 0
-12539 428 0
-438 12537 12538 12539 0
-12540 -56 0
-12540 554 0
-12541 -97 0
-12541 433 0
-12542 -98 0
-12542 432 0
-438 12540 12541 12542 0
-12543 -57 0
-12543 557 0
-12544 -100 0
-12544 436 0
-12545 -101 0
-12545 435 0
-438 12543 12544 12545 0
-12546 -60 0
-12546 560 0
-12547 -104 0
-12547 440 0
-12548 -105 0
-12548 439 0
-438 12546 12547 12548 0
-12549 -4 0
-12549 195 0
-12550 -12 0
-12550 151 0
-12551 -14 0
-12551 149 0
-439 12549 12550 12551 0
-12552 -17 0
-12552 273 0
-12553 -25 0
-12553 229 0
-12554 -27 0
-12554 227 0
-439 12552 12553 12554 0
-12555 -29 0
-12555 339 0
-12556 -37 0
-12556 295 0
-12557 -39 0
-12557 293 0
-439 12555 12556 12557 0
-12558 -40 0
-12558 394 0
-12559 -48 0
-12559 350 0
-12560 -50 0
-12560 348 0
-439 12558 12559 12560 0
-12561 -51 0
-12561 475 0
-12562 -67 0
-12562 404 0
-12563 -69 0
-12563 402 0
-439 12561 12562 12563 0
-12564 -52 0
-12564 503 0
-12565 -75 0
-12565 412 0
-12566 -77 0
-12566 410 0
-439 12564 12565 12566 0
-12567 -53 0
-12567 524 0
-12568 -82 0
-12568 419 0
-12569 -84 0
-12569 417 0
-439 12567 12568 12569 0
-12570 -54 0
-12570 539 0
-12571 -88 0
-12571 425 0
-12572 -90 0
-12572 423 0
-439 12570 12571 12572 0
-12573 -55 0
-12573 549 0
-12574 -93 0
-12574 430 0
-12575 -95 0
-12575 428 0
-439 12573 12574 12575 0
-12576 -56 0
-12576 555 0
-12577 -97 0
-12577 434 0
-12578 -99 0
-12578 432 0
-439 12576 12577 12578 0
-12579 -57 0
-12579 558 0
-12580 -100 0
-12580 437 0
-12581 -102 0
-12581 435 0
-439 12579 12580 12581 0
-12582 -59 0
-12582 560 0
-12583 -103 0
-12583 440 0
-12584 -105 0
-12584 438 0
-439 12582 12583 12584 0
-12585 -4 0
-12585 196 0
-12586 -13 0
-12586 151 0
-12587 -14 0
-12587 150 0
-440 12585 12586 12587 0
-12588 -17 0
-12588 274 0
-12589 -26 0
-12589 229 0
-12590 -27 0
-12590 228 0
-440 12588 12589 12590 0
-12591 -29 0
-12591 340 0
-12592 -38 0
-12592 295 0
-12593 -39 0
-12593 294 0
-440 12591 12592 12593 0
-12594 -40 0
-12594 395 0
-12595 -49 0
-12595 350 0
-12596 -50 0
-12596 349 0
-440 12594 12595 12596 0
-12597 -51 0
-12597 476 0
-12598 -68 0
-12598 404 0
-12599 -69 0
-12599 403 0
-440 12597 12598 12599 0
-12600 -52 0
-12600 504 0
-12601 -76 0
-12601 412 0
-12602 -77 0
-12602 411 0
-440 12600 12601 12602 0
-12603 -53 0
-12603 525 0
-12604 -83 0
-12604 419 0
-12605 -84 0
-12605 418 0
-440 12603 12604 12605 0
-12606 -54 0
-12606 540 0
-12607 -89 0
-12607 425 0
-12608 -90 0
-12608 424 0
-440 12606 12607 12608 0
-12609 -55 0
-12609 550 0
-12610 -94 0
-12610 430 0
-12611 -95 0
-12611 429 0
-440 12609 12610 12611 0
-12612 -56 0
-12612 556 0
-12613 -98 0
-12613 434 0
-12614 -99 0
-12614 433 0
-440 12612 12613 12614 0
-12615 -57 0
-12615 559 0
-12616 -101 0
-12616 437 0
-12617 -102 0
-12617 436 0
-440 12615 12616 12617 0
-12618 -58 0
-12618 560 0
-12619 -103 0
-12619 439 0
-12620 -104 0
-12620 438 0
-440 12618 12619 12620 0
-12621 -5 0
-12621 161 0
-12622 -6 0
-12622 153 0
-12623 -7 0
-12623 152 0
-441 12621 12622 12623 0
-12624 -18 0
-12624 239 0
-12625 -19 0
-12625 231 0
-12626 -20 0
-12626 230 0
-441 12624 12625 12626 0
-12627 -30 0
-12627 305 0
-12628 -31 0
-12628 297 0
-12629 -32 0
-12629 296 0
-441 12627 12628 12629 0
-12630 -41 0
-12630 360 0
-12631 -42 0
-12631 352 0
-12632 -43 0
-12632 351 0
-441 12630 12631 12632 0
-12633 -51 0
-12633 405 0
-12634 -52 0
-12634 397 0
-12635 -53 0
-12635 396 0
-441 12633 12634 12635 0
-12636 -63 0
-12636 477 0
-12637 -71 0
-12637 449 0
-12638 -78 0
-12638 442 0
-441 12636 12637 12638 0
-12639 -64 0
-12639 478 0
-12640 -72 0
-12640 450 0
-12641 -79 0
-12641 443 0
-441 12639 12640 12641 0
-12642 -65 0
-12642 479 0
-12643 -73 0
-12643 451 0
-12644 -80 0
-12644 444 0
-441 12642 12643 12644 0
-12645 -66 0
-12645 480 0
-12646 -74 0
-12646 452 0
-12647 -81 0
-12647 445 0
-441 12645 12646 12647 0
-12648 -67 0
-12648 481 0
-12649 -75 0
-12649 453 0
-12650 -82 0
-12650 446 0
-441 12648 12649 12650 0
-12651 -68 0
-12651 482 0
-12652 -76 0
-12652 454 0
-12653 -83 0
-12653 447 0
-441 12651 12652 12653 0
-12654 -69 0
-12654 483 0
-12655 -77 0
-12655 455 0
-12656 -84 0
-12656 448 0
-441 12654 12655 12656 0
-12657 -5 0
-12657 162 0
-12658 -6 0
-12658 154 0
-12659 -8 0
-12659 152 0
-442 12657 12658 12659 0
-12660 -18 0
-12660 240 0
-12661 -19 0
-12661 232 0
-12662 -21 0
-12662 230 0
-442 12660 12661 12662 0
-12663 -30 0
-12663 306 0
-12664 -31 0
-12664 298 0
-12665 -33 0
-12665 296 0
-442 12663 12664 12665 0
-12666 -41 0
-12666 361 0
-12667 -42 0
-12667 353 0
-12668 -44 0
-12668 351 0
-442 12666 12667 12668 0
-12669 -51 0
-12669 406 0
-12670 -52 0
-12670 398 0
-12671 -54 0
-12671 396 0
-442 12669 12670 12671 0
-12672 -62 0
-12672 477 0
-12673 -70 0
-12673 449 0
-12674 -78 0
-12674 441 0
-442 12672 12673 12674 0
-12675 -64 0
-12675 484 0
-12676 -72 0
-12676 456 0
-12677 -85 0
-12677 443 0
-442 12675 12676 12677 0
-12678 -65 0
-12678 485 0
-12679 -73 0
-12679 457 0
-12680 -86 0
-12680 444 0
-442 12678 12679 12680 0
-12681 -66 0
-12681 486 0
-12682 -74 0
-12682 458 0
-12683 -87 0
-12683 445 0
-442 12681 12682 12683 0
-12684 -67 0
-12684 487 0
-12685 -75 0
-12685 459 0
-12686 -88 0
-12686 446 0
-442 12684 12685 12686 0
-12687 -68 0
-12687 488 0
-12688 -76 0
-12688 460 0
-12689 -89 0
-12689 447 0
-442 12687 12688 12689 0
-12690 -69 0
-12690 489 0
-12691 -77 0
-12691 461 0
-12692 -90 0
-12692 448 0
-442 12690 12691 12692 0
-12693 -5 0
-12693 163 0
-12694 -6 0
-12694 155 0
-12695 -9 0
-12695 152 0
-443 12693 12694 12695 0
-12696 -18 0
-12696 241 0
-12697 -19 0
-12697 233 0
-12698 -22 0
-12698 230 0
-443 12696 12697 12698 0
-12699 -30 0
-12699 307 0
-12700 -31 0
-12700 299 0
-12701 -34 0
-12701 296 0
-443 12699 12700 12701 0
-12702 -41 0
-12702 362 0
-12703 -42 0
-12703 354 0
-12704 -45 0
-12704 351 0
-443 12702 12703 12704 0
-12705 -51 0
-12705 407 0
-12706 -52 0
-12706 399 0
-12707 -55 0
-12707 396 0
-443 12705 12706 12707 0
-12708 -62 0
-12708 478 0
-12709 -70 0
-12709 450 0
-12710 -79 0
-12710 441 0
-443 12708 12709 12710 0
-12711 -63 0
-12711 484 0
-12712 -71 0
-12712 456 0
-12713 -85 0
-12713 442 0
-443 12711 12712 12713 0
-12714 -65 0
-12714 490 0
-12715 -73 0
-12715 462 0
-12716 -91 0
-12716 444 0
-443 12714 12715 12716 0
-12717 -66 0
-12717 491 0
-12718 -74 0
-12718 463 0
-12719 -92 0
-12719 445 0
-443 12717 12718 12719 0
-12720 -67 0
-12720 492 0
-12721 -75 0
-12721 464 0
-12722 -93 0
-12722 446 0
-443 12720 12721 12722 0
-12723 -68 0
-12723 493 0
-12724 -76 0
-12724 465 0
-12725 -94 0
-12725 447 0
-443 12723 12724 12725 0
-12726 -69 0
-12726 494 0
-12727 -77 0
-12727 466 0
-12728 -95 0
-12728 448 0
-443 12726 12727 12728 0
-12729 -5 0
-12729 164 0
-12730 -6 0
-12730 156 0
-12731 -10 0
-12731 152 0
-444 12729 12730 12731 0
-12732 -18 0
-12732 242 0
-12733 -19 0
-12733 234 0
-12734 -23 0
-12734 230 0
-444 12732 12733 12734 0
-12735 -30 0
-12735 308 0
-12736 -31 0
-12736 300 0
-12737 -35 0
-12737 296 0
-444 12735 12736 12737 0
-12738 -41 0
-12738 363 0
-12739 -42 0
-12739 355 0
-12740 -46 0
-12740 351 0
-444 12738 12739 12740 0
-12741 -51 0
-12741 408 0
-12742 -52 0
-12742 400 0
-12743 -56 0
-12743 396 0
-444 12741 12742 12743 0
-12744 -62 0
-12744 479 0
-12745 -70 0
-12745 451 0
-12746 -80 0
-12746 441 0
-444 12744 12745 12746 0
-12747 -63 0
-12747 485 0
-12748 -71 0
-12748 457 0
-12749 -86 0
-12749 442 0
-444 12747 12748 12749 0
-12750 -64 0
-12750 490 0
-12751 -72 0
-12751 462 0
-12752 -91 0
-12752 443 0
-444 12750 12751 12752 0
-12753 -66 0
-12753 495 0
-12754 -74 0
-12754 467 0
-12755 -96 0
-12755 445 0
-444 12753 12754 12755 0
-12756 -67 0
-12756 496 0
-12757 -75 0
-12757 468 0
-12758 -97 0
-12758 446 0
-444 12756 12757 12758 0
-12759 -68 0
-12759 497 0
-12760 -76 0
-12760 469 0
-12761 -98 0
-12761 447 0
-444 12759 12760 12761 0
-12762 -69 0
-12762 498 0
-12763 -77 0
-12763 470 0
-12764 -99 0
-12764 448 0
-444 12762 12763 12764 0
-12765 -5 0
-12765 165 0
-12766 -6 0
-12766 157 0
-12767 -11 0
-12767 152 0
-445 12765 12766 12767 0
-12768 -18 0
-12768 243 0
-12769 -19 0
-12769 235 0
-12770 -24 0
-12770 230 0
-445 12768 12769 12770 0
-12771 -30 0
-12771 309 0
-12772 -31 0
-12772 301 0
-12773 -36 0
-12773 296 0
-445 12771 12772 12773 0
-12774 -41 0
-12774 364 0
-12775 -42 0
-12775 356 0
-12776 -47 0
-12776 351 0
-445 12774 12775 12776 0
-12777 -51 0
-12777 409 0
-12778 -52 0
-12778 401 0
-12779 -57 0
-12779 396 0
-445 12777 12778 12779 0
-12780 -62 0
-12780 480 0
-12781 -70 0
-12781 452 0
-12782 -81 0
-12782 441 0
-445 12780 12781 12782 0
-12783 -63 0
-12783 486 0
-12784 -71 0
-12784 458 0
-12785 -87 0
-12785 442 0
-445 12783 12784 12785 0
-12786 -64 0
-12786 491 0
-12787 -72 0
-12787 463 0
-12788 -92 0
-12788 443 0
-445 12786 12787 12788 0
-12789 -65 0
-12789 495 0
-12790 -73 0
-12790 467 0
-12791 -96 0
-12791 444 0
-445 12789 12790 12791 0
-12792 -67 0
-12792 499 0
-12793 -75 0
-12793 471 0
-12794 -100 0
-12794 446 0
-445 12792 12793 12794 0
-12795 -68 0
-12795 500 0
-12796 -76 0
-12796 472 0
-12797 -101 0
-12797 447 0
-445 12795 12796 12797 0
-12798 -69 0
-12798 501 0
-12799 -77 0
-12799 473 0
-12800 -102 0
-12800 448 0
-445 12798 12799 12800 0
-12801 -5 0
-12801 166 0
-12802 -6 0
-12802 158 0
-12803 -12 0
-12803 152 0
-446 12801 12802 12803 0
-12804 -18 0
-12804 244 0
-12805 -19 0
-12805 236 0
-12806 -25 0
-12806 230 0
-446 12804 12805 12806 0
-12807 -30 0
-12807 310 0
-12808 -31 0
-12808 302 0
-12809 -37 0
-12809 296 0
-446 12807 12808 12809 0
-12810 -41 0
-12810 365 0
-12811 -42 0
-12811 357 0
-12812 -48 0
-12812 351 0
-446 12810 12811 12812 0
-12813 -51 0
-12813 410 0
-12814 -52 0
-12814 402 0
-12815 -58 0
-12815 396 0
-446 12813 12814 12815 0
-12816 -62 0
-12816 481 0
-12817 -70 0
-12817 453 0
-12818 -82 0
-12818 441 0
-446 12816 12817 12818 0
-12819 -63 0
-12819 487 0
-12820 -71 0
-12820 459 0
-12821 -88 0
-12821 442 0
-446 12819 12820 12821 0
-12822 -64 0
-12822 492 0
-12823 -72 0
-12823 464 0
-12824 -93 0
-12824 443 0
-446 12822 12823 12824 0
-12825 -65 0
-12825 496 0
-12826 -73 0
-12826 468 0
-12827 -97 0
-12827 444 0
-446 12825 12826 12827 0
-12828 -66 0
-12828 499 0
-12829 -74 0
-12829 471 0
-12830 -100 0
-12830 445 0
-446 12828 12829 12830 0
-12831 -68 0
-12831 502 0
-12832 -76 0
-12832 474 0
-12833 -103 0
-12833 447 0
-446 12831 12832 12833 0
-12834 -69 0
-12834 503 0
-12835 -77 0
-12835 475 0
-12836 -104 0
-12836 448 0
-446 12834 12835 12836 0
-12837 -5 0
-12837 167 0
-12838 -6 0
-12838 159 0
-12839 -13 0
-12839 152 0
-447 12837 12838 12839 0
-12840 -18 0
-12840 245 0
-12841 -19 0
-12841 237 0
-12842 -26 0
-12842 230 0
-447 12840 12841 12842 0
-12843 -30 0
-12843 311 0
-12844 -31 0
-12844 303 0
-12845 -38 0
-12845 296 0
-447 12843 12844 12845 0
-12846 -41 0
-12846 366 0
-12847 -42 0
-12847 358 0
-12848 -49 0
-12848 351 0
-447 12846 12847 12848 0
-12849 -51 0
-12849 411 0
-12850 -52 0
-12850 403 0
-12851 -59 0
-12851 396 0
-447 12849 12850 12851 0
-12852 -62 0
-12852 482 0
-12853 -70 0
-12853 454 0
-12854 -83 0
-12854 441 0
-447 12852 12853 12854 0
-12855 -63 0
-12855 488 0
-12856 -71 0
-12856 460 0
-12857 -89 0
-12857 442 0
-447 12855 12856 12857 0
-12858 -64 0
-12858 493 0
-12859 -72 0
-12859 465 0
-12860 -94 0
-12860 443 0
-447 12858 12859 12860 0
-12861 -65 0
-12861 497 0
-12862 -73 0
-12862 469 0
-12863 -98 0
-12863 444 0
-447 12861 12862 12863 0
-12864 -66 0
-12864 500 0
-12865 -74 0
-12865 472 0
-12866 -101 0
-12866 445 0
-447 12864 12865 12866 0
-12867 -67 0
-12867 502 0
-12868 -75 0
-12868 474 0
-12869 -103 0
-12869 446 0
-447 12867 12868 12869 0
-12870 -69 0
-12870 504 0
-12871 -77 0
-12871 476 0
-12872 -105 0
-12872 448 0
-447 12870 12871 12872 0
-12873 -5 0
-12873 168 0
-12874 -6 0
-12874 160 0
-12875 -14 0
-12875 152 0
-448 12873 12874 12875 0
-12876 -18 0
-12876 246 0
-12877 -19 0
-12877 238 0
-12878 -27 0
-12878 230 0
-448 12876 12877 12878 0
-12879 -30 0
-12879 312 0
-12880 -31 0
-12880 304 0
-12881 -39 0
-12881 296 0
-448 12879 12880 12881 0
-12882 -41 0
-12882 367 0
-12883 -42 0
-12883 359 0
-12884 -50 0
-12884 351 0
-448 12882 12883 12884 0
-12885 -51 0
-12885 412 0
-12886 -52 0
-12886 404 0
-12887 -60 0
-12887 396 0
-448 12885 12886 12887 0
-12888 -62 0
-12888 483 0
-12889 -70 0
-12889 455 0
-12890 -84 0
-12890 441 0
-448 12888 12889 12890 0
-12891 -63 0
-12891 489 0
-12892 -71 0
-12892 461 0
-12893 -90 0
-12893 442 0
-448 12891 12892 12893 0
-12894 -64 0
-12894 494 0
-12895 -72 0
-12895 466 0
-12896 -95 0
-12896 443 0
-448 12894 12895 12896 0
-12897 -65 0
-12897 498 0
-12898 -73 0
-12898 470 0
-12899 -99 0
-12899 444 0
-448 12897 12898 12899 0
-12900 -66 0
-12900 501 0
-12901 -74 0
-12901 473 0
-12902 -102 0
-12902 445 0
-448 12900 12901 12902 0
-12903 -67 0
-12903 503 0
-12904 -75 0
-12904 475 0
-12905 -104 0
-12905 446 0
-448 12903 12904 12905 0
-12906 -68 0
-12906 504 0
-12907 -76 0
-12907 476 0
-12908 -105 0
-12908 447 0
-448 12906 12907 12908 0
-12909 -5 0
-12909 169 0
-12910 -7 0
-12910 154 0
-12911 -8 0
-12911 153 0
-449 12909 12910 12911 0
-12912 -18 0
-12912 247 0
-12913 -20 0
-12913 232 0
-12914 -21 0
-12914 231 0
-449 12912 12913 12914 0
-12915 -30 0
-12915 313 0
-12916 -32 0
-12916 298 0
-12917 -33 0
-12917 297 0
-449 12915 12916 12917 0
-12918 -41 0
-12918 368 0
-12919 -43 0
-12919 353 0
-12920 -44 0
-12920 352 0
-449 12918 12919 12920 0
-12921 -51 0
-12921 413 0
-12922 -53 0
-12922 398 0
-12923 -54 0
-12923 397 0
-449 12921 12922 12923 0
-12924 -61 0
-12924 477 0
-12925 -70 0
-12925 442 0
-12926 -71 0
-12926 441 0
-449 12924 12925 12926 0
-12927 -64 0
-12927 505 0
-12928 -79 0
-12928 456 0
-12929 -85 0
-12929 450 0
-449 12927 12928 12929 0
-12930 -65 0
-12930 506 0
-12931 -80 0
-12931 457 0
-12932 -86 0
-12932 451 0
-449 12930 12931 12932 0
-12933 -66 0
-12933 507 0
-12934 -81 0
-12934 458 0
-12935 -87 0
-12935 452 0
-449 12933 12934 12935 0
-12936 -67 0
-12936 508 0
-12937 -82 0
-12937 459 0
-12938 -88 0
-12938 453 0
-449 12936 12937 12938 0
-12939 -68 0
-12939 509 0
-12940 -83 0
-12940 460 0
-12941 -89 0
-12941 454 0
-449 12939 12940 12941 0
-12942 -69 0
-12942 510 0
-12943 -84 0
-12943 461 0
-12944 -90 0
-12944 455 0
-449 12942 12943 12944 0
-12945 -5 0
-12945 170 0
-12946 -7 0
-12946 155 0
-12947 -9 0
-12947 153 0
-450 12945 12946 12947 0
-12948 -18 0
-12948 248 0
-12949 -20 0
-12949 233 0
-12950 -22 0
-12950 231 0
-450 12948 12949 12950 0
-12951 -30 0
-12951 314 0
-12952 -32 0
-12952 299 0
-12953 -34 0
-12953 297 0
-450 12951 12952 12953 0
-12954 -41 0
-12954 369 0
-12955 -43 0
-12955 354 0
-12956 -45 0
-12956 352 0
-450 12954 12955 12956 0
-12957 -51 0
-12957 414 0
-12958 -53 0
-12958 399 0
-12959 -55 0
-12959 397 0
-450 12957 12958 12959 0
-12960 -61 0
-12960 478 0
-12961 -70 0
-12961 443 0
-12962 -72 0
-12962 441 0
-450 12960 12961 12962 0
-12963 -63 0
-12963 505 0
-12964 -78 0
-12964 456 0
-12965 -85 0
-12965 449 0
-450 12963 12964 12965 0
-12966 -65 0
-12966 511 0
-12967 -80 0
-12967 462 0
-12968 -91 0
-12968 451 0
-450 12966 12967 12968 0
-12969 -66 0
-12969 512 0
-12970 -81 0
-12970 463 0
-12971 -92 0
-12971 452 0
-450 12969 12970 12971 0
-12972 -67 0
-12972 513 0
-12973 -82 0
-12973 464 0
-12974 -93 0
-12974 453 0
-450 12972 12973 12974 0
-12975 -68 0
-12975 514 0
-12976 -83 0
-12976 465 0
-12977 -94 0
-12977 454 0
-450 12975 12976 12977 0
-12978 -69 0
-12978 515 0
-12979 -84 0
-12979 466 0
-12980 -95 0
-12980 455 0
-450 12978 12979 12980 0
-12981 -5 0
-12981 171 0
-12982 -7 0
-12982 156 0
-12983 -10 0
-12983 153 0
-451 12981 12982 12983 0
-12984 -18 0
-12984 249 0
-12985 -20 0
-12985 234 0
-12986 -23 0
-12986 231 0
-451 12984 12985 12986 0
-12987 -30 0
-12987 315 0
-12988 -32 0
-12988 300 0
-12989 -35 0
-12989 297 0
-451 12987 12988 12989 0
-12990 -41 0
-12990 370 0
-12991 -43 0
-12991 355 0
-12992 -46 0
-12992 352 0
-451 12990 12991 12992 0
-12993 -51 0
-12993 415 0
-12994 -53 0
-12994 400 0
-12995 -56 0
-12995 397 0
-451 12993 12994 12995 0
-12996 -61 0
-12996 479 0
-12997 -70 0
-12997 444 0
-12998 -73 0
-12998 441 0
-451 12996 12997 12998 0
-12999 -63 0
-12999 506 0
-13000 -78 0
-13000 457 0
-13001 -86 0
-13001 449 0
-451 12999 13000 13001 0
-13002 -64 0
-13002 511 0
-13003 -79 0
-13003 462 0
-13004 -91 0
-13004 450 0
-451 13002 13003 13004 0
-13005 -66 0
-13005 516 0
-13006 -81 0
-13006 467 0
-13007 -96 0
-13007 452 0
-451 13005 13006 13007 0
-13008 -67 0
-13008 517 0
-13009 -82 0
-13009 468 0
-13010 -97 0
-13010 453 0
-451 13008 13009 13010 0
-13011 -68 0
-13011 518 0
-13012 -83 0
-13012 469 0
-13013 -98 0
-13013 454 0
-451 13011 13012 13013 0
-13014 -69 0
-13014 519 0
-13015 -84 0
-13015 470 0
-13016 -99 0
-13016 455 0
-451 13014 13015 13016 0
-13017 -5 0
-13017 172 0
-13018 -7 0
-13018 157 0
-13019 -11 0
-13019 153 0
-452 13017 13018 13019 0
-13020 -18 0
-13020 250 0
-13021 -20 0
-13021 235 0
-13022 -24 0
-13022 231 0
-452 13020 13021 13022 0
-13023 -30 0
-13023 316 0
-13024 -32 0
-13024 301 0
-13025 -36 0
-13025 297 0
-452 13023 13024 13025 0
-13026 -41 0
-13026 371 0
-13027 -43 0
-13027 356 0
-13028 -47 0
-13028 352 0
-452 13026 13027 13028 0
-13029 -51 0
-13029 416 0
-13030 -53 0
-13030 401 0
-13031 -57 0
-13031 397 0
-452 13029 13030 13031 0
-13032 -61 0
-13032 480 0
-13033 -70 0
-13033 445 0
-13034 -74 0
-13034 441 0
-452 13032 13033 13034 0
-13035 -63 0
-13035 507 0
-13036 -78 0
-13036 458 0
-13037 -87 0
-13037 449 0
-452 13035 13036 13037 0
-13038 -64 0
-13038 512 0
-13039 -79 0
-13039 463 0
-13040 -92 0
-13040 450 0
-452 13038 13039 13040 0
-13041 -65 0
-13041 516 0
-13042 -80 0
-13042 467 0
-13043 -96 0
-13043 451 0
-452 13041 13042 13043 0
-13044 -67 0
-13044 520 0
-13045 -82 0
-13045 471 0
-13046 -100 0
-13046 453 0
-452 13044 13045 13046 0
-13047 -68 0
-13047 521 0
-13048 -83 0
-13048 472 0
-13049 -101 0
-13049 454 0
-452 13047 13048 13049 0
-13050 -69 0
-13050 522 0
-13051 -84 0
-13051 473 0
-13052 -102 0
-13052 455 0
-452 13050 13051 13052 0
-13053 -5 0
-13053 173 0
-13054 -7 0
-13054 158 0
-13055 -12 0
-13055 153 0
-453 13053 13054 13055 0
-13056 -18 0
-13056 251 0
-13057 -20 0
-13057 236 0
-13058 -25 0
-13058 231 0
-453 13056 13057 13058 0
-13059 -30 0
-13059 317 0
-13060 -32 0
-13060 302 0
-13061 -37 0
-13061 297 0
-453 13059 13060 13061 0
-13062 -41 0
-13062 372 0
-13063 -43 0
-13063 357 0
-13064 -48 0
-13064 352 0
-453 13062 13063 13064 0
-13065 -51 0
-13065 417 0
-13066 -53 0
-13066 402 0
-13067 -58 0
-13067 397 0
-453 13065 13066 13067 0
-13068 -61 0
-13068 481 0
-13069 -70 0
-13069 446 0
-13070 -75 0
-13070 441 0
-453 13068 13069 13070 0
-13071 -63 0
-13071 508 0
-13072 -78 0
-13072 459 0
-13073 -88 0
-13073 449 0
-453 13071 13072 13073 0
-13074 -64 0
-13074 513 0
-13075 -79 0
-13075 464 0
-13076 -93 0
-13076 450 0
-453 13074 13075 13076 0
-13077 -65 0
-13077 517 0
-13078 -80 0
-13078 468 0
-13079 -97 0
-13079 451 0
-453 13077 13078 13079 0
-13080 -66 0
-13080 520 0
-13081 -81 0
-13081 471 0
-13082 -100 0
-13082 452 0
-453 13080 13081 13082 0
-13083 -68 0
-13083 523 0
-13084 -83 0
-13084 474 0
-13085 -103 0
-13085 454 0
-453 13083 13084 13085 0
-13086 -69 0
-13086 524 0
-13087 -84 0
-13087 475 0
-13088 -104 0
-13088 455 0
-453 13086 13087 13088 0
-13089 -5 0
-13089 174 0
-13090 -7 0
-13090 159 0
-13091 -13 0
-13091 153 0
-454 13089 13090 13091 0
-13092 -18 0
-13092 252 0
-13093 -20 0
-13093 237 0
-13094 -26 0
-13094 231 0
-454 13092 13093 13094 0
-13095 -30 0
-13095 318 0
-13096 -32 0
-13096 303 0
-13097 -38 0
-13097 297 0
-454 13095 13096 13097 0
-13098 -41 0
-13098 373 0
-13099 -43 0
-13099 358 0
-13100 -49 0
-13100 352 0
-454 13098 13099 13100 0
-13101 -51 0
-13101 418 0
-13102 -53 0
-13102 403 0
-13103 -59 0
-13103 397 0
-454 13101 13102 13103 0
-13104 -61 0
-13104 482 0
-13105 -70 0
-13105 447 0
-13106 -76 0
-13106 441 0
-454 13104 13105 13106 0
-13107 -63 0
-13107 509 0
-13108 -78 0
-13108 460 0
-13109 -89 0
-13109 449 0
-454 13107 13108 13109 0
-13110 -64 0
-13110 514 0
-13111 -79 0
-13111 465 0
-13112 -94 0
-13112 450 0
-454 13110 13111 13112 0
-13113 -65 0
-13113 518 0
-13114 -80 0
-13114 469 0
-13115 -98 0
-13115 451 0
-454 13113 13114 13115 0
-13116 -66 0
-13116 521 0
-13117 -81 0
-13117 472 0
-13118 -101 0
-13118 452 0
-454 13116 13117 13118 0
-13119 -67 0
-13119 523 0
-13120 -82 0
-13120 474 0
-13121 -103 0
-13121 453 0
-454 13119 13120 13121 0
-13122 -69 0
-13122 525 0
-13123 -84 0
-13123 476 0
-13124 -105 0
-13124 455 0
-454 13122 13123 13124 0
-13125 -5 0
-13125 175 0
-13126 -7 0
-13126 160 0
-13127 -14 0
-13127 153 0
-455 13125 13126 13127 0
-13128 -18 0
-13128 253 0
-13129 -20 0
-13129 238 0
-13130 -27 0
-13130 231 0
-455 13128 13129 13130 0
-13131 -30 0
-13131 319 0
-13132 -32 0
-13132 304 0
-13133 -39 0
-13133 297 0
-455 13131 13132 13133 0
-13134 -41 0
-13134 374 0
-13135 -43 0
-13135 359 0
-13136 -50 0
-13136 352 0
-455 13134 13135 13136 0
-13137 -51 0
-13137 419 0
-13138 -53 0
-13138 404 0
-13139 -60 0
-13139 397 0
-455 13137 13138 13139 0
-13140 -61 0
-13140 483 0
-13141 -70 0
-13141 448 0
-13142 -77 0
-13142 441 0
-455 13140 13141 13142 0
-13143 -63 0
-13143 510 0
-13144 -78 0
-13144 461 0
-13145 -90 0
-13145 449 0
-455 13143 13144 13145 0
-13146 -64 0
-13146 515 0
-13147 -79 0
-13147 466 0
-13148 -95 0
-13148 450 0
-455 13146 13147 13148 0
-13149 -65 0
-13149 519 0
-13150 -80 0
-13150 470 0
-13151 -99 0
-13151 451 0
-455 13149 13150 13151 0
-13152 -66 0
-13152 522 0
-13153 -81 0
-13153 473 0
-13154 -102 0
-13154 452 0
-455 13152 13153 13154 0
-13155 -67 0
-13155 524 0
-13156 -82 0
-13156 475 0
-13157 -104 0
-13157 453 0
-455 13155 13156 13157 0
-13158 -68 0
-13158 525 0
-13159 -83 0
-13159 476 0
-13160 -105 0
-13160 454 0
-455 13158 13159 13160 0
-13161 -5 0
-13161 176 0
-13162 -8 0
-13162 155 0
-13163 -9 0
-13163 154 0
-456 13161 13162 13163 0
-13164 -18 0
-13164 254 0
-13165 -21 0
-13165 233 0
-13166 -22 0
-13166 232 0
-456 13164 13165 13166 0
-13167 -30 0
-13167 320 0
-13168 -33 0
-13168 299 0
-13169 -34 0
-13169 298 0
-456 13167 13168 13169 0
-13170 -41 0
-13170 375 0
-13171 -44 0
-13171 354 0
-13172 -45 0
-13172 353 0
-456 13170 13171 13172 0
-13173 -51 0
-13173 420 0
-13174 -54 0
-13174 399 0
-13175 -55 0
-13175 398 0
-456 13173 13174 13175 0
-13176 -61 0
-13176 484 0
-13177 -71 0
-13177 443 0
-13178 -72 0
-13178 442 0
-456 13176 13177 13178 0
-13179 -62 0
-13179 505 0
-13180 -78 0
-13180 450 0
-13181 -79 0
-13181 449 0
-456 13179 13180 13181 0
-13182 -65 0
-13182 526 0
-13183 -86 0
-13183 462 0
-13184 -91 0
-13184 457 0
-456 13182 13183 13184 0
-13185 -66 0
-13185 527 0
-13186 -87 0
-13186 463 0
-13187 -92 0
-13187 458 0
-456 13185 13186 13187 0
-13188 -67 0
-13188 528 0
-13189 -88 0
-13189 464 0
-13190 -93 0
-13190 459 0
-456 13188 13189 13190 0
-13191 -68 0
-13191 529 0
-13192 -89 0
-13192 465 0
-13193 -94 0
-13193 460 0
-456 13191 13192 13193 0
-13194 -69 0
-13194 530 0
-13195 -90 0
-13195 466 0
-13196 -95 0
-13196 461 0
-456 13194 13195 13196 0
-13197 -5 0
-13197 177 0
-13198 -8 0
-13198 156 0
-13199 -10 0
-13199 154 0
-457 13197 13198 13199 0
-13200 -18 0
-13200 255 0
-13201 -21 0
-13201 234 0
-13202 -23 0
-13202 232 0
-457 13200 13201 13202 0
-13203 -30 0
-13203 321 0
-13204 -33 0
-13204 300 0
-13205 -35 0
-13205 298 0
-457 13203 13204 13205 0
-13206 -41 0
-13206 376 0
-13207 -44 0
-13207 355 0
-13208 -46 0
-13208 353 0
-457 13206 13207 13208 0
-13209 -51 0
-13209 421 0
-13210 -54 0
-13210 400 0
-13211 -56 0
-13211 398 0
-457 13209 13210 13211 0
-13212 -61 0
-13212 485 0
-13213 -71 0
-13213 444 0
-13214 -73 0
-13214 442 0
-457 13212 13213 13214 0
-13215 -62 0
-13215 506 0
-13216 -78 0
-13216 451 0
-13217 -80 0
-13217 449 0
-457 13215 13216 13217 0
-13218 -64 0
-13218 526 0
-13219 -85 0
-13219 462 0
-13220 -91 0
-13220 456 0
-457 13218 13219 13220 0
-13221 -66 0
-13221 531 0
-13222 -87 0
-13222 467 0
-13223 -96 0
-13223 458 0
-457 13221 13222 13223 0
-13224 -67 0
-13224 532 0
-13225 -88 0
-13225 468 0
-13226 -97 0
-13226 459 0
-457 13224 13225 13226 0
-13227 -68 0
-13227 533 0
-13228 -89 0
-13228 469 0
-13229 -98 0
-13229 460 0
-457 13227 13228 13229 0
-13230 -69 0
-13230 534 0
-13231 -90 0
-13231 470 0
-13232 -99 0
-13232 461 0
-457 13230 13231 13232 0
-13233 -5 0
-13233 178 0
-13234 -8 0
-13234 157 0
-13235 -11 0
-13235 154 0
-458 13233 13234 13235 0
-13236 -18 0
-13236 256 0
-13237 -21 0
-13237 235 0
-13238 -24 0
-13238 232 0
-458 13236 13237 13238 0
-13239 -30 0
-13239 322 0
-13240 -33 0
-13240 301 0
-13241 -36 0
-13241 298 0
-458 13239 13240 13241 0
-13242 -41 0
-13242 377 0
-13243 -44 0
-13243 356 0
-13244 -47 0
-13244 353 0
-458 13242 13243 13244 0
-13245 -51 0
-13245 422 0
-13246 -54 0
-13246 401 0
-13247 -57 0
-13247 398 0
-458 13245 13246 13247 0
-13248 -61 0
-13248 486 0
-13249 -71 0
-13249 445 0
-13250 -74 0
-13250 442 0
-458 13248 13249 13250 0
-13251 -62 0
-13251 507 0
-13252 -78 0
-13252 452 0
-13253 -81 0
-13253 449 0
-458 13251 13252 13253 0
-13254 -64 0
-13254 527 0
-13255 -85 0
-13255 463 0
-13256 -92 0
-13256 456 0
-458 13254 13255 13256 0
-13257 -65 0
-13257 531 0
-13258 -86 0
-13258 467 0
-13259 -96 0
-13259 457 0
-458 13257 13258 13259 0
-13260 -67 0
-13260 535 0
-13261 -88 0
-13261 471 0
-13262 -100 0
-13262 459 0
-458 13260 13261 13262 0
-13263 -68 0
-13263 536 0
-13264 -89 0
-13264 472 0
-13265 -101 0
-13265 460 0
-458 13263 13264 13265 0
-13266 -69 0
-13266 537 0
-13267 -90 0
-13267 473 0
-13268 -102 0
-13268 461 0
-458 13266 13267 13268 0
-13269 -5 0
-13269 179 0
-13270 -8 0
-13270 158 0
-13271 -12 0
-13271 154 0
-459 13269 13270 13271 0
-13272 -18 0
-13272 257 0
-13273 -21 0
-13273 236 0
-13274 -25 0
-13274 232 0
-459 13272 13273 13274 0
-13275 -30 0
-13275 323 0
-13276 -33 0
-13276 302 0
-13277 -37 0
-13277 298 0
-459 13275 13276 13277 0
-13278 -41 0
-13278 378 0
-13279 -44 0
-13279 357 0
-13280 -48 0
-13280 353 0
-459 13278 13279 13280 0
-13281 -51 0
-13281 423 0
-13282 -54 0
-13282 402 0
-13283 -58 0
-13283 398 0
-459 13281 13282 13283 0
-13284 -61 0
-13284 487 0
-13285 -71 0
-13285 446 0
-13286 -75 0
-13286 442 0
-459 13284 13285 13286 0
-13287 -62 0
-13287 508 0
-13288 -78 0
-13288 453 0
-13289 -82 0
-13289 449 0
-459 13287 13288 13289 0
-13290 -64 0
-13290 528 0
-13291 -85 0
-13291 464 0
-13292 -93 0
-13292 456 0
-459 13290 13291 13292 0
-13293 -65 0
-13293 532 0
-13294 -86 0
-13294 468 0
-13295 -97 0
-13295 457 0
-459 13293 13294 13295 0
-13296 -66 0
-13296 535 0
-13297 -87 0
-13297 471 0
-13298 -100 0
-13298 458 0
-459 13296 13297 13298 0
-13299 -68 0
-13299 538 0
-13300 -89 0
-13300 474 0
-13301 -103 0
-13301 460 0
-459 13299 13300 13301 0
-13302 -69 0
-13302 539 0
-13303 -90 0
-13303 475 0
-13304 -104 0
-13304 461 0
-459 13302 13303 13304 0
-13305 -5 0
-13305 180 0
-13306 -8 0
-13306 159 0
-13307 -13 0
-13307 154 0
-460 13305 13306 13307 0
-13308 -18 0
-13308 258 0
-13309 -21 0
-13309 237 0
-13310 -26 0
-13310 232 0
-460 13308 13309 13310 0
-13311 -30 0
-13311 324 0
-13312 -33 0
-13312 303 0
-13313 -38 0
-13313 298 0
-460 13311 13312 13313 0
-13314 -41 0
-13314 379 0
-13315 -44 0
-13315 358 0
-13316 -49 0
-13316 353 0
-460 13314 13315 13316 0
-13317 -51 0
-13317 424 0
-13318 -54 0
-13318 403 0
-13319 -59 0
-13319 398 0
-460 13317 13318 13319 0
-13320 -61 0
-13320 488 0
-13321 -71 0
-13321 447 0
-13322 -76 0
-13322 442 0
-460 13320 13321 13322 0
-13323 -62 0
-13323 509 0
-13324 -78 0
-13324 454 0
-13325 -83 0
-13325 449 0
-460 13323 13324 13325 0
-13326 -64 0
-13326 529 0
-13327 -85 0
-13327 465 0
-13328 -94 0
-13328 456 0
-460 13326 13327 13328 0
-13329 -65 0
-13329 533 0
-13330 -86 0
-13330 469 0
-13331 -98 0
-13331 457 0
-460 13329 13330 13331 0
-13332 -66 0
-13332 536 0
-13333 -87 0
-13333 472 0
-13334 -101 0
-13334 458 0
-460 13332 13333 13334 0
-13335 -67 0
-13335 538 0
-13336 -88 0
-13336 474 0
-13337 -103 0
-13337 459 0
-460 13335 13336 13337 0
-13338 -69 0
-13338 540 0
-13339 -90 0
-13339 476 0
-13340 -105 0
-13340 461 0
-460 13338 13339 13340 0
-13341 -5 0
-13341 181 0
-13342 -8 0
-13342 160 0
-13343 -14 0
-13343 154 0
-461 13341 13342 13343 0
-13344 -18 0
-13344 259 0
-13345 -21 0
-13345 238 0
-13346 -27 0
-13346 232 0
-461 13344 13345 13346 0
-13347 -30 0
-13347 325 0
-13348 -33 0
-13348 304 0
-13349 -39 0
-13349 298 0
-461 13347 13348 13349 0
-13350 -41 0
-13350 380 0
-13351 -44 0
-13351 359 0
-13352 -50 0
-13352 353 0
-461 13350 13351 13352 0
-13353 -51 0
-13353 425 0
-13354 -54 0
-13354 404 0
-13355 -60 0
-13355 398 0
-461 13353 13354 13355 0
-13356 -61 0
-13356 489 0
-13357 -71 0
-13357 448 0
-13358 -77 0
-13358 442 0
-461 13356 13357 13358 0
-13359 -62 0
-13359 510 0
-13360 -78 0
-13360 455 0
-13361 -84 0
-13361 449 0
-461 13359 13360 13361 0
-13362 -64 0
-13362 530 0
-13363 -85 0
-13363 466 0
-13364 -95 0
-13364 456 0
-461 13362 13363 13364 0
-13365 -65 0
-13365 534 0
-13366 -86 0
-13366 470 0
-13367 -99 0
-13367 457 0
-461 13365 13366 13367 0
-13368 -66 0
-13368 537 0
-13369 -87 0
-13369 473 0
-13370 -102 0
-13370 458 0
-461 13368 13369 13370 0
-13371 -67 0
-13371 539 0
-13372 -88 0
-13372 475 0
-13373 -104 0
-13373 459 0
-461 13371 13372 13373 0
-13374 -68 0
-13374 540 0
-13375 -89 0
-13375 476 0
-13376 -105 0
-13376 460 0
-461 13374 13375 13376 0
-13377 -5 0
-13377 182 0
-13378 -9 0
-13378 156 0
-13379 -10 0
-13379 155 0
-462 13377 13378 13379 0
-13380 -18 0
-13380 260 0
-13381 -22 0
-13381 234 0
-13382 -23 0
-13382 233 0
-462 13380 13381 13382 0
-13383 -30 0
-13383 326 0
-13384 -34 0
-13384 300 0
-13385 -35 0
-13385 299 0
-462 13383 13384 13385 0
-13386 -41 0
-13386 381 0
-13387 -45 0
-13387 355 0
-13388 -46 0
-13388 354 0
-462 13386 13387 13388 0
-13389 -51 0
-13389 426 0
-13390 -55 0
-13390 400 0
-13391 -56 0
-13391 399 0
-462 13389 13390 13391 0
-13392 -61 0
-13392 490 0
-13393 -72 0
-13393 444 0
-13394 -73 0
-13394 443 0
-462 13392 13393 13394 0
-13395 -62 0
-13395 511 0
-13396 -79 0
-13396 451 0
-13397 -80 0
-13397 450 0
-462 13395 13396 13397 0
-13398 -63 0
-13398 526 0
-13399 -85 0
-13399 457 0
-13400 -86 0
-13400 456 0
-462 13398 13399 13400 0
-13401 -66 0
-13401 541 0
-13402 -92 0
-13402 467 0
-13403 -96 0
-13403 463 0
-462 13401 13402 13403 0
-13404 -67 0
-13404 542 0
-13405 -93 0
-13405 468 0
-13406 -97 0
-13406 464 0
-462 13404 13405 13406 0
-13407 -68 0
-13407 543 0
-13408 -94 0
-13408 469 0
-13409 -98 0
-13409 465 0
-462 13407 13408 13409 0
-13410 -69 0
-13410 544 0
-13411 -95 0
-13411 470 0
-13412 -99 0
-13412 466 0
-462 13410 13411 13412 0
-13413 -5 0
-13413 183 0
-13414 -9 0
-13414 157 0
-13415 -11 0
-13415 155 0
-463 13413 13414 13415 0
-13416 -18 0
-13416 261 0
-13417 -22 0
-13417 235 0
-13418 -24 0
-13418 233 0
-463 13416 13417 13418 0
-13419 -30 0
-13419 327 0
-13420 -34 0
-13420 301 0
-13421 -36 0
-13421 299 0
-463 13419 13420 13421 0
-13422 -41 0
-13422 382 0
-13423 -45 0
-13423 356 0
-13424 -47 0
-13424 354 0
-463 13422 13423 13424 0
-13425 -51 0
-13425 427 0
-13426 -55 0
-13426 401 0
-13427 -57 0
-13427 399 0
-463 13425 13426 13427 0
-13428 -61 0
-13428 491 0
-13429 -72 0
-13429 445 0
-13430 -74 0
-13430 443 0
-463 13428 13429 13430 0
-13431 -62 0
-13431 512 0
-13432 -79 0
-13432 452 0
-13433 -81 0
-13433 450 0
-463 13431 13432 13433 0
-13434 -63 0
-13434 527 0
-13435 -85 0
-13435 458 0
-13436 -87 0
-13436 456 0
-463 13434 13435 13436 0
-13437 -65 0
-13437 541 0
-13438 -91 0
-13438 467 0
-13439 -96 0
-13439 462 0
-463 13437 13438 13439 0
-13440 -67 0
-13440 545 0
-13441 -93 0
-13441 471 0
-13442 -100 0
-13442 464 0
-463 13440 13441 13442 0
-13443 -68 0
-13443 546 0
-13444 -94 0
-13444 472 0
-13445 -101 0
-13445 465 0
-463 13443 13444 13445 0
-13446 -69 0
-13446 547 0
-13447 -95 0
-13447 473 0
-13448 -102 0
-13448 466 0
-463 13446 13447 13448 0
-13449 -5 0
-13449 184 0
-13450 -9 0
-13450 158 0
-13451 -12 0
-13451 155 0
-464 13449 13450 13451 0
-13452 -18 0
-13452 262 0
-13453 -22 0
-13453 236 0
-13454 -25 0
-13454 233 0
-464 13452 13453 13454 0
-13455 -30 0
-13455 328 0
-13456 -34 0
-13456 302 0
-13457 -37 0
-13457 299 0
-464 13455 13456 13457 0
-13458 -41 0
-13458 383 0
-13459 -45 0
-13459 357 0
-13460 -48 0
-13460 354 0
-464 13458 13459 13460 0
-13461 -51 0
-13461 428 0
-13462 -55 0
-13462 402 0
-13463 -58 0
-13463 399 0
-464 13461 13462 13463 0
-13464 -61 0
-13464 492 0
-13465 -72 0
-13465 446 0
-13466 -75 0
-13466 443 0
-464 13464 13465 13466 0
-13467 -62 0
-13467 513 0
-13468 -79 0
-13468 453 0
-13469 -82 0
-13469 450 0
-464 13467 13468 13469 0
-13470 -63 0
-13470 528 0
-13471 -85 0
-13471 459 0
-13472 -88 0
-13472 456 0
-464 13470 13471 13472 0
-13473 -65 0
-13473 542 0
-13474 -91 0
-13474 468 0
-13475 -97 0
-13475 462 0
-464 13473 13474 13475 0
-13476 -66 0
-13476 545 0
-13477 -92 0
-13477 471 0
-13478 -100 0
-13478 463 0
-464 13476 13477 13478 0
-13479 -68 0
-13479 548 0
-13480 -94 0
-13480 474 0
-13481 -103 0
-13481 465 0
-464 13479 13480 13481 0
-13482 -69 0
-13482 549 0
-13483 -95 0
-13483 475 0
-13484 -104 0
-13484 466 0
-464 13482 13483 13484 0
-13485 -5 0
-13485 185 0
-13486 -9 0
-13486 159 0
-13487 -13 0
-13487 155 0
-465 13485 13486 13487 0
-13488 -18 0
-13488 263 0
-13489 -22 0
-13489 237 0
-13490 -26 0
-13490 233 0
-465 13488 13489 13490 0
-13491 -30 0
-13491 329 0
-13492 -34 0
-13492 303 0
-13493 -38 0
-13493 299 0
-465 13491 13492 13493 0
-13494 -41 0
-13494 384 0
-13495 -45 0
-13495 358 0
-13496 -49 0
-13496 354 0
-465 13494 13495 13496 0
-13497 -51 0
-13497 429 0
-13498 -55 0
-13498 403 0
-13499 -59 0
-13499 399 0
-465 13497 13498 13499 0
-13500 -61 0
-13500 493 0
-13501 -72 0
-13501 447 0
-13502 -76 0
-13502 443 0
-465 13500 13501 13502 0
-13503 -62 0
-13503 514 0
-13504 -79 0
-13504 454 0
-13505 -83 0
-13505 450 0
-465 13503 13504 13505 0
-13506 -63 0
-13506 529 0
-13507 -85 0
-13507 460 0
-13508 -89 0
-13508 456 0
-465 13506 13507 13508 0
-13509 -65 0
-13509 543 0
-13510 -91 0
-13510 469 0
-13511 -98 0
-13511 462 0
-465 13509 13510 13511 0
-13512 -66 0
-13512 546 0
-13513 -92 0
-13513 472 0
-13514 -101 0
-13514 463 0
-465 13512 13513 13514 0
-13515 -67 0
-13515 548 0
-13516 -93 0
-13516 474 0
-13517 -103 0
-13517 464 0
-465 13515 13516 13517 0
-13518 -69 0
-13518 550 0
-13519 -95 0
-13519 476 0
-13520 -105 0
-13520 466 0
-465 13518 13519 13520 0
-13521 -5 0
-13521 186 0
-13522 -9 0
-13522 160 0
-13523 -14 0
-13523 155 0
-466 13521 13522 13523 0
-13524 -18 0
-13524 264 0
-13525 -22 0
-13525 238 0
-13526 -27 0
-13526 233 0
-466 13524 13525 13526 0
-13527 -30 0
-13527 330 0
-13528 -34 0
-13528 304 0
-13529 -39 0
-13529 299 0
-466 13527 13528 13529 0
-13530 -41 0
-13530 385 0
-13531 -45 0
-13531 359 0
-13532 -50 0
-13532 354 0
-466 13530 13531 13532 0
-13533 -51 0
-13533 430 0
-13534 -55 0
-13534 404 0
-13535 -60 0
-13535 399 0
-466 13533 13534 13535 0
-13536 -61 0
-13536 494 0
-13537 -72 0
-13537 448 0
-13538 -77 0
-13538 443 0
-466 13536 13537 13538 0
-13539 -62 0
-13539 515 0
-13540 -79 0
-13540 455 0
-13541 -84 0
-13541 450 0
-466 13539 13540 13541 0
-13542 -63 0
-13542 530 0
-13543 -85 0
-13543 461 0
-13544 -90 0
-13544 456 0
-466 13542 13543 13544 0
-13545 -65 0
-13545 544 0
-13546 -91 0
-13546 470 0
-13547 -99 0
-13547 462 0
-466 13545 13546 13547 0
-13548 -66 0
-13548 547 0
-13549 -92 0
-13549 473 0
-13550 -102 0
-13550 463 0
-466 13548 13549 13550 0
-13551 -67 0
-13551 549 0
-13552 -93 0
-13552 475 0
-13553 -104 0
-13553 464 0
-466 13551 13552 13553 0
-13554 -68 0
-13554 550 0
-13555 -94 0
-13555 476 0
-13556 -105 0
-13556 465 0
-466 13554 13555 13556 0
-13557 -5 0
-13557 187 0
-13558 -10 0
-13558 157 0
-13559 -11 0
-13559 156 0
-467 13557 13558 13559 0
-13560 -18 0
-13560 265 0
-13561 -23 0
-13561 235 0
-13562 -24 0
-13562 234 0
-467 13560 13561 13562 0
-13563 -30 0
-13563 331 0
-13564 -35 0
-13564 301 0
-13565 -36 0
-13565 300 0
-467 13563 13564 13565 0
-13566 -41 0
-13566 386 0
-13567 -46 0
-13567 356 0
-13568 -47 0
-13568 355 0
-467 13566 13567 13568 0
-13569 -51 0
-13569 431 0
-13570 -56 0
-13570 401 0
-13571 -57 0
-13571 400 0
-467 13569 13570 13571 0
-13572 -61 0
-13572 495 0
-13573 -73 0
-13573 445 0
-13574 -74 0
-13574 444 0
-467 13572 13573 13574 0
-13575 -62 0
-13575 516 0
-13576 -80 0
-13576 452 0
-13577 -81 0
-13577 451 0
-467 13575 13576 13577 0
-13578 -63 0
-13578 531 0
-13579 -86 0
-13579 458 0
-13580 -87 0
-13580 457 0
-467 13578 13579 13580 0
-13581 -64 0
-13581 541 0
-13582 -91 0
-13582 463 0
-13583 -92 0
-13583 462 0
-467 13581 13582 13583 0
-13584 -67 0
-13584 551 0
-13585 -97 0
-13585 471 0
-13586 -100 0
-13586 468 0
-467 13584 13585 13586 0
-13587 -68 0
-13587 552 0
-13588 -98 0
-13588 472 0
-13589 -101 0
-13589 469 0
-467 13587 13588 13589 0
-13590 -69 0
-13590 553 0
-13591 -99 0
-13591 473 0
-13592 -102 0
-13592 470 0
-467 13590 13591 13592 0
-13593 -5 0
-13593 188 0
-13594 -10 0
-13594 158 0
-13595 -12 0
-13595 156 0
-468 13593 13594 13595 0
-13596 -18 0
-13596 266 0
-13597 -23 0
-13597 236 0
-13598 -25 0
-13598 234 0
-468 13596 13597 13598 0
-13599 -30 0
-13599 332 0
-13600 -35 0
-13600 302 0
-13601 -37 0
-13601 300 0
-468 13599 13600 13601 0
-13602 -41 0
-13602 387 0
-13603 -46 0
-13603 357 0
-13604 -48 0
-13604 355 0
-468 13602 13603 13604 0
-13605 -51 0
-13605 432 0
-13606 -56 0
-13606 402 0
-13607 -58 0
-13607 400 0
-468 13605 13606 13607 0
-13608 -61 0
-13608 496 0
-13609 -73 0
-13609 446 0
-13610 -75 0
-13610 444 0
-468 13608 13609 13610 0
-13611 -62 0
-13611 517 0
-13612 -80 0
-13612 453 0
-13613 -82 0
-13613 451 0
-468 13611 13612 13613 0
-13614 -63 0
-13614 532 0
-13615 -86 0
-13615 459 0
-13616 -88 0
-13616 457 0
-468 13614 13615 13616 0
-13617 -64 0
-13617 542 0
-13618 -91 0
-13618 464 0
-13619 -93 0
-13619 462 0
-468 13617 13618 13619 0
-13620 -66 0
-13620 551 0
-13621 -96 0
-13621 471 0
-13622 -100 0
-13622 467 0
-468 13620 13621 13622 0
-13623 -68 0
-13623 554 0
-13624 -98 0
-13624 474 0
-13625 -103 0
-13625 469 0
-468 13623 13624 13625 0
-13626 -69 0
-13626 555 0
-13627 -99 0
-13627 475 0
-13628 -104 0
-13628 470 0
-468 13626 13627 13628 0
-13629 -5 0
-13629 189 0
-13630 -10 0
-13630 159 0
-13631 -13 0
-13631 156 0
-469 13629 13630 13631 0
-13632 -18 0
-13632 267 0
-13633 -23 0
-13633 237 0
-13634 -26 0
-13634 234 0
-469 13632 13633 13634 0
-13635 -30 0
-13635 333 0
-13636 -35 0
-13636 303 0
-13637 -38 0
-13637 300 0
-469 13635 13636 13637 0
-13638 -41 0
-13638 388 0
-13639 -46 0
-13639 358 0
-13640 -49 0
-13640 355 0
-469 13638 13639 13640 0
-13641 -51 0
-13641 433 0
-13642 -56 0
-13642 403 0
-13643 -59 0
-13643 400 0
-469 13641 13642 13643 0
-13644 -61 0
-13644 497 0
-13645 -73 0
-13645 447 0
-13646 -76 0
-13646 444 0
-469 13644 13645 13646 0
-13647 -62 0
-13647 518 0
-13648 -80 0
-13648 454 0
-13649 -83 0
-13649 451 0
-469 13647 13648 13649 0
-13650 -63 0
-13650 533 0
-13651 -86 0
-13651 460 0
-13652 -89 0
-13652 457 0
-469 13650 13651 13652 0
-13653 -64 0
-13653 543 0
-13654 -91 0
-13654 465 0
-13655 -94 0
-13655 462 0
-469 13653 13654 13655 0
-13656 -66 0
-13656 552 0
-13657 -96 0
-13657 472 0
-13658 -101 0
-13658 467 0
-469 13656 13657 13658 0
-13659 -67 0
-13659 554 0
-13660 -97 0
-13660 474 0
-13661 -103 0
-13661 468 0
-469 13659 13660 13661 0
-13662 -69 0
-13662 556 0
-13663 -99 0
-13663 476 0
-13664 -105 0
-13664 470 0
-469 13662 13663 13664 0
-13665 -5 0
-13665 190 0
-13666 -10 0
-13666 160 0
-13667 -14 0
-13667 156 0
-470 13665 13666 13667 0
-13668 -18 0
-13668 268 0
-13669 -23 0
-13669 238 0
-13670 -27 0
-13670 234 0
-470 13668 13669 13670 0
-13671 -30 0
-13671 334 0
-13672 -35 0
-13672 304 0
-13673 -39 0
-13673 300 0
-470 13671 13672 13673 0
-13674 -41 0
-13674 389 0
-13675 -46 0
-13675 359 0
-13676 -50 0
-13676 355 0
-470 13674 13675 13676 0
-13677 -51 0
-13677 434 0
-13678 -56 0
-13678 404 0
-13679 -60 0
-13679 400 0
-470 13677 13678 13679 0
-13680 -61 0
-13680 498 0
-13681 -73 0
-13681 448 0
-13682 -77 0
-13682 444 0
-470 13680 13681 13682 0
-13683 -62 0
-13683 519 0
-13684 -80 0
-13684 455 0
-13685 -84 0
-13685 451 0
-470 13683 13684 13685 0
-13686 -63 0
-13686 534 0
-13687 -86 0
-13687 461 0
-13688 -90 0
-13688 457 0
-470 13686 13687 13688 0
-13689 -64 0
-13689 544 0
-13690 -91 0
-13690 466 0
-13691 -95 0
-13691 462 0
-470 13689 13690 13691 0
-13692 -66 0
-13692 553 0
-13693 -96 0
-13693 473 0
-13694 -102 0
-13694 467 0
-470 13692 13693 13694 0
-13695 -67 0
-13695 555 0
-13696 -97 0
-13696 475 0
-13697 -104 0
-13697 468 0
-470 13695 13696 13697 0
-13698 -68 0
-13698 556 0
-13699 -98 0
-13699 476 0
-13700 -105 0
-13700 469 0
-470 13698 13699 13700 0
-13701 -5 0
-13701 191 0
-13702 -11 0
-13702 158 0
-13703 -12 0
-13703 157 0
-471 13701 13702 13703 0
-13704 -18 0
-13704 269 0
-13705 -24 0
-13705 236 0
-13706 -25 0
-13706 235 0
-471 13704 13705 13706 0
-13707 -30 0
-13707 335 0
-13708 -36 0
-13708 302 0
-13709 -37 0
-13709 301 0
-471 13707 13708 13709 0
-13710 -41 0
-13710 390 0
-13711 -47 0
-13711 357 0
-13712 -48 0
-13712 356 0
-471 13710 13711 13712 0
-13713 -51 0
-13713 435 0
-13714 -57 0
-13714 402 0
-13715 -58 0
-13715 401 0
-471 13713 13714 13715 0
-13716 -61 0
-13716 499 0
-13717 -74 0
-13717 446 0
-13718 -75 0
-13718 445 0
-471 13716 13717 13718 0
-13719 -62 0
-13719 520 0
-13720 -81 0
-13720 453 0
-13721 -82 0
-13721 452 0
-471 13719 13720 13721 0
-13722 -63 0
-13722 535 0
-13723 -87 0
-13723 459 0
-13724 -88 0
-13724 458 0
-471 13722 13723 13724 0
-13725 -64 0
-13725 545 0
-13726 -92 0
-13726 464 0
-13727 -93 0
-13727 463 0
-471 13725 13726 13727 0
-13728 -65 0
-13728 551 0
-13729 -96 0
-13729 468 0
-13730 -97 0
-13730 467 0
-471 13728 13729 13730 0
-13731 -68 0
-13731 557 0
-13732 -101 0
-13732 474 0
-13733 -103 0
-13733 472 0
-471 13731 13732 13733 0
-13734 -69 0
-13734 558 0
-13735 -102 0
-13735 475 0
-13736 -104 0
-13736 473 0
-471 13734 13735 13736 0
-13737 -5 0
-13737 192 0
-13738 -11 0
-13738 159 0
-13739 -13 0
-13739 157 0
-472 13737 13738 13739 0
-13740 -18 0
-13740 270 0
-13741 -24 0
-13741 237 0
-13742 -26 0
-13742 235 0
-472 13740 13741 13742 0
-13743 -30 0
-13743 336 0
-13744 -36 0
-13744 303 0
-13745 -38 0
-13745 301 0
-472 13743 13744 13745 0
-13746 -41 0
-13746 391 0
-13747 -47 0
-13747 358 0
-13748 -49 0
-13748 356 0
-472 13746 13747 13748 0
-13749 -51 0
-13749 436 0
-13750 -57 0
-13750 403 0
-13751 -59 0
-13751 401 0
-472 13749 13750 13751 0
-13752 -61 0
-13752 500 0
-13753 -74 0
-13753 447 0
-13754 -76 0
-13754 445 0
-472 13752 13753 13754 0
-13755 -62 0
-13755 521 0
-13756 -81 0
-13756 454 0
-13757 -83 0
-13757 452 0
-472 13755 13756 13757 0
-13758 -63 0
-13758 536 0
-13759 -87 0
-13759 460 0
-13760 -89 0
-13760 458 0
-472 13758 13759 13760 0
-13761 -64 0
-13761 546 0
-13762 -92 0
-13762 465 0
-13763 -94 0
-13763 463 0
-472 13761 13762 13763 0
-13764 -65 0
-13764 552 0
-13765 -96 0
-13765 469 0
-13766 -98 0
-13766 467 0
-472 13764 13765 13766 0
-13767 -67 0
-13767 557 0
-13768 -100 0
-13768 474 0
-13769 -103 0
-13769 471 0
-472 13767 13768 13769 0
-13770 -69 0
-13770 559 0
-13771 -102 0
-13771 476 0
-13772 -105 0
-13772 473 0
-472 13770 13771 13772 0
-13773 -5 0
-13773 193 0
-13774 -11 0
-13774 160 0
-13775 -14 0
-13775 157 0
-473 13773 13774 13775 0
-13776 -18 0
-13776 271 0
-13777 -24 0
-13777 238 0
-13778 -27 0
-13778 235 0
-473 13776 13777 13778 0
-13779 -30 0
-13779 337 0
-13780 -36 0
-13780 304 0
-13781 -39 0
-13781 301 0
-473 13779 13780 13781 0
-13782 -41 0
-13782 392 0
-13783 -47 0
-13783 359 0
-13784 -50 0
-13784 356 0
-473 13782 13783 13784 0
-13785 -51 0
-13785 437 0
-13786 -57 0
-13786 404 0
-13787 -60 0
-13787 401 0
-473 13785 13786 13787 0
-13788 -61 0
-13788 501 0
-13789 -74 0
-13789 448 0
-13790 -77 0
-13790 445 0
-473 13788 13789 13790 0
-13791 -62 0
-13791 522 0
-13792 -81 0
-13792 455 0
-13793 -84 0
-13793 452 0
-473 13791 13792 13793 0
-13794 -63 0
-13794 537 0
-13795 -87 0
-13795 461 0
-13796 -90 0
-13796 458 0
-473 13794 13795 13796 0
-13797 -64 0
-13797 547 0
-13798 -92 0
-13798 466 0
-13799 -95 0
-13799 463 0
-473 13797 13798 13799 0
-13800 -65 0
-13800 553 0
-13801 -96 0
-13801 470 0
-13802 -99 0
-13802 467 0
-473 13800 13801 13802 0
-13803 -67 0
-13803 558 0
-13804 -100 0
-13804 475 0
-13805 -104 0
-13805 471 0
-473 13803 13804 13805 0
-13806 -68 0
-13806 559 0
-13807 -101 0
-13807 476 0
-13808 -105 0
-13808 472 0
-473 13806 13807 13808 0
-13809 -5 0
-13809 194 0
-13810 -12 0
-13810 159 0
-13811 -13 0
-13811 158 0
-474 13809 13810 13811 0
-13812 -18 0
-13812 272 0
-13813 -25 0
-13813 237 0
-13814 -26 0
-13814 236 0
-474 13812 13813 13814 0
-13815 -30 0
-13815 338 0
-13816 -37 0
-13816 303 0
-13817 -38 0
-13817 302 0
-474 13815 13816 13817 0
-13818 -41 0
-13818 393 0
-13819 -48 0
-13819 358 0
-13820 -49 0
-13820 357 0
-474 13818 13819 13820 0
-13821 -51 0
-13821 438 0
-13822 -58 0
-13822 403 0
-13823 -59 0
-13823 402 0
-474 13821 13822 13823 0
-13824 -61 0
-13824 502 0
-13825 -75 0
-13825 447 0
-13826 -76 0
-13826 446 0
-474 13824 13825 13826 0
-13827 -62 0
-13827 523 0
-13828 -82 0
-13828 454 0
-13829 -83 0
-13829 453 0
-474 13827 13828 13829 0
-13830 -63 0
-13830 538 0
-13831 -88 0
-13831 460 0
-13832 -89 0
-13832 459 0
-474 13830 13831 13832 0
-13833 -64 0
-13833 548 0
-13834 -93 0
-13834 465 0
-13835 -94 0
-13835 464 0
-474 13833 13834 13835 0
-13836 -65 0
-13836 554 0
-13837 -97 0
-13837 469 0
-13838 -98 0
-13838 468 0
-474 13836 13837 13838 0
-13839 -66 0
-13839 557 0
-13840 -100 0
-13840 472 0
-13841 -101 0
-13841 471 0
-474 13839 13840 13841 0
-13842 -69 0
-13842 560 0
-13843 -104 0
-13843 476 0
-13844 -105 0
-13844 475 0
-474 13842 13843 13844 0
-13845 -5 0
-13845 195 0
-13846 -12 0
-13846 160 0
-13847 -14 0
-13847 158 0
-475 13845 13846 13847 0
-13848 -18 0
-13848 273 0
-13849 -25 0
-13849 238 0
-13850 -27 0
-13850 236 0
-475 13848 13849 13850 0
-13851 -30 0
-13851 339 0
-13852 -37 0
-13852 304 0
-13853 -39 0
-13853 302 0
-475 13851 13852 13853 0
-13854 -41 0
-13854 394 0
-13855 -48 0
-13855 359 0
-13856 -50 0
-13856 357 0
-475 13854 13855 13856 0
-13857 -51 0
-13857 439 0
-13858 -58 0
-13858 404 0
-13859 -60 0
-13859 402 0
-475 13857 13858 13859 0
-13860 -61 0
-13860 503 0
-13861 -75 0
-13861 448 0
-13862 -77 0
-13862 446 0
-475 13860 13861 13862 0
-13863 -62 0
-13863 524 0
-13864 -82 0
-13864 455 0
-13865 -84 0
-13865 453 0
-475 13863 13864 13865 0
-13866 -63 0
-13866 539 0
-13867 -88 0
-13867 461 0
-13868 -90 0
-13868 459 0
-475 13866 13867 13868 0
-13869 -64 0
-13869 549 0
-13870 -93 0
-13870 466 0
-13871 -95 0
-13871 464 0
-475 13869 13870 13871 0
-13872 -65 0
-13872 555 0
-13873 -97 0
-13873 470 0
-13874 -99 0
-13874 468 0
-475 13872 13873 13874 0
-13875 -66 0
-13875 558 0
-13876 -100 0
-13876 473 0
-13877 -102 0
-13877 471 0
-475 13875 13876 13877 0
-13878 -68 0
-13878 560 0
-13879 -103 0
-13879 476 0
-13880 -105 0
-13880 474 0
-475 13878 13879 13880 0
-13881 -5 0
-13881 196 0
-13882 -13 0
-13882 160 0
-13883 -14 0
-13883 159 0
-476 13881 13882 13883 0
-13884 -18 0
-13884 274 0
-13885 -26 0
-13885 238 0
-13886 -27 0
-13886 237 0
-476 13884 13885 13886 0
-13887 -30 0
-13887 340 0
-13888 -38 0
-13888 304 0
-13889 -39 0
-13889 303 0
-476 13887 13888 13889 0
-13890 -41 0
-13890 395 0
-13891 -49 0
-13891 359 0
-13892 -50 0
-13892 358 0
-476 13890 13891 13892 0
-13893 -51 0
-13893 440 0
-13894 -59 0
-13894 404 0
-13895 -60 0
-13895 403 0
-476 13893 13894 13895 0
-13896 -61 0
-13896 504 0
-13897 -76 0
-13897 448 0
-13898 -77 0
-13898 447 0
-476 13896 13897 13898 0
-13899 -62 0
-13899 525 0
-13900 -83 0
-13900 455 0
-13901 -84 0
-13901 454 0
-476 13899 13900 13901 0
-13902 -63 0
-13902 540 0
-13903 -89 0
-13903 461 0
-13904 -90 0
-13904 460 0
-476 13902 13903 13904 0
-13905 -64 0
-13905 550 0
-13906 -94 0
-13906 466 0
-13907 -95 0
-13907 465 0
-476 13905 13906 13907 0
-13908 -65 0
-13908 556 0
-13909 -98 0
-13909 470 0
-13910 -99 0
-13910 469 0
-476 13908 13909 13910 0
-13911 -66 0
-13911 559 0
-13912 -101 0
-13912 473 0
-13913 -102 0
-13913 472 0
-476 13911 13912 13913 0
-13914 -67 0
-13914 560 0
-13915 -103 0
-13915 475 0
-13916 -104 0
-13916 474 0
-476 13914 13915 13916 0
-13917 -6 0
-13917 169 0
-13918 -7 0
-13918 162 0
-13919 -8 0
-13919 161 0
-477 13917 13918 13919 0
-13920 -19 0
-13920 247 0
-13921 -20 0
-13921 240 0
-13922 -21 0
-13922 239 0
-477 13920 13921 13922 0
-13923 -31 0
-13923 313 0
-13924 -32 0
-13924 306 0
-13925 -33 0
-13925 305 0
-477 13923 13924 13925 0
-13926 -42 0
-13926 368 0
-13927 -43 0
-13927 361 0
-13928 -44 0
-13928 360 0
-477 13926 13927 13928 0
-13929 -52 0
-13929 413 0
-13930 -53 0
-13930 406 0
-13931 -54 0
-13931 405 0
-477 13929 13930 13931 0
-13932 -61 0
-13932 449 0
-13933 -62 0
-13933 442 0
-13934 -63 0
-13934 441 0
-477 13932 13933 13934 0
-13935 -72 0
-13935 505 0
-13936 -79 0
-13936 484 0
-13937 -85 0
-13937 478 0
-477 13935 13936 13937 0
-13938 -73 0
-13938 506 0
-13939 -80 0
-13939 485 0
-13940 -86 0
-13940 479 0
-477 13938 13939 13940 0
-13941 -74 0
-13941 507 0
-13942 -81 0
-13942 486 0
-13943 -87 0
-13943 480 0
-477 13941 13942 13943 0
-13944 -75 0
-13944 508 0
-13945 -82 0
-13945 487 0
-13946 -88 0
-13946 481 0
-477 13944 13945 13946 0
-13947 -76 0
-13947 509 0
-13948 -83 0
-13948 488 0
-13949 -89 0
-13949 482 0
-477 13947 13948 13949 0
-13950 -77 0
-13950 510 0
-13951 -84 0
-13951 489 0
-13952 -90 0
-13952 483 0
-477 13950 13951 13952 0
-13953 -6 0
-13953 170 0
-13954 -7 0
-13954 163 0
-13955 -9 0
-13955 161 0
-478 13953 13954 13955 0
-13956 -19 0
-13956 248 0
-13957 -20 0
-13957 241 0
-13958 -22 0
-13958 239 0
-478 13956 13957 13958 0
-13959 -31 0
-13959 314 0
-13960 -32 0
-13960 307 0
-13961 -34 0
-13961 305 0
-478 13959 13960 13961 0
-13962 -42 0
-13962 369 0
-13963 -43 0
-13963 362 0
-13964 -45 0
-13964 360 0
-478 13962 13963 13964 0
-13965 -52 0
-13965 414 0
-13966 -53 0
-13966 407 0
-13967 -55 0
-13967 405 0
-478 13965 13966 13967 0
-13968 -61 0
-13968 450 0
-13969 -62 0
-13969 443 0
-13970 -64 0
-13970 441 0
-478 13968 13969 13970 0
-13971 -71 0
-13971 505 0
-13972 -78 0
-13972 484 0
-13973 -85 0
-13973 477 0
-478 13971 13972 13973 0
-13974 -73 0
-13974 511 0
-13975 -80 0
-13975 490 0
-13976 -91 0
-13976 479 0
-478 13974 13975 13976 0
-13977 -74 0
-13977 512 0
-13978 -81 0
-13978 491 0
-13979 -92 0
-13979 480 0
-478 13977 13978 13979 0
-13980 -75 0
-13980 513 0
-13981 -82 0
-13981 492 0
-13982 -93 0
-13982 481 0
-478 13980 13981 13982 0
-13983 -76 0
-13983 514 0
-13984 -83 0
-13984 493 0
-13985 -94 0
-13985 482 0
-478 13983 13984 13985 0
-13986 -77 0
-13986 515 0
-13987 -84 0
-13987 494 0
-13988 -95 0
-13988 483 0
-478 13986 13987 13988 0
-13989 -6 0
-13989 171 0
-13990 -7 0
-13990 164 0
-13991 -10 0
-13991 161 0
-479 13989 13990 13991 0
-13992 -19 0
-13992 249 0
-13993 -20 0
-13993 242 0
-13994 -23 0
-13994 239 0
-479 13992 13993 13994 0
-13995 -31 0
-13995 315 0
-13996 -32 0
-13996 308 0
-13997 -35 0
-13997 305 0
-479 13995 13996 13997 0
-13998 -42 0
-13998 370 0
-13999 -43 0
-13999 363 0
-14000 -46 0
-14000 360 0
-479 13998 13999 14000 0
-14001 -52 0
-14001 415 0
-14002 -53 0
-14002 408 0
-14003 -56 0
-14003 405 0
-479 14001 14002 14003 0
-14004 -61 0
-14004 451 0
-14005 -62 0
-14005 444 0
-14006 -65 0
-14006 441 0
-479 14004 14005 14006 0
-14007 -71 0
-14007 506 0
-14008 -78 0
-14008 485 0
-14009 -86 0
-14009 477 0
-479 14007 14008 14009 0
-14010 -72 0
-14010 511 0
-14011 -79 0
-14011 490 0
-14012 -91 0
-14012 478 0
-479 14010 14011 14012 0
-14013 -74 0
-14013 516 0
-14014 -81 0
-14014 495 0
-14015 -96 0
-14015 480 0
-479 14013 14014 14015 0
-14016 -75 0
-14016 517 0
-14017 -82 0
-14017 496 0
-14018 -97 0
-14018 481 0
-479 14016 14017 14018 0
-14019 -76 0
-14019 518 0
-14020 -83 0
-14020 497 0
-14021 -98 0
-14021 482 0
-479 14019 14020 14021 0
-14022 -77 0
-14022 519 0
-14023 -84 0
-14023 498 0
-14024 -99 0
-14024 483 0
-479 14022 14023 14024 0
-14025 -6 0
-14025 172 0
-14026 -7 0
-14026 165 0
-14027 -11 0
-14027 161 0
-480 14025 14026 14027 0
-14028 -19 0
-14028 250 0
-14029 -20 0
-14029 243 0
-14030 -24 0
-14030 239 0
-480 14028 14029 14030 0
-14031 -31 0
-14031 316 0
-14032 -32 0
-14032 309 0
-14033 -36 0
-14033 305 0
-480 14031 14032 14033 0
-14034 -42 0
-14034 371 0
-14035 -43 0
-14035 364 0
-14036 -47 0
-14036 360 0
-480 14034 14035 14036 0
-14037 -52 0
-14037 416 0
-14038 -53 0
-14038 409 0
-14039 -57 0
-14039 405 0
-480 14037 14038 14039 0
-14040 -61 0
-14040 452 0
-14041 -62 0
-14041 445 0
-14042 -66 0
-14042 441 0
-480 14040 14041 14042 0
-14043 -71 0
-14043 507 0
-14044 -78 0
-14044 486 0
-14045 -87 0
-14045 477 0
-480 14043 14044 14045 0
-14046 -72 0
-14046 512 0
-14047 -79 0
-14047 491 0
-14048 -92 0
-14048 478 0
-480 14046 14047 14048 0
-14049 -73 0
-14049 516 0
-14050 -80 0
-14050 495 0
-14051 -96 0
-14051 479 0
-480 14049 14050 14051 0
-14052 -75 0
-14052 520 0
-14053 -82 0
-14053 499 0
-14054 -100 0
-14054 481 0
-480 14052 14053 14054 0
-14055 -76 0
-14055 521 0
-14056 -83 0
-14056 500 0
-14057 -101 0
-14057 482 0
-480 14055 14056 14057 0
-14058 -77 0
-14058 522 0
-14059 -84 0
-14059 501 0
-14060 -102 0
-14060 483 0
-480 14058 14059 14060 0
-14061 -6 0
-14061 173 0
-14062 -7 0
-14062 166 0
-14063 -12 0
-14063 161 0
-481 14061 14062 14063 0
-14064 -19 0
-14064 251 0
-14065 -20 0
-14065 244 0
-14066 -25 0
-14066 239 0
-481 14064 14065 14066 0
-14067 -31 0
-14067 317 0
-14068 -32 0
-14068 310 0
-14069 -37 0
-14069 305 0
-481 14067 14068 14069 0
-14070 -42 0
-14070 372 0
-14071 -43 0
-14071 365 0
-14072 -48 0
-14072 360 0
-481 14070 14071 14072 0
-14073 -52 0
-14073 417 0
-14074 -53 0
-14074 410 0
-14075 -58 0
-14075 405 0
-481 14073 14074 14075 0
-14076 -61 0
-14076 453 0
-14077 -62 0
-14077 446 0
-14078 -67 0
-14078 441 0
-481 14076 14077 14078 0
-14079 -71 0
-14079 508 0
-14080 -78 0
-14080 487 0
-14081 -88 0
-14081 477 0
-481 14079 14080 14081 0
-14082 -72 0
-14082 513 0
-14083 -79 0
-14083 492 0
-14084 -93 0
-14084 478 0
-481 14082 14083 14084 0
-14085 -73 0
-14085 517 0
-14086 -80 0
-14086 496 0
-14087 -97 0
-14087 479 0
-481 14085 14086 14087 0
-14088 -74 0
-14088 520 0
-14089 -81 0
-14089 499 0
-14090 -100 0
-14090 480 0
-481 14088 14089 14090 0
-14091 -76 0
-14091 523 0
-14092 -83 0
-14092 502 0
-14093 -103 0
-14093 482 0
-481 14091 14092 14093 0
-14094 -77 0
-14094 524 0
-14095 -84 0
-14095 503 0
-14096 -104 0
-14096 483 0
-481 14094 14095 14096 0
-14097 -6 0
-14097 174 0
-14098 -7 0
-14098 167 0
-14099 -13 0
-14099 161 0
-482 14097 14098 14099 0
-14100 -19 0
-14100 252 0
-14101 -20 0
-14101 245 0
-14102 -26 0
-14102 239 0
-482 14100 14101 14102 0
-14103 -31 0
-14103 318 0
-14104 -32 0
-14104 311 0
-14105 -38 0
-14105 305 0
-482 14103 14104 14105 0
-14106 -42 0
-14106 373 0
-14107 -43 0
-14107 366 0
-14108 -49 0
-14108 360 0
-482 14106 14107 14108 0
-14109 -52 0
-14109 418 0
-14110 -53 0
-14110 411 0
-14111 -59 0
-14111 405 0
-482 14109 14110 14111 0
-14112 -61 0
-14112 454 0
-14113 -62 0
-14113 447 0
-14114 -68 0
-14114 441 0
-482 14112 14113 14114 0
-14115 -71 0
-14115 509 0
-14116 -78 0
-14116 488 0
-14117 -89 0
-14117 477 0
-482 14115 14116 14117 0
-14118 -72 0
-14118 514 0
-14119 -79 0
-14119 493 0
-14120 -94 0
-14120 478 0
-482 14118 14119 14120 0
-14121 -73 0
-14121 518 0
-14122 -80 0
-14122 497 0
-14123 -98 0
-14123 479 0
-482 14121 14122 14123 0
-14124 -74 0
-14124 521 0
-14125 -81 0
-14125 500 0
-14126 -101 0
-14126 480 0
-482 14124 14125 14126 0
-14127 -75 0
-14127 523 0
-14128 -82 0
-14128 502 0
-14129 -103 0
-14129 481 0
-482 14127 14128 14129 0
-14130 -77 0
-14130 525 0
-14131 -84 0
-14131 504 0
-14132 -105 0
-14132 483 0
-482 14130 14131 14132 0
-14133 -6 0
-14133 175 0
-14134 -7 0
-14134 168 0
-14135 -14 0
-14135 161 0
-483 14133 14134 14135 0
-14136 -19 0
-14136 253 0
-14137 -20 0
-14137 246 0
-14138 -27 0
-14138 239 0
-483 14136 14137 14138 0
-14139 -31 0
-14139 319 0
-14140 -32 0
-14140 312 0
-14141 -39 0
-14141 305 0
-483 14139 14140 14141 0
-14142 -42 0
-14142 374 0
-14143 -43 0
-14143 367 0
-14144 -50 0
-14144 360 0
-483 14142 14143 14144 0
-14145 -52 0
-14145 419 0
-14146 -53 0
-14146 412 0
-14147 -60 0
-14147 405 0
-483 14145 14146 14147 0
-14148 -61 0
-14148 455 0
-14149 -62 0
-14149 448 0
-14150 -69 0
-14150 441 0
-483 14148 14149 14150 0
-14151 -71 0
-14151 510 0
-14152 -78 0
-14152 489 0
-14153 -90 0
-14153 477 0
-483 14151 14152 14153 0
-14154 -72 0
-14154 515 0
-14155 -79 0
-14155 494 0
-14156 -95 0
-14156 478 0
-483 14154 14155 14156 0
-14157 -73 0
-14157 519 0
-14158 -80 0
-14158 498 0
-14159 -99 0
-14159 479 0
-483 14157 14158 14159 0
-14160 -74 0
-14160 522 0
-14161 -81 0
-14161 501 0
-14162 -102 0
-14162 480 0
-483 14160 14161 14162 0
-14163 -75 0
-14163 524 0
-14164 -82 0
-14164 503 0
-14165 -104 0
-14165 481 0
-483 14163 14164 14165 0
-14166 -76 0
-14166 525 0
-14167 -83 0
-14167 504 0
-14168 -105 0
-14168 482 0
-483 14166 14167 14168 0
-14169 -6 0
-14169 176 0
-14170 -8 0
-14170 163 0
-14171 -9 0
-14171 162 0
-484 14169 14170 14171 0
-14172 -19 0
-14172 254 0
-14173 -21 0
-14173 241 0
-14174 -22 0
-14174 240 0
-484 14172 14173 14174 0
-14175 -31 0
-14175 320 0
-14176 -33 0
-14176 307 0
-14177 -34 0
-14177 306 0
-484 14175 14176 14177 0
-14178 -42 0
-14178 375 0
-14179 -44 0
-14179 362 0
-14180 -45 0
-14180 361 0
-484 14178 14179 14180 0
-14181 -52 0
-14181 420 0
-14182 -54 0
-14182 407 0
-14183 -55 0
-14183 406 0
-484 14181 14182 14183 0
-14184 -61 0
-14184 456 0
-14185 -63 0
-14185 443 0
-14186 -64 0
-14186 442 0
-484 14184 14185 14186 0
-14187 -70 0
-14187 505 0
-14188 -78 0
-14188 478 0
-14189 -79 0
-14189 477 0
-484 14187 14188 14189 0
-14190 -73 0
-14190 526 0
-14191 -86 0
-14191 490 0
-14192 -91 0
-14192 485 0
-484 14190 14191 14192 0
-14193 -74 0
-14193 527 0
-14194 -87 0
-14194 491 0
-14195 -92 0
-14195 486 0
-484 14193 14194 14195 0
-14196 -75 0
-14196 528 0
-14197 -88 0
-14197 492 0
-14198 -93 0
-14198 487 0
-484 14196 14197 14198 0
-14199 -76 0
-14199 529 0
-14200 -89 0
-14200 493 0
-14201 -94 0
-14201 488 0
-484 14199 14200 14201 0
-14202 -77 0
-14202 530 0
-14203 -90 0
-14203 494 0
-14204 -95 0
-14204 489 0
-484 14202 14203 14204 0
-14205 -6 0
-14205 177 0
-14206 -8 0
-14206 164 0
-14207 -10 0
-14207 162 0
-485 14205 14206 14207 0
-14208 -19 0
-14208 255 0
-14209 -21 0
-14209 242 0
-14210 -23 0
-14210 240 0
-485 14208 14209 14210 0
-14211 -31 0
-14211 321 0
-14212 -33 0
-14212 308 0
-14213 -35 0
-14213 306 0
-485 14211 14212 14213 0
-14214 -42 0
-14214 376 0
-14215 -44 0
-14215 363 0
-14216 -46 0
-14216 361 0
-485 14214 14215 14216 0
-14217 -52 0
-14217 421 0
-14218 -54 0
-14218 408 0
-14219 -56 0
-14219 406 0
-485 14217 14218 14219 0
-14220 -61 0
-14220 457 0
-14221 -63 0
-14221 444 0
-14222 -65 0
-14222 442 0
-485 14220 14221 14222 0
-14223 -70 0
-14223 506 0
-14224 -78 0
-14224 479 0
-14225 -80 0
-14225 477 0
-485 14223 14224 14225 0
-14226 -72 0
-14226 526 0
-14227 -85 0
-14227 490 0
-14228 -91 0
-14228 484 0
-485 14226 14227 14228 0
-14229 -74 0
-14229 531 0
-14230 -87 0
-14230 495 0
-14231 -96 0
-14231 486 0
-485 14229 14230 14231 0
-14232 -75 0
-14232 532 0
-14233 -88 0
-14233 496 0
-14234 -97 0
-14234 487 0
-485 14232 14233 14234 0
-14235 -76 0
-14235 533 0
-14236 -89 0
-14236 497 0
-14237 -98 0
-14237 488 0
-485 14235 14236 14237 0
-14238 -77 0
-14238 534 0
-14239 -90 0
-14239 498 0
-14240 -99 0
-14240 489 0
-485 14238 14239 14240 0
-14241 -6 0
-14241 178 0
-14242 -8 0
-14242 165 0
-14243 -11 0
-14243 162 0
-486 14241 14242 14243 0
-14244 -19 0
-14244 256 0
-14245 -21 0
-14245 243 0
-14246 -24 0
-14246 240 0
-486 14244 14245 14246 0
-14247 -31 0
-14247 322 0
-14248 -33 0
-14248 309 0
-14249 -36 0
-14249 306 0
-486 14247 14248 14249 0
-14250 -42 0
-14250 377 0
-14251 -44 0
-14251 364 0
-14252 -47 0
-14252 361 0
-486 14250 14251 14252 0
-14253 -52 0
-14253 422 0
-14254 -54 0
-14254 409 0
-14255 -57 0
-14255 406 0
-486 14253 14254 14255 0
-14256 -61 0
-14256 458 0
-14257 -63 0
-14257 445 0
-14258 -66 0
-14258 442 0
-486 14256 14257 14258 0
-14259 -70 0
-14259 507 0
-14260 -78 0
-14260 480 0
-14261 -81 0
-14261 477 0
-486 14259 14260 14261 0
-14262 -72 0
-14262 527 0
-14263 -85 0
-14263 491 0
-14264 -92 0
-14264 484 0
-486 14262 14263 14264 0
-14265 -73 0
-14265 531 0
-14266 -86 0
-14266 495 0
-14267 -96 0
-14267 485 0
-486 14265 14266 14267 0
-14268 -75 0
-14268 535 0
-14269 -88 0
-14269 499 0
-14270 -100 0
-14270 487 0
-486 14268 14269 14270 0
-14271 -76 0
-14271 536 0
-14272 -89 0
-14272 500 0
-14273 -101 0
-14273 488 0
-486 14271 14272 14273 0
-14274 -77 0
-14274 537 0
-14275 -90 0
-14275 501 0
-14276 -102 0
-14276 489 0
-486 14274 14275 14276 0
-14277 -6 0
-14277 179 0
-14278 -8 0
-14278 166 0
-14279 -12 0
-14279 162 0
-487 14277 14278 14279 0
-14280 -19 0
-14280 257 0
-14281 -21 0
-14281 244 0
-14282 -25 0
-14282 240 0
-487 14280 14281 14282 0
-14283 -31 0
-14283 323 0
-14284 -33 0
-14284 310 0
-14285 -37 0
-14285 306 0
-487 14283 14284 14285 0
-14286 -42 0
-14286 378 0
-14287 -44 0
-14287 365 0
-14288 -48 0
-14288 361 0
-487 14286 14287 14288 0
-14289 -52 0
-14289 423 0
-14290 -54 0
-14290 410 0
-14291 -58 0
-14291 406 0
-487 14289 14290 14291 0
-14292 -61 0
-14292 459 0
-14293 -63 0
-14293 446 0
-14294 -67 0
-14294 442 0
-487 14292 14293 14294 0
-14295 -70 0
-14295 508 0
-14296 -78 0
-14296 481 0
-14297 -82 0
-14297 477 0
-487 14295 14296 14297 0
-14298 -72 0
-14298 528 0
-14299 -85 0
-14299 492 0
-14300 -93 0
-14300 484 0
-487 14298 14299 14300 0
-14301 -73 0
-14301 532 0
-14302 -86 0
-14302 496 0
-14303 -97 0
-14303 485 0
-487 14301 14302 14303 0
-14304 -74 0
-14304 535 0
-14305 -87 0
-14305 499 0
-14306 -100 0
-14306 486 0
-487 14304 14305 14306 0
-14307 -76 0
-14307 538 0
-14308 -89 0
-14308 502 0
-14309 -103 0
-14309 488 0
-487 14307 14308 14309 0
-14310 -77 0
-14310 539 0
-14311 -90 0
-14311 503 0
-14312 -104 0
-14312 489 0
-487 14310 14311 14312 0
-14313 -6 0
-14313 180 0
-14314 -8 0
-14314 167 0
-14315 -13 0
-14315 162 0
-488 14313 14314 14315 0
-14316 -19 0
-14316 258 0
-14317 -21 0
-14317 245 0
-14318 -26 0
-14318 240 0
-488 14316 14317 14318 0
-14319 -31 0
-14319 324 0
-14320 -33 0
-14320 311 0
-14321 -38 0
-14321 306 0
-488 14319 14320 14321 0
-14322 -42 0
-14322 379 0
-14323 -44 0
-14323 366 0
-14324 -49 0
-14324 361 0
-488 14322 14323 14324 0
-14325 -52 0
-14325 424 0
-14326 -54 0
-14326 411 0
-14327 -59 0
-14327 406 0
-488 14325 14326 14327 0
-14328 -61 0
-14328 460 0
-14329 -63 0
-14329 447 0
-14330 -68 0
-14330 442 0
-488 14328 14329 14330 0
-14331 -70 0
-14331 509 0
-14332 -78 0
-14332 482 0
-14333 -83 0
-14333 477 0
-488 14331 14332 14333 0
-14334 -72 0
-14334 529 0
-14335 -85 0
-14335 493 0
-14336 -94 0
-14336 484 0
-488 14334 14335 14336 0
-14337 -73 0
-14337 533 0
-14338 -86 0
-14338 497 0
-14339 -98 0
-14339 485 0
-488 14337 14338 14339 0
-14340 -74 0
-14340 536 0
-14341 -87 0
-14341 500 0
-14342 -101 0
-14342 486 0
-488 14340 14341 14342 0
-14343 -75 0
-14343 538 0
-14344 -88 0
-14344 502 0
-14345 -103 0
-14345 487 0
-488 14343 14344 14345 0
-14346 -77 0
-14346 540 0
-14347 -90 0
-14347 504 0
-14348 -105 0
-14348 489 0
-488 14346 14347 14348 0
-14349 -6 0
-14349 181 0
-14350 -8 0
-14350 168 0
-14351 -14 0
-14351 162 0
-489 14349 14350 14351 0
-14352 -19 0
-14352 259 0
-14353 -21 0
-14353 246 0
-14354 -27 0
-14354 240 0
-489 14352 14353 14354 0
-14355 -31 0
-14355 325 0
-14356 -33 0
-14356 312 0
-14357 -39 0
-14357 306 0
-489 14355 14356 14357 0
-14358 -42 0
-14358 380 0
-14359 -44 0
-14359 367 0
-14360 -50 0
-14360 361 0
-489 14358 14359 14360 0
-14361 -52 0
-14361 425 0
-14362 -54 0
-14362 412 0
-14363 -60 0
-14363 406 0
-489 14361 14362 14363 0
-14364 -61 0
-14364 461 0
-14365 -63 0
-14365 448 0
-14366 -69 0
-14366 442 0
-489 14364 14365 14366 0
-14367 -70 0
-14367 510 0
-14368 -78 0
-14368 483 0
-14369 -84 0
-14369 477 0
-489 14367 14368 14369 0
-14370 -72 0
-14370 530 0
-14371 -85 0
-14371 494 0
-14372 -95 0
-14372 484 0
-489 14370 14371 14372 0
-14373 -73 0
-14373 534 0
-14374 -86 0
-14374 498 0
-14375 -99 0
-14375 485 0
-489 14373 14374 14375 0
-14376 -74 0
-14376 537 0
-14377 -87 0
-14377 501 0
-14378 -102 0
-14378 486 0
-489 14376 14377 14378 0
-14379 -75 0
-14379 539 0
-14380 -88 0
-14380 503 0
-14381 -104 0
-14381 487 0
-489 14379 14380 14381 0
-14382 -76 0
-14382 540 0
-14383 -89 0
-14383 504 0
-14384 -105 0
-14384 488 0
-489 14382 14383 14384 0
-14385 -6 0
-14385 182 0
-14386 -9 0
-14386 164 0
-14387 -10 0
-14387 163 0
-490 14385 14386 14387 0
-14388 -19 0
-14388 260 0
-14389 -22 0
-14389 242 0
-14390 -23 0
-14390 241 0
-490 14388 14389 14390 0
-14391 -31 0
-14391 326 0
-14392 -34 0
-14392 308 0
-14393 -35 0
-14393 307 0
-490 14391 14392 14393 0
-14394 -42 0
-14394 381 0
-14395 -45 0
-14395 363 0
-14396 -46 0
-14396 362 0
-490 14394 14395 14396 0
-14397 -52 0
-14397 426 0
-14398 -55 0
-14398 408 0
-14399 -56 0
-14399 407 0
-490 14397 14398 14399 0
-14400 -61 0
-14400 462 0
-14401 -64 0
-14401 444 0
-14402 -65 0
-14402 443 0
-490 14400 14401 14402 0
-14403 -70 0
-14403 511 0
-14404 -79 0
-14404 479 0
-14405 -80 0
-14405 478 0
-490 14403 14404 14405 0
-14406 -71 0
-14406 526 0
-14407 -85 0
-14407 485 0
-14408 -86 0
-14408 484 0
-490 14406 14407 14408 0
-14409 -74 0
-14409 541 0
-14410 -92 0
-14410 495 0
-14411 -96 0
-14411 491 0
-490 14409 14410 14411 0
-14412 -75 0
-14412 542 0
-14413 -93 0
-14413 496 0
-14414 -97 0
-14414 492 0
-490 14412 14413 14414 0
-14415 -76 0
-14415 543 0
-14416 -94 0
-14416 497 0
-14417 -98 0
-14417 493 0
-490 14415 14416 14417 0
-14418 -77 0
-14418 544 0
-14419 -95 0
-14419 498 0
-14420 -99 0
-14420 494 0
-490 14418 14419 14420 0
-14421 -6 0
-14421 183 0
-14422 -9 0
-14422 165 0
-14423 -11 0
-14423 163 0
-491 14421 14422 14423 0
-14424 -19 0
-14424 261 0
-14425 -22 0
-14425 243 0
-14426 -24 0
-14426 241 0
-491 14424 14425 14426 0
-14427 -31 0
-14427 327 0
-14428 -34 0
-14428 309 0
-14429 -36 0
-14429 307 0
-491 14427 14428 14429 0
-14430 -42 0
-14430 382 0
-14431 -45 0
-14431 364 0
-14432 -47 0
-14432 362 0
-491 14430 14431 14432 0
-14433 -52 0
-14433 427 0
-14434 -55 0
-14434 409 0
-14435 -57 0
-14435 407 0
-491 14433 14434 14435 0
-14436 -61 0
-14436 463 0
-14437 -64 0
-14437 445 0
-14438 -66 0
-14438 443 0
-491 14436 14437 14438 0
-14439 -70 0
-14439 512 0
-14440 -79 0
-14440 480 0
-14441 -81 0
-14441 478 0
-491 14439 14440 14441 0
-14442 -71 0
-14442 527 0
-14443 -85 0
-14443 486 0
-14444 -87 0
-14444 484 0
-491 14442 14443 14444 0
-14445 -73 0
-14445 541 0
-14446 -91 0
-14446 495 0
-14447 -96 0
-14447 490 0
-491 14445 14446 14447 0
-14448 -75 0
-14448 545 0
-14449 -93 0
-14449 499 0
-14450 -100 0
-14450 492 0
-491 14448 14449 14450 0
-14451 -76 0
-14451 546 0
-14452 -94 0
-14452 500 0
-14453 -101 0
-14453 493 0
-491 14451 14452 14453 0
-14454 -77 0
-14454 547 0
-14455 -95 0
-14455 501 0
-14456 -102 0
-14456 494 0
-491 14454 14455 14456 0
-14457 -6 0
-14457 184 0
-14458 -9 0
-14458 166 0
-14459 -12 0
-14459 163 0
-492 14457 14458 14459 0
-14460 -19 0
-14460 262 0
-14461 -22 0
-14461 244 0
-14462 -25 0
-14462 241 0
-492 14460 14461 14462 0
-14463 -31 0
-14463 328 0
-14464 -34 0
-14464 310 0
-14465 -37 0
-14465 307 0
-492 14463 14464 14465 0
-14466 -42 0
-14466 383 0
-14467 -45 0
-14467 365 0
-14468 -48 0
-14468 362 0
-492 14466 14467 14468 0
-14469 -52 0
-14469 428 0
-14470 -55 0
-14470 410 0
-14471 -58 0
-14471 407 0
-492 14469 14470 14471 0
-14472 -61 0
-14472 464 0
-14473 -64 0
-14473 446 0
-14474 -67 0
-14474 443 0
-492 14472 14473 14474 0
-14475 -70 0
-14475 513 0
-14476 -79 0
-14476 481 0
-14477 -82 0
-14477 478 0
-492 14475 14476 14477 0
-14478 -71 0
-14478 528 0
-14479 -85 0
-14479 487 0
-14480 -88 0
-14480 484 0
-492 14478 14479 14480 0
-14481 -73 0
-14481 542 0
-14482 -91 0
-14482 496 0
-14483 -97 0
-14483 490 0
-492 14481 14482 14483 0
-14484 -74 0
-14484 545 0
-14485 -92 0
-14485 499 0
-14486 -100 0
-14486 491 0
-492 14484 14485 14486 0
-14487 -76 0
-14487 548 0
-14488 -94 0
-14488 502 0
-14489 -103 0
-14489 493 0
-492 14487 14488 14489 0
-14490 -77 0
-14490 549 0
-14491 -95 0
-14491 503 0
-14492 -104 0
-14492 494 0
-492 14490 14491 14492 0
-14493 -6 0
-14493 185 0
-14494 -9 0
-14494 167 0
-14495 -13 0
-14495 163 0
-493 14493 14494 14495 0
-14496 -19 0
-14496 263 0
-14497 -22 0
-14497 245 0
-14498 -26 0
-14498 241 0
-493 14496 14497 14498 0
-14499 -31 0
-14499 329 0
-14500 -34 0
-14500 311 0
-14501 -38 0
-14501 307 0
-493 14499 14500 14501 0
-14502 -42 0
-14502 384 0
-14503 -45 0
-14503 366 0
-14504 -49 0
-14504 362 0
-493 14502 14503 14504 0
-14505 -52 0
-14505 429 0
-14506 -55 0
-14506 411 0
-14507 -59 0
-14507 407 0
-493 14505 14506 14507 0
-14508 -61 0
-14508 465 0
-14509 -64 0
-14509 447 0
-14510 -68 0
-14510 443 0
-493 14508 14509 14510 0
-14511 -70 0
-14511 514 0
-14512 -79 0
-14512 482 0
-14513 -83 0
-14513 478 0
-493 14511 14512 14513 0
-14514 -71 0
-14514 529 0
-14515 -85 0
-14515 488 0
-14516 -89 0
-14516 484 0
-493 14514 14515 14516 0
-14517 -73 0
-14517 543 0
-14518 -91 0
-14518 497 0
-14519 -98 0
-14519 490 0
-493 14517 14518 14519 0
-14520 -74 0
-14520 546 0
-14521 -92 0
-14521 500 0
-14522 -101 0
-14522 491 0
-493 14520 14521 14522 0
-14523 -75 0
-14523 548 0
-14524 -93 0
-14524 502 0
-14525 -103 0
-14525 492 0
-493 14523 14524 14525 0
-14526 -77 0
-14526 550 0
-14527 -95 0
-14527 504 0
-14528 -105 0
-14528 494 0
-493 14526 14527 14528 0
-14529 -6 0
-14529 186 0
-14530 -9 0
-14530 168 0
-14531 -14 0
-14531 163 0
-494 14529 14530 14531 0
-14532 -19 0
-14532 264 0
-14533 -22 0
-14533 246 0
-14534 -27 0
-14534 241 0
-494 14532 14533 14534 0
-14535 -31 0
-14535 330 0
-14536 -34 0
-14536 312 0
-14537 -39 0
-14537 307 0
-494 14535 14536 14537 0
-14538 -42 0
-14538 385 0
-14539 -45 0
-14539 367 0
-14540 -50 0
-14540 362 0
-494 14538 14539 14540 0
-14541 -52 0
-14541 430 0
-14542 -55 0
-14542 412 0
-14543 -60 0
-14543 407 0
-494 14541 14542 14543 0
-14544 -61 0
-14544 466 0
-14545 -64 0
-14545 448 0
-14546 -69 0
-14546 443 0
-494 14544 14545 14546 0
-14547 -70 0
-14547 515 0
-14548 -79 0
-14548 483 0
-14549 -84 0
-14549 478 0
-494 14547 14548 14549 0
-14550 -71 0
-14550 530 0
-14551 -85 0
-14551 489 0
-14552 -90 0
-14552 484 0
-494 14550 14551 14552 0
-14553 -73 0
-14553 544 0
-14554 -91 0
-14554 498 0
-14555 -99 0
-14555 490 0
-494 14553 14554 14555 0
-14556 -74 0
-14556 547 0
-14557 -92 0
-14557 501 0
-14558 -102 0
-14558 491 0
-494 14556 14557 14558 0
-14559 -75 0
-14559 549 0
-14560 -93 0
-14560 503 0
-14561 -104 0
-14561 492 0
-494 14559 14560 14561 0
-14562 -76 0
-14562 550 0
-14563 -94 0
-14563 504 0
-14564 -105 0
-14564 493 0
-494 14562 14563 14564 0
-14565 -6 0
-14565 187 0
-14566 -10 0
-14566 165 0
-14567 -11 0
-14567 164 0
-495 14565 14566 14567 0
-14568 -19 0
-14568 265 0
-14569 -23 0
-14569 243 0
-14570 -24 0
-14570 242 0
-495 14568 14569 14570 0
-14571 -31 0
-14571 331 0
-14572 -35 0
-14572 309 0
-14573 -36 0
-14573 308 0
-495 14571 14572 14573 0
-14574 -42 0
-14574 386 0
-14575 -46 0
-14575 364 0
-14576 -47 0
-14576 363 0
-495 14574 14575 14576 0
-14577 -52 0
-14577 431 0
-14578 -56 0
-14578 409 0
-14579 -57 0
-14579 408 0
-495 14577 14578 14579 0
-14580 -61 0
-14580 467 0
-14581 -65 0
-14581 445 0
-14582 -66 0
-14582 444 0
-495 14580 14581 14582 0
-14583 -70 0
-14583 516 0
-14584 -80 0
-14584 480 0
-14585 -81 0
-14585 479 0
-495 14583 14584 14585 0
-14586 -71 0
-14586 531 0
-14587 -86 0
-14587 486 0
-14588 -87 0
-14588 485 0
-495 14586 14587 14588 0
-14589 -72 0
-14589 541 0
-14590 -91 0
-14590 491 0
-14591 -92 0
-14591 490 0
-495 14589 14590 14591 0
-14592 -75 0
-14592 551 0
-14593 -97 0
-14593 499 0
-14594 -100 0
-14594 496 0
-495 14592 14593 14594 0
-14595 -76 0
-14595 552 0
-14596 -98 0
-14596 500 0
-14597 -101 0
-14597 497 0
-495 14595 14596 14597 0
-14598 -77 0
-14598 553 0
-14599 -99 0
-14599 501 0
-14600 -102 0
-14600 498 0
-495 14598 14599 14600 0
-14601 -6 0
-14601 188 0
-14602 -10 0
-14602 166 0
-14603 -12 0
-14603 164 0
-496 14601 14602 14603 0
-14604 -19 0
-14604 266 0
-14605 -23 0
-14605 244 0
-14606 -25 0
-14606 242 0
-496 14604 14605 14606 0
-14607 -31 0
-14607 332 0
-14608 -35 0
-14608 310 0
-14609 -37 0
-14609 308 0
-496 14607 14608 14609 0
-14610 -42 0
-14610 387 0
-14611 -46 0
-14611 365 0
-14612 -48 0
-14612 363 0
-496 14610 14611 14612 0
-14613 -52 0
-14613 432 0
-14614 -56 0
-14614 410 0
-14615 -58 0
-14615 408 0
-496 14613 14614 14615 0
-14616 -61 0
-14616 468 0
-14617 -65 0
-14617 446 0
-14618 -67 0
-14618 444 0
-496 14616 14617 14618 0
-14619 -70 0
-14619 517 0
-14620 -80 0
-14620 481 0
-14621 -82 0
-14621 479 0
-496 14619 14620 14621 0
-14622 -71 0
-14622 532 0
-14623 -86 0
-14623 487 0
-14624 -88 0
-14624 485 0
-496 14622 14623 14624 0
-14625 -72 0
-14625 542 0
-14626 -91 0
-14626 492 0
-14627 -93 0
-14627 490 0
-496 14625 14626 14627 0
-14628 -74 0
-14628 551 0
-14629 -96 0
-14629 499 0
-14630 -100 0
-14630 495 0
-496 14628 14629 14630 0
-14631 -76 0
-14631 554 0
-14632 -98 0
-14632 502 0
-14633 -103 0
-14633 497 0
-496 14631 14632 14633 0
-14634 -77 0
-14634 555 0
-14635 -99 0
-14635 503 0
-14636 -104 0
-14636 498 0
-496 14634 14635 14636 0
-14637 -6 0
-14637 189 0
-14638 -10 0
-14638 167 0
-14639 -13 0
-14639 164 0
-497 14637 14638 14639 0
-14640 -19 0
-14640 267 0
-14641 -23 0
-14641 245 0
-14642 -26 0
-14642 242 0
-497 14640 14641 14642 0
-14643 -31 0
-14643 333 0
-14644 -35 0
-14644 311 0
-14645 -38 0
-14645 308 0
-497 14643 14644 14645 0
-14646 -42 0
-14646 388 0
-14647 -46 0
-14647 366 0
-14648 -49 0
-14648 363 0
-497 14646 14647 14648 0
-14649 -52 0
-14649 433 0
-14650 -56 0
-14650 411 0
-14651 -59 0
-14651 408 0
-497 14649 14650 14651 0
-14652 -61 0
-14652 469 0
-14653 -65 0
-14653 447 0
-14654 -68 0
-14654 444 0
-497 14652 14653 14654 0
-14655 -70 0
-14655 518 0
-14656 -80 0
-14656 482 0
-14657 -83 0
-14657 479 0
-497 14655 14656 14657 0
-14658 -71 0
-14658 533 0
-14659 -86 0
-14659 488 0
-14660 -89 0
-14660 485 0
-497 14658 14659 14660 0
-14661 -72 0
-14661 543 0
-14662 -91 0
-14662 493 0
-14663 -94 0
-14663 490 0
-497 14661 14662 14663 0
-14664 -74 0
-14664 552 0
-14665 -96 0
-14665 500 0
-14666 -101 0
-14666 495 0
-497 14664 14665 14666 0
-14667 -75 0
-14667 554 0
-14668 -97 0
-14668 502 0
-14669 -103 0
-14669 496 0
-497 14667 14668 14669 0
-14670 -77 0
-14670 556 0
-14671 -99 0
-14671 504 0
-14672 -105 0
-14672 498 0
-497 14670 14671 14672 0
-14673 -6 0
-14673 190 0
-14674 -10 0
-14674 168 0
-14675 -14 0
-14675 164 0
-498 14673 14674 14675 0
-14676 -19 0
-14676 268 0
-14677 -23 0
-14677 246 0
-14678 -27 0
-14678 242 0
-498 14676 14677 14678 0
-14679 -31 0
-14679 334 0
-14680 -35 0
-14680 312 0
-14681 -39 0
-14681 308 0
-498 14679 14680 14681 0
-14682 -42 0
-14682 389 0
-14683 -46 0
-14683 367 0
-14684 -50 0
-14684 363 0
-498 14682 14683 14684 0
-14685 -52 0
-14685 434 0
-14686 -56 0
-14686 412 0
-14687 -60 0
-14687 408 0
-498 14685 14686 14687 0
-14688 -61 0
-14688 470 0
-14689 -65 0
-14689 448 0
-14690 -69 0
-14690 444 0
-498 14688 14689 14690 0
-14691 -70 0
-14691 519 0
-14692 -80 0
-14692 483 0
-14693 -84 0
-14693 479 0
-498 14691 14692 14693 0
-14694 -71 0
-14694 534 0
-14695 -86 0
-14695 489 0
-14696 -90 0
-14696 485 0
-498 14694 14695 14696 0
-14697 -72 0
-14697 544 0
-14698 -91 0
-14698 494 0
-14699 -95 0
-14699 490 0
-498 14697 14698 14699 0
-14700 -74 0
-14700 553 0
-14701 -96 0
-14701 501 0
-14702 -102 0
-14702 495 0
-498 14700 14701 14702 0
-14703 -75 0
-14703 555 0
-14704 -97 0
-14704 503 0
-14705 -104 0
-14705 496 0
-498 14703 14704 14705 0
-14706 -76 0
-14706 556 0
-14707 -98 0
-14707 504 0
-14708 -105 0
-14708 497 0
-498 14706 14707 14708 0
-14709 -6 0
-14709 191 0
-14710 -11 0
-14710 166 0
-14711 -12 0
-14711 165 0
-499 14709 14710 14711 0
-14712 -19 0
-14712 269 0
-14713 -24 0
-14713 244 0
-14714 -25 0
-14714 243 0
-499 14712 14713 14714 0
-14715 -31 0
-14715 335 0
-14716 -36 0
-14716 310 0
-14717 -37 0
-14717 309 0
-499 14715 14716 14717 0
-14718 -42 0
-14718 390 0
-14719 -47 0
-14719 365 0
-14720 -48 0
-14720 364 0
-499 14718 14719 14720 0
-14721 -52 0
-14721 435 0
-14722 -57 0
-14722 410 0
-14723 -58 0
-14723 409 0
-499 14721 14722 14723 0
-14724 -61 0
-14724 471 0
-14725 -66 0
-14725 446 0
-14726 -67 0
-14726 445 0
-499 14724 14725 14726 0
-14727 -70 0
-14727 520 0
-14728 -81 0
-14728 481 0
-14729 -82 0
-14729 480 0
-499 14727 14728 14729 0
-14730 -71 0
-14730 535 0
-14731 -87 0
-14731 487 0
-14732 -88 0
-14732 486 0
-499 14730 14731 14732 0
-14733 -72 0
-14733 545 0
-14734 -92 0
-14734 492 0
-14735 -93 0
-14735 491 0
-499 14733 14734 14735 0
-14736 -73 0
-14736 551 0
-14737 -96 0
-14737 496 0
-14738 -97 0
-14738 495 0
-499 14736 14737 14738 0
-14739 -76 0
-14739 557 0
-14740 -101 0
-14740 502 0
-14741 -103 0
-14741 500 0
-499 14739 14740 14741 0
-14742 -77 0
-14742 558 0
-14743 -102 0
-14743 503 0
-14744 -104 0
-14744 501 0
-499 14742 14743 14744 0
-14745 -6 0
-14745 192 0
-14746 -11 0
-14746 167 0
-14747 -13 0
-14747 165 0
-500 14745 14746 14747 0
-14748 -19 0
-14748 270 0
-14749 -24 0
-14749 245 0
-14750 -26 0
-14750 243 0
-500 14748 14749 14750 0
-14751 -31 0
-14751 336 0
-14752 -36 0
-14752 311 0
-14753 -38 0
-14753 309 0
-500 14751 14752 14753 0
-14754 -42 0
-14754 391 0
-14755 -47 0
-14755 366 0
-14756 -49 0
-14756 364 0
-500 14754 14755 14756 0
-14757 -52 0
-14757 436 0
-14758 -57 0
-14758 411 0
-14759 -59 0
-14759 409 0
-500 14757 14758 14759 0
-14760 -61 0
-14760 472 0
-14761 -66 0
-14761 447 0
-14762 -68 0
-14762 445 0
-500 14760 14761 14762 0
-14763 -70 0
-14763 521 0
-14764 -81 0
-14764 482 0
-14765 -83 0
-14765 480 0
-500 14763 14764 14765 0
-14766 -71 0
-14766 536 0
-14767 -87 0
-14767 488 0
-14768 -89 0
-14768 486 0
-500 14766 14767 14768 0
-14769 -72 0
-14769 546 0
-14770 -92 0
-14770 493 0
-14771 -94 0
-14771 491 0
-500 14769 14770 14771 0
-14772 -73 0
-14772 552 0
-14773 -96 0
-14773 497 0
-14774 -98 0
-14774 495 0
-500 14772 14773 14774 0
-14775 -75 0
-14775 557 0
-14776 -100 0
-14776 502 0
-14777 -103 0
-14777 499 0
-500 14775 14776 14777 0
-14778 -77 0
-14778 559 0
-14779 -102 0
-14779 504 0
-14780 -105 0
-14780 501 0
-500 14778 14779 14780 0
-14781 -6 0
-14781 193 0
-14782 -11 0
-14782 168 0
-14783 -14 0
-14783 165 0
-501 14781 14782 14783 0
-14784 -19 0
-14784 271 0
-14785 -24 0
-14785 246 0
-14786 -27 0
-14786 243 0
-501 14784 14785 14786 0
-14787 -31 0
-14787 337 0
-14788 -36 0
-14788 312 0
-14789 -39 0
-14789 309 0
-501 14787 14788 14789 0
-14790 -42 0
-14790 392 0
-14791 -47 0
-14791 367 0
-14792 -50 0
-14792 364 0
-501 14790 14791 14792 0
-14793 -52 0
-14793 437 0
-14794 -57 0
-14794 412 0
-14795 -60 0
-14795 409 0
-501 14793 14794 14795 0
-14796 -61 0
-14796 473 0
-14797 -66 0
-14797 448 0
-14798 -69 0
-14798 445 0
-501 14796 14797 14798 0
-14799 -70 0
-14799 522 0
-14800 -81 0
-14800 483 0
-14801 -84 0
-14801 480 0
-501 14799 14800 14801 0
-14802 -71 0
-14802 537 0
-14803 -87 0
-14803 489 0
-14804 -90 0
-14804 486 0
-501 14802 14803 14804 0
-14805 -72 0
-14805 547 0
-14806 -92 0
-14806 494 0
-14807 -95 0
-14807 491 0
-501 14805 14806 14807 0
-14808 -73 0
-14808 553 0
-14809 -96 0
-14809 498 0
-14810 -99 0
-14810 495 0
-501 14808 14809 14810 0
-14811 -75 0
-14811 558 0
-14812 -100 0
-14812 503 0
-14813 -104 0
-14813 499 0
-501 14811 14812 14813 0
-14814 -76 0
-14814 559 0
-14815 -101 0
-14815 504 0
-14816 -105 0
-14816 500 0
-501 14814 14815 14816 0
-14817 -6 0
-14817 194 0
-14818 -12 0
-14818 167 0
-14819 -13 0
-14819 166 0
-502 14817 14818 14819 0
-14820 -19 0
-14820 272 0
-14821 -25 0
-14821 245 0
-14822 -26 0
-14822 244 0
-502 14820 14821 14822 0
-14823 -31 0
-14823 338 0
-14824 -37 0
-14824 311 0
-14825 -38 0
-14825 310 0
-502 14823 14824 14825 0
-14826 -42 0
-14826 393 0
-14827 -48 0
-14827 366 0
-14828 -49 0
-14828 365 0
-502 14826 14827 14828 0
-14829 -52 0
-14829 438 0
-14830 -58 0
-14830 411 0
-14831 -59 0
-14831 410 0
-502 14829 14830 14831 0
-14832 -61 0
-14832 474 0
-14833 -67 0
-14833 447 0
-14834 -68 0
-14834 446 0
-502 14832 14833 14834 0
-14835 -70 0
-14835 523 0
-14836 -82 0
-14836 482 0
-14837 -83 0
-14837 481 0
-502 14835 14836 14837 0
-14838 -71 0
-14838 538 0
-14839 -88 0
-14839 488 0
-14840 -89 0
-14840 487 0
-502 14838 14839 14840 0
-14841 -72 0
-14841 548 0
-14842 -93 0
-14842 493 0
-14843 -94 0
-14843 492 0
-502 14841 14842 14843 0
-14844 -73 0
-14844 554 0
-14845 -97 0
-14845 497 0
-14846 -98 0
-14846 496 0
-502 14844 14845 14846 0
-14847 -74 0
-14847 557 0
-14848 -100 0
-14848 500 0
-14849 -101 0
-14849 499 0
-502 14847 14848 14849 0
-14850 -77 0
-14850 560 0
-14851 -104 0
-14851 504 0
-14852 -105 0
-14852 503 0
-502 14850 14851 14852 0
-14853 -6 0
-14853 195 0
-14854 -12 0
-14854 168 0
-14855 -14 0
-14855 166 0
-503 14853 14854 14855 0
-14856 -19 0
-14856 273 0
-14857 -25 0
-14857 246 0
-14858 -27 0
-14858 244 0
-503 14856 14857 14858 0
-14859 -31 0
-14859 339 0
-14860 -37 0
-14860 312 0
-14861 -39 0
-14861 310 0
-503 14859 14860 14861 0
-14862 -42 0
-14862 394 0
-14863 -48 0
-14863 367 0
-14864 -50 0
-14864 365 0
-503 14862 14863 14864 0
-14865 -52 0
-14865 439 0
-14866 -58 0
-14866 412 0
-14867 -60 0
-14867 410 0
-503 14865 14866 14867 0
-14868 -61 0
-14868 475 0
-14869 -67 0
-14869 448 0
-14870 -69 0
-14870 446 0
-503 14868 14869 14870 0
-14871 -70 0
-14871 524 0
-14872 -82 0
-14872 483 0
-14873 -84 0
-14873 481 0
-503 14871 14872 14873 0
-14874 -71 0
-14874 539 0
-14875 -88 0
-14875 489 0
-14876 -90 0
-14876 487 0
-503 14874 14875 14876 0
-14877 -72 0
-14877 549 0
-14878 -93 0
-14878 494 0
-14879 -95 0
-14879 492 0
-503 14877 14878 14879 0
-14880 -73 0
-14880 555 0
-14881 -97 0
-14881 498 0
-14882 -99 0
-14882 496 0
-503 14880 14881 14882 0
-14883 -74 0
-14883 558 0
-14884 -100 0
-14884 501 0
-14885 -102 0
-14885 499 0
-503 14883 14884 14885 0
-14886 -76 0
-14886 560 0
-14887 -103 0
-14887 504 0
-14888 -105 0
-14888 502 0
-503 14886 14887 14888 0
-14889 -6 0
-14889 196 0
-14890 -13 0
-14890 168 0
-14891 -14 0
-14891 167 0
-504 14889 14890 14891 0
-14892 -19 0
-14892 274 0
-14893 -26 0
-14893 246 0
-14894 -27 0
-14894 245 0
-504 14892 14893 14894 0
-14895 -31 0
-14895 340 0
-14896 -38 0
-14896 312 0
-14897 -39 0
-14897 311 0
-504 14895 14896 14897 0
-14898 -42 0
-14898 395 0
-14899 -49 0
-14899 367 0
-14900 -50 0
-14900 366 0
-504 14898 14899 14900 0
-14901 -52 0
-14901 440 0
-14902 -59 0
-14902 412 0
-14903 -60 0
-14903 411 0
-504 14901 14902 14903 0
-14904 -61 0
-14904 476 0
-14905 -68 0
-14905 448 0
-14906 -69 0
-14906 447 0
-504 14904 14905 14906 0
-14907 -70 0
-14907 525 0
-14908 -83 0
-14908 483 0
-14909 -84 0
-14909 482 0
-504 14907 14908 14909 0
-14910 -71 0
-14910 540 0
-14911 -89 0
-14911 489 0
-14912 -90 0
-14912 488 0
-504 14910 14911 14912 0
-14913 -72 0
-14913 550 0
-14914 -94 0
-14914 494 0
-14915 -95 0
-14915 493 0
-504 14913 14914 14915 0
-14916 -73 0
-14916 556 0
-14917 -98 0
-14917 498 0
-14918 -99 0
-14918 497 0
-504 14916 14917 14918 0
-14919 -74 0
-14919 559 0
-14920 -101 0
-14920 501 0
-14921 -102 0
-14921 500 0
-504 14919 14920 14921 0
-14922 -75 0
-14922 560 0
-14923 -103 0
-14923 503 0
-14924 -104 0
-14924 502 0
-504 14922 14923 14924 0
-14925 -7 0
-14925 176 0
-14926 -8 0
-14926 170 0
-14927 -9 0
-14927 169 0
-505 14925 14926 14927 0
-14928 -20 0
-14928 254 0
-14929 -21 0
-14929 248 0
-14930 -22 0
-14930 247 0
-505 14928 14929 14930 0
-14931 -32 0
-14931 320 0
-14932 -33 0
-14932 314 0
-14933 -34 0
-14933 313 0
-505 14931 14932 14933 0
-14934 -43 0
-14934 375 0
-14935 -44 0
-14935 369 0
-14936 -45 0
-14936 368 0
-505 14934 14935 14936 0
-14937 -53 0
-14937 420 0
-14938 -54 0
-14938 414 0
-14939 -55 0
-14939 413 0
-505 14937 14938 14939 0
-14940 -62 0
-14940 456 0
-14941 -63 0
-14941 450 0
-14942 -64 0
-14942 449 0
-505 14940 14941 14942 0
-14943 -70 0
-14943 484 0
-14944 -71 0
-14944 478 0
-14945 -72 0
-14945 477 0
-505 14943 14944 14945 0
-14946 -80 0
-14946 526 0
-14947 -86 0
-14947 511 0
-14948 -91 0
-14948 506 0
-505 14946 14947 14948 0
-14949 -81 0
-14949 527 0
-14950 -87 0
-14950 512 0
-14951 -92 0
-14951 507 0
-505 14949 14950 14951 0
-14952 -82 0
-14952 528 0
-14953 -88 0
-14953 513 0
-14954 -93 0
-14954 508 0
-505 14952 14953 14954 0
-14955 -83 0
-14955 529 0
-14956 -89 0
-14956 514 0
-14957 -94 0
-14957 509 0
-505 14955 14956 14957 0
-14958 -84 0
-14958 530 0
-14959 -90 0
-14959 515 0
-14960 -95 0
-14960 510 0
-505 14958 14959 14960 0
-14961 -7 0
-14961 177 0
-14962 -8 0
-14962 171 0
-14963 -10 0
-14963 169 0
-506 14961 14962 14963 0
-14964 -20 0
-14964 255 0
-14965 -21 0
-14965 249 0
-14966 -23 0
-14966 247 0
-506 14964 14965 14966 0
-14967 -32 0
-14967 321 0
-14968 -33 0
-14968 315 0
-14969 -35 0
-14969 313 0
-506 14967 14968 14969 0
-14970 -43 0
-14970 376 0
-14971 -44 0
-14971 370 0
-14972 -46 0
-14972 368 0
-506 14970 14971 14972 0
-14973 -53 0
-14973 421 0
-14974 -54 0
-14974 415 0
-14975 -56 0
-14975 413 0
-506 14973 14974 14975 0
-14976 -62 0
-14976 457 0
-14977 -63 0
-14977 451 0
-14978 -65 0
-14978 449 0
-506 14976 14977 14978 0
-14979 -70 0
-14979 485 0
-14980 -71 0
-14980 479 0
-14981 -73 0
-14981 477 0
-506 14979 14980 14981 0
-14982 -79 0
-14982 526 0
-14983 -85 0
-14983 511 0
-14984 -91 0
-14984 505 0
-506 14982 14983 14984 0
-14985 -81 0
-14985 531 0
-14986 -87 0
-14986 516 0
-14987 -96 0
-14987 507 0
-506 14985 14986 14987 0
-14988 -82 0
-14988 532 0
-14989 -88 0
-14989 517 0
-14990 -97 0
-14990 508 0
-506 14988 14989 14990 0
-14991 -83 0
-14991 533 0
-14992 -89 0
-14992 518 0
-14993 -98 0
-14993 509 0
-506 14991 14992 14993 0
-14994 -84 0
-14994 534 0
-14995 -90 0
-14995 519 0
-14996 -99 0
-14996 510 0
-506 14994 14995 14996 0
-14997 -7 0
-14997 178 0
-14998 -8 0
-14998 172 0
-14999 -11 0
-14999 169 0
-507 14997 14998 14999 0
-15000 -20 0
-15000 256 0
-15001 -21 0
-15001 250 0
-15002 -24 0
-15002 247 0
-507 15000 15001 15002 0
-15003 -32 0
-15003 322 0
-15004 -33 0
-15004 316 0
-15005 -36 0
-15005 313 0
-507 15003 15004 15005 0
-15006 -43 0
-15006 377 0
-15007 -44 0
-15007 371 0
-15008 -47 0
-15008 368 0
-507 15006 15007 15008 0
-15009 -53 0
-15009 422 0
-15010 -54 0
-15010 416 0
-15011 -57 0
-15011 413 0
-507 15009 15010 15011 0
-15012 -62 0
-15012 458 0
-15013 -63 0
-15013 452 0
-15014 -66 0
-15014 449 0
-507 15012 15013 15014 0
-15015 -70 0
-15015 486 0
-15016 -71 0
-15016 480 0
-15017 -74 0
-15017 477 0
-507 15015 15016 15017 0
-15018 -79 0
-15018 527 0
-15019 -85 0
-15019 512 0
-15020 -92 0
-15020 505 0
-507 15018 15019 15020 0
-15021 -80 0
-15021 531 0
-15022 -86 0
-15022 516 0
-15023 -96 0
-15023 506 0
-507 15021 15022 15023 0
-15024 -82 0
-15024 535 0
-15025 -88 0
-15025 520 0
-15026 -100 0
-15026 508 0
-507 15024 15025 15026 0
-15027 -83 0
-15027 536 0
-15028 -89 0
-15028 521 0
-15029 -101 0
-15029 509 0
-507 15027 15028 15029 0
-15030 -84 0
-15030 537 0
-15031 -90 0
-15031 522 0
-15032 -102 0
-15032 510 0
-507 15030 15031 15032 0
-15033 -7 0
-15033 179 0
-15034 -8 0
-15034 173 0
-15035 -12 0
-15035 169 0
-508 15033 15034 15035 0
-15036 -20 0
-15036 257 0
-15037 -21 0
-15037 251 0
-15038 -25 0
-15038 247 0
-508 15036 15037 15038 0
-15039 -32 0
-15039 323 0
-15040 -33 0
-15040 317 0
-15041 -37 0
-15041 313 0
-508 15039 15040 15041 0
-15042 -43 0
-15042 378 0
-15043 -44 0
-15043 372 0
-15044 -48 0
-15044 368 0
-508 15042 15043 15044 0
-15045 -53 0
-15045 423 0
-15046 -54 0
-15046 417 0
-15047 -58 0
-15047 413 0
-508 15045 15046 15047 0
-15048 -62 0
-15048 459 0
-15049 -63 0
-15049 453 0
-15050 -67 0
-15050 449 0
-508 15048 15049 15050 0
-15051 -70 0
-15051 487 0
-15052 -71 0
-15052 481 0
-15053 -75 0
-15053 477 0
-508 15051 15052 15053 0
-15054 -79 0
-15054 528 0
-15055 -85 0
-15055 513 0
-15056 -93 0
-15056 505 0
-508 15054 15055 15056 0
-15057 -80 0
-15057 532 0
-15058 -86 0
-15058 517 0
-15059 -97 0
-15059 506 0
-508 15057 15058 15059 0
-15060 -81 0
-15060 535 0
-15061 -87 0
-15061 520 0
-15062 -100 0
-15062 507 0
-508 15060 15061 15062 0
-15063 -83 0
-15063 538 0
-15064 -89 0
-15064 523 0
-15065 -103 0
-15065 509 0
-508 15063 15064 15065 0
-15066 -84 0
-15066 539 0
-15067 -90 0
-15067 524 0
-15068 -104 0
-15068 510 0
-508 15066 15067 15068 0
-15069 -7 0
-15069 180 0
-15070 -8 0
-15070 174 0
-15071 -13 0
-15071 169 0
-509 15069 15070 15071 0
-15072 -20 0
-15072 258 0
-15073 -21 0
-15073 252 0
-15074 -26 0
-15074 247 0
-509 15072 15073 15074 0
-15075 -32 0
-15075 324 0
-15076 -33 0
-15076 318 0
-15077 -38 0
-15077 313 0
-509 15075 15076 15077 0
-15078 -43 0
-15078 379 0
-15079 -44 0
-15079 373 0
-15080 -49 0
-15080 368 0
-509 15078 15079 15080 0
-15081 -53 0
-15081 424 0
-15082 -54 0
-15082 418 0
-15083 -59 0
-15083 413 0
-509 15081 15082 15083 0
-15084 -62 0
-15084 460 0
-15085 -63 0
-15085 454 0
-15086 -68 0
-15086 449 0
-509 15084 15085 15086 0
-15087 -70 0
-15087 488 0
-15088 -71 0
-15088 482 0
-15089 -76 0
-15089 477 0
-509 15087 15088 15089 0
-15090 -79 0
-15090 529 0
-15091 -85 0
-15091 514 0
-15092 -94 0
-15092 505 0
-509 15090 15091 15092 0
-15093 -80 0
-15093 533 0
-15094 -86 0
-15094 518 0
-15095 -98 0
-15095 506 0
-509 15093 15094 15095 0
-15096 -81 0
-15096 536 0
-15097 -87 0
-15097 521 0
-15098 -101 0
-15098 507 0
-509 15096 15097 15098 0
-15099 -82 0
-15099 538 0
-15100 -88 0
-15100 523 0
-15101 -103 0
-15101 508 0
-509 15099 15100 15101 0
-15102 -84 0
-15102 540 0
-15103 -90 0
-15103 525 0
-15104 -105 0
-15104 510 0
-509 15102 15103 15104 0
-15105 -7 0
-15105 181 0
-15106 -8 0
-15106 175 0
-15107 -14 0
-15107 169 0
-510 15105 15106 15107 0
-15108 -20 0
-15108 259 0
-15109 -21 0
-15109 253 0
-15110 -27 0
-15110 247 0
-510 15108 15109 15110 0
-15111 -32 0
-15111 325 0
-15112 -33 0
-15112 319 0
-15113 -39 0
-15113 313 0
-510 15111 15112 15113 0
-15114 -43 0
-15114 380 0
-15115 -44 0
-15115 374 0
-15116 -50 0
-15116 368 0
-510 15114 15115 15116 0
-15117 -53 0
-15117 425 0
-15118 -54 0
-15118 419 0
-15119 -60 0
-15119 413 0
-510 15117 15118 15119 0
-15120 -62 0
-15120 461 0
-15121 -63 0
-15121 455 0
-15122 -69 0
-15122 449 0
-510 15120 15121 15122 0
-15123 -70 0
-15123 489 0
-15124 -71 0
-15124 483 0
-15125 -77 0
-15125 477 0
-510 15123 15124 15125 0
-15126 -79 0
-15126 530 0
-15127 -85 0
-15127 515 0
-15128 -95 0
-15128 505 0
-510 15126 15127 15128 0
-15129 -80 0
-15129 534 0
-15130 -86 0
-15130 519 0
-15131 -99 0
-15131 506 0
-510 15129 15130 15131 0
-15132 -81 0
-15132 537 0
-15133 -87 0
-15133 522 0
-15134 -102 0
-15134 507 0
-510 15132 15133 15134 0
-15135 -82 0
-15135 539 0
-15136 -88 0
-15136 524 0
-15137 -104 0
-15137 508 0
-510 15135 15136 15137 0
-15138 -83 0
-15138 540 0
-15139 -89 0
-15139 525 0
-15140 -105 0
-15140 509 0
-510 15138 15139 15140 0
-15141 -7 0
-15141 182 0
-15142 -9 0
-15142 171 0
-15143 -10 0
-15143 170 0
-511 15141 15142 15143 0
-15144 -20 0
-15144 260 0
-15145 -22 0
-15145 249 0
-15146 -23 0
-15146 248 0
-511 15144 15145 15146 0
-15147 -32 0
-15147 326 0
-15148 -34 0
-15148 315 0
-15149 -35 0
-15149 314 0
-511 15147 15148 15149 0
-15150 -43 0
-15150 381 0
-15151 -45 0
-15151 370 0
-15152 -46 0
-15152 369 0
-511 15150 15151 15152 0
-15153 -53 0
-15153 426 0
-15154 -55 0
-15154 415 0
-15155 -56 0
-15155 414 0
-511 15153 15154 15155 0
-15156 -62 0
-15156 462 0
-15157 -64 0
-15157 451 0
-15158 -65 0
-15158 450 0
-511 15156 15157 15158 0
-15159 -70 0
-15159 490 0
-15160 -72 0
-15160 479 0
-15161 -73 0
-15161 478 0
-511 15159 15160 15161 0
-15162 -78 0
-15162 526 0
-15163 -85 0
-15163 506 0
-15164 -86 0
-15164 505 0
-511 15162 15163 15164 0
-15165 -81 0
-15165 541 0
-15166 -92 0
-15166 516 0
-15167 -96 0
-15167 512 0
-511 15165 15166 15167 0
-15168 -82 0
-15168 542 0
-15169 -93 0
-15169 517 0
-15170 -97 0
-15170 513 0
-511 15168 15169 15170 0
-15171 -83 0
-15171 543 0
-15172 -94 0
-15172 518 0
-15173 -98 0
-15173 514 0
-511 15171 15172 15173 0
-15174 -84 0
-15174 544 0
-15175 -95 0
-15175 519 0
-15176 -99 0
-15176 515 0
-511 15174 15175 15176 0
-15177 -7 0
-15177 183 0
-15178 -9 0
-15178 172 0
-15179 -11 0
-15179 170 0
-512 15177 15178 15179 0
-15180 -20 0
-15180 261 0
-15181 -22 0
-15181 250 0
-15182 -24 0
-15182 248 0
-512 15180 15181 15182 0
-15183 -32 0
-15183 327 0
-15184 -34 0
-15184 316 0
-15185 -36 0
-15185 314 0
-512 15183 15184 15185 0
-15186 -43 0
-15186 382 0
-15187 -45 0
-15187 371 0
-15188 -47 0
-15188 369 0
-512 15186 15187 15188 0
-15189 -53 0
-15189 427 0
-15190 -55 0
-15190 416 0
-15191 -57 0
-15191 414 0
-512 15189 15190 15191 0
-15192 -62 0
-15192 463 0
-15193 -64 0
-15193 452 0
-15194 -66 0
-15194 450 0
-512 15192 15193 15194 0
-15195 -70 0
-15195 491 0
-15196 -72 0
-15196 480 0
-15197 -74 0
-15197 478 0
-512 15195 15196 15197 0
-15198 -78 0
-15198 527 0
-15199 -85 0
-15199 507 0
-15200 -87 0
-15200 505 0
-512 15198 15199 15200 0
-15201 -80 0
-15201 541 0
-15202 -91 0
-15202 516 0
-15203 -96 0
-15203 511 0
-512 15201 15202 15203 0
-15204 -82 0
-15204 545 0
-15205 -93 0
-15205 520 0
-15206 -100 0
-15206 513 0
-512 15204 15205 15206 0
-15207 -83 0
-15207 546 0
-15208 -94 0
-15208 521 0
-15209 -101 0
-15209 514 0
-512 15207 15208 15209 0
-15210 -84 0
-15210 547 0
-15211 -95 0
-15211 522 0
-15212 -102 0
-15212 515 0
-512 15210 15211 15212 0
-15213 -7 0
-15213 184 0
-15214 -9 0
-15214 173 0
-15215 -12 0
-15215 170 0
-513 15213 15214 15215 0
-15216 -20 0
-15216 262 0
-15217 -22 0
-15217 251 0
-15218 -25 0
-15218 248 0
-513 15216 15217 15218 0
-15219 -32 0
-15219 328 0
-15220 -34 0
-15220 317 0
-15221 -37 0
-15221 314 0
-513 15219 15220 15221 0
-15222 -43 0
-15222 383 0
-15223 -45 0
-15223 372 0
-15224 -48 0
-15224 369 0
-513 15222 15223 15224 0
-15225 -53 0
-15225 428 0
-15226 -55 0
-15226 417 0
-15227 -58 0
-15227 414 0
-513 15225 15226 15227 0
-15228 -62 0
-15228 464 0
-15229 -64 0
-15229 453 0
-15230 -67 0
-15230 450 0
-513 15228 15229 15230 0
-15231 -70 0
-15231 492 0
-15232 -72 0
-15232 481 0
-15233 -75 0
-15233 478 0
-513 15231 15232 15233 0
-15234 -78 0
-15234 528 0
-15235 -85 0
-15235 508 0
-15236 -88 0
-15236 505 0
-513 15234 15235 15236 0
-15237 -80 0
-15237 542 0
-15238 -91 0
-15238 517 0
-15239 -97 0
-15239 511 0
-513 15237 15238 15239 0
-15240 -81 0
-15240 545 0
-15241 -92 0
-15241 520 0
-15242 -100 0
-15242 512 0
-513 15240 15241 15242 0
-15243 -83 0
-15243 548 0
-15244 -94 0
-15244 523 0
-15245 -103 0
-15245 514 0
-513 15243 15244 15245 0
-15246 -84 0
-15246 549 0
-15247 -95 0
-15247 524 0
-15248 -104 0
-15248 515 0
-513 15246 15247 15248 0
-15249 -7 0
-15249 185 0
-15250 -9 0
-15250 174 0
-15251 -13 0
-15251 170 0
-514 15249 15250 15251 0
-15252 -20 0
-15252 263 0
-15253 -22 0
-15253 252 0
-15254 -26 0
-15254 248 0
-514 15252 15253 15254 0
-15255 -32 0
-15255 329 0
-15256 -34 0
-15256 318 0
-15257 -38 0
-15257 314 0
-514 15255 15256 15257 0
-15258 -43 0
-15258 384 0
-15259 -45 0
-15259 373 0
-15260 -49 0
-15260 369 0
-514 15258 15259 15260 0
-15261 -53 0
-15261 429 0
-15262 -55 0
-15262 418 0
-15263 -59 0
-15263 414 0
-514 15261 15262 15263 0
-15264 -62 0
-15264 465 0
-15265 -64 0
-15265 454 0
-15266 -68 0
-15266 450 0
-514 15264 15265 15266 0
-15267 -70 0
-15267 493 0
-15268 -72 0
-15268 482 0
-15269 -76 0
-15269 478 0
-514 15267 15268 15269 0
-15270 -78 0
-15270 529 0
-15271 -85 0
-15271 509 0
-15272 -89 0
-15272 505 0
-514 15270 15271 15272 0
-15273 -80 0
-15273 543 0
-15274 -91 0
-15274 518 0
-15275 -98 0
-15275 511 0
-514 15273 15274 15275 0
-15276 -81 0
-15276 546 0
-15277 -92 0
-15277 521 0
-15278 -101 0
-15278 512 0
-514 15276 15277 15278 0
-15279 -82 0
-15279 548 0
-15280 -93 0
-15280 523 0
-15281 -103 0
-15281 513 0
-514 15279 15280 15281 0
-15282 -84 0
-15282 550 0
-15283 -95 0
-15283 525 0
-15284 -105 0
-15284 515 0
-514 15282 15283 15284 0
-15285 -7 0
-15285 186 0
-15286 -9 0
-15286 175 0
-15287 -14 0
-15287 170 0
-515 15285 15286 15287 0
-15288 -20 0
-15288 264 0
-15289 -22 0
-15289 253 0
-15290 -27 0
-15290 248 0
-515 15288 15289 15290 0
-15291 -32 0
-15291 330 0
-15292 -34 0
-15292 319 0
-15293 -39 0
-15293 314 0
-515 15291 15292 15293 0
-15294 -43 0
-15294 385 0
-15295 -45 0
-15295 374 0
-15296 -50 0
-15296 369 0
-515 15294 15295 15296 0
-15297 -53 0
-15297 430 0
-15298 -55 0
-15298 419 0
-15299 -60 0
-15299 414 0
-515 15297 15298 15299 0
-15300 -62 0
-15300 466 0
-15301 -64 0
-15301 455 0
-15302 -69 0
-15302 450 0
-515 15300 15301 15302 0
-15303 -70 0
-15303 494 0
-15304 -72 0
-15304 483 0
-15305 -77 0
-15305 478 0
-515 15303 15304 15305 0
-15306 -78 0
-15306 530 0
-15307 -85 0
-15307 510 0
-15308 -90 0
-15308 505 0
-515 15306 15307 15308 0
-15309 -80 0
-15309 544 0
-15310 -91 0
-15310 519 0
-15311 -99 0
-15311 511 0
-515 15309 15310 15311 0
-15312 -81 0
-15312 547 0
-15313 -92 0
-15313 522 0
-15314 -102 0
-15314 512 0
-515 15312 15313 15314 0
-15315 -82 0
-15315 549 0
-15316 -93 0
-15316 524 0
-15317 -104 0
-15317 513 0
-515 15315 15316 15317 0
-15318 -83 0
-15318 550 0
-15319 -94 0
-15319 525 0
-15320 -105 0
-15320 514 0
-515 15318 15319 15320 0
-15321 -7 0
-15321 187 0
-15322 -10 0
-15322 172 0
-15323 -11 0
-15323 171 0
-516 15321 15322 15323 0
-15324 -20 0
-15324 265 0
-15325 -23 0
-15325 250 0
-15326 -24 0
-15326 249 0
-516 15324 15325 15326 0
-15327 -32 0
-15327 331 0
-15328 -35 0
-15328 316 0
-15329 -36 0
-15329 315 0
-516 15327 15328 15329 0
-15330 -43 0
-15330 386 0
-15331 -46 0
-15331 371 0
-15332 -47 0
-15332 370 0
-516 15330 15331 15332 0
-15333 -53 0
-15333 431 0
-15334 -56 0
-15334 416 0
-15335 -57 0
-15335 415 0
-516 15333 15334 15335 0
-15336 -62 0
-15336 467 0
-15337 -65 0
-15337 452 0
-15338 -66 0
-15338 451 0
-516 15336 15337 15338 0
-15339 -70 0
-15339 495 0
-15340 -73 0
-15340 480 0
-15341 -74 0
-15341 479 0
-516 15339 15340 15341 0
-15342 -78 0
-15342 531 0
-15343 -86 0
-15343 507 0
-15344 -87 0
-15344 506 0
-516 15342 15343 15344 0
-15345 -79 0
-15345 541 0
-15346 -91 0
-15346 512 0
-15347 -92 0
-15347 511 0
-516 15345 15346 15347 0
-15348 -82 0
-15348 551 0
-15349 -97 0
-15349 520 0
-15350 -100 0
-15350 517 0
-516 15348 15349 15350 0
-15351 -83 0
-15351 552 0
-15352 -98 0
-15352 521 0
-15353 -101 0
-15353 518 0
-516 15351 15352 15353 0
-15354 -84 0
-15354 553 0
-15355 -99 0
-15355 522 0
-15356 -102 0
-15356 519 0
-516 15354 15355 15356 0
-15357 -7 0
-15357 188 0
-15358 -10 0
-15358 173 0
-15359 -12 0
-15359 171 0
-517 15357 15358 15359 0
-15360 -20 0
-15360 266 0
-15361 -23 0
-15361 251 0
-15362 -25 0
-15362 249 0
-517 15360 15361 15362 0
-15363 -32 0
-15363 332 0
-15364 -35 0
-15364 317 0
-15365 -37 0
-15365 315 0
-517 15363 15364 15365 0
-15366 -43 0
-15366 387 0
-15367 -46 0
-15367 372 0
-15368 -48 0
-15368 370 0
-517 15366 15367 15368 0
-15369 -53 0
-15369 432 0
-15370 -56 0
-15370 417 0
-15371 -58 0
-15371 415 0
-517 15369 15370 15371 0
-15372 -62 0
-15372 468 0
-15373 -65 0
-15373 453 0
-15374 -67 0
-15374 451 0
-517 15372 15373 15374 0
-15375 -70 0
-15375 496 0
-15376 -73 0
-15376 481 0
-15377 -75 0
-15377 479 0
-517 15375 15376 15377 0
-15378 -78 0
-15378 532 0
-15379 -86 0
-15379 508 0
-15380 -88 0
-15380 506 0
-517 15378 15379 15380 0
-15381 -79 0
-15381 542 0
-15382 -91 0
-15382 513 0
-15383 -93 0
-15383 511 0
-517 15381 15382 15383 0
-15384 -81 0
-15384 551 0
-15385 -96 0
-15385 520 0
-15386 -100 0
-15386 516 0
-517 15384 15385 15386 0
-15387 -83 0
-15387 554 0
-15388 -98 0
-15388 523 0
-15389 -103 0
-15389 518 0
-517 15387 15388 15389 0
-15390 -84 0
-15390 555 0
-15391 -99 0
-15391 524 0
-15392 -104 0
-15392 519 0
-517 15390 15391 15392 0
-15393 -7 0
-15393 189 0
-15394 -10 0
-15394 174 0
-15395 -13 0
-15395 171 0
-518 15393 15394 15395 0
-15396 -20 0
-15396 267 0
-15397 -23 0
-15397 252 0
-15398 -26 0
-15398 249 0
-518 15396 15397 15398 0
-15399 -32 0
-15399 333 0
-15400 -35 0
-15400 318 0
-15401 -38 0
-15401 315 0
-518 15399 15400 15401 0
-15402 -43 0
-15402 388 0
-15403 -46 0
-15403 373 0
-15404 -49 0
-15404 370 0
-518 15402 15403 15404 0
-15405 -53 0
-15405 433 0
-15406 -56 0
-15406 418 0
-15407 -59 0
-15407 415 0
-518 15405 15406 15407 0
-15408 -62 0
-15408 469 0
-15409 -65 0
-15409 454 0
-15410 -68 0
-15410 451 0
-518 15408 15409 15410 0
-15411 -70 0
-15411 497 0
-15412 -73 0
-15412 482 0
-15413 -76 0
-15413 479 0
-518 15411 15412 15413 0
-15414 -78 0
-15414 533 0
-15415 -86 0
-15415 509 0
-15416 -89 0
-15416 506 0
-518 15414 15415 15416 0
-15417 -79 0
-15417 543 0
-15418 -91 0
-15418 514 0
-15419 -94 0
-15419 511 0
-518 15417 15418 15419 0
-15420 -81 0
-15420 552 0
-15421 -96 0
-15421 521 0
-15422 -101 0
-15422 516 0
-518 15420 15421 15422 0
-15423 -82 0
-15423 554 0
-15424 -97 0
-15424 523 0
-15425 -103 0
-15425 517 0
-518 15423 15424 15425 0
-15426 -84 0
-15426 556 0
-15427 -99 0
-15427 525 0
-15428 -105 0
-15428 519 0
-518 15426 15427 15428 0
-15429 -7 0
-15429 190 0
-15430 -10 0
-15430 175 0
-15431 -14 0
-15431 171 0
-519 15429 15430 15431 0
-15432 -20 0
-15432 268 0
-15433 -23 0
-15433 253 0
-15434 -27 0
-15434 249 0
-519 15432 15433 15434 0
-15435 -32 0
-15435 334 0
-15436 -35 0
-15436 319 0
-15437 -39 0
-15437 315 0
-519 15435 15436 15437 0
-15438 -43 0
-15438 389 0
-15439 -46 0
-15439 374 0
-15440 -50 0
-15440 370 0
-519 15438 15439 15440 0
-15441 -53 0
-15441 434 0
-15442 -56 0
-15442 419 0
-15443 -60 0
-15443 415 0
-519 15441 15442 15443 0
-15444 -62 0
-15444 470 0
-15445 -65 0
-15445 455 0
-15446 -69 0
-15446 451 0
-519 15444 15445 15446 0
-15447 -70 0
-15447 498 0
-15448 -73 0
-15448 483 0
-15449 -77 0
-15449 479 0
-519 15447 15448 15449 0
-15450 -78 0
-15450 534 0
-15451 -86 0
-15451 510 0
-15452 -90 0
-15452 506 0
-519 15450 15451 15452 0
-15453 -79 0
-15453 544 0
-15454 -91 0
-15454 515 0
-15455 -95 0
-15455 511 0
-519 15453 15454 15455 0
-15456 -81 0
-15456 553 0
-15457 -96 0
-15457 522 0
-15458 -102 0
-15458 516 0
-519 15456 15457 15458 0
-15459 -82 0
-15459 555 0
-15460 -97 0
-15460 524 0
-15461 -104 0
-15461 517 0
-519 15459 15460 15461 0
-15462 -83 0
-15462 556 0
-15463 -98 0
-15463 525 0
-15464 -105 0
-15464 518 0
-519 15462 15463 15464 0
-15465 -7 0
-15465 191 0
-15466 -11 0
-15466 173 0
-15467 -12 0
-15467 172 0
-520 15465 15466 15467 0
-15468 -20 0
-15468 269 0
-15469 -24 0
-15469 251 0
-15470 -25 0
-15470 250 0
-520 15468 15469 15470 0
-15471 -32 0
-15471 335 0
-15472 -36 0
-15472 317 0
-15473 -37 0
-15473 316 0
-520 15471 15472 15473 0
-15474 -43 0
-15474 390 0
-15475 -47 0
-15475 372 0
-15476 -48 0
-15476 371 0
-520 15474 15475 15476 0
-15477 -53 0
-15477 435 0
-15478 -57 0
-15478 417 0
-15479 -58 0
-15479 416 0
-520 15477 15478 15479 0
-15480 -62 0
-15480 471 0
-15481 -66 0
-15481 453 0
-15482 -67 0
-15482 452 0
-520 15480 15481 15482 0
-15483 -70 0
-15483 499 0
-15484 -74 0
-15484 481 0
-15485 -75 0
-15485 480 0
-520 15483 15484 15485 0
-15486 -78 0
-15486 535 0
-15487 -87 0
-15487 508 0
-15488 -88 0
-15488 507 0
-520 15486 15487 15488 0
-15489 -79 0
-15489 545 0
-15490 -92 0
-15490 513 0
-15491 -93 0
-15491 512 0
-520 15489 15490 15491 0
-15492 -80 0
-15492 551 0
-15493 -96 0
-15493 517 0
-15494 -97 0
-15494 516 0
-520 15492 15493 15494 0
-15495 -83 0
-15495 557 0
-15496 -101 0
-15496 523 0
-15497 -103 0
-15497 521 0
-520 15495 15496 15497 0
-15498 -84 0
-15498 558 0
-15499 -102 0
-15499 524 0
-15500 -104 0
-15500 522 0
-520 15498 15499 15500 0
-15501 -7 0
-15501 192 0
-15502 -11 0
-15502 174 0
-15503 -13 0
-15503 172 0
-521 15501 15502 15503 0
-15504 -20 0
-15504 270 0
-15505 -24 0
-15505 252 0
-15506 -26 0
-15506 250 0
-521 15504 15505 15506 0
-15507 -32 0
-15507 336 0
-15508 -36 0
-15508 318 0
-15509 -38 0
-15509 316 0
-521 15507 15508 15509 0
-15510 -43 0
-15510 391 0
-15511 -47 0
-15511 373 0
-15512 -49 0
-15512 371 0
-521 15510 15511 15512 0
-15513 -53 0
-15513 436 0
-15514 -57 0
-15514 418 0
-15515 -59 0
-15515 416 0
-521 15513 15514 15515 0
-15516 -62 0
-15516 472 0
-15517 -66 0
-15517 454 0
-15518 -68 0
-15518 452 0
-521 15516 15517 15518 0
-15519 -70 0
-15519 500 0
-15520 -74 0
-15520 482 0
-15521 -76 0
-15521 480 0
-521 15519 15520 15521 0
-15522 -78 0
-15522 536 0
-15523 -87 0
-15523 509 0
-15524 -89 0
-15524 507 0
-521 15522 15523 15524 0
-15525 -79 0
-15525 546 0
-15526 -92 0
-15526 514 0
-15527 -94 0
-15527 512 0
-521 15525 15526 15527 0
-15528 -80 0
-15528 552 0
-15529 -96 0
-15529 518 0
-15530 -98 0
-15530 516 0
-521 15528 15529 15530 0
-15531 -82 0
-15531 557 0
-15532 -100 0
-15532 523 0
-15533 -103 0
-15533 520 0
-521 15531 15532 15533 0
-15534 -84 0
-15534 559 0
-15535 -102 0
-15535 525 0
-15536 -105 0
-15536 522 0
-521 15534 15535 15536 0
-15537 -7 0
-15537 193 0
-15538 -11 0
-15538 175 0
-15539 -14 0
-15539 172 0
-522 15537 15538 15539 0
-15540 -20 0
-15540 271 0
-15541 -24 0
-15541 253 0
-15542 -27 0
-15542 250 0
-522 15540 15541 15542 0
-15543 -32 0
-15543 337 0
-15544 -36 0
-15544 319 0
-15545 -39 0
-15545 316 0
-522 15543 15544 15545 0
-15546 -43 0
-15546 392 0
-15547 -47 0
-15547 374 0
-15548 -50 0
-15548 371 0
-522 15546 15547 15548 0
-15549 -53 0
-15549 437 0
-15550 -57 0
-15550 419 0
-15551 -60 0
-15551 416 0
-522 15549 15550 15551 0
-15552 -62 0
-15552 473 0
-15553 -66 0
-15553 455 0
-15554 -69 0
-15554 452 0
-522 15552 15553 15554 0
-15555 -70 0
-15555 501 0
-15556 -74 0
-15556 483 0
-15557 -77 0
-15557 480 0
-522 15555 15556 15557 0
-15558 -78 0
-15558 537 0
-15559 -87 0
-15559 510 0
-15560 -90 0
-15560 507 0
-522 15558 15559 15560 0
-15561 -79 0
-15561 547 0
-15562 -92 0
-15562 515 0
-15563 -95 0
-15563 512 0
-522 15561 15562 15563 0
-15564 -80 0
-15564 553 0
-15565 -96 0
-15565 519 0
-15566 -99 0
-15566 516 0
-522 15564 15565 15566 0
-15567 -82 0
-15567 558 0
-15568 -100 0
-15568 524 0
-15569 -104 0
-15569 520 0
-522 15567 15568 15569 0
-15570 -83 0
-15570 559 0
-15571 -101 0
-15571 525 0
-15572 -105 0
-15572 521 0
-522 15570 15571 15572 0
-15573 -7 0
-15573 194 0
-15574 -12 0
-15574 174 0
-15575 -13 0
-15575 173 0
-523 15573 15574 15575 0
-15576 -20 0
-15576 272 0
-15577 -25 0
-15577 252 0
-15578 -26 0
-15578 251 0
-523 15576 15577 15578 0
-15579 -32 0
-15579 338 0
-15580 -37 0
-15580 318 0
-15581 -38 0
-15581 317 0
-523 15579 15580 15581 0
-15582 -43 0
-15582 393 0
-15583 -48 0
-15583 373 0
-15584 -49 0
-15584 372 0
-523 15582 15583 15584 0
-15585 -53 0
-15585 438 0
-15586 -58 0
-15586 418 0
-15587 -59 0
-15587 417 0
-523 15585 15586 15587 0
-15588 -62 0
-15588 474 0
-15589 -67 0
-15589 454 0
-15590 -68 0
-15590 453 0
-523 15588 15589 15590 0
-15591 -70 0
-15591 502 0
-15592 -75 0
-15592 482 0
-15593 -76 0
-15593 481 0
-523 15591 15592 15593 0
-15594 -78 0
-15594 538 0
-15595 -88 0
-15595 509 0
-15596 -89 0
-15596 508 0
-523 15594 15595 15596 0
-15597 -79 0
-15597 548 0
-15598 -93 0
-15598 514 0
-15599 -94 0
-15599 513 0
-523 15597 15598 15599 0
-15600 -80 0
-15600 554 0
-15601 -97 0
-15601 518 0
-15602 -98 0
-15602 517 0
-523 15600 15601 15602 0
-15603 -81 0
-15603 557 0
-15604 -100 0
-15604 521 0
-15605 -101 0
-15605 520 0
-523 15603 15604 15605 0
-15606 -84 0
-15606 560 0
-15607 -104 0
-15607 525 0
-15608 -105 0
-15608 524 0
-523 15606 15607 15608 0
-15609 -7 0
-15609 195 0
-15610 -12 0
-15610 175 0
-15611 -14 0
-15611 173 0
-524 15609 15610 15611 0
-15612 -20 0
-15612 273 0
-15613 -25 0
-15613 253 0
-15614 -27 0
-15614 251 0
-524 15612 15613 15614 0
-15615 -32 0
-15615 339 0
-15616 -37 0
-15616 319 0
-15617 -39 0
-15617 317 0
-524 15615 15616 15617 0
-15618 -43 0
-15618 394 0
-15619 -48 0
-15619 374 0
-15620 -50 0
-15620 372 0
-524 15618 15619 15620 0
-15621 -53 0
-15621 439 0
-15622 -58 0
-15622 419 0
-15623 -60 0
-15623 417 0
-524 15621 15622 15623 0
-15624 -62 0
-15624 475 0
-15625 -67 0
-15625 455 0
-15626 -69 0
-15626 453 0
-524 15624 15625 15626 0
-15627 -70 0
-15627 503 0
-15628 -75 0
-15628 483 0
-15629 -77 0
-15629 481 0
-524 15627 15628 15629 0
-15630 -78 0
-15630 539 0
-15631 -88 0
-15631 510 0
-15632 -90 0
-15632 508 0
-524 15630 15631 15632 0
-15633 -79 0
-15633 549 0
-15634 -93 0
-15634 515 0
-15635 -95 0
-15635 513 0
-524 15633 15634 15635 0
-15636 -80 0
-15636 555 0
-15637 -97 0
-15637 519 0
-15638 -99 0
-15638 517 0
-524 15636 15637 15638 0
-15639 -81 0
-15639 558 0
-15640 -100 0
-15640 522 0
-15641 -102 0
-15641 520 0
-524 15639 15640 15641 0
-15642 -83 0
-15642 560 0
-15643 -103 0
-15643 525 0
-15644 -105 0
-15644 523 0
-524 15642 15643 15644 0
-15645 -7 0
-15645 196 0
-15646 -13 0
-15646 175 0
-15647 -14 0
-15647 174 0
-525 15645 15646 15647 0
-15648 -20 0
-15648 274 0
-15649 -26 0
-15649 253 0
-15650 -27 0
-15650 252 0
-525 15648 15649 15650 0
-15651 -32 0
-15651 340 0
-15652 -38 0
-15652 319 0
-15653 -39 0
-15653 318 0
-525 15651 15652 15653 0
-15654 -43 0
-15654 395 0
-15655 -49 0
-15655 374 0
-15656 -50 0
-15656 373 0
-525 15654 15655 15656 0
-15657 -53 0
-15657 440 0
-15658 -59 0
-15658 419 0
-15659 -60 0
-15659 418 0
-525 15657 15658 15659 0
-15660 -62 0
-15660 476 0
-15661 -68 0
-15661 455 0
-15662 -69 0
-15662 454 0
-525 15660 15661 15662 0
-15663 -70 0
-15663 504 0
-15664 -76 0
-15664 483 0
-15665 -77 0
-15665 482 0
-525 15663 15664 15665 0
-15666 -78 0
-15666 540 0
-15667 -89 0
-15667 510 0
-15668 -90 0
-15668 509 0
-525 15666 15667 15668 0
-15669 -79 0
-15669 550 0
-15670 -94 0
-15670 515 0
-15671 -95 0
-15671 514 0
-525 15669 15670 15671 0
-15672 -80 0
-15672 556 0
-15673 -98 0
-15673 519 0
-15674 -99 0
-15674 518 0
-525 15672 15673 15674 0
-15675 -81 0
-15675 559 0
-15676 -101 0
-15676 522 0
-15677 -102 0
-15677 521 0
-525 15675 15676 15677 0
-15678 -82 0
-15678 560 0
-15679 -103 0
-15679 524 0
-15680 -104 0
-15680 523 0
-525 15678 15679 15680 0
-15681 -8 0
-15681 182 0
-15682 -9 0
-15682 177 0
-15683 -10 0
-15683 176 0
-526 15681 15682 15683 0
-15684 -21 0
-15684 260 0
-15685 -22 0
-15685 255 0
-15686 -23 0
-15686 254 0
-526 15684 15685 15686 0
-15687 -33 0
-15687 326 0
-15688 -34 0
-15688 321 0
-15689 -35 0
-15689 320 0
-526 15687 15688 15689 0
-15690 -44 0
-15690 381 0
-15691 -45 0
-15691 376 0
-15692 -46 0
-15692 375 0
-526 15690 15691 15692 0
-15693 -54 0
-15693 426 0
-15694 -55 0
-15694 421 0
-15695 -56 0
-15695 420 0
-526 15693 15694 15695 0
-15696 -63 0
-15696 462 0
-15697 -64 0
-15697 457 0
-15698 -65 0
-15698 456 0
-526 15696 15697 15698 0
-15699 -71 0
-15699 490 0
-15700 -72 0
-15700 485 0
-15701 -73 0
-15701 484 0
-526 15699 15700 15701 0
-15702 -78 0
-15702 511 0
-15703 -79 0
-15703 506 0
-15704 -80 0
-15704 505 0
-526 15702 15703 15704 0
-15705 -87 0
-15705 541 0
-15706 -92 0
-15706 531 0
-15707 -96 0
-15707 527 0
-526 15705 15706 15707 0
-15708 -88 0
-15708 542 0
-15709 -93 0
-15709 532 0
-15710 -97 0
-15710 528 0
-526 15708 15709 15710 0
-15711 -89 0
-15711 543 0
-15712 -94 0
-15712 533 0
-15713 -98 0
-15713 529 0
-526 15711 15712 15713 0
-15714 -90 0
-15714 544 0
-15715 -95 0
-15715 534 0
-15716 -99 0
-15716 530 0
-526 15714 15715 15716 0
-15717 -8 0
-15717 183 0
-15718 -9 0
-15718 178 0
-15719 -11 0
-15719 176 0
-527 15717 15718 15719 0
-15720 -21 0
-15720 261 0
-15721 -22 0
-15721 256 0
-15722 -24 0
-15722 254 0
-527 15720 15721 15722 0
-15723 -33 0
-15723 327 0
-15724 -34 0
-15724 322 0
-15725 -36 0
-15725 320 0
-527 15723 15724 15725 0
-15726 -44 0
-15726 382 0
-15727 -45 0
-15727 377 0
-15728 -47 0
-15728 375 0
-527 15726 15727 15728 0
-15729 -54 0
-15729 427 0
-15730 -55 0
-15730 422 0
-15731 -57 0
-15731 420 0
-527 15729 15730 15731 0
-15732 -63 0
-15732 463 0
-15733 -64 0
-15733 458 0
-15734 -66 0
-15734 456 0
-527 15732 15733 15734 0
-15735 -71 0
-15735 491 0
-15736 -72 0
-15736 486 0
-15737 -74 0
-15737 484 0
-527 15735 15736 15737 0
-15738 -78 0
-15738 512 0
-15739 -79 0
-15739 507 0
-15740 -81 0
-15740 505 0
-527 15738 15739 15740 0
-15741 -86 0
-15741 541 0
-15742 -91 0
-15742 531 0
-15743 -96 0
-15743 526 0
-527 15741 15742 15743 0
-15744 -88 0
-15744 545 0
-15745 -93 0
-15745 535 0
-15746 -100 0
-15746 528 0
-527 15744 15745 15746 0
-15747 -89 0
-15747 546 0
-15748 -94 0
-15748 536 0
-15749 -101 0
-15749 529 0
-527 15747 15748 15749 0
-15750 -90 0
-15750 547 0
-15751 -95 0
-15751 537 0
-15752 -102 0
-15752 530 0
-527 15750 15751 15752 0
-15753 -8 0
-15753 184 0
-15754 -9 0
-15754 179 0
-15755 -12 0
-15755 176 0
-528 15753 15754 15755 0
-15756 -21 0
-15756 262 0
-15757 -22 0
-15757 257 0
-15758 -25 0
-15758 254 0
-528 15756 15757 15758 0
-15759 -33 0
-15759 328 0
-15760 -34 0
-15760 323 0
-15761 -37 0
-15761 320 0
-528 15759 15760 15761 0
-15762 -44 0
-15762 383 0
-15763 -45 0
-15763 378 0
-15764 -48 0
-15764 375 0
-528 15762 15763 15764 0
-15765 -54 0
-15765 428 0
-15766 -55 0
-15766 423 0
-15767 -58 0
-15767 420 0
-528 15765 15766 15767 0
-15768 -63 0
-15768 464 0
-15769 -64 0
-15769 459 0
-15770 -67 0
-15770 456 0
-528 15768 15769 15770 0
-15771 -71 0
-15771 492 0
-15772 -72 0
-15772 487 0
-15773 -75 0
-15773 484 0
-528 15771 15772 15773 0
-15774 -78 0
-15774 513 0
-15775 -79 0
-15775 508 0
-15776 -82 0
-15776 505 0
-528 15774 15775 15776 0
-15777 -86 0
-15777 542 0
-15778 -91 0
-15778 532 0
-15779 -97 0
-15779 526 0
-528 15777 15778 15779 0
-15780 -87 0
-15780 545 0
-15781 -92 0
-15781 535 0
-15782 -100 0
-15782 527 0
-528 15780 15781 15782 0
-15783 -89 0
-15783 548 0
-15784 -94 0
-15784 538 0
-15785 -103 0
-15785 529 0
-528 15783 15784 15785 0
-15786 -90 0
-15786 549 0
-15787 -95 0
-15787 539 0
-15788 -104 0
-15788 530 0
-528 15786 15787 15788 0
-15789 -8 0
-15789 185 0
-15790 -9 0
-15790 180 0
-15791 -13 0
-15791 176 0
-529 15789 15790 15791 0
-15792 -21 0
-15792 263 0
-15793 -22 0
-15793 258 0
-15794 -26 0
-15794 254 0
-529 15792 15793 15794 0
-15795 -33 0
-15795 329 0
-15796 -34 0
-15796 324 0
-15797 -38 0
-15797 320 0
-529 15795 15796 15797 0
-15798 -44 0
-15798 384 0
-15799 -45 0
-15799 379 0
-15800 -49 0
-15800 375 0
-529 15798 15799 15800 0
-15801 -54 0
-15801 429 0
-15802 -55 0
-15802 424 0
-15803 -59 0
-15803 420 0
-529 15801 15802 15803 0
-15804 -63 0
-15804 465 0
-15805 -64 0
-15805 460 0
-15806 -68 0
-15806 456 0
-529 15804 15805 15806 0
-15807 -71 0
-15807 493 0
-15808 -72 0
-15808 488 0
-15809 -76 0
-15809 484 0
-529 15807 15808 15809 0
-15810 -78 0
-15810 514 0
-15811 -79 0
-15811 509 0
-15812 -83 0
-15812 505 0
-529 15810 15811 15812 0
-15813 -86 0
-15813 543 0
-15814 -91 0
-15814 533 0
-15815 -98 0
-15815 526 0
-529 15813 15814 15815 0
-15816 -87 0
-15816 546 0
-15817 -92 0
-15817 536 0
-15818 -101 0
-15818 527 0
-529 15816 15817 15818 0
-15819 -88 0
-15819 548 0
-15820 -93 0
-15820 538 0
-15821 -103 0
-15821 528 0
-529 15819 15820 15821 0
-15822 -90 0
-15822 550 0
-15823 -95 0
-15823 540 0
-15824 -105 0
-15824 530 0
-529 15822 15823 15824 0
-15825 -8 0
-15825 186 0
-15826 -9 0
-15826 181 0
-15827 -14 0
-15827 176 0
-530 15825 15826 15827 0
-15828 -21 0
-15828 264 0
-15829 -22 0
-15829 259 0
-15830 -27 0
-15830 254 0
-530 15828 15829 15830 0
-15831 -33 0
-15831 330 0
-15832 -34 0
-15832 325 0
-15833 -39 0
-15833 320 0
-530 15831 15832 15833 0
-15834 -44 0
-15834 385 0
-15835 -45 0
-15835 380 0
-15836 -50 0
-15836 375 0
-530 15834 15835 15836 0
-15837 -54 0
-15837 430 0
-15838 -55 0
-15838 425 0
-15839 -60 0
-15839 420 0
-530 15837 15838 15839 0
-15840 -63 0
-15840 466 0
-15841 -64 0
-15841 461 0
-15842 -69 0
-15842 456 0
-530 15840 15841 15842 0
-15843 -71 0
-15843 494 0
-15844 -72 0
-15844 489 0
-15845 -77 0
-15845 484 0
-530 15843 15844 15845 0
-15846 -78 0
-15846 515 0
-15847 -79 0
-15847 510 0
-15848 -84 0
-15848 505 0
-530 15846 15847 15848 0
-15849 -86 0
-15849 544 0
-15850 -91 0
-15850 534 0
-15851 -99 0
-15851 526 0
-530 15849 15850 15851 0
-15852 -87 0
-15852 547 0
-15853 -92 0
-15853 537 0
-15854 -102 0
-15854 527 0
-530 15852 15853 15854 0
-15855 -88 0
-15855 549 0
-15856 -93 0
-15856 539 0
-15857 -104 0
-15857 528 0
-530 15855 15856 15857 0
-15858 -89 0
-15858 550 0
-15859 -94 0
-15859 540 0
-15860 -105 0
-15860 529 0
-530 15858 15859 15860 0
-15861 -8 0
-15861 187 0
-15862 -10 0
-15862 178 0
-15863 -11 0
-15863 177 0
-531 15861 15862 15863 0
-15864 -21 0
-15864 265 0
-15865 -23 0
-15865 256 0
-15866 -24 0
-15866 255 0
-531 15864 15865 15866 0
-15867 -33 0
-15867 331 0
-15868 -35 0
-15868 322 0
-15869 -36 0
-15869 321 0
-531 15867 15868 15869 0
-15870 -44 0
-15870 386 0
-15871 -46 0
-15871 377 0
-15872 -47 0
-15872 376 0
-531 15870 15871 15872 0
-15873 -54 0
-15873 431 0
-15874 -56 0
-15874 422 0
-15875 -57 0
-15875 421 0
-531 15873 15874 15875 0
-15876 -63 0
-15876 467 0
-15877 -65 0
-15877 458 0
-15878 -66 0
-15878 457 0
-531 15876 15877 15878 0
-15879 -71 0
-15879 495 0
-15880 -73 0
-15880 486 0
-15881 -74 0
-15881 485 0
-531 15879 15880 15881 0
-15882 -78 0
-15882 516 0
-15883 -80 0
-15883 507 0
-15884 -81 0
-15884 506 0
-531 15882 15883 15884 0
-15885 -85 0
-15885 541 0
-15886 -91 0
-15886 527 0
-15887 -92 0
-15887 526 0
-531 15885 15886 15887 0
-15888 -88 0
-15888 551 0
-15889 -97 0
-15889 535 0
-15890 -100 0
-15890 532 0
-531 15888 15889 15890 0
-15891 -89 0
-15891 552 0
-15892 -98 0
-15892 536 0
-15893 -101 0
-15893 533 0
-531 15891 15892 15893 0
-15894 -90 0
-15894 553 0
-15895 -99 0
-15895 537 0
-15896 -102 0
-15896 534 0
-531 15894 15895 15896 0
-15897 -8 0
-15897 188 0
-15898 -10 0
-15898 179 0
-15899 -12 0
-15899 177 0
-532 15897 15898 15899 0
-15900 -21 0
-15900 266 0
-15901 -23 0
-15901 257 0
-15902 -25 0
-15902 255 0
-532 15900 15901 15902 0
-15903 -33 0
-15903 332 0
-15904 -35 0
-15904 323 0
-15905 -37 0
-15905 321 0
-532 15903 15904 15905 0
-15906 -44 0
-15906 387 0
-15907 -46 0
-15907 378 0
-15908 -48 0
-15908 376 0
-532 15906 15907 15908 0
-15909 -54 0
-15909 432 0
-15910 -56 0
-15910 423 0
-15911 -58 0
-15911 421 0
-532 15909 15910 15911 0
-15912 -63 0
-15912 468 0
-15913 -65 0
-15913 459 0
-15914 -67 0
-15914 457 0
-532 15912 15913 15914 0
-15915 -71 0
-15915 496 0
-15916 -73 0
-15916 487 0
-15917 -75 0
-15917 485 0
-532 15915 15916 15917 0
-15918 -78 0
-15918 517 0
-15919 -80 0
-15919 508 0
-15920 -82 0
-15920 506 0
-532 15918 15919 15920 0
-15921 -85 0
-15921 542 0
-15922 -91 0
-15922 528 0
-15923 -93 0
-15923 526 0
-532 15921 15922 15923 0
-15924 -87 0
-15924 551 0
-15925 -96 0
-15925 535 0
-15926 -100 0
-15926 531 0
-532 15924 15925 15926 0
-15927 -89 0
-15927 554 0
-15928 -98 0
-15928 538 0
-15929 -103 0
-15929 533 0
-532 15927 15928 15929 0
-15930 -90 0
-15930 555 0
-15931 -99 0
-15931 539 0
-15932 -104 0
-15932 534 0
-532 15930 15931 15932 0
-15933 -8 0
-15933 189 0
-15934 -10 0
-15934 180 0
-15935 -13 0
-15935 177 0
-533 15933 15934 15935 0
-15936 -21 0
-15936 267 0
-15937 -23 0
-15937 258 0
-15938 -26 0
-15938 255 0
-533 15936 15937 15938 0
-15939 -33 0
-15939 333 0
-15940 -35 0
-15940 324 0
-15941 -38 0
-15941 321 0
-533 15939 15940 15941 0
-15942 -44 0
-15942 388 0
-15943 -46 0
-15943 379 0
-15944 -49 0
-15944 376 0
-533 15942 15943 15944 0
-15945 -54 0
-15945 433 0
-15946 -56 0
-15946 424 0
-15947 -59 0
-15947 421 0
-533 15945 15946 15947 0
-15948 -63 0
-15948 469 0
-15949 -65 0
-15949 460 0
-15950 -68 0
-15950 457 0
-533 15948 15949 15950 0
-15951 -71 0
-15951 497 0
-15952 -73 0
-15952 488 0
-15953 -76 0
-15953 485 0
-533 15951 15952 15953 0
-15954 -78 0
-15954 518 0
-15955 -80 0
-15955 509 0
-15956 -83 0
-15956 506 0
-533 15954 15955 15956 0
-15957 -85 0
-15957 543 0
-15958 -91 0
-15958 529 0
-15959 -94 0
-15959 526 0
-533 15957 15958 15959 0
-15960 -87 0
-15960 552 0
-15961 -96 0
-15961 536 0
-15962 -101 0
-15962 531 0
-533 15960 15961 15962 0
-15963 -88 0
-15963 554 0
-15964 -97 0
-15964 538 0
-15965 -103 0
-15965 532 0
-533 15963 15964 15965 0
-15966 -90 0
-15966 556 0
-15967 -99 0
-15967 540 0
-15968 -105 0
-15968 534 0
-533 15966 15967 15968 0
-15969 -8 0
-15969 190 0
-15970 -10 0
-15970 181 0
-15971 -14 0
-15971 177 0
-534 15969 15970 15971 0
-15972 -21 0
-15972 268 0
-15973 -23 0
-15973 259 0
-15974 -27 0
-15974 255 0
-534 15972 15973 15974 0
-15975 -33 0
-15975 334 0
-15976 -35 0
-15976 325 0
-15977 -39 0
-15977 321 0
-534 15975 15976 15977 0
-15978 -44 0
-15978 389 0
-15979 -46 0
-15979 380 0
-15980 -50 0
-15980 376 0
-534 15978 15979 15980 0
-15981 -54 0
-15981 434 0
-15982 -56 0
-15982 425 0
-15983 -60 0
-15983 421 0
-534 15981 15982 15983 0
-15984 -63 0
-15984 470 0
-15985 -65 0
-15985 461 0
-15986 -69 0
-15986 457 0
-534 15984 15985 15986 0
-15987 -71 0
-15987 498 0
-15988 -73 0
-15988 489 0
-15989 -77 0
-15989 485 0
-534 15987 15988 15989 0
-15990 -78 0
-15990 519 0
-15991 -80 0
-15991 510 0
-15992 -84 0
-15992 506 0
-534 15990 15991 15992 0
-15993 -85 0
-15993 544 0
-15994 -91 0
-15994 530 0
-15995 -95 0
-15995 526 0
-534 15993 15994 15995 0
-15996 -87 0
-15996 553 0
-15997 -96 0
-15997 537 0
-15998 -102 0
-15998 531 0
-534 15996 15997 15998 0
-15999 -88 0
-15999 555 0
-16000 -97 0
-16000 539 0
-16001 -104 0
-16001 532 0
-534 15999 16000 16001 0
-16002 -89 0
-16002 556 0
-16003 -98 0
-16003 540 0
-16004 -105 0
-16004 533 0
-534 16002 16003 16004 0
-16005 -8 0
-16005 191 0
-16006 -11 0
-16006 179 0
-16007 -12 0
-16007 178 0
-535 16005 16006 16007 0
-16008 -21 0
-16008 269 0
-16009 -24 0
-16009 257 0
-16010 -25 0
-16010 256 0
-535 16008 16009 16010 0
-16011 -33 0
-16011 335 0
-16012 -36 0
-16012 323 0
-16013 -37 0
-16013 322 0
-535 16011 16012 16013 0
-16014 -44 0
-16014 390 0
-16015 -47 0
-16015 378 0
-16016 -48 0
-16016 377 0
-535 16014 16015 16016 0
-16017 -54 0
-16017 435 0
-16018 -57 0
-16018 423 0
-16019 -58 0
-16019 422 0
-535 16017 16018 16019 0
-16020 -63 0
-16020 471 0
-16021 -66 0
-16021 459 0
-16022 -67 0
-16022 458 0
-535 16020 16021 16022 0
-16023 -71 0
-16023 499 0
-16024 -74 0
-16024 487 0
-16025 -75 0
-16025 486 0
-535 16023 16024 16025 0
-16026 -78 0
-16026 520 0
-16027 -81 0
-16027 508 0
-16028 -82 0
-16028 507 0
-535 16026 16027 16028 0
-16029 -85 0
-16029 545 0
-16030 -92 0
-16030 528 0
-16031 -93 0
-16031 527 0
-535 16029 16030 16031 0
-16032 -86 0
-16032 551 0
-16033 -96 0
-16033 532 0
-16034 -97 0
-16034 531 0
-535 16032 16033 16034 0
-16035 -89 0
-16035 557 0
-16036 -101 0
-16036 538 0
-16037 -103 0
-16037 536 0
-535 16035 16036 16037 0
-16038 -90 0
-16038 558 0
-16039 -102 0
-16039 539 0
-16040 -104 0
-16040 537 0
-535 16038 16039 16040 0
-16041 -8 0
-16041 192 0
-16042 -11 0
-16042 180 0
-16043 -13 0
-16043 178 0
-536 16041 16042 16043 0
-16044 -21 0
-16044 270 0
-16045 -24 0
-16045 258 0
-16046 -26 0
-16046 256 0
-536 16044 16045 16046 0
-16047 -33 0
-16047 336 0
-16048 -36 0
-16048 324 0
-16049 -38 0
-16049 322 0
-536 16047 16048 16049 0
-16050 -44 0
-16050 391 0
-16051 -47 0
-16051 379 0
-16052 -49 0
-16052 377 0
-536 16050 16051 16052 0
-16053 -54 0
-16053 436 0
-16054 -57 0
-16054 424 0
-16055 -59 0
-16055 422 0
-536 16053 16054 16055 0
-16056 -63 0
-16056 472 0
-16057 -66 0
-16057 460 0
-16058 -68 0
-16058 458 0
-536 16056 16057 16058 0
-16059 -71 0
-16059 500 0
-16060 -74 0
-16060 488 0
-16061 -76 0
-16061 486 0
-536 16059 16060 16061 0
-16062 -78 0
-16062 521 0
-16063 -81 0
-16063 509 0
-16064 -83 0
-16064 507 0
-536 16062 16063 16064 0
-16065 -85 0
-16065 546 0
-16066 -92 0
-16066 529 0
-16067 -94 0
-16067 527 0
-536 16065 16066 16067 0
-16068 -86 0
-16068 552 0
-16069 -96 0
-16069 533 0
-16070 -98 0
-16070 531 0
-536 16068 16069 16070 0
-16071 -88 0
-16071 557 0
-16072 -100 0
-16072 538 0
-16073 -103 0
-16073 535 0
-536 16071 16072 16073 0
-16074 -90 0
-16074 559 0
-16075 -102 0
-16075 540 0
-16076 -105 0
-16076 537 0
-536 16074 16075 16076 0
-16077 -8 0
-16077 193 0
-16078 -11 0
-16078 181 0
-16079 -14 0
-16079 178 0
-537 16077 16078 16079 0
-16080 -21 0
-16080 271 0
-16081 -24 0
-16081 259 0
-16082 -27 0
-16082 256 0
-537 16080 16081 16082 0
-16083 -33 0
-16083 337 0
-16084 -36 0
-16084 325 0
-16085 -39 0
-16085 322 0
-537 16083 16084 16085 0
-16086 -44 0
-16086 392 0
-16087 -47 0
-16087 380 0
-16088 -50 0
-16088 377 0
-537 16086 16087 16088 0
-16089 -54 0
-16089 437 0
-16090 -57 0
-16090 425 0
-16091 -60 0
-16091 422 0
-537 16089 16090 16091 0
-16092 -63 0
-16092 473 0
-16093 -66 0
-16093 461 0
-16094 -69 0
-16094 458 0
-537 16092 16093 16094 0
-16095 -71 0
-16095 501 0
-16096 -74 0
-16096 489 0
-16097 -77 0
-16097 486 0
-537 16095 16096 16097 0
-16098 -78 0
-16098 522 0
-16099 -81 0
-16099 510 0
-16100 -84 0
-16100 507 0
-537 16098 16099 16100 0
-16101 -85 0
-16101 547 0
-16102 -92 0
-16102 530 0
-16103 -95 0
-16103 527 0
-537 16101 16102 16103 0
-16104 -86 0
-16104 553 0
-16105 -96 0
-16105 534 0
-16106 -99 0
-16106 531 0
-537 16104 16105 16106 0
-16107 -88 0
-16107 558 0
-16108 -100 0
-16108 539 0
-16109 -104 0
-16109 535 0
-537 16107 16108 16109 0
-16110 -89 0
-16110 559 0
-16111 -101 0
-16111 540 0
-16112 -105 0
-16112 536 0
-537 16110 16111 16112 0
-16113 -8 0
-16113 194 0
-16114 -12 0
-16114 180 0
-16115 -13 0
-16115 179 0
-538 16113 16114 16115 0
-16116 -21 0
-16116 272 0
-16117 -25 0
-16117 258 0
-16118 -26 0
-16118 257 0
-538 16116 16117 16118 0
-16119 -33 0
-16119 338 0
-16120 -37 0
-16120 324 0
-16121 -38 0
-16121 323 0
-538 16119 16120 16121 0
-16122 -44 0
-16122 393 0
-16123 -48 0
-16123 379 0
-16124 -49 0
-16124 378 0
-538 16122 16123 16124 0
-16125 -54 0
-16125 438 0
-16126 -58 0
-16126 424 0
-16127 -59 0
-16127 423 0
-538 16125 16126 16127 0
-16128 -63 0
-16128 474 0
-16129 -67 0
-16129 460 0
-16130 -68 0
-16130 459 0
-538 16128 16129 16130 0
-16131 -71 0
-16131 502 0
-16132 -75 0
-16132 488 0
-16133 -76 0
-16133 487 0
-538 16131 16132 16133 0
-16134 -78 0
-16134 523 0
-16135 -82 0
-16135 509 0
-16136 -83 0
-16136 508 0
-538 16134 16135 16136 0
-16137 -85 0
-16137 548 0
-16138 -93 0
-16138 529 0
-16139 -94 0
-16139 528 0
-538 16137 16138 16139 0
-16140 -86 0
-16140 554 0
-16141 -97 0
-16141 533 0
-16142 -98 0
-16142 532 0
-538 16140 16141 16142 0
-16143 -87 0
-16143 557 0
-16144 -100 0
-16144 536 0
-16145 -101 0
-16145 535 0
-538 16143 16144 16145 0
-16146 -90 0
-16146 560 0
-16147 -104 0
-16147 540 0
-16148 -105 0
-16148 539 0
-538 16146 16147 16148 0
-16149 -8 0
-16149 195 0
-16150 -12 0
-16150 181 0
-16151 -14 0
-16151 179 0
-539 16149 16150 16151 0
-16152 -21 0
-16152 273 0
-16153 -25 0
-16153 259 0
-16154 -27 0
-16154 257 0
-539 16152 16153 16154 0
-16155 -33 0
-16155 339 0
-16156 -37 0
-16156 325 0
-16157 -39 0
-16157 323 0
-539 16155 16156 16157 0
-16158 -44 0
-16158 394 0
-16159 -48 0
-16159 380 0
-16160 -50 0
-16160 378 0
-539 16158 16159 16160 0
-16161 -54 0
-16161 439 0
-16162 -58 0
-16162 425 0
-16163 -60 0
-16163 423 0
-539 16161 16162 16163 0
-16164 -63 0
-16164 475 0
-16165 -67 0
-16165 461 0
-16166 -69 0
-16166 459 0
-539 16164 16165 16166 0
-16167 -71 0
-16167 503 0
-16168 -75 0
-16168 489 0
-16169 -77 0
-16169 487 0
-539 16167 16168 16169 0
-16170 -78 0
-16170 524 0
-16171 -82 0
-16171 510 0
-16172 -84 0
-16172 508 0
-539 16170 16171 16172 0
-16173 -85 0
-16173 549 0
-16174 -93 0
-16174 530 0
-16175 -95 0
-16175 528 0
-539 16173 16174 16175 0
-16176 -86 0
-16176 555 0
-16177 -97 0
-16177 534 0
-16178 -99 0
-16178 532 0
-539 16176 16177 16178 0
-16179 -87 0
-16179 558 0
-16180 -100 0
-16180 537 0
-16181 -102 0
-16181 535 0
-539 16179 16180 16181 0
-16182 -89 0
-16182 560 0
-16183 -103 0
-16183 540 0
-16184 -105 0
-16184 538 0
-539 16182 16183 16184 0
-16185 -8 0
-16185 196 0
-16186 -13 0
-16186 181 0
-16187 -14 0
-16187 180 0
-540 16185 16186 16187 0
-16188 -21 0
-16188 274 0
-16189 -26 0
-16189 259 0
-16190 -27 0
-16190 258 0
-540 16188 16189 16190 0
-16191 -33 0
-16191 340 0
-16192 -38 0
-16192 325 0
-16193 -39 0
-16193 324 0
-540 16191 16192 16193 0
-16194 -44 0
-16194 395 0
-16195 -49 0
-16195 380 0
-16196 -50 0
-16196 379 0
-540 16194 16195 16196 0
-16197 -54 0
-16197 440 0
-16198 -59 0
-16198 425 0
-16199 -60 0
-16199 424 0
-540 16197 16198 16199 0
-16200 -63 0
-16200 476 0
-16201 -68 0
-16201 461 0
-16202 -69 0
-16202 460 0
-540 16200 16201 16202 0
-16203 -71 0
-16203 504 0
-16204 -76 0
-16204 489 0
-16205 -77 0
-16205 488 0
-540 16203 16204 16205 0
-16206 -78 0
-16206 525 0
-16207 -83 0
-16207 510 0
-16208 -84 0
-16208 509 0
-540 16206 16207 16208 0
-16209 -85 0
-16209 550 0
-16210 -94 0
-16210 530 0
-16211 -95 0
-16211 529 0
-540 16209 16210 16211 0
-16212 -86 0
-16212 556 0
-16213 -98 0
-16213 534 0
-16214 -99 0
-16214 533 0
-540 16212 16213 16214 0
-16215 -87 0
-16215 559 0
-16216 -101 0
-16216 537 0
-16217 -102 0
-16217 536 0
-540 16215 16216 16217 0
-16218 -88 0
-16218 560 0
-16219 -103 0
-16219 539 0
-16220 -104 0
-16220 538 0
-540 16218 16219 16220 0
-16221 -9 0
-16221 187 0
-16222 -10 0
-16222 183 0
-16223 -11 0
-16223 182 0
-541 16221 16222 16223 0
-16224 -22 0
-16224 265 0
-16225 -23 0
-16225 261 0
-16226 -24 0
-16226 260 0
-541 16224 16225 16226 0
-16227 -34 0
-16227 331 0
-16228 -35 0
-16228 327 0
-16229 -36 0
-16229 326 0
-541 16227 16228 16229 0
-16230 -45 0
-16230 386 0
-16231 -46 0
-16231 382 0
-16232 -47 0
-16232 381 0
-541 16230 16231 16232 0
-16233 -55 0
-16233 431 0
-16234 -56 0
-16234 427 0
-16235 -57 0
-16235 426 0
-541 16233 16234 16235 0
-16236 -64 0
-16236 467 0
-16237 -65 0
-16237 463 0
-16238 -66 0
-16238 462 0
-541 16236 16237 16238 0
-16239 -72 0
-16239 495 0
-16240 -73 0
-16240 491 0
-16241 -74 0
-16241 490 0
-541 16239 16240 16241 0
-16242 -79 0
-16242 516 0
-16243 -80 0
-16243 512 0
-16244 -81 0
-16244 511 0
-541 16242 16243 16244 0
-16245 -85 0
-16245 531 0
-16246 -86 0
-16246 527 0
-16247 -87 0
-16247 526 0
-541 16245 16246 16247 0
-16248 -93 0
-16248 551 0
-16249 -97 0
-16249 545 0
-16250 -100 0
-16250 542 0
-541 16248 16249 16250 0
-16251 -94 0
-16251 552 0
-16252 -98 0
-16252 546 0
-16253 -101 0
-16253 543 0
-541 16251 16252 16253 0
-16254 -95 0
-16254 553 0
-16255 -99 0
-16255 547 0
-16256 -102 0
-16256 544 0
-541 16254 16255 16256 0
-16257 -9 0
-16257 188 0
-16258 -10 0
-16258 184 0
-16259 -12 0
-16259 182 0
-542 16257 16258 16259 0
-16260 -22 0
-16260 266 0
-16261 -23 0
-16261 262 0
-16262 -25 0
-16262 260 0
-542 16260 16261 16262 0
-16263 -34 0
-16263 332 0
-16264 -35 0
-16264 328 0
-16265 -37 0
-16265 326 0
-542 16263 16264 16265 0
-16266 -45 0
-16266 387 0
-16267 -46 0
-16267 383 0
-16268 -48 0
-16268 381 0
-542 16266 16267 16268 0
-16269 -55 0
-16269 432 0
-16270 -56 0
-16270 428 0
-16271 -58 0
-16271 426 0
-542 16269 16270 16271 0
-16272 -64 0
-16272 468 0
-16273 -65 0
-16273 464 0
-16274 -67 0
-16274 462 0
-542 16272 16273 16274 0
-16275 -72 0
-16275 496 0
-16276 -73 0
-16276 492 0
-16277 -75 0
-16277 490 0
-542 16275 16276 16277 0
-16278 -79 0
-16278 517 0
-16279 -80 0
-16279 513 0
-16280 -82 0
-16280 511 0
-542 16278 16279 16280 0
-16281 -85 0
-16281 532 0
-16282 -86 0
-16282 528 0
-16283 -88 0
-16283 526 0
-542 16281 16282 16283 0
-16284 -92 0
-16284 551 0
-16285 -96 0
-16285 545 0
-16286 -100 0
-16286 541 0
-542 16284 16285 16286 0
-16287 -94 0
-16287 554 0
-16288 -98 0
-16288 548 0
-16289 -103 0
-16289 543 0
-542 16287 16288 16289 0
-16290 -95 0
-16290 555 0
-16291 -99 0
-16291 549 0
-16292 -104 0
-16292 544 0
-542 16290 16291 16292 0
-16293 -9 0
-16293 189 0
-16294 -10 0
-16294 185 0
-16295 -13 0
-16295 182 0
-543 16293 16294 16295 0
-16296 -22 0
-16296 267 0
-16297 -23 0
-16297 263 0
-16298 -26 0
-16298 260 0
-543 16296 16297 16298 0
-16299 -34 0
-16299 333 0
-16300 -35 0
-16300 329 0
-16301 -38 0
-16301 326 0
-543 16299 16300 16301 0
-16302 -45 0
-16302 388 0
-16303 -46 0
-16303 384 0
-16304 -49 0
-16304 381 0
-543 16302 16303 16304 0
-16305 -55 0
-16305 433 0
-16306 -56 0
-16306 429 0
-16307 -59 0
-16307 426 0
-543 16305 16306 16307 0
-16308 -64 0
-16308 469 0
-16309 -65 0
-16309 465 0
-16310 -68 0
-16310 462 0
-543 16308 16309 16310 0
-16311 -72 0
-16311 497 0
-16312 -73 0
-16312 493 0
-16313 -76 0
-16313 490 0
-543 16311 16312 16313 0
-16314 -79 0
-16314 518 0
-16315 -80 0
-16315 514 0
-16316 -83 0
-16316 511 0
-543 16314 16315 16316 0
-16317 -85 0
-16317 533 0
-16318 -86 0
-16318 529 0
-16319 -89 0
-16319 526 0
-543 16317 16318 16319 0
-16320 -92 0
-16320 552 0
-16321 -96 0
-16321 546 0
-16322 -101 0
-16322 541 0
-543 16320 16321 16322 0
-16323 -93 0
-16323 554 0
-16324 -97 0
-16324 548 0
-16325 -103 0
-16325 542 0
-543 16323 16324 16325 0
-16326 -95 0
-16326 556 0
-16327 -99 0
-16327 550 0
-16328 -105 0
-16328 544 0
-543 16326 16327 16328 0
-16329 -9 0
-16329 190 0
-16330 -10 0
-16330 186 0
-16331 -14 0
-16331 182 0
-544 16329 16330 16331 0
-16332 -22 0
-16332 268 0
-16333 -23 0
-16333 264 0
-16334 -27 0
-16334 260 0
-544 16332 16333 16334 0
-16335 -34 0
-16335 334 0
-16336 -35 0
-16336 330 0
-16337 -39 0
-16337 326 0
-544 16335 16336 16337 0
-16338 -45 0
-16338 389 0
-16339 -46 0
-16339 385 0
-16340 -50 0
-16340 381 0
-544 16338 16339 16340 0
-16341 -55 0
-16341 434 0
-16342 -56 0
-16342 430 0
-16343 -60 0
-16343 426 0
-544 16341 16342 16343 0
-16344 -64 0
-16344 470 0
-16345 -65 0
-16345 466 0
-16346 -69 0
-16346 462 0
-544 16344 16345 16346 0
-16347 -72 0
-16347 498 0
-16348 -73 0
-16348 494 0
-16349 -77 0
-16349 490 0
-544 16347 16348 16349 0
-16350 -79 0
-16350 519 0
-16351 -80 0
-16351 515 0
-16352 -84 0
-16352 511 0
-544 16350 16351 16352 0
-16353 -85 0
-16353 534 0
-16354 -86 0
-16354 530 0
-16355 -90 0
-16355 526 0
-544 16353 16354 16355 0
-16356 -92 0
-16356 553 0
-16357 -96 0
-16357 547 0
-16358 -102 0
-16358 541 0
-544 16356 16357 16358 0
-16359 -93 0
-16359 555 0
-16360 -97 0
-16360 549 0
-16361 -104 0
-16361 542 0
-544 16359 16360 16361 0
-16362 -94 0
-16362 556 0
-16363 -98 0
-16363 550 0
-16364 -105 0
-16364 543 0
-544 16362 16363 16364 0
-16365 -9 0
-16365 191 0
-16366 -11 0
-16366 184 0
-16367 -12 0
-16367 183 0
-545 16365 16366 16367 0
-16368 -22 0
-16368 269 0
-16369 -24 0
-16369 262 0
-16370 -25 0
-16370 261 0
-545 16368 16369 16370 0
-16371 -34 0
-16371 335 0
-16372 -36 0
-16372 328 0
-16373 -37 0
-16373 327 0
-545 16371 16372 16373 0
-16374 -45 0
-16374 390 0
-16375 -47 0
-16375 383 0
-16376 -48 0
-16376 382 0
-545 16374 16375 16376 0
-16377 -55 0
-16377 435 0
-16378 -57 0
-16378 428 0
-16379 -58 0
-16379 427 0
-545 16377 16378 16379 0
-16380 -64 0
-16380 471 0
-16381 -66 0
-16381 464 0
-16382 -67 0
-16382 463 0
-545 16380 16381 16382 0
-16383 -72 0
-16383 499 0
-16384 -74 0
-16384 492 0
-16385 -75 0
-16385 491 0
-545 16383 16384 16385 0
-16386 -79 0
-16386 520 0
-16387 -81 0
-16387 513 0
-16388 -82 0
-16388 512 0
-545 16386 16387 16388 0
-16389 -85 0
-16389 535 0
-16390 -87 0
-16390 528 0
-16391 -88 0
-16391 527 0
-545 16389 16390 16391 0
-16392 -91 0
-16392 551 0
-16393 -96 0
-16393 542 0
-16394 -97 0
-16394 541 0
-545 16392 16393 16394 0
-16395 -94 0
-16395 557 0
-16396 -101 0
-16396 548 0
-16397 -103 0
-16397 546 0
-545 16395 16396 16397 0
-16398 -95 0
-16398 558 0
-16399 -102 0
-16399 549 0
-16400 -104 0
-16400 547 0
-545 16398 16399 16400 0
-16401 -9 0
-16401 192 0
-16402 -11 0
-16402 185 0
-16403 -13 0
-16403 183 0
-546 16401 16402 16403 0
-16404 -22 0
-16404 270 0
-16405 -24 0
-16405 263 0
-16406 -26 0
-16406 261 0
-546 16404 16405 16406 0
-16407 -34 0
-16407 336 0
-16408 -36 0
-16408 329 0
-16409 -38 0
-16409 327 0
-546 16407 16408 16409 0
-16410 -45 0
-16410 391 0
-16411 -47 0
-16411 384 0
-16412 -49 0
-16412 382 0
-546 16410 16411 16412 0
-16413 -55 0
-16413 436 0
-16414 -57 0
-16414 429 0
-16415 -59 0
-16415 427 0
-546 16413 16414 16415 0
-16416 -64 0
-16416 472 0
-16417 -66 0
-16417 465 0
-16418 -68 0
-16418 463 0
-546 16416 16417 16418 0
-16419 -72 0
-16419 500 0
-16420 -74 0
-16420 493 0
-16421 -76 0
-16421 491 0
-546 16419 16420 16421 0
-16422 -79 0
-16422 521 0
-16423 -81 0
-16423 514 0
-16424 -83 0
-16424 512 0
-546 16422 16423 16424 0
-16425 -85 0
-16425 536 0
-16426 -87 0
-16426 529 0
-16427 -89 0
-16427 527 0
-546 16425 16426 16427 0
-16428 -91 0
-16428 552 0
-16429 -96 0
-16429 543 0
-16430 -98 0
-16430 541 0
-546 16428 16429 16430 0
-16431 -93 0
-16431 557 0
-16432 -100 0
-16432 548 0
-16433 -103 0
-16433 545 0
-546 16431 16432 16433 0
-16434 -95 0
-16434 559 0
-16435 -102 0
-16435 550 0
-16436 -105 0
-16436 547 0
-546 16434 16435 16436 0
-16437 -9 0
-16437 193 0
-16438 -11 0
-16438 186 0
-16439 -14 0
-16439 183 0
-547 16437 16438 16439 0
-16440 -22 0
-16440 271 0
-16441 -24 0
-16441 264 0
-16442 -27 0
-16442 261 0
-547 16440 16441 16442 0
-16443 -34 0
-16443 337 0
-16444 -36 0
-16444 330 0
-16445 -39 0
-16445 327 0
-547 16443 16444 16445 0
-16446 -45 0
-16446 392 0
-16447 -47 0
-16447 385 0
-16448 -50 0
-16448 382 0
-547 16446 16447 16448 0
-16449 -55 0
-16449 437 0
-16450 -57 0
-16450 430 0
-16451 -60 0
-16451 427 0
-547 16449 16450 16451 0
-16452 -64 0
-16452 473 0
-16453 -66 0
-16453 466 0
-16454 -69 0
-16454 463 0
-547 16452 16453 16454 0
-16455 -72 0
-16455 501 0
-16456 -74 0
-16456 494 0
-16457 -77 0
-16457 491 0
-547 16455 16456 16457 0
-16458 -79 0
-16458 522 0
-16459 -81 0
-16459 515 0
-16460 -84 0
-16460 512 0
-547 16458 16459 16460 0
-16461 -85 0
-16461 537 0
-16462 -87 0
-16462 530 0
-16463 -90 0
-16463 527 0
-547 16461 16462 16463 0
-16464 -91 0
-16464 553 0
-16465 -96 0
-16465 544 0
-16466 -99 0
-16466 541 0
-547 16464 16465 16466 0
-16467 -93 0
-16467 558 0
-16468 -100 0
-16468 549 0
-16469 -104 0
-16469 545 0
-547 16467 16468 16469 0
-16470 -94 0
-16470 559 0
-16471 -101 0
-16471 550 0
-16472 -105 0
-16472 546 0
-547 16470 16471 16472 0
-16473 -9 0
-16473 194 0
-16474 -12 0
-16474 185 0
-16475 -13 0
-16475 184 0
-548 16473 16474 16475 0
-16476 -22 0
-16476 272 0
-16477 -25 0
-16477 263 0
-16478 -26 0
-16478 262 0
-548 16476 16477 16478 0
-16479 -34 0
-16479 338 0
-16480 -37 0
-16480 329 0
-16481 -38 0
-16481 328 0
-548 16479 16480 16481 0
-16482 -45 0
-16482 393 0
-16483 -48 0
-16483 384 0
-16484 -49 0
-16484 383 0
-548 16482 16483 16484 0
-16485 -55 0
-16485 438 0
-16486 -58 0
-16486 429 0
-16487 -59 0
-16487 428 0
-548 16485 16486 16487 0
-16488 -64 0
-16488 474 0
-16489 -67 0
-16489 465 0
-16490 -68 0
-16490 464 0
-548 16488 16489 16490 0
-16491 -72 0
-16491 502 0
-16492 -75 0
-16492 493 0
-16493 -76 0
-16493 492 0
-548 16491 16492 16493 0
-16494 -79 0
-16494 523 0
-16495 -82 0
-16495 514 0
-16496 -83 0
-16496 513 0
-548 16494 16495 16496 0
-16497 -85 0
-16497 538 0
-16498 -88 0
-16498 529 0
-16499 -89 0
-16499 528 0
-548 16497 16498 16499 0
-16500 -91 0
-16500 554 0
-16501 -97 0
-16501 543 0
-16502 -98 0
-16502 542 0
-548 16500 16501 16502 0
-16503 -92 0
-16503 557 0
-16504 -100 0
-16504 546 0
-16505 -101 0
-16505 545 0
-548 16503 16504 16505 0
-16506 -95 0
-16506 560 0
-16507 -104 0
-16507 550 0
-16508 -105 0
-16508 549 0
-548 16506 16507 16508 0
-16509 -9 0
-16509 195 0
-16510 -12 0
-16510 186 0
-16511 -14 0
-16511 184 0
-549 16509 16510 16511 0
-16512 -22 0
-16512 273 0
-16513 -25 0
-16513 264 0
-16514 -27 0
-16514 262 0
-549 16512 16513 16514 0
-16515 -34 0
-16515 339 0
-16516 -37 0
-16516 330 0
-16517 -39 0
-16517 328 0
-549 16515 16516 16517 0
-16518 -45 0
-16518 394 0
-16519 -48 0
-16519 385 0
-16520 -50 0
-16520 383 0
-549 16518 16519 16520 0
-16521 -55 0
-16521 439 0
-16522 -58 0
-16522 430 0
-16523 -60 0
-16523 428 0
-549 16521 16522 16523 0
-16524 -64 0
-16524 475 0
-16525 -67 0
-16525 466 0
-16526 -69 0
-16526 464 0
-549 16524 16525 16526 0
-16527 -72 0
-16527 503 0
-16528 -75 0
-16528 494 0
-16529 -77 0
-16529 492 0
-549 16527 16528 16529 0
-16530 -79 0
-16530 524 0
-16531 -82 0
-16531 515 0
-16532 -84 0
-16532 513 0
-549 16530 16531 16532 0
-16533 -85 0
-16533 539 0
-16534 -88 0
-16534 530 0
-16535 -90 0
-16535 528 0
-549 16533 16534 16535 0
-16536 -91 0
-16536 555 0
-16537 -97 0
-16537 544 0
-16538 -99 0
-16538 542 0
-549 16536 16537 16538 0
-16539 -92 0
-16539 558 0
-16540 -100 0
-16540 547 0
-16541 -102 0
-16541 545 0
-549 16539 16540 16541 0
-16542 -94 0
-16542 560 0
-16543 -103 0
-16543 550 0
-16544 -105 0
-16544 548 0
-549 16542 16543 16544 0
-16545 -9 0
-16545 196 0
-16546 -13 0
-16546 186 0
-16547 -14 0
-16547 185 0
-550 16545 16546 16547 0
-16548 -22 0
-16548 274 0
-16549 -26 0
-16549 264 0
-16550 -27 0
-16550 263 0
-550 16548 16549 16550 0
-16551 -34 0
-16551 340 0
-16552 -38 0
-16552 330 0
-16553 -39 0
-16553 329 0
-550 16551 16552 16553 0
-16554 -45 0
-16554 395 0
-16555 -49 0
-16555 385 0
-16556 -50 0
-16556 384 0
-550 16554 16555 16556 0
-16557 -55 0
-16557 440 0
-16558 -59 0
-16558 430 0
-16559 -60 0
-16559 429 0
-550 16557 16558 16559 0
-16560 -64 0
-16560 476 0
-16561 -68 0
-16561 466 0
-16562 -69 0
-16562 465 0
-550 16560 16561 16562 0
-16563 -72 0
-16563 504 0
-16564 -76 0
-16564 494 0
-16565 -77 0
-16565 493 0
-550 16563 16564 16565 0
-16566 -79 0
-16566 525 0
-16567 -83 0
-16567 515 0
-16568 -84 0
-16568 514 0
-550 16566 16567 16568 0
-16569 -85 0
-16569 540 0
-16570 -89 0
-16570 530 0
-16571 -90 0
-16571 529 0
-550 16569 16570 16571 0
-16572 -91 0
-16572 556 0
-16573 -98 0
-16573 544 0
-16574 -99 0
-16574 543 0
-550 16572 16573 16574 0
-16575 -92 0
-16575 559 0
-16576 -101 0
-16576 547 0
-16577 -102 0
-16577 546 0
-550 16575 16576 16577 0
-16578 -93 0
-16578 560 0
-16579 -103 0
-16579 549 0
-16580 -104 0
-16580 548 0
-550 16578 16579 16580 0
-16581 -10 0
-16581 191 0
-16582 -11 0
-16582 188 0
-16583 -12 0
-16583 187 0
-551 16581 16582 16583 0
-16584 -23 0
-16584 269 0
-16585 -24 0
-16585 266 0
-16586 -25 0
-16586 265 0
-551 16584 16585 16586 0
-16587 -35 0
-16587 335 0
-16588 -36 0
-16588 332 0
-16589 -37 0
-16589 331 0
-551 16587 16588 16589 0
-16590 -46 0
-16590 390 0
-16591 -47 0
-16591 387 0
-16592 -48 0
-16592 386 0
-551 16590 16591 16592 0
-16593 -56 0
-16593 435 0
-16594 -57 0
-16594 432 0
-16595 -58 0
-16595 431 0
-551 16593 16594 16595 0
-16596 -65 0
-16596 471 0
-16597 -66 0
-16597 468 0
-16598 -67 0
-16598 467 0
-551 16596 16597 16598 0
-16599 -73 0
-16599 499 0
-16600 -74 0
-16600 496 0
-16601 -75 0
-16601 495 0
-551 16599 16600 16601 0
-16602 -80 0
-16602 520 0
-16603 -81 0
-16603 517 0
-16604 -82 0
-16604 516 0
-551 16602 16603 16604 0
-16605 -86 0
-16605 535 0
-16606 -87 0
-16606 532 0
-16607 -88 0
-16607 531 0
-551 16605 16606 16607 0
-16608 -91 0
-16608 545 0
-16609 -92 0
-16609 542 0
-16610 -93 0
-16610 541 0
-551 16608 16609 16610 0
-16611 -98 0
-16611 557 0
-16612 -101 0
-16612 554 0
-16613 -103 0
-16613 552 0
-551 16611 16612 16613 0
-16614 -99 0
-16614 558 0
-16615 -102 0
-16615 555 0
-16616 -104 0
-16616 553 0
-551 16614 16615 16616 0
-16617 -10 0
-16617 192 0
-16618 -11 0
-16618 189 0
-16619 -13 0
-16619 187 0
-552 16617 16618 16619 0
-16620 -23 0
-16620 270 0
-16621 -24 0
-16621 267 0
-16622 -26 0
-16622 265 0
-552 16620 16621 16622 0
-16623 -35 0
-16623 336 0
-16624 -36 0
-16624 333 0
-16625 -38 0
-16625 331 0
-552 16623 16624 16625 0
-16626 -46 0
-16626 391 0
-16627 -47 0
-16627 388 0
-16628 -49 0
-16628 386 0
-552 16626 16627 16628 0
-16629 -56 0
-16629 436 0
-16630 -57 0
-16630 433 0
-16631 -59 0
-16631 431 0
-552 16629 16630 16631 0
-16632 -65 0
-16632 472 0
-16633 -66 0
-16633 469 0
-16634 -68 0
-16634 467 0
-552 16632 16633 16634 0
-16635 -73 0
-16635 500 0
-16636 -74 0
-16636 497 0
-16637 -76 0
-16637 495 0
-552 16635 16636 16637 0
-16638 -80 0
-16638 521 0
-16639 -81 0
-16639 518 0
-16640 -83 0
-16640 516 0
-552 16638 16639 16640 0
-16641 -86 0
-16641 536 0
-16642 -87 0
-16642 533 0
-16643 -89 0
-16643 531 0
-552 16641 16642 16643 0
-16644 -91 0
-16644 546 0
-16645 -92 0
-16645 543 0
-16646 -94 0
-16646 541 0
-552 16644 16645 16646 0
-16647 -97 0
-16647 557 0
-16648 -100 0
-16648 554 0
-16649 -103 0
-16649 551 0
-552 16647 16648 16649 0
-16650 -99 0
-16650 559 0
-16651 -102 0
-16651 556 0
-16652 -105 0
-16652 553 0
-552 16650 16651 16652 0
-16653 -10 0
-16653 193 0
-16654 -11 0
-16654 190 0
-16655 -14 0
-16655 187 0
-553 16653 16654 16655 0
-16656 -23 0
-16656 271 0
-16657 -24 0
-16657 268 0
-16658 -27 0
-16658 265 0
-553 16656 16657 16658 0
-16659 -35 0
-16659 337 0
-16660 -36 0
-16660 334 0
-16661 -39 0
-16661 331 0
-553 16659 16660 16661 0
-16662 -46 0
-16662 392 0
-16663 -47 0
-16663 389 0
-16664 -50 0
-16664 386 0
-553 16662 16663 16664 0
-16665 -56 0
-16665 437 0
-16666 -57 0
-16666 434 0
-16667 -60 0
-16667 431 0
-553 16665 16666 16667 0
-16668 -65 0
-16668 473 0
-16669 -66 0
-16669 470 0
-16670 -69 0
-16670 467 0
-553 16668 16669 16670 0
-16671 -73 0
-16671 501 0
-16672 -74 0
-16672 498 0
-16673 -77 0
-16673 495 0
-553 16671 16672 16673 0
-16674 -80 0
-16674 522 0
-16675 -81 0
-16675 519 0
-16676 -84 0
-16676 516 0
-553 16674 16675 16676 0
-16677 -86 0
-16677 537 0
-16678 -87 0
-16678 534 0
-16679 -90 0
-16679 531 0
-553 16677 16678 16679 0
-16680 -91 0
-16680 547 0
-16681 -92 0
-16681 544 0
-16682 -95 0
-16682 541 0
-553 16680 16681 16682 0
-16683 -97 0
-16683 558 0
-16684 -100 0
-16684 555 0
-16685 -104 0
-16685 551 0
-553 16683 16684 16685 0
-16686 -98 0
-16686 559 0
-16687 -101 0
-16687 556 0
-16688 -105 0
-16688 552 0
-553 16686 16687 16688 0
-16689 -10 0
-16689 194 0
-16690 -12 0
-16690 189 0
-16691 -13 0
-16691 188 0
-554 16689 16690 16691 0
-16692 -23 0
-16692 272 0
-16693 -25 0
-16693 267 0
-16694 -26 0
-16694 266 0
-554 16692 16693 16694 0
-16695 -35 0
-16695 338 0
-16696 -37 0
-16696 333 0
-16697 -38 0
-16697 332 0
-554 16695 16696 16697 0
-16698 -46 0
-16698 393 0
-16699 -48 0
-16699 388 0
-16700 -49 0
-16700 387 0
-554 16698 16699 16700 0
-16701 -56 0
-16701 438 0
-16702 -58 0
-16702 433 0
-16703 -59 0
-16703 432 0
-554 16701 16702 16703 0
-16704 -65 0
-16704 474 0
-16705 -67 0
-16705 469 0
-16706 -68 0
-16706 468 0
-554 16704 16705 16706 0
-16707 -73 0
-16707 502 0
-16708 -75 0
-16708 497 0
-16709 -76 0
-16709 496 0
-554 16707 16708 16709 0
-16710 -80 0
-16710 523 0
-16711 -82 0
-16711 518 0
-16712 -83 0
-16712 517 0
-554 16710 16711 16712 0
-16713 -86 0
-16713 538 0
-16714 -88 0
-16714 533 0
-16715 -89 0
-16715 532 0
-554 16713 16714 16715 0
-16716 -91 0
-16716 548 0
-16717 -93 0
-16717 543 0
-16718 -94 0
-16718 542 0
-554 16716 16717 16718 0
-16719 -96 0
-16719 557 0
-16720 -100 0
-16720 552 0
-16721 -101 0
-16721 551 0
-554 16719 16720 16721 0
-16722 -99 0
-16722 560 0
-16723 -104 0
-16723 556 0
-16724 -105 0
-16724 555 0
-554 16722 16723 16724 0
-16725 -10 0
-16725 195 0
-16726 -12 0
-16726 190 0
-16727 -14 0
-16727 188 0
-555 16725 16726 16727 0
-16728 -23 0
-16728 273 0
-16729 -25 0
-16729 268 0
-16730 -27 0
-16730 266 0
-555 16728 16729 16730 0
-16731 -35 0
-16731 339 0
-16732 -37 0
-16732 334 0
-16733 -39 0
-16733 332 0
-555 16731 16732 16733 0
-16734 -46 0
-16734 394 0
-16735 -48 0
-16735 389 0
-16736 -50 0
-16736 387 0
-555 16734 16735 16736 0
-16737 -56 0
-16737 439 0
-16738 -58 0
-16738 434 0
-16739 -60 0
-16739 432 0
-555 16737 16738 16739 0
-16740 -65 0
-16740 475 0
-16741 -67 0
-16741 470 0
-16742 -69 0
-16742 468 0
-555 16740 16741 16742 0
-16743 -73 0
-16743 503 0
-16744 -75 0
-16744 498 0
-16745 -77 0
-16745 496 0
-555 16743 16744 16745 0
-16746 -80 0
-16746 524 0
-16747 -82 0
-16747 519 0
-16748 -84 0
-16748 517 0
-555 16746 16747 16748 0
-16749 -86 0
-16749 539 0
-16750 -88 0
-16750 534 0
-16751 -90 0
-16751 532 0
-555 16749 16750 16751 0
-16752 -91 0
-16752 549 0
-16753 -93 0
-16753 544 0
-16754 -95 0
-16754 542 0
-555 16752 16753 16754 0
-16755 -96 0
-16755 558 0
-16756 -100 0
-16756 553 0
-16757 -102 0
-16757 551 0
-555 16755 16756 16757 0
-16758 -98 0
-16758 560 0
-16759 -103 0
-16759 556 0
-16760 -105 0
-16760 554 0
-555 16758 16759 16760 0
-16761 -10 0
-16761 196 0
-16762 -13 0
-16762 190 0
-16763 -14 0
-16763 189 0
-556 16761 16762 16763 0
-16764 -23 0
-16764 274 0
-16765 -26 0
-16765 268 0
-16766 -27 0
-16766 267 0
-556 16764 16765 16766 0
-16767 -35 0
-16767 340 0
-16768 -38 0
-16768 334 0
-16769 -39 0
-16769 333 0
-556 16767 16768 16769 0
-16770 -46 0
-16770 395 0
-16771 -49 0
-16771 389 0
-16772 -50 0
-16772 388 0
-556 16770 16771 16772 0
-16773 -56 0
-16773 440 0
-16774 -59 0
-16774 434 0
-16775 -60 0
-16775 433 0
-556 16773 16774 16775 0
-16776 -65 0
-16776 476 0
-16777 -68 0
-16777 470 0
-16778 -69 0
-16778 469 0
-556 16776 16777 16778 0
-16779 -73 0
-16779 504 0
-16780 -76 0
-16780 498 0
-16781 -77 0
-16781 497 0
-556 16779 16780 16781 0
-16782 -80 0
-16782 525 0
-16783 -83 0
-16783 519 0
-16784 -84 0
-16784 518 0
-556 16782 16783 16784 0
-16785 -86 0
-16785 540 0
-16786 -89 0
-16786 534 0
-16787 -90 0
-16787 533 0
-556 16785 16786 16787 0
-16788 -91 0
-16788 550 0
-16789 -94 0
-16789 544 0
-16790 -95 0
-16790 543 0
-556 16788 16789 16790 0
-16791 -96 0
-16791 559 0
-16792 -101 0
-16792 553 0
-16793 -102 0
-16793 552 0
-556 16791 16792 16793 0
-16794 -97 0
-16794 560 0
-16795 -103 0
-16795 555 0
-16796 -104 0
-16796 554 0
-556 16794 16795 16796 0
-16797 -11 0
-16797 194 0
-16798 -12 0
-16798 192 0
-16799 -13 0
-16799 191 0
-557 16797 16798 16799 0
-16800 -24 0
-16800 272 0
-16801 -25 0
-16801 270 0
-16802 -26 0
-16802 269 0
-557 16800 16801 16802 0
-16803 -36 0
-16803 338 0
-16804 -37 0
-16804 336 0
-16805 -38 0
-16805 335 0
-557 16803 16804 16805 0
-16806 -47 0
-16806 393 0
-16807 -48 0
-16807 391 0
-16808 -49 0
-16808 390 0
-557 16806 16807 16808 0
-16809 -57 0
-16809 438 0
-16810 -58 0
-16810 436 0
-16811 -59 0
-16811 435 0
-557 16809 16810 16811 0
-16812 -66 0
-16812 474 0
-16813 -67 0
-16813 472 0
-16814 -68 0
-16814 471 0
-557 16812 16813 16814 0
-16815 -74 0
-16815 502 0
-16816 -75 0
-16816 500 0
-16817 -76 0
-16817 499 0
-557 16815 16816 16817 0
-16818 -81 0
-16818 523 0
-16819 -82 0
-16819 521 0
-16820 -83 0
-16820 520 0
-557 16818 16819 16820 0
-16821 -87 0
-16821 538 0
-16822 -88 0
-16822 536 0
-16823 -89 0
-16823 535 0
-557 16821 16822 16823 0
-16824 -92 0
-16824 548 0
-16825 -93 0
-16825 546 0
-16826 -94 0
-16826 545 0
-557 16824 16825 16826 0
-16827 -96 0
-16827 554 0
-16828 -97 0
-16828 552 0
-16829 -98 0
-16829 551 0
-557 16827 16828 16829 0
-16830 -102 0
-16830 560 0
-16831 -104 0
-16831 559 0
-16832 -105 0
-16832 558 0
-557 16830 16831 16832 0
-16833 -11 0
-16833 195 0
-16834 -12 0
-16834 193 0
-16835 -14 0
-16835 191 0
-558 16833 16834 16835 0
-16836 -24 0
-16836 273 0
-16837 -25 0
-16837 271 0
-16838 -27 0
-16838 269 0
-558 16836 16837 16838 0
-16839 -36 0
-16839 339 0
-16840 -37 0
-16840 337 0
-16841 -39 0
-16841 335 0
-558 16839 16840 16841 0
-16842 -47 0
-16842 394 0
-16843 -48 0
-16843 392 0
-16844 -50 0
-16844 390 0
-558 16842 16843 16844 0
-16845 -57 0
-16845 439 0
-16846 -58 0
-16846 437 0
-16847 -60 0
-16847 435 0
-558 16845 16846 16847 0
-16848 -66 0
-16848 475 0
-16849 -67 0
-16849 473 0
-16850 -69 0
-16850 471 0
-558 16848 16849 16850 0
-16851 -74 0
-16851 503 0
-16852 -75 0
-16852 501 0
-16853 -77 0
-16853 499 0
-558 16851 16852 16853 0
-16854 -81 0
-16854 524 0
-16855 -82 0
-16855 522 0
-16856 -84 0
-16856 520 0
-558 16854 16855 16856 0
-16857 -87 0
-16857 539 0
-16858 -88 0
-16858 537 0
-16859 -90 0
-16859 535 0
-558 16857 16858 16859 0
-16860 -92 0
-16860 549 0
-16861 -93 0
-16861 547 0
-16862 -95 0
-16862 545 0
-558 16860 16861 16862 0
-16863 -96 0
-16863 555 0
-16864 -97 0
-16864 553 0
-16865 -99 0
-16865 551 0
-558 16863 16864 16865 0
-16866 -101 0
-16866 560 0
-16867 -103 0
-16867 559 0
-16868 -105 0
-16868 557 0
-558 16866 16867 16868 0
-16869 -11 0
-16869 196 0
-16870 -13 0
-16870 193 0
-16871 -14 0
-16871 192 0
-559 16869 16870 16871 0
-16872 -24 0
-16872 274 0
-16873 -26 0
-16873 271 0
-16874 -27 0
-16874 270 0
-559 16872 16873 16874 0
-16875 -36 0
-16875 340 0
-16876 -38 0
-16876 337 0
-16877 -39 0
-16877 336 0
-559 16875 16876 16877 0
-16878 -47 0
-16878 395 0
-16879 -49 0
-16879 392 0
-16880 -50 0
-16880 391 0
-559 16878 16879 16880 0
-16881 -57 0
-16881 440 0
-16882 -59 0
-16882 437 0
-16883 -60 0
-16883 436 0
-559 16881 16882 16883 0
-16884 -66 0
-16884 476 0
-16885 -68 0
-16885 473 0
-16886 -69 0
-16886 472 0
-559 16884 16885 16886 0
-16887 -74 0
-16887 504 0
-16888 -76 0
-16888 501 0
-16889 -77 0
-16889 500 0
-559 16887 16888 16889 0
-16890 -81 0
-16890 525 0
-16891 -83 0
-16891 522 0
-16892 -84 0
-16892 521 0
-559 16890 16891 16892 0
-16893 -87 0
-16893 540 0
-16894 -89 0
-16894 537 0
-16895 -90 0
-16895 536 0
-559 16893 16894 16895 0
-16896 -92 0
-16896 550 0
-16897 -94 0
-16897 547 0
-16898 -95 0
-16898 546 0
-559 16896 16897 16898 0
-16899 -96 0
-16899 556 0
-16900 -98 0
-16900 553 0
-16901 -99 0
-16901 552 0
-559 16899 16900 16901 0
-16902 -100 0
-16902 560 0
-16903 -103 0
-16903 558 0
-16904 -104 0
-16904 557 0
-559 16902 16903 16904 0
-16905 -12 0
-16905 196 0
-16906 -13 0
-16906 195 0
-16907 -14 0
-16907 194 0
-560 16905 16906 16907 0
-16908 -25 0
-16908 274 0
-16909 -26 0
-16909 273 0
-16910 -27 0
-16910 272 0
-560 16908 16909 16910 0
-16911 -37 0
-16911 340 0
-16912 -38 0
-16912 339 0
-16913 -39 0
-16913 338 0
-560 16911 16912 16913 0
-16914 -48 0
-16914 395 0
-16915 -49 0
-16915 394 0
-16916 -50 0
-16916 393 0
-560 16914 16915 16916 0
-16917 -58 0
-16917 440 0
-16918 -59 0
-16918 439 0
-16919 -60 0
-16919 438 0
-560 16917 16918 16919 0
-16920 -67 0
-16920 476 0
-16921 -68 0
-16921 475 0
-16922 -69 0
-16922 474 0
-560 16920 16921 16922 0
-16923 -75 0
-16923 504 0
-16924 -76 0
-16924 503 0
-16925 -77 0
-16925 502 0
-560 16923 16924 16925 0
-16926 -82 0
-16926 525 0
-16927 -83 0
-16927 524 0
-16928 -84 0
-16928 523 0
-560 16926 16927 16928 0
-16929 -88 0
-16929 540 0
-16930 -89 0
-16930 539 0
-16931 -90 0
-16931 538 0
-560 16929 16930 16931 0
-16932 -93 0
-16932 550 0
-16933 -94 0
-16933 549 0
-16934 -95 0
-16934 548 0
-560 16932 16933 16934 0
-16935 -97 0
-16935 556 0
-16936 -98 0
-16936 555 0
-16937 -99 0
-16937 554 0
-560 16935 16936 16937 0
-16938 -100 0
-16938 559 0
-16939 -101 0
-16939 558 0
-16940 -102 0
-16940 557 0
-560 16938 16939 16940 0
1 0
-2 0
-3 0
-4 0
-5 0
6 0
15 0
-16 0
-17 0
-18 0
-19 0
28 0
-29 0
-30 0
-31 0
40 0
-41 0
-42 0
51 0
-52 0
61 0
7 0
20 0
111 0
-253 0
-175 0
21 0
33 0
202 0
-325 0
-259 0
34 0
45 0
280 0
-385 0
-330 0
46 0
56 0
346 0
-434 0
-389 0
57 0
66 0
401 0
-473 0
-437 0
67 0
75 0
446 0
-503 0
-475 0
76 0
13 0
167 0
-196 0
-504 0
